<?xml version="1.0"?>
<VTKFile type="UnstructuredGrid" version="0.1" byte_order="LittleEndian">
<UnstructuredGrid>
<Piece NumberOfPoints="31947" NumberOfCells="11176">
<Points>
<DataArray type="Float64" NumberOfComponents="3" format="ascii">
-0.5 -0.5 0 -0.47291164641495098 -0.47998228002335619 0 -0.43145591371879038 -0.5 0 -0.5 -0.5 0 -0.50000000000000433 -0.47788428187462728 0 -0.47291164641495098 -0.47998228002335619 0 -0.50000000000000433 -0.47788428187462728 0 -0.47291164641495098 -0.47998228002335619 0 -0.48585201880880391 -0.46271394907832608 0 -0.50000000000000433 -0.47788428187462728 0 -0.48585201880880391 -0.46271394907832608 0 -0.47291164641495098 -0.47998228002335619 0 -0.4691647414294921 -0.46441675892759238 0 -0.48585201880880391 -0.46271394907832608 0 -0.47291164641495098 -0.47998228002335619 0 -0.45099720453261299 -0.47487869025959373 0 -0.43145591371879038 -0.5 0 -0.47291164641495098 -0.47998228002335619 0 -0.45099720453261299 -0.47487869025959373 0 -0.4691647414294921 -0.46441675892759238 0 -0.44944164227175931 -0.44308997408865619 0 -0.44458614074969038 -0.45362674204253639 0 -0.45904879883441019 -0.45293501062497732 0 -0.44944164227175931 -0.44308997408865619 0 -0.44224392598280859 -0.44224994629392461 0 -0.44458614074969038 -0.45362674204253639 0 -0.44944164227175931 -0.44308997408865619 0 -0.45012294552657017 -0.43389347947670209 0 -0.44944164227175931 -0.44308997408865619 0 -0.44224392598280859 -0.44224994629392461 0 -0.45012294552657017 -0.43389347947670209 0 -0.44224392598280859 -0.44224994629392461 0 -0.43800636655066633 -0.43637152333098561 0 -0.43643311689447861 -0.44657975739963329 0 -0.44224392598280859 -0.44224994629392461 0 -0.45012294552657017 -0.43389347947670209 0 -0.43800636655066633 -0.43637152333098561 0 -0.44224392598280859 -0.44224994629392461 0 -0.44458614074969038 -0.45362674204253639 0 -0.43643311689447861 -0.44657975739963329 0 -0.45099720453261299 -0.47487869025959373 0 -0.44458614074969038 -0.45362674204253639 0 -0.42935215598207299 -0.46202707358843342 0 -0.45099720453261299 -0.47487869025959373 0 -0.44458614074969038 -0.45362674204253639 0 -0.45904879883441019 -0.45293501062497732 0 -0.45904879883441019 -0.45293501062497732 0 -0.47170403761760121 -0.4475436162820271 0 -0.4691647414294921 -0.46441675892759238 0 -0.45099720453261299 -0.47487869025959373 0 -0.45904879883441019 -0.45293501062497732 0 -0.4691647414294921 -0.46441675892759238 0 -0.44944164227175931 -0.44308997408865619 0 -0.45904879883441019 -0.45293501062497732 0 -0.4575560564263994 -0.43237328348572729 0 -0.45904879883441019 -0.45293501062497732 0 -0.47170403761760121 -0.4475436162820271 0 -0.4575560564263994 -0.43237328348572729 0 -0.47170403761760121 -0.4475436162820271 0 -0.4575560564263994 -0.43237328348572729 0 -0.47170403761760121 -0.4475436162820271 0 -0.48668318433556729 -0.44193098916938089 0 -0.47875519273360789 -0.42803770414879561 0 -0.47170403761760121 -0.4475436162820271 0 -0.48585201880880391 -0.46271394907832608 0 -0.48668318433556729 -0.44193098916938089 0 -0.47170403761760121 -0.4475436162820271 0 -0.4691647414294921 -0.46441675892759238 0 -0.48585201880880391 -0.46271394907832608 0 -0.47170403761760121 -0.4475436162820271 0 -0.48585201880880391 -0.46271394907832608 0 -0.50000000000000433 -0.47788428187462728 0 -0.48585201880880391 -0.46271394907832608 0 -0.5 -0.45079320334324668 0 -0.5 -0.45079320334324668 0 -0.48668318433556729 -0.44193098916938089 0 -0.49995432904081683 -0.42370212481186631 0 -0.48585201880880391 -0.46271394907832608 0 -0.5 -0.45079320334324668 0 -0.48668318433556729 -0.44193098916938089 0 -0.49995432904081683 -0.42370212481186631 0 -0.49031232461334501 -0.41958847723210829 0 -0.47875519273360789 -0.42803770414879561 0 -0.48668318433556729 -0.44193098916938089 0 -0.49995432904081683 -0.42370212481186631 0 -0.47875519273360789 -0.42803770414879561 0 -0.49995432904081683 -0.42370212481186631 0 -0.47875519273360789 -0.42803770414879561 0 -0.49031232461334501 -0.41958847723210829 0 -0.47814957490924243 -0.41402158561491431 0 -0.48533645757380739 -0.40368392297237921 0 -0.49031232461334501 -0.41958847723210829 0 -0.48533645757380739 -0.40368392297237921 0 -0.49031232461334501 -0.41958847723210829 0 -0.5 -0.40374154659835249 0 -0.48533645757380739 -0.40368392297237921 0 -0.49995432904081683 -0.42370212481186631 0 -0.49031232461334501 -0.41958847723210829 0 -0.5 -0.40374154659835249 0 -0.47814957490924243 -0.41402158561491431 0 -0.48533645757380739 -0.40368392297237921 0 -0.46906812126939468 -0.40328547935508458 0 -0.49031232461334501 -0.41958847723210829 0 -0.47814957490924243 -0.41402158561491431 0 -0.47875519273360789 -0.42803770414879561 0 -0.47875519273360789 -0.42803770414879561 0 -0.46126253921706689 -0.42204745915435937 0 -0.46727577835605699 -0.41551234436620321 0 -0.47814957490924243 -0.41402158561491431 0 -0.46906812126939468 -0.40328547935508458 0 -0.46727577835605699 -0.41551234436620321 0 -0.47814957490924243 -0.41402158561491431 0 -0.47875519273360789 -0.42803770414879561 0 -0.46727577835605699 -0.41551234436620321 0 -0.47170403761760121 -0.4475436162820271 0 -0.47875519273360789 -0.42803770414879561 0 -0.4575560564263994 -0.43237328348572729 0 -0.49999999999999789 -0.38378096838483872 0 -0.49142426202701889 -0.39474645166705657 0 -0.48036059053426933 -0.38777936871265029 0 -0.49999999999999789 -0.38378096838483872 0 -0.48036059053426933 -0.38777936871265029 0 -0.49999999999999789 -0.38378096838483872 0 -0.48036059053426933 -0.38777936871265029 0 -0.48736435168140257 -0.37133275655010689 0 -0.49999999999999789 -0.38378096838483872 0 -0.49142426202701889 -0.39474645166705657 0 -0.5 -0.40374154659835249 0 -0.49142426202701889 -0.39474645166705657 0 -0.48533645757380739 -0.40368392297237921 0 -0.48036059053426933 -0.38777936871265029 0 -0.49142426202701889 -0.39474645166705657 0 -0.5 -0.40374154659835249 0 -0.48533645757380739 -0.40368392297237921 0 -0.48533645757380739 -0.40368392297237921 0 -0.48036059053426933 -0.38777936871265029 0 -0.48533645757380739 -0.40368392297237921 0 -0.46906812126939468 -0.40328547935508458 0 -0.48036059053426933 -0.38777936871265029 0 -0.48036059053426933 -0.38777936871265029 0 -0.46681845321594467 -0.37776328035327839 0 -0.47223744594528688 -0.36181505076594062 0 -0.48036059053426933 -0.38777936871265029 0 -0.46681845321594467 -0.37776328035327839 0 -0.45312848313319598 -0.39332357142148261 0 -0.46681845321594467 -0.37776328035327839 0 -0.45312848313319598 -0.39332357142148261 0 -0.45518352746400748 -0.36558378890584831 0 -0.45312848313319598 -0.39332357142148261 0 -0.45518352746400748 -0.36558378890584831 0 -0.48036059053426933 -0.38777936871265029 0 -0.45312848313319598 -0.39332357142148261 0 -0.46906812126939468 -0.40328547935508458 0 -0.48036059053426933 -0.38777936871265029 0 -0.45312848313319598 -0.39332357142148261 0 -0.46906812126939468 -0.40328547935508458 0 -0.45312848313319598 -0.39332357142148261 0 -0.45195138390082318 -0.40921251173085083 0 -0.44436579112745322 -0.39510757366704208 0 -0.44130764633640812 -0.41495074205422311 0 -0.45312848313319598 -0.39332357142148261 0 -0.45195138390082318 -0.40921251173085083 0 -0.45312848313319598 -0.39332357142148261 0 -0.44436579112745322 -0.39510757366704208 0 -0.45195138390082318 -0.40921251173085083 0 -0.45312848313319598 -0.39332357142148261 0 -0.44436579112745322 -0.39510757366704208 0 -0.44436579112745322 -0.39510757366704208 0 -0.44687421819164608 -0.3788313199175451 0 -0.43569662450111191 -0.38128365304766082 0 -0.45312848313319598 -0.39332357142148261 0 -0.45518352746400748 -0.36558378890584831 0 -0.44868375247440512 -0.3670899224597412 0 -0.45312848313319598 -0.39332357142148261 0 -0.44687421819164608 -0.3788313199175451 0 -0.44868375247440512 -0.3670899224597412 0 -0.45312848313319598 -0.39332357142148261 0 -0.44436579112745322 -0.39510757366704208 0 -0.44687421819164608 -0.3788313199175451 0 -0.44436579112745322 -0.39510757366704208 0 -0.44687421819164608 -0.3788313199175451 0 -0.44687421819164608 -0.3788313199175451 0 -0.43569662450111191 -0.38128365304766082 0 -0.43935121753743761 -0.37636839254663379 0 -0.44687421819164608 -0.3788313199175451 0 -0.43569662450111191 -0.38128365304766082 0 -0.43935121753743761 -0.37636839254663379 0 -0.43569662450111191 -0.38128365304766082 0 -0.47875519273360789 -0.42803770414879561 0 -0.4575560564263994 -0.43237328348572729 0 -0.46126253921706689 -0.42204745915435937 0 -0.47875519273360789 -0.42803770414879561 0 -0.4575560564263994 -0.43237328348572729 0 -0.4575560564263994 -0.43237328348572729 0 -0.46126253921706689 -0.42204745915435937 0 -0.45077428466844838 -0.42510145204021887 0 -0.4575560564263994 -0.43237328348572729 0 -0.45077428466844838 -0.42510145204021887 0 -0.4575560564263994 -0.43237328348572729 0 -0.45012294552657017 -0.43389347947670209 0 -0.46126253921706689 -0.42204745915435937 0 -0.45195138390082318 -0.40921251173085083 0 -0.45077428466844838 -0.42510145204021887 0 -0.46906812126939468 -0.40328547935508458 0 -0.46727577835605699 -0.41551234436620321 0 -0.45195138390082318 -0.40921251173085083 0 -0.46126253921706689 -0.42204745915435937 0 -0.46727577835605699 -0.41551234436620321 0 -0.45195138390082318 -0.40921251173085083 0 -0.45195138390082318 -0.40921251173085083 0 -0.44130764633640812 -0.41495074205422311 0 -0.45077428466844838 -0.42510145204021887 0 -0.44436579112745322 -0.39510757366704208 0 -0.45195138390082318 -0.40921251173085083 0 -0.44130764633640812 -0.41495074205422311 0 -0.44130764633640812 -0.41495074205422311 0 -0.45077428466844838 -0.42510145204021887 0 -0.45195138390082318 -0.40921251173085083 0 -0.45077428466844838 -0.42510145204021887 0 -0.44436579112745322 -0.39510757366704208 0 -0.44130764633640812 -0.41495074205422311 0 -0.42827303486001211 -0.41305505942262499 0 -0.44130764633640812 -0.41495074205422311 0 -0.43800636655066633 -0.43637152333098561 0 -0.4361379896120311 -0.4195955178792854 0 -0.44130764633640812 -0.41495074205422311 0 -0.43800636655066633 -0.43637152333098561 0 -0.44130764633640812 -0.41495074205422311 0 -0.45077428466844838 -0.42510145204021887 0 -0.43800636655066633 -0.43637152333098561 0 -0.45077428466844838 -0.42510145204021887 0 -0.45012294552657017 -0.43389347947670209 0 -0.45077428466844838 -0.42510145204021887 0 -0.45012294552657017 -0.43389347947670209 0 -0.43800636655066633 -0.43637152333098561 0 -0.44944164227175931 -0.44308997408865619 0 -0.4575560564263994 -0.43237328348572729 0 -0.45012294552657017 -0.43389347947670209 0 -0.4575560564263994 -0.43237328348572729 0 -0.45077428466844838 -0.42510145204021887 0 -0.45012294552657017 -0.43389347947670209 0 -0.45012294552657017 -0.43389347947670209 0 -0.43800636655066633 -0.43637152333098561 0 -0.43800636655066633 -0.43637152333098561 0 -0.42881600920528451 -0.4267730085922703 0 -0.42354378048378122 -0.4393293650280003 0 -0.43800636655066633 -0.43637152333098561 0 -0.42881600920528451 -0.4267730085922703 0 -0.4361379896120311 -0.4195955178792854 0 -0.42881600920528451 -0.4267730085922703 0 -0.41887114860107999 -0.42797098101234821 0 -0.42354378048378122 -0.4393293650280003 0 -0.42881600920528451 -0.4267730085922703 0 -0.42827303486001211 -0.41305505942262499 0 -0.41887114860107999 -0.42797098101234821 0 -0.44130764633640812 -0.41495074205422311 0 -0.4361379896120311 -0.4195955178792854 0 -0.42827303486001211 -0.41305505942262499 0 -0.42881600920528451 -0.4267730085922703 0 -0.4361379896120311 -0.4195955178792854 0 -0.42827303486001211 -0.41305505942262499 0 -0.40711653926046082 -0.4197225606642212 0 -0.41931057955368828 -0.40020858071844678 0 -0.40279430570228258 -0.40480734533094992 0 -0.42827303486001211 -0.41305505942262499 0 -0.40711653926046082 -0.4197225606642212 0 -0.41887114860107999 -0.42797098101234821 0 -0.40711653926046082 -0.4197225606642212 0 -0.42203850375802521 -0.3996532008302745 0 -0.40711653926046082 -0.4197225606642212 0 -0.42203850375802521 -0.3996532008302745 0 -0.41931057955368828 -0.40020858071844678 0 -0.42827303486001211 -0.41305505942262499 0 -0.40711653926046082 -0.4197225606642212 0 -0.42203850375802521 -0.3996532008302745 0 -0.41887114860107999 -0.42797098101234821 0 -0.42354378048378122 -0.4393293650280003 0 -0.41037333795643471 -0.44459535991119709 0 -0.40711653926046082 -0.4197225606642212 0 -0.41887114860107999 -0.42797098101234821 0 -0.41037333795643471 -0.44459535991119709 0 -0.43569662450111191 -0.38128365304766082 0 -0.41298150770769559 -0.3864252597326267 0 -0.42116258666452627 -0.37570008037964758 0 -0.43569662450111191 -0.38128365304766082 0 -0.42203850375802521 -0.3996532008302745 0 -0.43569662450111191 -0.38128365304766082 0 -0.41929824624814349 -0.39218112398728872 0 -0.41298150770769559 -0.3864252597326267 0 -0.43569662450111191 -0.38128365304766082 0 -0.41298150770769559 -0.3864252597326267 0 -0.43569662450111191 -0.38128365304766082 0 -0.42116258666452627 -0.37570008037964758 0 -0.43053389848056961 -0.37325588863200831 0 -0.43935121753743761 -0.37636839254663379 0 -0.43569662450111191 -0.38128365304766082 0 -0.43053389848056961 -0.37325588863200831 0 -0.43569662450111191 -0.38128365304766082 0 -0.42203850375802521 -0.3996532008302745 0 -0.41929824624814349 -0.39218112398728872 0 -0.44436579112745322 -0.39510757366704208 0 -0.43569662450111191 -0.38128365304766082 0 -0.42203850375802521 -0.3996532008302745 0 -0.44436579112745322 -0.39510757366704208 0 -0.42827303486001211 -0.41305505942262499 0 -0.42203850375802521 -0.3996532008302745 0 -0.44436579112745322 -0.39510757366704208 0 -0.42203850375802521 -0.3996532008302745 0 -0.41931057955368828 -0.40020858071844678 0 -0.4099063641749095 -0.39618207729560972 0 -0.40279430570228258 -0.40480734533094992 0 -0.42203850375802521 -0.3996532008302745 0 -0.41931057955368828 -0.40020858071844678 0 -0.4099063641749095 -0.39618207729560972 0 -0.41929824624814349 -0.39218112398728872 0 -0.41298150770769559 -0.3864252597326267 0 -0.42203850375802521 -0.3996532008302745 0 -0.41931057955368828 -0.40020858071844678 0 -0.41929824624814349 -0.39218112398728872 0 -0.41931057955368828 -0.40020858071844678 0 -0.4099063641749095 -0.39618207729560972 0 -0.41929824624814349 -0.39218112398728872 0 -0.41298150770769559 -0.3864252597326267 0 -0.42116258666452627 -0.37570008037964758 0 -0.40369673928499761 -0.37267247115173169 0 -0.39026639091427989 -0.39156686641759503 0 -0.37910124115022042 -0.37744830499117499 0 -0.40369673928499761 -0.37267247115173169 0 -0.41298150770769559 -0.3864252597326267 0 -0.39026639091427989 -0.39156686641759503 0 -0.41298150770769559 -0.3864252597326267 0 -0.39026639091427989 -0.39156686641759503 0 -0.40369673928499761 -0.37267247115173169 0 -0.4099063641749095 -0.39618207729560972 0 -0.41298150770769559 -0.3864252597326267 0 -0.39026639091427989 -0.39156686641759503 0 -0.4099063641749095 -0.39618207729560972 0 -0.40279430570228258 -0.40480734533094992 0 -0.39026639091427989 -0.39156686641759503 0 -0.40279430570228258 -0.40480734533094992 0 -0.39026639091427989 -0.39156686641759503 0 -0.3873716546080746 -0.41635664155887669 0 -0.39026639091427989 -0.39156686641759503 0 -0.36755127412086419 -0.39670847310256308 0 -0.39026639091427989 -0.39156686641759503 0 -0.3873716546080746 -0.41635664155887669 0 -0.36755127412086419 -0.39670847310256308 0 -0.39026639091427989 -0.39156686641759503 0 -0.37910124115022042 -0.37744830499117499 0 -0.36755127412086419 -0.39670847310256308 0 -0.40711653926046082 -0.4197225606642212 0 -0.39219457476289521 -0.43979192049816718 0 -0.41037333795643471 -0.44459535991119709 0 -0.40711653926046082 -0.4197225606642212 0 -0.3873716546080746 -0.41635664155887669 0 -0.39219457476289521 -0.43979192049816718 0 -0.40711653926046082 -0.4197225606642212 0 -0.39219457476289521 -0.43979192049816718 0 -0.40711653926046082 -0.4197225606642212 0 -0.40279430570228258 -0.40480734533094992 0 -0.3873716546080746 -0.41635664155887669 0 -0.3873716546080746 -0.41635664155887669 0 -0.37777333173355659 -0.42764104113900081 0 -0.36647333365820961 -0.4181563531520478 0 -0.37777333173355659 -0.42764104113900081 0 -0.39219457476289521 -0.43979192049816718 0 -0.36505376390504701 -0.43625924934691168 0 -0.3873716546080746 -0.41635664155887669 0 -0.37777333173355659 -0.42764104113900081 0 -0.39219457476289521 -0.43979192049816718 0 -0.39219457476289521 -0.43979192049816718 0 -0.36932403467647562 -0.44914126016337041 0 -0.36505376390504701 -0.43625924934691168 0 -0.39219457476289521 -0.43979192049816718 0 -0.37727261026532982 -0.45986128033211299 0 -0.36932403467647562 -0.44914126016337041 0 -0.39219457476289521 -0.43979192049816718 0 -0.39485298432139349 -0.45738065053066851 0 -0.37727261026532982 -0.45986128033211299 0 -0.39219457476289521 -0.43979192049816718 0 -0.37727261026532982 -0.45986128033211299 0 -0.39219457476289521 -0.43979192049816718 0 -0.39485298432139349 -0.45738065053066851 0 -0.41037333795643471 -0.44459535991119709 0 -0.39485298432139349 -0.45738065053066851 0 -0.39004300365960459 -0.47836396117581498 0 -0.40827895756789379 -0.46733304328734709 0 -0.39485298432139349 -0.45738065053066851 0 -0.41037333795643471 -0.44459535991119709 0 -0.40827895756789379 -0.46733304328734709 0 -0.39485298432139349 -0.45738065053066851 0 -0.37727261026532982 -0.45986128033211299 0 -0.39004300365960459 -0.47836396117581498 0 -0.39004300365960459 -0.47836396117581498 0 -0.38245698795825178 -0.5 0 -0.43145591371879038 -0.5 0 -0.37727261026532982 -0.45986128033211299 0 -0.39004300365960459 -0.47836396117581498 0 -0.36235064576776432 -0.47993064016605869 0 -0.39004300365960459 -0.47836396117581498 0 -0.38245698795825178 -0.5 0 -0.36235064576776432 -0.47993064016605869 0 -0.43145591371879038 -0.5 0 -0.42935215598207299 -0.46202707358843342 0 -0.40827895756789379 -0.46733304328734709 0 -0.39004300365960459 -0.47836396117581498 0 -0.43145591371879038 -0.5 0 -0.40827895756789379 -0.46733304328734709 0 -0.45099720453261299 -0.47487869025959373 0 -0.43145591371879038 -0.5 0 -0.42935215598207299 -0.46202707358843342 0 -0.44458614074969038 -0.45362674204253639 0 -0.42935215598207299 -0.46202707358843342 0 -0.43643311689447861 -0.44657975739963329 0 -0.42935215598207299 -0.46202707358843342 0 -0.43643311689447861 -0.44657975739963329 0 -0.42354378048378122 -0.4393293650280003 0 -0.43800636655066633 -0.43637152333098561 0 -0.43643311689447861 -0.44657975739963329 0 -0.42354378048378122 -0.4393293650280003 0 -0.43800636655066633 -0.43637152333098561 0 -0.43643311689447861 -0.44657975739963329 0 -0.43800636655066633 -0.43637152333098561 0 -0.42354378048378122 -0.4393293650280003 0 -0.42935215598207299 -0.46202707358843342 0 -0.42354378048378122 -0.4393293650280003 0 -0.41037333795643471 -0.44459535991119709 0 -0.42935215598207299 -0.46202707358843342 0 -0.41037333795643471 -0.44459535991119709 0 -0.40827895756789379 -0.46733304328734709 0 -0.44147150055601359 -0.26347668201382168 0 -0.42933896999383259 -0.24913933364668489 0 -0.44570822278707722 -0.24202495304851401 0 -0.44147150055601359 -0.26347668201382168 0 -0.45768764958431513 -0.25729222398890661 0 -0.44570822278707722 -0.24202495304851401 0 -0.44147150055601359 -0.26347668201382168 0 -0.45034712894296952 -0.26694735336303332 0 -0.45768764958431513 -0.25729222398890661 0 -0.44147150055601359 -0.26347668201382168 0 -0.44568089871453548 -0.27693134245410722 0 -0.44147150055601359 -0.26347668201382168 0 -0.44568089871453548 -0.27693134245410722 0 -0.4290752812273243 -0.27627221055680279 0 -0.44568089871453548 -0.27693134245410722 0 -0.45034712894296952 -0.26694735336303332 0 -0.45654846691701378 -0.27008916499529811 0 -0.44147150055601359 -0.26347668201382168 0 -0.44568089871453548 -0.27693134245410722 0 -0.45034712894296952 -0.26694735336303332 0 -0.44568089871453548 -0.27693134245410722 0 -0.47262683570217301 -0.27800091584305042 0 -0.44568089871453548 -0.27693134245410722 0 -0.47262683570217301 -0.27800091584305042 0 -0.46125732463343339 -0.28855357675239279 0 -0.45654846691701378 -0.27008916499529811 0 -0.45768764958431513 -0.25729222398890661 0 -0.47262683570217301 -0.27800091584305042 0 -0.44568089871453548 -0.27693134245410722 0 -0.45654846691701378 -0.27008916499529811 0 -0.47262683570217301 -0.27800091584305042 0 -0.45768764958431513 -0.25729222398890661 0 -0.47321453199734381 -0.26810679201382071 0 -0.47262683570217301 -0.27800091584305042 0 -0.45768764958431513 -0.25729222398890661 0 -0.47262683570217301 -0.27800091584305042 0 -0.45768764958431513 -0.25729222398890661 0 -0.47074320255127322 -0.25302144696007528 0 -0.44570822278707722 -0.24202495304851401 0 -0.45768764958431513 -0.25729222398890661 0 -0.47074320255127322 -0.25302144696007528 0 -0.47321453199734381 -0.26810679201382071 0 -0.45034712894296952 -0.26694735336303332 0 -0.45654846691701378 -0.27008916499529811 0 -0.45768764958431513 -0.25729222398890661 0 -0.47074320255127322 -0.25302144696007528 0 -0.49294212406092791 -0.26277221598499451 0 -0.47074320255127322 -0.25302144696007528 0 -0.48179577121492401 -0.26548147860555121 0 -0.49294212406092791 -0.26277221598499451 0 -0.47074320255127322 -0.25302144696007528 0 -0.48179577121492401 -0.26548147860555121 0 -0.47074320255127322 -0.25302144696007528 0 -0.48179577121492401 -0.26548147860555121 0 -0.47321453199734381 -0.26810679201382071 0 -0.49294212406092791 -0.26277221598499451 0 -0.49999999999999972 -0.26587235389297481 0 -0.5 -0.23961688987295221 0 -0.47074320255127322 -0.25302144696007528 0 -0.49294212406092791 -0.26277221598499451 0 -0.49310290257531619 -0.23676680083720381 0 -0.49294212406092791 -0.26277221598499451 0 -0.49999999999999972 -0.26587235389297481 0 -0.49284833987857368 -0.27794151025102831 0 -0.49999999999999972 -0.26587235389297481 0 -0.49999999999999878 -0.28600388146466932 0 -0.49294212406092791 -0.26277221598499451 0 -0.49284833987857368 -0.27794151025102831 0 -0.49294212406092791 -0.26277221598499451 0 -0.49284833987857368 -0.27794151025102831 0 -0.49999999999999972 -0.26587235389297481 0 -0.48179577121492401 -0.26548147860555121 0 -0.49294212406092791 -0.26277221598499451 0 -0.49284833987857368 -0.27794151025102831 0 -0.48179577121492401 -0.26548147860555121 0 -0.49284833987857368 -0.27794151025102831 0 -0.48179577121492401 -0.26548147860555121 0 -0.49284833987857368 -0.27794151025102831 0 -0.47611398872310728 -0.27813933248360212 0 -0.48179577121492401 -0.26548147860555121 0 -0.47321453199734381 -0.26810679201382071 0 -0.47611398872310728 -0.27813933248360212 0 -0.47321453199734381 -0.26810679201382071 0 -0.47611398872310728 -0.27813933248360212 0 -0.47262683570217301 -0.27800091584305042 0 -0.47611398872310728 -0.27813933248360212 0 -0.47262683570217301 -0.27800091584305042 0 -0.49284833987857368 -0.27794151025102831 0 -0.47611398872310728 -0.27813933248360212 0 -0.48265149105110022 -0.29189708775812018 0 -0.47262683570217301 -0.27800091584305042 0 -0.46946431474125228 -0.29612413911076713 0 -0.48265149105110022 -0.29189708775812018 0 -0.47262683570217301 -0.27800091584305042 0 -0.48265149105110022 -0.29189708775812018 0 -0.47611398872310728 -0.27813933248360212 0 -0.47262683570217301 -0.27800091584305042 0 -0.48265149105110022 -0.29189708775812018 0 -0.49284833987857368 -0.27794151025102831 0 -0.49267614640002932 -0.30579325967318871 0 -0.49284833987857368 -0.27794151025102831 0 -0.49999999999999878 -0.28600388146466932 0 -0.49267614640002932 -0.30579325967318871 0 -0.49284833987857368 -0.27794151025102831 0 -0.48265149105110022 -0.29189708775812018 0 -0.49267614640002932 -0.30579325967318871 0 -0.49284833987857368 -0.27794151025102831 0 -0.49999999999999878 -0.28600388146466932 0 -0.49999999999999878 -0.28600388146466932 0 -0.49267614640002932 -0.30579325967318871 0 -0.50000000000000178 -0.31594558163974318 0 -0.49267614640002932 -0.30579325967318871 0 -0.49262711527901021 -0.31372388810406288 0 -0.50000000000000178 -0.31594558163974318 0 -0.49267614640002932 -0.30579325967318871 0 -0.49262711527901021 -0.31372388810406288 0 -0.49267614640002932 -0.30579325967318871 0 -0.50000000000000178 -0.31594558163974318 0 -0.48265149105110022 -0.29189708775812018 0 -0.49267614640002932 -0.30579325967318871 0 -0.48265149105110022 -0.29189708775812018 0 -0.49267614640002932 -0.30579325967318871 0 -0.47938252021615679 -0.30276855822739063 0 -0.49267614640002932 -0.30579325967318871 0 -0.48363868823229228 -0.31114302018508239 0 -0.47938252021615679 -0.30276855822739063 0 -0.49267614640002932 -0.30579325967318871 0 -0.48363868823229228 -0.31114302018508239 0 -0.49262711527901021 -0.31372388810406288 0 -0.48363868823229228 -0.31114302018508239 0 -0.47938252021615679 -0.30276855822739063 0 -0.47598854066580798 -0.31027604912646228 0 -0.46946431474125228 -0.29612413911076713 0 -0.48265149105110022 -0.29189708775812018 0 -0.47938252021615679 -0.30276855822739063 0 -0.46946431474125228 -0.29612413911076713 0 -0.4713431241008974 -0.30576411556027339 0 -0.46571983273450179 -0.30708796353112522 0 -0.46946431474125228 -0.29612413911076713 0 -0.47938252021615679 -0.30276855822739063 0 -0.4713431241008974 -0.30576411556027339 0 -0.47938252021615679 -0.30276855822739063 0 -0.4713431241008974 -0.30576411556027339 0 -0.47598854066580798 -0.31027604912646228 0 -0.4713431241008974 -0.30576411556027339 0 -0.47598854066580798 -0.31027604912646228 0 -0.46915380476250751 -0.31402731897129521 0 -0.46571983273450179 -0.30708796353112522 0 -0.45996353956434383 -0.3010613384178274 0 -0.45867438050350839 -0.31846290559546281 0 -0.45729868589157419 -0.31119081168453971 0 -0.45134137112862061 -0.29502412707439563 0 -0.4570018435427064 -0.31311691169468392 0 -0.45729868589157419 -0.31119081168453971 0 -0.45996353956434383 -0.3010613384178274 0 -0.45134137112862061 -0.29502412707439563 0 -0.45996353956434383 -0.3010613384178274 0 -0.45867438050350839 -0.31846290559546281 0 -0.45729868589157419 -0.31119081168453971 0 -0.45996353956434383 -0.3010613384178274 0 -0.45867438050350839 -0.31846290559546281 0 -0.45134137112862061 -0.29502412707439563 0 -0.4570018435427064 -0.31311691169468392 0 -0.4713431241008974 -0.30576411556027339 0 -0.46571983273450179 -0.30708796353112522 0 -0.46915380476250751 -0.31402731897129521 0 -0.45729868589157419 -0.31119081168453971 0 -0.4570018435427064 -0.31311691169468392 0 -0.46946431474125228 -0.29612413911076713 0 -0.46571983273450179 -0.30708796353112522 0 -0.45996353956434383 -0.3010613384178274 0 -0.47262683570217301 -0.27800091584305042 0 -0.46946431474125228 -0.29612413911076713 0 -0.46125732463343339 -0.28855357675239279 0 -0.46946431474125228 -0.29612413911076713 0 -0.45996353956434383 -0.3010613384178274 0 -0.46125732463343339 -0.28855357675239279 0 -0.45996353956434383 -0.3010613384178274 0 -0.46125732463343339 -0.28855357675239279 0 -0.45134137112862061 -0.29502412707439563 0 -0.44568089871453548 -0.27693134245410722 0 -0.45134137112862061 -0.29502412707439563 0 -0.4366354251127269 -0.28714237885532867 0 -0.44568089871453548 -0.27693134245410722 0 -0.46125732463343339 -0.28855357675239279 0 -0.45134137112862061 -0.29502412707439563 0 -0.45134137112862061 -0.29502412707439563 0 -0.44083887936605443 -0.30762746308344929 0 -0.4366354251127269 -0.28714237885532867 0 -0.44568089871453548 -0.27693134245410722 0 -0.45134137112862061 -0.29502412707439563 0 -0.45134137112862061 -0.29502412707439563 0 -0.44083887936605443 -0.30762746308344929 0 -0.4570018435427064 -0.31311691169468392 0 -0.44083887936605443 -0.30762746308344929 0 -0.44424226005969059 -0.32504764714664541 0 -0.4570018435427064 -0.31311691169468392 0 -0.44424226005969059 -0.32504764714664541 0 -0.45300171382135529 -0.33907227125243999 0 -0.4570018435427064 -0.31311691169468392 0 -0.44083887936605443 -0.30762746308344929 0 -0.44424226005969059 -0.32504764714664541 0 -0.43107301170672901 -0.32237598992302102 0 -0.44424226005969059 -0.32504764714664541 0 -0.43929585186160719 -0.34304559977963428 0 -0.43107301170672901 -0.32237598992302102 0 -0.44424226005969059 -0.32504764714664541 0 -0.43929585186160719 -0.34304559977963428 0 -0.45300171382135529 -0.33907227125243999 0 -0.43929585186160719 -0.34304559977963428 0 -0.45300171382135529 -0.33907227125243999 0 -0.4572385717948208 -0.33784400639021422 0 -0.46411430135630732 -0.33585073281923 0 -0.45867438050350839 -0.31846290559546281 0 -0.45300171382135529 -0.33907227125243999 0 -0.4572385717948208 -0.33784400639021422 0 -0.45867438050350839 -0.31846290559546281 0 -0.4572385717948208 -0.33784400639021422 0 -0.45867438050350839 -0.31846290559546281 0 -0.45300171382135529 -0.33907227125243999 0 -0.4572385717948208 -0.33784400639021422 0 -0.4572385717948208 -0.33784400639021422 0 -0.46411430135630732 -0.33585073281923 0 -0.46411430135630732 -0.33585073281923 0 -0.46889595870083861 -0.32442547507039282 0 -0.47121549809946839 -0.33379209632634138 0 -0.46411430135630732 -0.33585073281923 0 -0.47121549809946839 -0.33379209632634138 0 -0.45300171382135529 -0.33907227125243999 0 -0.4570018435427064 -0.31311691169468392 0 -0.45867438050350839 -0.31846290559546281 0 -0.46411430135630732 -0.33585073281923 0 -0.45867438050350839 -0.31846290559546281 0 -0.46889595870083861 -0.32442547507039282 0 -0.45300171382135529 -0.33907227125243999 0 -0.4570018435427064 -0.31311691169468392 0 -0.46411430135630732 -0.33585073281923 0 -0.45867438050350839 -0.31846290559546281 0 -0.45729868589157419 -0.31119081168453971 0 -0.4570018435427064 -0.31311691169468392 0 -0.45867438050350839 -0.31846290559546281 0 -0.4570018435427064 -0.31311691169468392 0 -0.45867438050350839 -0.31846290559546281 0 -0.45867438050350839 -0.31846290559546281 0 -0.46915380476250751 -0.31402731897129521 0 -0.46889595870083861 -0.32442547507039282 0 -0.46571983273450179 -0.30708796353112522 0 -0.45867438050350839 -0.31846290559546281 0 -0.46915380476250751 -0.31402731897129521 0 -0.46915380476250751 -0.31402731897129521 0 -0.47588661602812188 -0.31731451872432082 0 -0.46889595870083861 -0.32442547507039282 0 -0.47598854066580798 -0.31027604912646228 0 -0.46915380476250751 -0.31402731897129521 0 -0.47588661602812188 -0.31731451872432082 0 -0.47588661602812188 -0.31731451872432082 0 -0.46889595870083861 -0.32442547507039282 0 -0.47749615336455792 -0.32629642876159187 0 -0.47749615336455792 -0.32629642876159187 0 -0.48489023035482259 -0.31967171233688269 0 -0.48676354553693479 -0.32919319110747292 0 -0.47588661602812188 -0.31731451872432082 0 -0.47749615336455792 -0.32629642876159187 0 -0.48489023035482259 -0.31967171233688269 0 -0.48363868823229228 -0.31114302018508239 0 -0.47588661602812188 -0.31731451872432082 0 -0.48489023035482259 -0.31967171233688269 0 -0.48363868823229228 -0.31114302018508239 0 -0.47598854066580798 -0.31027604912646228 0 -0.47588661602812188 -0.31731451872432082 0 -0.48363868823229228 -0.31114302018508239 0 -0.48489023035482259 -0.31967171233688269 0 -0.49262711527901021 -0.31372388810406288 0 -0.48489023035482259 -0.31967171233688269 0 -0.49285617823415412 -0.32341835008192038 0 -0.49262711527901021 -0.31372388810406288 0 -0.49285617823415412 -0.32341835008192038 0 -0.50000000000000178 -0.31594558163974318 0 -0.5 -0.33855737722144158 0 -0.48489023035482259 -0.31967171233688269 0 -0.49285617823415412 -0.32341835008192038 0 -0.48676354553693479 -0.32919319110747292 0 -0.49285617823415412 -0.32341835008192038 0 -0.49262711527901021 -0.31372388810406288 0 -0.50000000000000178 -0.31594558163974318 0 -0.5 -0.33855737722144158 0 -0.48676354553693479 -0.32919319110747292 0 -0.48270133591068459 -0.34588922414850071 0 -0.49285617823415412 -0.32341835008192038 0 -0.5 -0.33855737722144158 0 -0.48676354553693479 -0.32919319110747292 0 -0.48676354553693479 -0.32919319110747292 0 -0.4795441332279114 -0.33379273508597668 0 -0.48270133591068459 -0.34588922414850071 0 -0.46411430135630732 -0.33585073281923 0 -0.47121549809946839 -0.33379209632634138 0 -0.48270133591068459 -0.34588922414850071 0 -0.4795441332279114 -0.33379273508597668 0 -0.47121549809946839 -0.33379209632634138 0 -0.48270133591068459 -0.34588922414850071 0 -0.47749615336455792 -0.32629642876159187 0 -0.48676354553693479 -0.32919319110747292 0 -0.4795441332279114 -0.33379273508597668 0 -0.47749615336455792 -0.32629642876159187 0 -0.4795441332279114 -0.33379273508597668 0 -0.47121549809946839 -0.33379209632634138 0 -0.46889595870083861 -0.32442547507039282 0 -0.47749615336455792 -0.32629642876159187 0 -0.47121549809946839 -0.33379209632634138 0 -0.46411430135630732 -0.33585073281923 0 -0.48270133591068459 -0.34588922414850071 0 -0.47223744594528688 -0.36181505076594062 0 -0.5 -0.33855737722144158 0 -0.48270133591068459 -0.34588922414850071 0 -0.5 -0.3611691728031402 0 -0.48270133591068459 -0.34588922414850071 0 -0.48736435168140257 -0.37133275655010689 0 -0.5 -0.3611691728031402 0 -0.49999999999999789 -0.38378096838483872 0 -0.48736435168140257 -0.37133275655010689 0 -0.5 -0.3611691728031402 0 -0.48036059053426933 -0.38777936871265029 0 -0.47223744594528688 -0.36181505076594062 0 -0.48270133591068459 -0.34588922414850071 0 -0.48736435168140257 -0.37133275655010689 0 -0.47223744594528688 -0.36181505076594062 0 -0.48036059053426933 -0.38777936871265029 0 -0.48736435168140257 -0.37133275655010689 0 -0.47223744594528688 -0.36181505076594062 0 -0.46681845321594467 -0.37776328035327839 0 -0.47223744594528688 -0.36181505076594062 0 -0.45518352746400748 -0.36558378890584831 0 -0.46411430135630732 -0.33585073281923 0 -0.47223744594528688 -0.36181505076594062 0 -0.4572385717948208 -0.33784400639021422 0 -0.45518352746400748 -0.36558378890584831 0 -0.4572385717948208 -0.33784400639021422 0 -0.47223744594528688 -0.36181505076594062 0 -0.45518352746400748 -0.36558378890584831 0 -0.45300171382135529 -0.33907227125243999 0 -0.4572385717948208 -0.33784400639021422 0 -0.45518352746400748 -0.36558378890584831 0 -0.4572385717948208 -0.33784400639021422 0 -0.46411430135630732 -0.33585073281923 0 -0.47223744594528688 -0.36181505076594062 0 -0.45300171382135529 -0.33907227125243999 0 -0.44868375247440512 -0.3670899224597412 0 -0.45300171382135529 -0.33907227125243999 0 -0.4443233156515351 -0.35568304780839138 0 -0.44868375247440512 -0.3670899224597412 0 -0.45300171382135529 -0.33907227125243999 0 -0.45518352746400748 -0.36558378890584831 0 -0.44868375247440512 -0.3670899224597412 0 -0.43929585186160719 -0.34304559977963428 0 -0.45300171382135529 -0.33907227125243999 0 -0.4443233156515351 -0.35568304780839138 0 -0.43929585186160719 -0.34304559977963428 0 -0.4443233156515351 -0.35568304780839138 0 -0.43148563611623691 -0.35570787225738432 0 -0.43929585186160719 -0.34304559977963428 0 -0.4443233156515351 -0.35568304780839138 0 -0.4443233156515351 -0.35568304780839138 0 -0.44868375247440512 -0.3670899224597412 0 -0.43596785166933849 -0.3648403543846363 0 -0.43935121753743761 -0.37636839254663379 0 -0.44687421819164608 -0.3788313199175451 0 -0.44868375247440512 -0.3670899224597412 0 -0.43935121753743761 -0.37636839254663379 0 -0.44868375247440512 -0.3670899224597412 0 -0.43596785166933849 -0.3648403543846363 0 -0.44687421819164608 -0.3788313199175451 0 -0.44868375247440512 -0.3670899224597412 0 -0.42116258666452627 -0.37570008037964758 0 -0.42290416334825692 -0.36486312933421039 0 -0.43053389848056961 -0.37325588863200831 0 -0.42290416334825692 -0.36486312933421039 0 -0.43053389848056961 -0.37325588863200831 0 -0.43596785166933849 -0.3648403543846363 0 -0.43935121753743761 -0.37636839254663379 0 -0.43053389848056961 -0.37325588863200831 0 -0.43596785166933849 -0.3648403543846363 0 -0.42290416334825692 -0.36486312933421039 0 -0.43596785166933849 -0.3648403543846363 0 -0.43148563611623691 -0.35570787225738432 0 -0.4443233156515351 -0.35568304780839138 0 -0.43596785166933849 -0.3648403543846363 0 -0.43148563611623691 -0.35570787225738432 0 -0.42290416334825692 -0.36486312933421039 0 -0.43148563611623691 -0.35570787225738432 0 -0.41493699805044643 -0.35010722998004912 0 -0.43929585186160719 -0.34304559977963428 0 -0.41493699805044643 -0.35010722998004912 0 -0.43929585186160719 -0.34304559977963428 0 -0.43148563611623691 -0.35570787225738432 0 -0.41493699805044643 -0.35010722998004912 0 -0.42290416334825692 -0.36486312933421039 0 -0.41493699805044643 -0.35010722998004912 0 -0.40369673928499761 -0.37267247115173169 0 -0.42116258666452627 -0.37570008037964758 0 -0.42290416334825692 -0.36486312933421039 0 -0.40369673928499761 -0.37267247115173169 0 -0.41493699805044643 -0.35010722998004912 0 -0.40369673928499761 -0.37267247115173169 0 -0.39057814423928539 -0.3571688601804639 0 -0.37910124115022042 -0.37744830499117499 0 -0.40369673928499761 -0.37267247115173169 0 -0.39057814423928539 -0.3571688601804639 0 -0.39057814423928539 -0.3571688601804639 0 -0.36621929042812451 -0.36423049038087862 0 -0.37910124115022042 -0.37744830499117499 0 -0.39057814423928539 -0.3571688601804639 0 -0.36621929042812451 -0.36423049038087862 0 -0.39057814423928539 -0.3571688601804639 0 -0.37418465591067268 -0.34680695930694477 0 -0.36621929042812451 -0.36423049038087862 0 -0.39057814423928539 -0.3571688601804639 0 -0.38982019416074237 -0.33805841783202978 0 -0.37418465591067268 -0.34680695930694477 0 -0.41493699805044643 -0.35010722998004912 0 -0.39057814423928539 -0.3571688601804639 0 -0.41493699805044643 -0.35010722998004912 0 -0.39057814423928539 -0.3571688601804639 0 -0.40331500780445201 -0.34407947339429962 0 -0.39057814423928539 -0.3571688601804639 0 -0.40331500780445201 -0.34407947339429962 0 -0.38982019416074237 -0.33805841783202978 0 -0.40331500780445201 -0.34407947339429962 0 -0.40163469345683978 -0.31692749425537647 0 -0.40331500780445201 -0.34407947339429962 0 -0.38982019416074237 -0.33805841783202978 0 -0.40163469345683978 -0.31692749425537647 0 -0.37809296521051072 -0.32906757768712541 0 -0.38982019416074237 -0.33805841783202978 0 -0.37418465591067268 -0.34680695930694477 0 -0.37809296521051072 -0.32906757768712541 0 -0.40163469345683978 -0.31692749425537647 0 -0.37512158796465661 -0.30456513774161381 0 -0.37809296521051072 -0.32906757768712541 0 -0.38982019416074237 -0.33805841783202978 0 -0.40163469345683978 -0.31692749425537647 0 -0.40163469345683978 -0.31692749425537647 0 -0.43107301170672901 -0.32237598992302102 0 -0.42285017155185051 -0.30170638006640782 0 -0.40163469345683978 -0.31692749425537647 0 -0.41765565272823202 -0.33452045773444439 0 -0.43107301170672901 -0.32237598992302102 0 -0.40331500780445201 -0.34407947339429962 0 -0.40163469345683978 -0.31692749425537647 0 -0.41765565272823202 -0.33452045773444439 0 -0.41493699805044643 -0.35010722998004912 0 -0.40331500780445201 -0.34407947339429962 0 -0.41765565272823202 -0.33452045773444439 0 -0.43929585186160719 -0.34304559977963428 0 -0.43107301170672901 -0.32237598992302102 0 -0.43929585186160719 -0.34304559977963428 0 -0.41493699805044643 -0.35010722998004912 0 -0.41765565272823202 -0.33452045773444439 0 -0.43929585186160719 -0.34304559977963428 0 -0.41765565272823202 -0.33452045773444439 0 -0.43107301170672901 -0.32237598992302102 0 -0.44083887936605443 -0.30762746308344929 0 -0.43107301170672901 -0.32237598992302102 0 -0.42285017155185051 -0.30170638006640782 0 -0.43107301170672901 -0.32237598992302102 0 -0.42285017155185051 -0.30170638006640782 0 -0.44083887936605443 -0.30762746308344929 0 -0.42285017155185051 -0.30170638006640782 0 -0.4366354251127269 -0.28714237885532867 0 -0.42285017155185051 -0.30170638006640782 0 -0.4366354251127269 -0.28714237885532867 0 -0.42392102483979682 -0.28357055852148733 0 -0.4366354251127269 -0.28714237885532867 0 -0.42392102483979682 -0.28357055852148733 0 -0.4290752812273243 -0.27627221055680279 0 -0.42285017155185051 -0.30170638006640782 0 -0.3999543791092276 -0.28977551511645322 0 -0.41462733139697289 -0.28103677020979417 0 -0.42285017155185051 -0.30170638006640782 0 -0.41462733139697289 -0.28103677020979417 0 -0.42285017155185051 -0.30170638006640782 0 -0.42392102483979682 -0.28357055852148733 0 -0.41462733139697289 -0.28103677020979417 0 -0.42392102483979682 -0.28357055852148733 0 -0.41793644749772801 -0.27936720768643142 0 -0.41462733139697289 -0.28103677020979417 0 -0.39965627699246931 -0.28495852211330708 0 -0.41462733139697289 -0.28103677020979417 0 -0.3999543791092276 -0.28977551511645322 0 -0.41462733139697289 -0.28103677020979417 0 -0.40163469345683978 -0.31692749425537647 0 -0.42285017155185051 -0.30170638006640782 0 -0.3999543791092276 -0.28977551511645322 0 -0.40163469345683978 -0.31692749425537647 0 -0.3999543791092276 -0.28977551511645322 0 -0.40163469345683978 -0.31692749425537647 0 -0.37512158796465661 -0.30456513774161381 0 -0.3999543791092276 -0.28977551511645322 0 -0.37512158796465661 -0.30456513774161381 0 -0.3999543791092276 -0.28977551511645322 0 -0.37647268693461911 -0.29291239555995691 0 -0.38373844921131389 -0.28429595350295428 0 -0.36662939645518128 -0.28500260392903942 0 -0.37647268693461911 -0.29291239555995691 0 -0.38373844921131389 -0.28429595350295428 0 -0.39965627699246931 -0.28495852211330708 0 -0.37647268693461911 -0.29291239555995691 0 -0.39965627699246931 -0.28495852211330708 0 -0.37512158796465661 -0.30456513774161381 0 -0.37647268693461911 -0.29291239555995691 0 -0.3999543791092276 -0.28977551511645322 0 -0.37647268693461911 -0.29291239555995691 0 -0.3999543791092276 -0.28977551511645322 0 -0.39965627699246931 -0.28495852211330708 0 -0.39965627699246931 -0.28495852211330708 0 -0.39481706971438341 -0.27940021326662667 0 -0.39064918377542251 -0.28078783637670929 0 -0.38373844921131389 -0.28429595350295428 0 -0.39965627699246931 -0.28495852211330708 0 -0.39064918377542251 -0.28078783637670929 0 -0.3999543791092276 -0.28977551511645322 0 -0.39965627699246931 -0.28495852211330708 0 -0.41462733139697289 -0.28103677020979417 0 -0.3999543791092276 -0.28977551511645322 0 -0.39965627699246931 -0.28495852211330708 0 -0.39965627699246931 -0.28495852211330708 0 -0.39904495235291793 -0.27508020744924699 0 -0.39965627699246931 -0.28495852211330708 0 -0.39904495235291793 -0.27508020744924699 0 -0.41246966374011318 -0.27561307865949808 0 -0.39904495235291793 -0.27508020744924699 0 -0.41246966374011318 -0.27561307865949808 0 -0.39904495235291793 -0.27508020744924699 0 -0.40668794734353081 -0.26107967901070511 0 -0.41246966374011318 -0.27561307865949808 0 -0.39904495235291793 -0.27508020744924699 0 -0.38966313658033819 -0.27470781214174922 0 -0.38863232386824409 -0.26310108356927098 0 -0.39904495235291793 -0.27508020744924699 0 -0.39481706971438341 -0.27940021326662667 0 -0.39111441293622828 -0.27577365719785751 0 -0.39904495235291793 -0.27508020744924699 0 -0.38966313658033819 -0.27470781214174922 0 -0.39904495235291793 -0.27508020744924699 0 -0.39111441293622828 -0.27577365719785751 0 -0.38966313658033819 -0.27470781214174922 0 -0.39965627699246931 -0.28495852211330708 0 -0.39904495235291793 -0.27508020744924699 0 -0.39481706971438341 -0.27940021326662667 0 -0.39481706971438341 -0.27940021326662667 0 -0.39111441293622828 -0.27577365719785751 0 -0.39064918377542251 -0.28078783637670929 0 -0.38966313658033819 -0.27470781214174922 0 -0.37370142105479592 -0.27407423884363641 0 -0.38966313658033819 -0.27470781214174922 0 -0.37616759085086199 -0.26479642577011359 0 -0.37370142105479592 -0.27407423884363641 0 -0.38373844921131389 -0.28429595350295428 0 -0.38966313658033819 -0.27470781214174922 0 -0.37370142105479592 -0.27407423884363641 0 -0.38373844921131389 -0.28429595350295428 0 -0.39064918377542251 -0.28078783637670929 0 -0.38966313658033819 -0.27470781214174922 0 -0.39111441293622828 -0.27577365719785751 0 -0.39064918377542251 -0.28078783637670929 0 -0.38966313658033819 -0.27470781214174922 0 -0.39111441293622828 -0.27577365719785751 0 -0.38966313658033819 -0.27470781214174922 0 -0.38966313658033819 -0.27470781214174922 0 -0.37616759085086199 -0.26479642577011359 0 -0.38966313658033819 -0.27470781214174922 0 -0.37616759085086199 -0.26479642577011359 0 -0.38863232386824409 -0.26310108356927098 0 -0.3807563853150594 -0.25032788433723541 0 -0.38863232386824409 -0.26310108356927098 0 -0.39752955424204278 -0.25059308814801001 0 -0.3807563853150594 -0.25032788433723541 0 -0.37616759085086199 -0.26479642577011359 0 -0.38863232386824409 -0.26310108356927098 0 -0.39904495235291793 -0.27508020744924699 0 -0.39752955424204278 -0.25059308814801001 0 -0.40668794734353081 -0.26107967901070511 0 -0.39904495235291793 -0.27508020744924699 0 -0.39752955424204278 -0.25059308814801001 0 -0.39904495235291793 -0.27508020744924699 0 -0.38863232386824409 -0.26310108356927098 0 -0.39752955424204278 -0.25059308814801001 0 -0.40957277933576608 -0.25183864413063539 0 -0.40668794734353081 -0.26107967901070511 0 -0.40090623094694627 -0.2465462793619129 0 -0.39752955424204278 -0.25059308814801001 0 -0.40668794734353081 -0.26107967901070511 0 -0.40090623094694627 -0.2465462793619129 0 -0.40668794734353081 -0.26107967901070511 0 -0.40090623094694627 -0.2465462793619129 0 -0.40957277933576608 -0.25183864413063539 0 -0.4211140110866794 -0.261360178174459 0 -0.41772787251651178 -0.24780639585967709 0 -0.40957277933576608 -0.25183864413063539 0 -0.4211140110866794 -0.261360178174459 0 -0.40668794734353081 -0.26107967901070511 0 -0.41246966374011318 -0.27561307865949808 0 -0.42214997724865078 -0.27724133746942409 0 -0.4290752812273243 -0.27627221055680279 0 -0.41246966374011318 -0.27561307865949808 0 -0.4290752812273243 -0.27627221055680279 0 -0.40668794734353081 -0.26107967901070511 0 -0.41246966374011318 -0.27561307865949808 0 -0.4211140110866794 -0.261360178174459 0 -0.41246966374011318 -0.27561307865949808 0 -0.4290752812273243 -0.27627221055680279 0 -0.4211140110866794 -0.261360178174459 0 -0.40668794734353081 -0.26107967901070511 0 -0.41246966374011318 -0.27561307865949808 0 -0.39965627699246931 -0.28495852211330708 0 -0.41246966374011318 -0.27561307865949808 0 -0.41462733139697289 -0.28103677020979417 0 -0.41246966374011318 -0.27561307865949808 0 -0.41462733139697289 -0.28103677020979417 0 -0.41246966374011318 -0.27561307865949808 0 -0.41793644749772801 -0.27936720768643142 0 -0.42214997724865078 -0.27724133746942409 0 -0.41246966374011318 -0.27561307865949808 0 -0.41793644749772801 -0.27936720768643142 0 -0.41462733139697289 -0.28103677020979417 0 -0.41793644749772801 -0.27936720768643142 0 -0.41462733139697289 -0.28103677020979417 0 -0.42392102483979682 -0.28357055852148733 0 -0.41793644749772801 -0.27936720768643142 0 -0.42214997724865078 -0.27724133746942409 0 -0.41793644749772801 -0.27936720768643142 0 -0.42214997724865078 -0.27724133746942409 0 -0.44568089871453548 -0.27693134245410722 0 -0.4366354251127269 -0.28714237885532867 0 -0.4290752812273243 -0.27627221055680279 0 -0.44568089871453548 -0.27693134245410722 0 -0.4290752812273243 -0.27627221055680279 0 -0.44147150055601359 -0.26347668201382168 0 -0.4211140110866794 -0.261360178174459 0 -0.4290752812273243 -0.27627221055680279 0 -0.42392102483979682 -0.28357055852148733 0 -0.42214997724865078 -0.27724133746942409 0 -0.4290752812273243 -0.27627221055680279 0 -0.44147150055601359 -0.26347668201382168 0 -0.4211140110866794 -0.261360178174459 0 -0.42933896999383259 -0.24913933364668489 0 -0.4211140110866794 -0.261360178174459 0 -0.42933896999383259 -0.24913933364668489 0 -0.41772787251651178 -0.24780639585967709 0 -0.31819632532412923 -0.26609267812935089 0 -0.30795773519465919 -0.25381458906647419 0 -0.32479312107020503 -0.24904071669932959 0 -0.31819632532412923 -0.26609267812935089 0 -0.33943265673747691 -0.26074123847790259 0 -0.32479312107020503 -0.24904071669932959 0 -0.31342967699420471 -0.27913183605108238 0 -0.31819632532412923 -0.26609267812935089 0 -0.33195090730643972 -0.28073746895286877 0 -0.31819632532412923 -0.26609267812935089 0 -0.33199816603054172 -0.2693573577748582 0 -0.33195090730643972 -0.28073746895286877 0 -0.33199816603054172 -0.2693573577748582 0 -0.33195090730643972 -0.28073746895286877 0 -0.34337812608559859 -0.26943267680423949 0 -0.33199816603054172 -0.2693573577748582 0 -0.34337812608559859 -0.26943267680423949 0 -0.33943265673747691 -0.26074123847790259 0 -0.31819632532412923 -0.26609267812935089 0 -0.33943265673747691 -0.26074123847790259 0 -0.31819632532412923 -0.26609267812935089 0 -0.33199816603054172 -0.2693573577748582 0 -0.33943265673747691 -0.26074123847790259 0 -0.33943265673747691 -0.26074123847790259 0 -0.33735618903199571 -0.24751717438331339 0 -0.32479312107020503 -0.24904071669932959 0 -0.33943265673747691 -0.26074123847790259 0 -0.35071525358356731 -0.2461037434752176 0 -0.33735618903199571 -0.24751717438331339 0 -0.33943265673747691 -0.26074123847790259 0 -0.35858874157913773 -0.25500361935277088 0 -0.35071525358356731 -0.2461037434752176 0 -0.33943265673747691 -0.26074123847790259 0 -0.35858874157913773 -0.25500361935277088 0 -0.36066898815082499 -0.25538979882645579 0 -0.33943265673747691 -0.26074123847790259 0 -0.36066898815082499 -0.25538979882645579 0 -0.34337812608559859 -0.26943267680423949 0 -0.33943265673747691 -0.26074123847790259 0 -0.36066898815082499 -0.25538979882645579 0 -0.36066898815082499 -0.25538979882645579 0 -0.3577397055292536 -0.27344066554552321 0 -0.35858874157913773 -0.25500361935277088 0 -0.35071525358356731 -0.2461037434752176 0 -0.35858874157913773 -0.25500361935277088 0 -0.36095548195748128 -0.25362436264706378 0 -0.35071525358356731 -0.2461037434752176 0 -0.36095548195748128 -0.25362436264706378 0 -0.3626720451213829 -0.25488503939848212 0 -0.36744040811277451 -0.24659334707129699 0 -0.36066898815082499 -0.25538979882645579 0 -0.36618995014142419 -0.26451723367684288 0 -0.3577397055292536 -0.27344066554552321 0 -0.3807563853150594 -0.25032788433723541 0 -0.3626720451213829 -0.25488503939848212 0 -0.3807563853150594 -0.25032788433723541 0 -0.3626720451213829 -0.25488503939848212 0 -0.36744040811277451 -0.24659334707129699 0 -0.3807563853150594 -0.25032788433723541 0 -0.37616759085086199 -0.26479642577011359 0 -0.3626720451213829 -0.25488503939848212 0 -0.36095548195748128 -0.25362436264706378 0 -0.3626720451213829 -0.25488503939848212 0 -0.36066898815082499 -0.25538979882645579 0 -0.3626720451213829 -0.25488503939848212 0 -0.36066898815082499 -0.25538979882645579 0 -0.36095548195748128 -0.25362436264706378 0 -0.3626720451213829 -0.25488503939848212 0 -0.35858874157913773 -0.25500361935277088 0 -0.36095548195748128 -0.25362436264706378 0 -0.36066898815082499 -0.25538979882645579 0 -0.36095548195748128 -0.25362436264706378 0 -0.36066898815082499 -0.25538979882645579 0 -0.3626720451213829 -0.25488503939848212 0 -0.36066898815082499 -0.25538979882645579 0 -0.36618995014142419 -0.26451723367684288 0 -0.37616759085086199 -0.26479642577011359 0 -0.3626720451213829 -0.25488503939848212 0 -0.36618995014142419 -0.26451723367684288 0 -0.37616759085086199 -0.26479642577011359 0 -0.3626720451213829 -0.25488503939848212 0 -0.37370142105479592 -0.27407423884363641 0 -0.3577397055292536 -0.27344066554552321 0 -0.36618995014142419 -0.26451723367684288 0 -0.37370142105479592 -0.27407423884363641 0 -0.3577397055292536 -0.27344066554552321 0 -0.38373844921131389 -0.28429595350295428 0 -0.37370142105479592 -0.27407423884363641 0 -0.36662939645518128 -0.28500260392903942 0 -0.37370142105479592 -0.27407423884363641 0 -0.3577397055292536 -0.27344066554552321 0 -0.36662939645518128 -0.28500260392903942 0 -0.37616759085086199 -0.26479642577011359 0 -0.36618995014142419 -0.26451723367684288 0 -0.37370142105479592 -0.27407423884363641 0 -0.34337812608559859 -0.26943267680423949 0 -0.36066898815082499 -0.25538979882645579 0 -0.35609044565532738 -0.27337520096459561 0 -0.36066898815082499 -0.25538979882645579 0 -0.3577397055292536 -0.27344066554552321 0 -0.35609044565532738 -0.27337520096459561 0 -0.3577397055292536 -0.27344066554552321 0 -0.35609044565532738 -0.27337520096459561 0 -0.3484909558919474 -0.28474503336336288 0 -0.3577397055292536 -0.27344066554552321 0 -0.35609044565532738 -0.27337520096459561 0 -0.34337812608559859 -0.26943267680423949 0 -0.35609044565532738 -0.27337520096459561 0 -0.3484909558919474 -0.28474503336336288 0 -0.3577397055292536 -0.27344066554552321 0 -0.36662939645518128 -0.28500260392903942 0 -0.35328909687676968 -0.30086626900660901 0 -0.3577397055292536 -0.27344066554552321 0 -0.35328909687676968 -0.30086626900660901 0 -0.3484909558919474 -0.28474503336336288 0 -0.34519374337998432 -0.29488689378520949 0 -0.35328909687676968 -0.30086626900660901 0 -0.3577397055292536 -0.27344066554552321 0 -0.3484909558919474 -0.28474503336336288 0 -0.35328909687676968 -0.30086626900660901 0 -0.37647268693461911 -0.29291239555995691 0 -0.36662939645518128 -0.28500260392903942 0 -0.35328909687676968 -0.30086626900660901 0 -0.37512158796465661 -0.30456513774161381 0 -0.35328909687676968 -0.30086626900660901 0 -0.35028879682008568 -0.3193547603667749 0 -0.37647268693461911 -0.29291239555995691 0 -0.35328909687676968 -0.30086626900660901 0 -0.37512158796465661 -0.30456513774161381 0 -0.37647268693461911 -0.29291239555995691 0 -0.35328909687676968 -0.30086626900660901 0 -0.37512158796465661 -0.30456513774161381 0 -0.35028879682008568 -0.3193547603667749 0 -0.35328909687676968 -0.30086626900660901 0 -0.340600099235362 -0.31552510454219862 0 -0.35028879682008568 -0.3193547603667749 0 -0.35328909687676968 -0.30086626900660901 0 -0.35028879682008568 -0.3193547603667749 0 -0.34519374337998432 -0.29488689378520949 0 -0.35328909687676968 -0.30086626900660901 0 -0.33366808583143259 -0.3075978855664438 0 -0.35328909687676968 -0.30086626900660901 0 -0.33366808583143259 -0.3075978855664438 0 -0.33525461782474969 -0.29646849407400072 0 -0.3271311095639009 -0.32350431134376179 0 -0.33366808583143259 -0.3075978855664438 0 -0.33525461782474969 -0.29646849407400072 0 -0.3271311095639009 -0.32350431134376179 0 -0.33525461782474969 -0.29646849407400072 0 -0.32237826421087662 -0.30733786166403693 0 -0.3271311095639009 -0.32350431134376179 0 -0.35328909687676968 -0.30086626900660901 0 -0.33366808583143259 -0.3075978855664438 0 -0.340600099235362 -0.31552510454219862 0 -0.34519374337998432 -0.29488689378520949 0 -0.33366808583143259 -0.3075978855664438 0 -0.33525461782474969 -0.29646849407400072 0 -0.33195090730643972 -0.28073746895286877 0 -0.32842152398151692 -0.29017152029729287 0 -0.33525461782474969 -0.29646849407400072 0 -0.3484909558919474 -0.28474503336336288 0 -0.34519374337998432 -0.29488689378520949 0 -0.33525461782474969 -0.29646849407400072 0 -0.34337812608559859 -0.26943267680423949 0 -0.33525461782474969 -0.29646849407400072 0 -0.34337812608559859 -0.26943267680423949 0 -0.3484909558919474 -0.28474503336336288 0 -0.33525461782474969 -0.29646849407400072 0 -0.33195090730643972 -0.28073746895286877 0 -0.34337812608559859 -0.26943267680423949 0 -0.33525461782474969 -0.29646849407400072 0 -0.32842152398151692 -0.29017152029729287 0 -0.33525461782474969 -0.29646849407400072 0 -0.32419577432624719 -0.29685674462620731 0 -0.32842152398151692 -0.29017152029729287 0 -0.32419577432624719 -0.29685674462620731 0 -0.31837355890434582 -0.29063237855787549 0 -0.31342967699420471 -0.27913183605108238 0 -0.33195090730643972 -0.28073746895286877 0 -0.31837355890434582 -0.29063237855787549 0 -0.33195090730643972 -0.28073746895286877 0 -0.32842152398151692 -0.29017152029729287 0 -0.31837355890434582 -0.29063237855787549 0 -0.32419577432624719 -0.29685674462620731 0 -0.31837355890434582 -0.29063237855787549 0 -0.31655090670974712 -0.29967346853783072 0 -0.31655090670974712 -0.29967346853783072 0 -0.32237826421087662 -0.30733786166403693 0 -0.30637520513986849 -0.30206095588823711 0 -0.32237826421087662 -0.30733786166403693 0 -0.31249507470475651 -0.31832404966298378 0 -0.30637520513986849 -0.30206095588823711 0 -0.31837355890434582 -0.29063237855787549 0 -0.31655090670974712 -0.29967346853783072 0 -0.30637520513986849 -0.30206095588823711 0 -0.33525461782474969 -0.29646849407400072 0 -0.32419577432624719 -0.29685674462620731 0 -0.32237826421087662 -0.30733786166403693 0 -0.32419577432624719 -0.29685674462620731 0 -0.31655090670974712 -0.29967346853783072 0 -0.32237826421087662 -0.30733786166403693 0 -0.32237826421087662 -0.30733786166403693 0 -0.3271311095639009 -0.32350431134376179 0 -0.31249507470475651 -0.31832404966298378 0 -0.3271311095639009 -0.32350431134376179 0 -0.31340196090011502 -0.33317131745462708 0 -0.31249507470475651 -0.31832404966298378 0 -0.3271311095639009 -0.32350431134376179 0 -0.32988771379035958 -0.33801379648354107 0 -0.319007601303052 -0.35054012861352291 0 -0.3271311095639009 -0.32350431134376179 0 -0.31340196090011502 -0.33317131745462708 0 -0.319007601303052 -0.35054012861352291 0 -0.31340196090011502 -0.33317131745462708 0 -0.319007601303052 -0.35054012861352291 0 -0.30573378425935599 -0.34489948700128259 0 -0.3271311095639009 -0.32350431134376179 0 -0.319007601303052 -0.35054012861352291 0 -0.3271311095639009 -0.32350431134376179 0 -0.32988771379035958 -0.33801379648354107 0 -0.33862340708461869 -0.32630229642740349 0 -0.32988771379035958 -0.33801379648354107 0 -0.33965870547717419 -0.34115575138194459 0 -0.319007601303052 -0.35054012861352291 0 -0.32988771379035958 -0.33801379648354107 0 -0.33965870547717419 -0.34115575138194459 0 -0.33862340708461869 -0.32630229642740349 0 -0.33965870547717419 -0.34115575138194459 0 -0.33862340708461869 -0.32630229642740349 0 -0.34780891071343462 -0.33463634953812538 0 -0.33366808583143259 -0.3075978855664438 0 -0.3271311095639009 -0.32350431134376179 0 -0.340600099235362 -0.31552510454219862 0 -0.33862340708461869 -0.32630229642740349 0 -0.340600099235362 -0.31552510454219862 0 -0.35028879682008568 -0.3193547603667749 0 -0.3271311095639009 -0.32350431134376179 0 -0.33862340708461869 -0.32630229642740349 0 -0.340600099235362 -0.31552510454219862 0 -0.35028879682008568 -0.3193547603667749 0 -0.3639440019375999 -0.32491789162061069 0 -0.34780891071343462 -0.33463634953812538 0 -0.33862340708461869 -0.32630229642740349 0 -0.35028879682008568 -0.3193547603667749 0 -0.33862340708461869 -0.32630229642740349 0 -0.35028879682008568 -0.3193547603667749 0 -0.34780891071343462 -0.33463634953812538 0 -0.35028879682008568 -0.3193547603667749 0 -0.34780891071343462 -0.33463634953812538 0 -0.37809296521051072 -0.32906757768712541 0 -0.37512158796465661 -0.30456513774161381 0 -0.3639440019375999 -0.32491789162061069 0 -0.37512158796465661 -0.30456513774161381 0 -0.35028879682008568 -0.3193547603667749 0 -0.3639440019375999 -0.32491789162061069 0 -0.37809296521051072 -0.32906757768712541 0 -0.36171099490864661 -0.33949275819830049 0 -0.37418465591067268 -0.34680695930694477 0 -0.37809296521051072 -0.32906757768712541 0 -0.36171099490864661 -0.33949275819830049 0 -0.37809296521051072 -0.32906757768712541 0 -0.3639440019375999 -0.32491789162061069 0 -0.36171099490864661 -0.33949275819830049 0 -0.3639440019375999 -0.32491789162061069 0 -0.36171099490864661 -0.33949275819830049 0 -0.34780891071343462 -0.33463634953812538 0 -0.36171099490864661 -0.33949275819830049 0 -0.34780891071343462 -0.33463634953812538 0 -0.34532902460678261 -0.34991793870947568 0 -0.34780891071343462 -0.33463634953812538 0 -0.34532902460678261 -0.34991793870947568 0 -0.33965870547717419 -0.34115575138194459 0 -0.34780891071343462 -0.33463634953812538 0 -0.34532902460678261 -0.34991793870947568 0 -0.36171099490864661 -0.33949275819830049 0 -0.34532902460678261 -0.34991793870947568 0 -0.36171099490864661 -0.33949275819830049 0 -0.34532902460678261 -0.34991793870947568 0 -0.35868634651672698 -0.35282365156287049 0 -0.34532902460678261 -0.34991793870947568 0 -0.35868634651672698 -0.35282365156287049 0 -0.34186043661696619 -0.37129212058130201 0 -0.35868634651672698 -0.35282365156287049 0 -0.37418465591067268 -0.34680695930694477 0 -0.36621929042812451 -0.36423049038087862 0 -0.36171099490864661 -0.33949275819830049 0 -0.35868634651672698 -0.35282365156287049 0 -0.37418465591067268 -0.34680695930694477 0 -0.37910124115022042 -0.37744830499117499 0 -0.36621929042812451 -0.36423049038087862 0 -0.35629560791377018 -0.38234266871381789 0 -0.36621929042812451 -0.36423049038087862 0 -0.34186043661696619 -0.37129212058130201 0 -0.35629560791377018 -0.38234266871381789 0 -0.35868634651672698 -0.35282365156287049 0 -0.36621929042812451 -0.36423049038087862 0 -0.34186043661696619 -0.37129212058130201 0 -0.36621929042812451 -0.36423049038087862 0 -0.34186043661696619 -0.37129212058130201 0 -0.34186043661696619 -0.37129212058130201 0 -0.33117381890118691 -0.37439017039049421 0 -0.34532902460678261 -0.34991793870947568 0 -0.34186043661696619 -0.37129212058130201 0 -0.32164951434731398 -0.36498713761060508 0 -0.34532902460678261 -0.34991793870947568 0 -0.34186043661696619 -0.37129212058130201 0 -0.34186043661696619 -0.37129212058130201 0 -0.33117381890118691 -0.37439017039049421 0 -0.32164951434731398 -0.36498713761060508 0 -0.34532902460678261 -0.34991793870947568 0 -0.32164951434731398 -0.36498713761060508 0 -0.33965870547717419 -0.34115575138194459 0 -0.34532902460678261 -0.34991793870947568 0 -0.319007601303052 -0.35054012861352291 0 -0.34532902460678261 -0.34991793870947568 0 -0.319007601303052 -0.35054012861352291 0 -0.32164951434731398 -0.36498713761060508 0 -0.319007601303052 -0.35054012861352291 0 -0.32164951434731398 -0.36498713761060508 0 -0.30797497110244648 -0.35964977584432162 0 -0.32164951434731398 -0.36498713761060508 0 -0.31915132858901202 -0.3793018138120075 0 -0.29797000408784519 -0.38005633651173459 0 -0.33117381890118691 -0.37439017039049421 0 -0.32164951434731398 -0.36498713761060508 0 -0.31915132858901202 -0.3793018138120075 0 -0.30797497110244648 -0.35964977584432162 0 -0.29464583115526138 -0.35756968241353282 0 -0.29797000408784519 -0.38005633651173459 0 -0.32164951434731398 -0.36498713761060508 0 -0.30797497110244648 -0.35964977584432162 0 -0.29797000408784519 -0.38005633651173459 0 -0.32164951434731398 -0.36498713761060508 0 -0.29797000408784519 -0.38005633651173459 0 -0.30573378425935599 -0.34489948700128259 0 -0.29464583115526138 -0.35756968241353282 0 -0.29132868235419429 -0.34065959771377857 0 -0.319007601303052 -0.35054012861352291 0 -0.30797497110244648 -0.35964977584432162 0 -0.30573378425935599 -0.34489948700128259 0 -0.30797497110244648 -0.35964977584432162 0 -0.30573378425935599 -0.34489948700128259 0 -0.29464583115526138 -0.35756968241353282 0 -0.29464583115526138 -0.35756968241353282 0 -0.28214928821591351 -0.35242870999356501 0 -0.29132868235419429 -0.34065959771377857 0 -0.28214928821591351 -0.35242870999356501 0 -0.27633799931385078 -0.34094546175545348 0 -0.29132868235419429 -0.34065959771377857 0 -0.29464583115526138 -0.35756968241353282 0 -0.28214928821591351 -0.35242870999356501 0 -0.27971672965661898 -0.36715839633563158 0 -0.29464583115526138 -0.35756968241353282 0 -0.27971672965661898 -0.36715839633563158 0 -0.29797000408784519 -0.38005633651173459 0 -0.27971672965661898 -0.36715839633563158 0 -0.26246231193507519 -0.36812652482989489 0 -0.26871719859964188 -0.35581041174942829 0 -0.27971672965661898 -0.36715839633563158 0 -0.26246231193507519 -0.36812652482989489 0 -0.2695413387282441 -0.3774195048182668 0 -0.26246231193507519 -0.36812652482989489 0 -0.2695413387282441 -0.3774195048182668 0 -0.258126515348783 -0.37897424188764472 0 -0.26246231193507519 -0.36812652482989489 0 -0.2537697303883914 -0.37248603908174333 0 -0.258126515348783 -0.37897424188764472 0 -0.26246231193507519 -0.36812652482989489 0 -0.25300435451518749 -0.35969863246827188 0 -0.26871719859964188 -0.35581041174942829 0 -0.26246231193507519 -0.36812652482989489 0 -0.25300435451518749 -0.35969863246827188 0 -0.2537697303883914 -0.37248603908174333 0 -0.25300435451518749 -0.35969863246827188 0 -0.2580372555781828 -0.34474315983665882 0 -0.26871719859964188 -0.35581041174942829 0 -0.2580372555781828 -0.34474315983665882 0 -0.26871719859964188 -0.35581041174942829 0 -0.27633799931385078 -0.34094546175545348 0 -0.28214928821591351 -0.35242870999356501 0 -0.27971672965661898 -0.36715839633563158 0 -0.26871719859964188 -0.35581041174942829 0 -0.28214928821591351 -0.35242870999356501 0 -0.26871719859964188 -0.35581041174942829 0 -0.27633799931385078 -0.34094546175545348 0 -0.27633799931385078 -0.34094546175545348 0 -0.26506929266818341 -0.32745876205300861 0 -0.28368981370174512 -0.3220777410802092 0 -0.2580372555781828 -0.34474315983665882 0 -0.27633799931385078 -0.34094546175545348 0 -0.26506929266818341 -0.32745876205300861 0 -0.2580372555781828 -0.34474315983665882 0 -0.25225645023502208 -0.33168591279810861 0 -0.26506929266818341 -0.32745876205300861 0 -0.26506929266818341 -0.32745876205300861 0 -0.25246230460774721 -0.31461311935138508 0 -0.26763193257255208 -0.31068717749623631 0 -0.25225645023502208 -0.33168591279810861 0 -0.26506929266818341 -0.32745876205300861 0 -0.25246230460774721 -0.31461311935138508 0 -0.26506929266818341 -0.32745876205300861 0 -0.28368981370174512 -0.3220777410802092 0 -0.26763193257255208 -0.31068717749623631 0 -0.28368981370174512 -0.3220777410802092 0 -0.30177411431010581 -0.32839250358065419 0 -0.29646125822190361 -0.31126778035645492 0 -0.27633799931385078 -0.34094546175545348 0 -0.28368981370174512 -0.3220777410802092 0 -0.29132868235419429 -0.34065959771377857 0 -0.28368981370174512 -0.3220777410802092 0 -0.29132868235419429 -0.34065959771377857 0 -0.30177411431010581 -0.32839250358065419 0 -0.31340196090011502 -0.33317131745462708 0 -0.30573378425935599 -0.34489948700128259 0 -0.30177411431010581 -0.32839250358065419 0 -0.30573378425935599 -0.34489948700128259 0 -0.29132868235419429 -0.34065959771377857 0 -0.30177411431010581 -0.32839250358065419 0 -0.30177411431010581 -0.32839250358065419 0 -0.31249507470475651 -0.31832404966298378 0 -0.29646125822190361 -0.31126778035645492 0 -0.31340196090011502 -0.33317131745462708 0 -0.30177411431010581 -0.32839250358065419 0 -0.31249507470475651 -0.31832404966298378 0 -0.31249507470475651 -0.31832404966298378 0 -0.30637520513986849 -0.30206095588823711 0 -0.29646125822190361 -0.31126778035645492 0 -0.30637520513986849 -0.30206095588823711 0 -0.29463284677371132 -0.29687973929045458 0 -0.29646125822190361 -0.31126778035645492 0 -0.31837355890434582 -0.29063237855787549 0 -0.30637520513986849 -0.30206095588823711 0 -0.30166759952532701 -0.2867525368345174 0 -0.31342967699420471 -0.27913183605108238 0 -0.31837355890434582 -0.29063237855787549 0 -0.30166759952532701 -0.2867525368345174 0 -0.30637520513986849 -0.30206095588823711 0 -0.30166759952532701 -0.2867525368345174 0 -0.29463284677371132 -0.29687973929045458 0 -0.30637520513986849 -0.30206095588823711 0 -0.30166759952532701 -0.2867525368345174 0 -0.28964189417545427 -0.28583492492061519 0 -0.28060229075719761 -0.29921097487261727 0 -0.277514767812644 -0.27634420866502618 0 -0.30166759952532701 -0.2867525368345174 0 -0.28964189417545427 -0.28583492492061519 0 -0.29463284677371132 -0.29687973929045458 0 -0.30166759952532701 -0.2867525368345174 0 -0.28964189417545427 -0.28583492492061519 0 -0.29695999391078132 -0.27144411778079902 0 -0.28964189417545427 -0.28583492492061519 0 -0.29463284677371132 -0.29687973929045458 0 -0.28060229075719761 -0.29921097487261727 0 -0.28368981370174512 -0.3220777410802092 0 -0.29646125822190361 -0.31126778035645492 0 -0.28060229075719761 -0.29921097487261727 0 -0.28368981370174512 -0.3220777410802092 0 -0.28060229075719761 -0.29921097487261727 0 -0.29463284677371132 -0.29687973929045458 0 -0.29646125822190361 -0.31126778035645492 0 -0.28060229075719761 -0.29921097487261727 0 -0.26763193257255208 -0.31068717749623631 0 -0.28060229075719761 -0.29921097487261727 0 -0.26561989413048909 -0.29408618155886729 0 -0.28368981370174512 -0.3220777410802092 0 -0.26763193257255208 -0.31068717749623631 0 -0.28060229075719761 -0.29921097487261727 0 -0.26763193257255208 -0.31068717749623631 0 -0.25058554513010328 -0.29905649999165052 0 -0.25246230460774721 -0.31461311935138508 0 -0.26763193257255208 -0.31068717749623631 0 -0.25058554513010328 -0.29905649999165052 0 -0.26763193257255208 -0.31068717749623631 0 -0.25058554513010328 -0.29905649999165052 0 -0.26561989413048909 -0.29408618155886729 0 -0.25058554513010328 -0.29905649999165052 0 -0.26561989413048909 -0.29408618155886729 0 -0.25552696275014952 -0.28188501557604367 0 -0.26561989413048909 -0.29408618155886729 0 -0.25552696275014952 -0.28188501557604367 0 -0.277514767812644 -0.27634420866502618 0 -0.28060229075719761 -0.29921097487261727 0 -0.277514767812644 -0.27634420866502618 0 -0.28060229075719761 -0.29921097487261727 0 -0.26561989413048909 -0.29408618155886729 0 -0.277514767812644 -0.27634420866502618 0 -0.25552696275014952 -0.28188501557604367 0 -0.277514767812644 -0.27634420866502618 0 -0.25552696275014952 -0.28188501557604367 0 -0.277514767812644 -0.27634420866502618 0 -0.26225615194471907 -0.26685919053015938 0 -0.25552696275014952 -0.28188501557604367 0 -0.26225615194471907 -0.26685919053015938 0 -0.24701821730940651 -0.26713600026353113 0 -0.26225615194471907 -0.26685919053015938 0 -0.25509643939260801 -0.25372761686286172 0 -0.27443664003918761 -0.25354702483286451 0 -0.26225615194471907 -0.26685919053015938 0 -0.25509643939260801 -0.25372761686286172 0 -0.24701821730940651 -0.26713600026353113 0 -0.277514767812644 -0.27634420866502618 0 -0.26225615194471907 -0.26685919053015938 0 -0.27443664003918761 -0.25354702483286451 0 -0.277514767812644 -0.27634420866502618 0 -0.27443664003918761 -0.25354702483286451 0 -0.277514767812644 -0.27634420866502618 0 -0.27443664003918761 -0.25354702483286451 0 -0.28465926517563939 -0.26377314249721001 0 -0.27443664003918761 -0.25354702483286451 0 -0.28465926517563939 -0.26377314249721001 0 -0.29053868512760439 -0.25056299608644328 0 -0.29053868512760439 -0.25056299608644328 0 -0.29695999391078132 -0.27144411778079902 0 -0.28465926517563939 -0.26377314249721001 0 -0.29053868512760439 -0.25056299608644328 0 -0.29695999391078132 -0.27144411778079902 0 -0.277514767812644 -0.27634420866502618 0 -0.28465926517563939 -0.26377314249721001 0 -0.29695999391078132 -0.27144411778079902 0 -0.277514767812644 -0.27634420866502618 0 -0.29695999391078132 -0.27144411778079902 0 -0.28964189417545427 -0.28583492492061519 0 -0.277514767812644 -0.27634420866502618 0 -0.29695999391078132 -0.27144411778079902 0 -0.31342967699420471 -0.27913183605108238 0 -0.31819632532412923 -0.26609267812935089 0 -0.29695999391078132 -0.27144411778079902 0 -0.31342967699420471 -0.27913183605108238 0 -0.30166759952532701 -0.2867525368345174 0 -0.29695999391078132 -0.27144411778079902 0 -0.31819632532412923 -0.26609267812935089 0 -0.29695999391078132 -0.27144411778079902 0 -0.30166759952532701 -0.2867525368345174 0 -0.29695999391078132 -0.27144411778079902 0 -0.31819632532412923 -0.26609267812935089 0 -0.29695999391078132 -0.27144411778079902 0 -0.30795773519465919 -0.25381458906647419 0 -0.29053868512760439 -0.25056299608644328 0 -0.29695999391078132 -0.27144411778079902 0 -0.30795773519465919 -0.25381458906647419 0 -0.33538948132179081 -0.44923140962310371 0 -0.32697194626254972 -0.46303818600243879 0 -0.34378844372828032 -0.46415741093683721 0 -0.32697194626254972 -0.46303818600243879 0 -0.33535391701642042 -0.477271031691269 0 -0.34378844372828032 -0.46415741093683721 0 -0.32697194626254972 -0.46303818600243879 0 -0.33163369087915939 -0.43431151752290942 0 -0.33538948132179081 -0.44923140962310371 0 -0.34378844372828032 -0.46415741093683721 0 -0.34004193961202711 -0.43487112999010868 0 -0.34378844372828032 -0.46415741093683721 0 -0.34004193961202711 -0.43487112999010868 0 -0.33538948132179081 -0.44923140962310371 0 -0.32697194626254972 -0.46303818600243879 0 -0.33163369087915939 -0.43431151752290942 0 -0.33538948132179081 -0.44923140962310371 0 -0.33163369087915939 -0.43431151752290942 0 -0.34004193961202711 -0.43487112999010868 0 -0.32243644467647348 -0.44028803833412372 0 -0.31278969071315288 -0.44585360148274911 0 -0.32697194626254972 -0.46303818600243879 0 -0.32243644467647348 -0.44028803833412372 0 -0.32697194626254972 -0.46303818600243879 0 -0.33163369087915939 -0.43431151752290942 0 -0.32243644467647348 -0.44028803833412372 0 -0.31278969071315288 -0.44585360148274911 0 -0.31601447354627599 -0.4304676065217391 0 -0.32697194626254972 -0.46303818600243879 0 -0.30826186670568151 -0.46047040757452562 0 -0.31080148806471808 -0.47569234314871961 0 -0.31278969071315288 -0.44585360148274911 0 -0.32697194626254972 -0.46303818600243879 0 -0.30826186670568151 -0.46047040757452562 0 -0.32697194626254972 -0.46303818600243879 0 -0.32231020164593999 -0.49176485448196822 0 -0.32697194626254972 -0.46303818600243879 0 -0.32231020164593999 -0.49176485448196822 0 -0.33054979109810528 -0.48436503432938949 0 -0.32697194626254972 -0.46303818600243879 0 -0.32231020164593999 -0.49176485448196822 0 -0.31080148806471808 -0.47569234314871961 0 -0.32231020164593999 -0.49176485448196822 0 -0.30985713946684879 -0.49028748124611488 0 -0.31080148806471808 -0.47569234314871961 0 -0.32231020164593999 -0.49176485448196822 0 -0.32360650715619382 -0.5 0 -0.30985713946684879 -0.49028748124611488 0 -0.32231020164593999 -0.49176485448196822 0 -0.32841043948156201 -0.4950242070775705 0 -0.33054979109810528 -0.48436503432938949 0 -0.32231020164593999 -0.49176485448196822 0 -0.32360650715619382 -0.5 0 -0.32841043948156201 -0.4950242070775705 0 -0.32841043948156201 -0.4950242070775705 0 -0.33491751898319477 -0.49268023665261962 0 -0.34742868127019721 -0.50000000000000344 0 -0.32360650715619382 -0.5 0 -0.32841043948156201 -0.4950242070775705 0 -0.34742868127019721 -0.50000000000000344 0 -0.32841043948156201 -0.4950242070775705 0 -0.33491751898319477 -0.49268023665261962 0 -0.33054979109810528 -0.48436503432938949 0 -0.33491751898319477 -0.49268023665261962 0 -0.33512836865216578 -0.48470674327094609 0 -0.33054979109810528 -0.48436503432938949 0 -0.33491751898319477 -0.49268023665261962 0 -0.33512836865216578 -0.48470674327094609 0 -0.33969224751094262 -0.48451067041050627 0 -0.33969224751094262 -0.48451067041050627 0 -0.34205923044280179 -0.49278473873427447 0 -0.34753494784453343 -0.49344369188356563 0 -0.33491751898319477 -0.49268023665261962 0 -0.33969224751094262 -0.48451067041050627 0 -0.34205923044280179 -0.49278473873427447 0 -0.33491751898319477 -0.49268023665261962 0 -0.34205923044280179 -0.49278473873427447 0 -0.34742868127019721 -0.50000000000000344 0 -0.33969224751094262 -0.48451067041050627 0 -0.33535391701642042 -0.477271031691269 0 -0.34378844372828032 -0.46415741093683721 0 -0.32697194626254972 -0.46303818600243879 0 -0.33054979109810528 -0.48436503432938949 0 -0.33535391701642042 -0.477271031691269 0 -0.33969224751094262 -0.48451067041050627 0 -0.34753494784453343 -0.49344369188356563 0 -0.34378844372828032 -0.46415741093683721 0 -0.33512836865216578 -0.48470674327094609 0 -0.33054979109810528 -0.48436503432938949 0 -0.33535391701642042 -0.477271031691269 0 -0.33512836865216578 -0.48470674327094609 0 -0.33969224751094262 -0.48451067041050627 0 -0.33535391701642042 -0.477271031691269 0 -0.34753494784453343 -0.49344369188356563 0 -0.34378844372828032 -0.46415741093683721 0 -0.38245698795825178 -0.5 0 -0.34742868127019721 -0.50000000000000344 0 -0.36235064576776432 -0.47993064016605869 0 -0.34753494784453343 -0.49344369188356563 0 -0.36235064576776432 -0.47993064016605869 0 -0.34378844372828032 -0.46415741093683721 0 -0.34742868127019721 -0.50000000000000344 0 -0.36235064576776432 -0.47993064016605869 0 -0.34742868127019721 -0.50000000000000344 0 -0.34753494784453343 -0.49344369188356563 0 -0.36235064576776432 -0.47993064016605869 0 -0.34205923044280179 -0.49278473873427447 0 -0.34742868127019721 -0.50000000000000344 0 -0.34753494784453343 -0.49344369188356563 0 -0.37727261026532982 -0.45986128033211299 0 -0.36235064576776432 -0.47993064016605869 0 -0.37727261026532982 -0.45986128033211299 0 -0.36030480983881708 -0.46154339887265922 0 -0.36932403467647562 -0.44914126016337041 0 -0.37727261026532982 -0.45986128033211299 0 -0.36235064576776432 -0.47993064016605869 0 -0.36030480983881708 -0.46154339887265922 0 -0.36235064576776432 -0.47993064016605869 0 -0.36030480983881708 -0.46154339887265922 0 -0.34378844372828032 -0.46415741093683721 0 -0.36030480983881708 -0.46154339887265922 0 -0.34378844372828032 -0.46415741093683721 0 -0.35179441461028882 -0.4482504517670009 0 -0.34378844372828032 -0.46415741093683721 0 -0.35179441461028882 -0.4482504517670009 0 -0.34004193961202711 -0.43487112999010868 0 -0.35179441461028882 -0.4482504517670009 0 -0.34993813021452591 -0.43692807356835772 0 -0.34004193961202711 -0.43487112999010868 0 -0.35179441461028882 -0.4482504517670009 0 -0.36505376390504701 -0.43625924934691168 0 -0.34993813021452591 -0.43692807356835772 0 -0.35179441461028882 -0.4482504517670009 0 -0.36932403467647562 -0.44914126016337041 0 -0.36505376390504701 -0.43625924934691168 0 -0.36030480983881708 -0.46154339887265922 0 -0.35179441461028882 -0.4482504517670009 0 -0.36932403467647562 -0.44914126016337041 0 -0.37777333173355659 -0.42764104113900081 0 -0.36505376390504701 -0.43625924934691168 0 -0.36647333365820961 -0.4181563531520478 0 -0.36505376390504701 -0.43625924934691168 0 -0.36647333365820961 -0.4181563531520478 0 -0.35428483769693508 -0.42968477591943588 0 -0.3873716546080746 -0.41635664155887669 0 -0.36647333365820961 -0.4181563531520478 0 -0.36755127412086419 -0.39670847310256308 0 -0.36647333365820961 -0.4181563531520478 0 -0.35701117013497941 -0.40799931658505789 0 -0.36755127412086419 -0.39670847310256308 0 -0.36647333365820961 -0.4181563531520478 0 -0.35156403118411761 -0.41897309999394239 0 -0.35701117013497941 -0.40799931658505789 0 -0.35156403118411761 -0.41897309999394239 0 -0.35701117013497941 -0.40799931658505789 0 -0.34697417382564949 -0.41241261756835518 0 -0.35701117013497941 -0.40799931658505789 0 -0.34697417382564949 -0.41241261756835518 0 -0.34483615732744838 -0.4018500797875314 0 -0.35156403118411761 -0.41897309999394239 0 -0.34697417382564949 -0.41241261756835518 0 -0.34624794381837781 -0.42349518731609109 0 -0.35156403118411761 -0.41897309999394239 0 -0.34624794381837781 -0.42349518731609109 0 -0.35428483769693508 -0.42968477591943588 0 -0.34624794381837781 -0.42349518731609109 0 -0.34993813021452591 -0.43692807356835772 0 -0.35428483769693508 -0.42968477591943588 0 -0.34624794381837781 -0.42349518731609109 0 -0.34993813021452591 -0.43692807356835772 0 -0.34004193961202711 -0.43487112999010868 0 -0.36505376390504701 -0.43625924934691168 0 -0.34993813021452591 -0.43692807356835772 0 -0.35428483769693508 -0.42968477591943588 0 -0.36647333365820961 -0.4181563531520478 0 -0.35156403118411761 -0.41897309999394239 0 -0.35428483769693508 -0.42968477591943588 0 -0.37910124115022042 -0.37744830499117499 0 -0.36755127412086419 -0.39670847310256308 0 -0.35629560791377018 -0.38234266871381789 0 -0.36755127412086419 -0.39670847310256308 0 -0.34483615732744838 -0.4018500797875314 0 -0.34987697303871979 -0.39174388969637652 0 -0.35701117013497941 -0.40799931658505789 0 -0.36755127412086419 -0.39670847310256308 0 -0.34483615732744838 -0.4018500797875314 0 -0.36755127412086419 -0.39670847310256308 0 -0.34483615732744838 -0.4018500797875314 0 -0.34483615732744838 -0.4018500797875314 0 -0.34987697303871979 -0.39174388969637652 0 -0.33907793605636949 -0.38843848481234128 0 -0.34186043661696619 -0.37129212058130201 0 -0.35629560791377018 -0.38234266871381789 0 -0.33907793605636949 -0.38843848481234128 0 -0.36755127412086419 -0.39670847310256308 0 -0.34987697303871979 -0.39174388969637652 0 -0.35629560791377018 -0.38234266871381789 0 -0.34987697303871979 -0.39174388969637652 0 -0.35629560791377018 -0.38234266871381789 0 -0.33907793605636949 -0.38843848481234128 0 -0.34186043661696619 -0.37129212058130201 0 -0.33907793605636949 -0.38843848481234128 0 -0.34186043661696619 -0.37129212058130201 0 -0.33117381890118691 -0.37439017039049421 0 -0.33907793605636949 -0.38843848481234128 0 -0.33907793605636949 -0.38843848481234128 0 -0.32863834086785437 -0.39580531279144587 0 -0.32670088077396042 -0.38608634583090168 0 -0.33117381890118691 -0.37439017039049421 0 -0.33907793605636949 -0.38843848481234128 0 -0.32670088077396042 -0.38608634583090168 0 -0.34483615732744838 -0.4018500797875314 0 -0.33907793605636949 -0.38843848481234128 0 -0.33629543549577151 -0.40558484904338049 0 -0.33907793605636949 -0.38843848481234128 0 -0.33629543549577151 -0.40558484904338049 0 -0.33907793605636949 -0.38843848481234128 0 -0.33629543549577151 -0.40558484904338049 0 -0.33579888560636328 -0.40170333734230868 0 -0.33907793605636949 -0.38843848481234128 0 -0.32863834086785437 -0.39580531279144587 0 -0.33579888560636328 -0.40170333734230868 0 -0.33629543549577151 -0.40558484904338049 0 -0.33579888560636328 -0.40170333734230868 0 -0.32863834086785437 -0.39580531279144587 0 -0.33579888560636328 -0.40170333734230868 0 -0.33021483669551349 -0.40414938169144859 0 -0.33629543549577151 -0.40558484904338049 0 -0.33021483669551349 -0.40414938169144859 0 -0.33091863910355951 -0.40879365829631792 0 -0.33629543549577151 -0.40558484904338049 0 -0.33579888560636328 -0.40170333734230868 0 -0.33021483669551349 -0.40414938169144859 0 -0.33021483669551349 -0.40414938169144859 0 -0.32177508124016668 -0.4034652483553739 0 -0.3264441482527094 -0.41016238720690118 0 -0.32863834086785437 -0.39580531279144587 0 -0.33021483669551349 -0.40414938169144859 0 -0.32177508124016668 -0.4034652483553739 0 -0.32177508124016668 -0.4034652483553739 0 -0.31546297945537932 -0.39249594734821952 0 -0.31052191011204727 -0.40690946020928409 0 -0.32863834086785437 -0.39580531279144587 0 -0.31546297945537932 -0.39249594734821952 0 -0.32670088077396042 -0.38608634583090168 0 -0.32863834086785437 -0.39580531279144587 0 -0.32177508124016668 -0.4034652483553739 0 -0.31546297945537932 -0.39249594734821952 0 -0.31546297945537932 -0.39249594734821952 0 -0.32670088077396042 -0.38608634583090168 0 -0.31915132858901202 -0.3793018138120075 0 -0.33117381890118691 -0.37439017039049421 0 -0.32670088077396042 -0.38608634583090168 0 -0.31915132858901202 -0.3793018138120075 0 -0.33163369087915939 -0.43431151752290942 0 -0.3303834457037691 -0.41543203935978429 0 -0.32477242198122958 -0.42776928014078203 0 -0.33629543549577151 -0.40558484904338049 0 -0.33163369087915939 -0.43431151752290942 0 -0.34004193961202711 -0.43487112999010868 0 -0.34697417382564949 -0.41241261756835518 0 -0.34624794381837781 -0.42349518731609109 0 -0.33629543549577151 -0.40558484904338049 0 -0.33629543549577151 -0.40558484904338049 0 -0.33163369087915939 -0.43431151752290942 0 -0.33629543549577151 -0.40558484904338049 0 -0.33163369087915939 -0.43431151752290942 0 -0.3303834457037691 -0.41543203935978429 0 -0.33629543549577151 -0.40558484904338049 0 -0.34004193961202711 -0.43487112999010868 0 -0.34624794381837781 -0.42349518731609109 0 -0.33629543549577151 -0.40558484904338049 0 -0.34004193961202711 -0.43487112999010868 0 -0.34697417382564949 -0.41241261756835518 0 -0.34483615732744838 -0.4018500797875314 0 -0.33629543549577151 -0.40558484904338049 0 -0.33629543549577151 -0.40558484904338049 0 -0.33091863910355951 -0.40879365829631792 0 -0.3303834457037691 -0.41543203935978429 0 -0.33091863910355951 -0.40879365829631792 0 -0.3303834457037691 -0.41543203935978429 0 -0.3264441482527094 -0.41016238720690118 0 -0.33021483669551349 -0.40414938169144859 0 -0.33091863910355951 -0.40879365829631792 0 -0.3264441482527094 -0.41016238720690118 0 -0.3303834457037691 -0.41543203935978429 0 -0.32288477020011092 -0.4187009813968855 0 -0.32477242198122958 -0.42776928014078203 0 -0.3303834457037691 -0.41543203935978429 0 -0.32288477020011092 -0.4187009813968855 0 -0.3264441482527094 -0.41016238720690118 0 -0.32177508124016668 -0.4034652483553739 0 -0.3264441482527094 -0.41016238720690118 0 -0.31854448597667667 -0.41177934550394762 0 -0.32288477020011092 -0.4187009813968855 0 -0.3264441482527094 -0.41016238720690118 0 -0.31854448597667667 -0.41177934550394762 0 -0.31854448597667667 -0.41177934550394762 0 -0.31109652007834909 -0.41965865035129363 0 -0.31052191011204727 -0.40690946020928409 0 -0.32177508124016668 -0.4034652483553739 0 -0.31854448597667667 -0.41177934550394762 0 -0.31052191011204727 -0.40690946020928409 0 -0.32288477020011092 -0.4187009813968855 0 -0.31854448597667667 -0.41177934550394762 0 -0.31109652007834909 -0.41965865035129363 0 -0.32288477020011092 -0.4187009813968855 0 -0.31601447354627599 -0.4304676065217391 0 -0.31109652007834909 -0.41965865035129363 0 -0.32288477020011092 -0.4187009813968855 0 -0.32477242198122958 -0.42776928014078203 0 -0.31601447354627599 -0.4304676065217391 0 -0.32243644467647348 -0.44028803833412372 0 -0.33163369087915939 -0.43431151752290942 0 -0.32477242198122958 -0.42776928014078203 0 -0.32243644467647348 -0.44028803833412372 0 -0.32477242198122958 -0.42776928014078203 0 -0.31601447354627599 -0.4304676065217391 0 -0.31278969071315288 -0.44585360148274911 0 -0.31601447354627599 -0.4304676065217391 0 -0.30102498919984599 -0.43090607869259728 0 -0.30102498919984599 -0.43090607869259728 0 -0.31109652007834909 -0.41965865035129363 0 -0.29936303921050761 -0.41758181210429351 0 -0.31601447354627599 -0.4304676065217391 0 -0.30102498919984599 -0.43090607869259728 0 -0.31109652007834909 -0.41965865035129363 0 -0.31052191011204727 -0.40690946020928409 0 -0.29936303921050761 -0.41758181210429351 0 -0.28993314142481957 -0.40862128752144822 0 -0.31109652007834909 -0.41965865035129363 0 -0.31052191011204727 -0.40690946020928409 0 -0.29936303921050761 -0.41758181210429351 0 -0.29936303921050761 -0.41758181210429351 0 -0.28993314142481957 -0.40862128752144822 0 -0.28423863523747561 -0.42181358374684402 0 -0.28993314142481957 -0.40862128752144822 0 -0.28423863523747561 -0.42181358374684402 0 -0.27775409311702742 -0.40692435996392379 0 -0.30102498919984599 -0.43090607869259728 0 -0.2802504069536742 -0.43783339447521452 0 -0.30102498919984599 -0.43090607869259728 0 -0.29936303921050761 -0.41758181210429351 0 -0.28423863523747561 -0.42181358374684402 0 -0.30102498919984599 -0.43090607869259728 0 -0.28423863523747561 -0.42181358374684402 0 -0.2802504069536742 -0.43783339447521452 0 -0.31546297945537932 -0.39249594734821952 0 -0.31915132858901202 -0.3793018138120075 0 -0.29797000408784519 -0.38005633651173459 0 -0.31546297945537932 -0.39249594734821952 0 -0.29797000408784519 -0.38005633651173459 0 -0.30035203363435242 -0.39716442592835532 0 -0.31052191011204727 -0.40690946020928409 0 -0.28993314142481957 -0.40862128752144822 0 -0.30035203363435242 -0.39716442592835532 0 -0.31546297945537932 -0.39249594734821952 0 -0.31052191011204727 -0.40690946020928409 0 -0.30035203363435242 -0.39716442592835532 0 -0.29797000408784519 -0.38005633651173459 0 -0.30035203363435242 -0.39716442592835532 0 -0.28787213309167059 -0.39773909805109048 0 -0.29797000408784519 -0.38005633651173459 0 -0.28787213309167059 -0.39773909805109048 0 -0.27429049382837661 -0.39512553541286399 0 -0.28993314142481957 -0.40862128752144822 0 -0.30035203363435242 -0.39716442592835532 0 -0.28787213309167059 -0.39773909805109048 0 -0.28993314142481957 -0.40862128752144822 0 -0.28787213309167059 -0.39773909805109048 0 -0.27775409311702742 -0.40692435996392379 0 -0.29797000408784519 -0.38005633651173459 0 -0.277823285439811 -0.38170687556220118 0 -0.27429049382837661 -0.39512553541286399 0 -0.27971672965661898 -0.36715839633563158 0 -0.29797000408784519 -0.38005633651173459 0 -0.277823285439811 -0.38170687556220118 0 -0.29797000408784519 -0.38005633651173459 0 -0.27429049382837661 -0.39512553541286399 0 -0.2695413387282441 -0.3774195048182668 0 -0.277823285439811 -0.38170687556220118 0 -0.26759786089797022 -0.38877460473250902 0 -0.27971672965661898 -0.36715839633563158 0 -0.2695413387282441 -0.3774195048182668 0 -0.277823285439811 -0.38170687556220118 0 -0.2695413387282441 -0.3774195048182668 0 -0.26759786089797022 -0.38877460473250902 0 -0.26440424609215102 -0.3823841352349987 0 -0.277823285439811 -0.38170687556220118 0 -0.26759786089797022 -0.38877460473250902 0 -0.27429049382837661 -0.39512553541286399 0 -0.26759786089797022 -0.38877460473250902 0 -0.27429049382837661 -0.39512553541286399 0 -0.26544543617465299 -0.4025808059697909 0 -0.28787213309167059 -0.39773909805109048 0 -0.27429049382837661 -0.39512553541286399 0 -0.27775409311702742 -0.40692435996392379 0 -0.27429049382837661 -0.39512553541286399 0 -0.26544543617465299 -0.4025808059697909 0 -0.27775409311702742 -0.40692435996392379 0 -0.25088597312503602 -0.40590154939457251 0 -0.26544543617465299 -0.4025808059697909 0 -0.25704803487579092 -0.38298507069563392 0 -0.26759786089797022 -0.38877460473250902 0 -0.26544543617465299 -0.4025808059697909 0 -0.25704803487579092 -0.38298507069563392 0 -0.25088597312503602 -0.40590154939457251 0 -0.25704803487579092 -0.38298507069563392 0 -0.26759786089797022 -0.38877460473250902 0 -0.25704803487579092 -0.38298507069563392 0 -0.26759786089797022 -0.38877460473250902 0 -0.25704803487579092 -0.38298507069563392 0 -0.26440424609215102 -0.3823841352349987 0 -0.2537697303883914 -0.37248603908174333 0 -0.25704803487579092 -0.38298507069563392 0 -0.258126515348783 -0.37897424188764472 0 -0.25704803487579092 -0.38298507069563392 0 -0.258126515348783 -0.37897424188764472 0 -0.2695413387282441 -0.3774195048182668 0 -0.258126515348783 -0.37897424188764472 0 -0.26440424609215102 -0.3823841352349987 0 -0.25704803487579092 -0.38298507069563392 0 -0.258126515348783 -0.37897424188764472 0 -0.26440424609215102 -0.3823841352349987 0 -0.26916777989159141 -0.42794081636719361 0 -0.26050281665580022 -0.43702740274022628 0 -0.2802504069536742 -0.43783339447521452 0 -0.28423863523747561 -0.42181358374684402 0 -0.26916777989159141 -0.42794081636719361 0 -0.2802504069536742 -0.43783339447521452 0 -0.26916777989159141 -0.42794081636719361 0 -0.27119712566838589 -0.41732700187338551 0 -0.25934447170998409 -0.42102751971564789 0 -0.28423863523747561 -0.42181358374684402 0 -0.26916777989159141 -0.42794081636719361 0 -0.27119712566838589 -0.41732700187338551 0 -0.28423863523747561 -0.42181358374684402 0 -0.27775409311702742 -0.40692435996392379 0 -0.27119712566838589 -0.41732700187338551 0 -0.26544543617465299 -0.4025808059697909 0 -0.27775409311702742 -0.40692435996392379 0 -0.27119712566838589 -0.41732700187338551 0 -0.25088597312503602 -0.40590154939457251 0 -0.25934447170998409 -0.42102751971564789 0 -0.24472391137428079 -0.42881802809351088 0 -0.26544543617465299 -0.4025808059697909 0 -0.27119712566838589 -0.41732700187338551 0 -0.25934447170998409 -0.42102751971564789 0 -0.25088597312503602 -0.40590154939457251 0 -0.26544543617465299 -0.4025808059697909 0 -0.25934447170998409 -0.42102751971564789 0 -0.26050281665580022 -0.43702740274022628 0 -0.25947582470750241 -0.44476071025783132 0 -0.24472391137428079 -0.42881802809351088 0 -0.26916777989159141 -0.42794081636719361 0 -0.25934447170998409 -0.42102751971564789 0 -0.26050281665580022 -0.43702740274022628 0 -0.25934447170998409 -0.42102751971564789 0 -0.26050281665580022 -0.43702740274022628 0 -0.24472391137428079 -0.42881802809351088 0 -0.26050281665580022 -0.43702740274022628 0 -0.25947582470750241 -0.44476071025783132 0 -0.25947582470750241 -0.44476071025783132 0 -0.27720585299085831 -0.45843825406921562 0 -0.25580790476084247 -0.47238035512891519 0 -0.25947582470750241 -0.44476071025783132 0 -0.25580790476084247 -0.47238035512891519 0 -0.24749825628717001 -0.45919959786827141 0 -0.25947582470750241 -0.44476071025783132 0 -0.25580790476084247 -0.47238035512891519 0 -0.25947582470750241 -0.44476071025783132 0 -0.27720585299085831 -0.45843825406921562 0 -0.2802504069536742 -0.43783339447521452 0 -0.26050281665580022 -0.43702740274022628 0 -0.25947582470750241 -0.44476071025783132 0 -0.2802504069536742 -0.43783339447521452 0 -0.25947582470750241 -0.44476071025783132 0 -0.2802504069536742 -0.43783339447521452 0 -0.27720585299085831 -0.45843825406921562 0 -0.2802504069536742 -0.43783339447521452 0 -0.29636521287132811 -0.45022234390161459 0 -0.30102498919984599 -0.43090607869259728 0 -0.2802504069536742 -0.43783339447521452 0 -0.29636521287132811 -0.45022234390161459 0 -0.27720585299085831 -0.45843825406921562 0 -0.29636521287132811 -0.45022234390161459 0 -0.29438099561665859 -0.46754556333710551 0 -0.29438099561665859 -0.46754556333710551 0 -0.30826186670568151 -0.46047040757452562 0 -0.31080148806471808 -0.47569234314871961 0 -0.29636521287132811 -0.45022234390161459 0 -0.29438099561665859 -0.46754556333710551 0 -0.30826186670568151 -0.46047040757452562 0 -0.31278969071315288 -0.44585360148274911 0 -0.30102498919984599 -0.43090607869259728 0 -0.29636521287132811 -0.45022234390161459 0 -0.31278969071315288 -0.44585360148274911 0 -0.29636521287132811 -0.45022234390161459 0 -0.30826186670568151 -0.46047040757452562 0 -0.29978433304219038 -0.5 0 -0.30985713946684879 -0.49028748124611488 0 -0.29278316742520188 -0.48398020859988639 0 -0.32360650715619382 -0.5 0 -0.29978433304219038 -0.5 0 -0.30985713946684879 -0.49028748124611488 0 -0.29438099561665859 -0.46754556333710551 0 -0.31080148806471808 -0.47569234314871961 0 -0.29278316742520188 -0.48398020859988639 0 -0.30985713946684879 -0.49028748124611488 0 -0.31080148806471808 -0.47569234314871961 0 -0.29278316742520188 -0.48398020859988639 0 -0.27720585299085831 -0.45843825406921562 0 -0.29438099561665859 -0.46754556333710551 0 -0.27471334408932202 -0.48039073018918699 0 -0.29438099561665859 -0.46754556333710551 0 -0.29278316742520188 -0.48398020859988639 0 -0.27471334408932202 -0.48039073018918699 0 -0.29978433304219038 -0.5 0 -0.29278316742520188 -0.48398020859988639 0 -0.27596215892818698 -0.5 0 -0.29278316742520188 -0.48398020859988639 0 -0.27596215892818698 -0.5 0 -0.27471334408932202 -0.48039073018918699 0 -0.27596215892818698 -0.5 0 -0.27471334408932202 -0.48039073018918699 0 -0.25213998481418359 -0.49999999999999939 0 -0.27720585299085831 -0.45843825406921562 0 -0.27471334408932202 -0.48039073018918699 0 -0.25580790476084247 -0.47238035512891519 0 -0.27471334408932202 -0.48039073018918699 0 -0.25580790476084247 -0.47238035512891519 0 -0.25213998481418359 -0.49999999999999939 0 -0.25580790476084247 -0.47238035512891519 0 -0.25213998481418359 -0.49999999999999939 0 -0.25213998481418359 -0.49999999999999939 0 -0.2370397965235331 -0.4829156019362853 0 -0.2231517949981118 -0.5 0 -0.25580790476084247 -0.47238035512891519 0 -0.25213998481418359 -0.49999999999999939 0 -0.2370397965235331 -0.4829156019362853 0 -0.25580790476084247 -0.47238035512891519 0 -0.2370397965235331 -0.4829156019362853 0 -0.23508783154653221 -0.46465425094324281 0 -0.2370397965235331 -0.4829156019362853 0 -0.21901146649799569 -0.47754340360926922 0 -0.23508783154653221 -0.46465425094324281 0 -0.2370397965235331 -0.4829156019362853 0 -0.21901146649799569 -0.47754340360926922 0 -0.2231517949981118 -0.5 0 -0.2385618496235262 -0.45173450679244942 0 -0.23129160106511851 -0.43709963730954993 0 -0.24472391137428079 -0.42881802809351088 0 -0.2385618496235262 -0.45173450679244942 0 -0.24472391137428079 -0.42881802809351088 0 -0.25947582470750241 -0.44476071025783132 0 -0.2385618496235262 -0.45173450679244942 0 -0.25947582470750241 -0.44476071025783132 0 -0.2385618496235262 -0.45173450679244942 0 -0.24749825628717001 -0.45919959786827141 0 -0.25947582470750241 -0.44476071025783132 0 -0.2385618496235262 -0.45173450679244942 0 -0.24472391137428079 -0.42881802809351088 0 -0.25580790476084247 -0.47238035512891519 0 -0.24749825628717001 -0.45919959786827141 0 -0.23508783154653221 -0.46465425094324281 0 -0.2385618496235262 -0.45173450679244942 0 -0.23508783154653221 -0.46465425094324281 0 -0.2385618496235262 -0.45173450679244942 0 -0.24749825628717001 -0.45919959786827141 0 -0.23508783154653221 -0.46465425094324281 0 -0.2385618496235262 -0.45173450679244942 0 -0.23508783154653221 -0.46465425094324281 0 -0.21422987578458089 -0.45984804016700492 0 -0.2385618496235262 -0.45173450679244942 0 -0.21422987578458089 -0.45984804016700492 0 -0.21901146649799569 -0.47754340360926922 0 -0.23508783154653221 -0.46465425094324281 0 -0.21422987578458089 -0.45984804016700492 0 -0.2385618496235262 -0.45173450679244942 0 -0.22373294895950069 -0.44562363246201497 0 -0.21422987578458089 -0.45984804016700492 0 -0.22373294895950069 -0.44562363246201497 0 -0.23129160106511851 -0.43709963730954993 0 -0.2192384910052303 -0.43488680371419752 0 -0.2385618496235262 -0.45173450679244942 0 -0.22373294895950069 -0.44562363246201497 0 -0.23129160106511851 -0.43709963730954993 0 -0.21289818343492381 -0.44349854971687441 0 -0.20397315398609531 -0.4496244745745217 0 -0.21422987578458089 -0.45984804016700492 0 -0.22373294895950069 -0.44562363246201497 0 -0.21289818343492381 -0.44349854971687441 0 -0.21422987578458089 -0.45984804016700492 0 -0.21289818343492381 -0.44349854971687441 0 -0.20397315398609531 -0.4496244745745217 0 -0.20581969429101329 -0.43465918960913369 0 -0.21289818343492381 -0.44349854971687441 0 -0.20581969429101329 -0.43465918960913369 0 -0.2192384910052303 -0.43488680371419752 0 -0.22373294895950069 -0.44562363246201497 0 -0.21289818343492381 -0.44349854971687441 0 -0.2192384910052303 -0.43488680371419752 0 -0.21901146649799569 -0.47754340360926922 0 -0.21422987578458089 -0.45984804016700492 0 -0.19506641466448671 -0.46828098387341971 0 -0.20397315398609531 -0.4496244745745217 0 -0.21422987578458089 -0.45984804016700492 0 -0.19506641466448671 -0.46828098387341971 0 -0.19506641466448671 -0.46828098387341971 0 -0.1896401196652954 -0.44755426621927857 0 -0.20397315398609531 -0.4496244745745217 0 -0.19506641466448671 -0.46828098387341971 0 -0.1896401196652954 -0.44755426621927857 0 -0.1896401196652954 -0.44755426621927857 0 -0.19421517347938899 -0.43892384599924311 0 -0.18421382466610381 -0.42682754856513749 0 -0.20397315398609531 -0.4496244745745217 0 -0.1896401196652954 -0.44755426621927857 0 -0.19421517347938899 -0.43892384599924311 0 -0.20397315398609531 -0.4496244745745217 0 -0.19421517347938899 -0.43892384599924311 0 -0.20581969429101329 -0.43465918960913369 0 -0.2231517949981118 -0.5 0 -0.20408729917130211 -0.48554238702921543 0 -0.19416360518204001 -0.5 0 -0.21901146649799569 -0.47754340360926922 0 -0.2231517949981118 -0.5 0 -0.20408729917130211 -0.48554238702921543 0 -0.21901146649799569 -0.47754340360926922 0 -0.19506641466448671 -0.46828098387341971 0 -0.20408729917130211 -0.48554238702921543 0 -0.19506641466448671 -0.46828098387341971 0 -0.20408729917130211 -0.48554238702921543 0 -0.18904321451387629 -0.48188754766338809 0 -0.20408729917130211 -0.48554238702921543 0 -0.18904321451387629 -0.48188754766338809 0 -0.19416360518204001 -0.5 0 -0.18904321451387629 -0.48188754766338809 0 -0.19416360518204001 -0.5 0 -0.1749502834427957 -0.488733265356326 0 -0.19416360518204001 -0.5 0 -0.1749502834427957 -0.488733265356326 0 -0.16517541536596811 -0.5 0 -0.1749502834427957 -0.488733265356326 0 -0.16517541536596811 -0.5 0 -0.16100752861487899 -0.48637228700894902 0 -0.16100752861487899 -0.48637228700894902 0 -0.17431056471527609 -0.46358966005581043 0 -0.15155521059242361 -0.47585415269531178 0 -0.1749502834427957 -0.488733265356326 0 -0.16100752861487899 -0.48637228700894902 0 -0.17431056471527609 -0.46358966005581043 0 -0.19506641466448671 -0.46828098387341971 0 -0.18904321451387629 -0.48188754766338809 0 -0.17431056471527609 -0.46358966005581043 0 -0.18904321451387629 -0.48188754766338809 0 -0.1749502834427957 -0.488733265356326 0 -0.17431056471527609 -0.46358966005581043 0 -0.1749502834427957 -0.488733265356326 0 -0.17431056471527609 -0.46358966005581043 0 -0.19506641466448671 -0.46828098387341971 0 -0.1896401196652954 -0.44755426621927857 0 -0.17431056471527609 -0.46358966005581043 0 -0.1896401196652954 -0.44755426621927857 0 -0.17431056471527609 -0.46358966005581043 0 -0.17367084598775659 -0.43844605475529469 0 -0.1896401196652954 -0.44755426621927857 0 -0.17367084598775659 -0.43844605475529469 0 -0.18421382466610381 -0.42682754856513749 0 -0.17431056471527609 -0.46358966005581043 0 -0.17367084598775659 -0.43844605475529469 0 -0.17431056471527609 -0.46358966005581043 0 -0.17367084598775659 -0.43844605475529469 0 -0.1621750359315654 -0.4506644270107184 0 -0.17367084598775659 -0.43844605475529469 0 -0.1621750359315654 -0.4506644270107184 0 -0.1604126943466824 -0.42620343591829618 0 -0.17431056471527609 -0.46358966005581043 0 -0.1621750359315654 -0.4506644270107184 0 -0.15155521059242361 -0.47585415269531178 0 -0.14611492905428211 -0.45420162634824401 0 -0.13784215215085011 -0.46756250438726787 0 -0.15155521059242361 -0.47585415269531178 0 -0.1621750359315654 -0.4506644270107184 0 -0.14611492905428211 -0.45420162634824401 0 -0.15155521059242361 -0.47585415269531178 0 -0.1621750359315654 -0.4506644270107184 0 -0.14535368939372481 -0.43667890619187499 0 -0.1604126943466824 -0.42620343591829618 0 -0.1621750359315654 -0.4506644270107184 0 -0.14611492905428211 -0.45420162634824401 0 -0.14535368939372481 -0.43667890619187499 0 -0.12609498559090451 -0.4536751920835832 0 -0.14535368939372481 -0.43667890619187499 0 -0.1231970525530857 -0.43363603978277332 0 -0.14611492905428211 -0.45420162634824401 0 -0.12609498559090451 -0.4536751920835832 0 -0.14535368939372481 -0.43667890619187499 0 -0.13784215215085011 -0.46756250438726787 0 -0.12609498559090451 -0.4536751920835832 0 -0.1220003165794752 -0.47100054322375778 0 -0.14611492905428211 -0.45420162634824401 0 -0.13784215215085011 -0.46756250438726787 0 -0.12609498559090451 -0.4536751920835832 0 -0.13784215215085011 -0.46756250438726787 0 -0.13618722554989629 -0.5 0 -0.15155521059242361 -0.47585415269531178 0 -0.13784215215085011 -0.46756250438726787 0 -0.13618722554989629 -0.5 0 -0.1220003165794752 -0.47100054322375778 0 -0.16100752861487899 -0.48637228700894902 0 -0.13618722554989629 -0.5 0 -0.15155521059242361 -0.47585415269531178 0 -0.16517541536596811 -0.5 0 -0.16100752861487899 -0.48637228700894902 0 -0.13618722554989629 -0.5 0 -0.14819062995230839 -0.38325869741118851 0 -0.13825485317448671 -0.39996143161534992 0 -0.16492612771174869 -0.40349972313534699 0 -0.14819062995230839 -0.38325869741118851 0 -0.126179364221604 -0.38421012841432062 0 -0.1314551321928682 -0.36301767168702992 0 -0.14819062995230839 -0.38325869741118851 0 -0.126179364221604 -0.38421012841432062 0 -0.13825485317448671 -0.39996143161534992 0 -0.126179364221604 -0.38421012841432062 0 -0.13825485317448671 -0.39996143161534992 0 -0.1221605545703203 -0.39811076834837961 0 -0.13825485317448671 -0.39996143161534992 0 -0.1239451303712449 -0.41521880271736639 0 -0.1221605545703203 -0.39811076834837961 0 -0.13825485317448671 -0.39996143161534992 0 -0.14406159013241671 -0.41856788145905938 0 -0.1239451303712449 -0.41521880271736639 0 -0.14406159013241671 -0.41856788145905938 0 -0.1231970525530857 -0.43363603978277332 0 -0.14535368939372481 -0.43667890619187499 0 -0.14406159013241671 -0.41856788145905938 0 -0.1231970525530857 -0.43363603978277332 0 -0.14406159013241671 -0.41856788145905938 0 -0.1231970525530857 -0.43363603978277332 0 -0.1239451303712449 -0.41521880271736639 0 -0.14535368939372481 -0.43667890619187499 0 -0.14406159013241671 -0.41856788145905938 0 -0.1604126943466824 -0.42620343591829618 0 -0.14406159013241671 -0.41856788145905938 0 -0.16492612771174869 -0.40349972313534699 0 -0.13825485317448671 -0.39996143161534992 0 -0.14406159013241671 -0.41856788145905938 0 -0.16492612771174869 -0.40349972313534699 0 -0.1604126943466824 -0.42620343591829618 0 -0.17303112726023739 -0.41330244945477929 0 -0.16492612771174869 -0.40349972313534699 0 -0.14406159013241671 -0.41856788145905938 0 -0.1604126943466824 -0.42620343591829618 0 -0.16492612771174869 -0.40349972313534699 0 -0.17303112726023739 -0.41330244945477929 0 -0.16492612771174869 -0.40349972313534699 0 -0.17287040850739391 -0.40698553436062868 0 -0.17303112726023739 -0.41330244945477929 0 -0.16492612771174869 -0.40349972313534699 0 -0.17367084598775659 -0.43844605475529469 0 -0.1604126943466824 -0.42620343591829618 0 -0.17303112726023739 -0.41330244945477929 0 -0.17367084598775659 -0.43844605475529469 0 -0.17303112726023739 -0.41330244945477929 0 -0.17367084598775659 -0.43844605475529469 0 -0.18421382466610381 -0.42682754856513749 0 -0.17303112726023739 -0.41330244945477929 0 -0.1896401196652954 -0.44755426621927857 0 -0.18421382466610381 -0.42682754856513749 0 -0.18421382466610381 -0.42682754856513749 0 -0.17912957749089961 -0.40740734459538941 0 -0.18421382466610381 -0.42682754856513749 0 -0.1770372286059157 -0.41282877379879152 0 -0.17912957749089961 -0.40740734459538941 0 -0.18421382466610381 -0.42682754856513749 0 -0.17912957749089961 -0.40740734459538941 0 -0.19494559176423421 -0.41320829278358062 0 -0.1770372286059157 -0.41282877379879152 0 -0.17912957749089961 -0.40740734459538941 0 -0.17287040850739391 -0.40698553436062868 0 -0.1770372286059157 -0.41282877379879152 0 -0.17912957749089961 -0.40740734459538941 0 -0.17287040850739391 -0.40698553436062868 0 -0.17303112726023739 -0.41330244945477929 0 -0.1770372286059157 -0.41282877379879152 0 -0.17287040850739391 -0.40698553436062868 0 -0.17303112726023739 -0.41330244945477929 0 -0.18421382466610381 -0.42682754856513749 0 -0.17303112726023739 -0.41330244945477929 0 -0.18421382466610381 -0.42682754856513749 0 -0.1770372286059157 -0.41282877379879152 0 -0.17303112726023739 -0.41330244945477929 0 -0.17912957749089961 -0.40740734459538941 0 -0.17601077276200941 -0.39549450442659417 0 -0.18670908186840901 -0.38776829363479531 0 -0.17912957749089961 -0.40740734459538941 0 -0.18670908186840901 -0.38776829363479531 0 -0.17912957749089961 -0.40740734459538941 0 -0.18670908186840901 -0.38776829363479531 0 -0.1918055204296128 -0.39899815761910062 0 -0.17601077276200941 -0.39549450442659417 0 -0.18670908186840901 -0.38776829363479531 0 -0.17912957749089961 -0.40740734459538941 0 -0.17601077276200941 -0.39549450442659417 0 -0.17912957749089961 -0.40740734459538941 0 -0.17287040850739391 -0.40698553436062868 0 -0.17601077276200941 -0.39549450442659417 0 -0.17601077276200941 -0.39549450442659417 0 -0.16492612771174869 -0.40349972313534699 0 -0.17287040850739391 -0.40698553436062868 0 -0.17601077276200941 -0.39549450442659417 0 -0.16492612771174869 -0.40349972313534699 0 -0.14819062995230839 -0.38325869741118851 0 -0.16492612771174869 -0.40349972313534699 0 -0.14819062995230839 -0.38325869741118851 0 -0.16492612771174869 -0.40349972313534699 0 -0.16488331853339999 -0.38908450115326759 0 -0.17601077276200941 -0.39549450442659417 0 -0.16492612771174869 -0.40349972313534699 0 -0.16488331853339999 -0.38908450115326759 0 -0.14819062995230839 -0.38325869741118851 0 -0.16488331853339999 -0.38908450115326759 0 -0.17040574370753489 -0.37408507963994281 0 -0.17601077276200941 -0.39549450442659417 0 -0.16488331853339999 -0.38908450115326759 0 -0.17040574370753489 -0.37408507963994281 0 -0.18670908186840901 -0.38776829363479531 0 -0.1936176589590955 -0.36986766441266911 0 -0.17040574370753489 -0.37408507963994281 0 -0.17601077276200941 -0.39549450442659417 0 -0.17040574370753489 -0.37408507963994281 0 -0.17601077276200941 -0.39549450442659417 0 -0.18670908186840901 -0.38776829363479531 0 -0.17040574370753489 -0.37408507963994281 0 -0.18670908186840901 -0.38776829363479531 0 -0.1936176589590955 -0.36986766441266911 0 -0.18670908186840901 -0.38776829363479531 0 -0.198392631158402 -0.37933055233259272 0 -0.1936176589590955 -0.36986766441266911 0 -0.198392631158402 -0.37933055233259272 0 -0.19706829601479389 -0.38965649286578108 0 -0.20830822392967921 -0.38653954153674369 0 -0.18670908186840901 -0.38776829363479531 0 -0.198392631158402 -0.37933055233259272 0 -0.19706829601479389 -0.38965649286578108 0 -0.18670908186840901 -0.38776829363479531 0 -0.198392631158402 -0.37933055233259272 0 -0.18670908186840901 -0.38776829363479531 0 -0.19706829601479389 -0.38965649286578108 0 -0.1918055204296128 -0.39899815761910062 0 -0.1918055204296128 -0.39899815761910062 0 -0.20222408733159011 -0.39825480922624162 0 -0.19494559176423421 -0.41320829278358062 0 -0.19706829601479389 -0.38965649286578108 0 -0.20222408733159011 -0.39825480922624162 0 -0.20830822392967921 -0.38653954153674369 0 -0.19706829601479389 -0.38965649286578108 0 -0.1918055204296128 -0.39899815761910062 0 -0.20222408733159011 -0.39825480922624162 0 -0.20222408733159011 -0.39825480922624162 0 -0.21548332061321299 -0.39742161253697078 0 -0.20830822392967921 -0.38653954153674369 0 -0.20222408733159011 -0.39825480922624162 0 -0.21548332061321299 -0.39742161253697078 0 -0.2112768205308076 -0.41045335407315958 0 -0.21548332061321299 -0.39742161253697078 0 -0.20830822392967921 -0.38653954153674369 0 -0.22452694288275349 -0.38773070279792382 0 -0.198392631158402 -0.37933055233259272 0 -0.21576852154598239 -0.37643282426404501 0 -0.20830822392967921 -0.38653954153674369 0 -0.21576852154598239 -0.37643282426404501 0 -0.20830822392967921 -0.38653954153674369 0 -0.22452694288275349 -0.38773070279792382 0 -0.19421517347938899 -0.43892384599924311 0 -0.19575487018989651 -0.42767257538749898 0 -0.20581969429101329 -0.43465918960913369 0 -0.19421517347938899 -0.43892384599924311 0 -0.18421382466610381 -0.42682754856513749 0 -0.19421517347938899 -0.43892384599924311 0 -0.18421382466610381 -0.42682754856513749 0 -0.19575487018989651 -0.42767257538749898 0 -0.18421382466610381 -0.42682754856513749 0 -0.19575487018989651 -0.42767257538749898 0 -0.19494559176423421 -0.41320829278358062 0 -0.19575487018989651 -0.42767257538749898 0 -0.2037388209401062 -0.42171455186022461 0 -0.20581969429101329 -0.43465918960913369 0 -0.17912957749089961 -0.40740734459538941 0 -0.1918055204296128 -0.39899815761910062 0 -0.19494559176423421 -0.41320829278358062 0 -0.20222408733159011 -0.39825480922624162 0 -0.19494559176423421 -0.41320829278358062 0 -0.2112768205308076 -0.41045335407315958 0 -0.19575487018989651 -0.42767257538749898 0 -0.19494559176423421 -0.41320829278358062 0 -0.2037388209401062 -0.42171455186022461 0 -0.19494559176423421 -0.41320829278358062 0 -0.2112768205308076 -0.41045335407315958 0 -0.2037388209401062 -0.42171455186022461 0 -0.2112768205308076 -0.41045335407315958 0 -0.2130770286723927 -0.42480957310445888 0 -0.2253113165948063 -0.4223339662655789 0 -0.2112768205308076 -0.41045335407315958 0 -0.2037388209401062 -0.42171455186022461 0 -0.2130770286723927 -0.42480957310445888 0 -0.2037388209401062 -0.42171455186022461 0 -0.2130770286723927 -0.42480957310445888 0 -0.20581969429101329 -0.43465918960913369 0 -0.2130770286723927 -0.42480957310445888 0 -0.20581969429101329 -0.43465918960913369 0 -0.2192384910052303 -0.43488680371419752 0 -0.23129160106511851 -0.43709963730954993 0 -0.2253113165948063 -0.4223339662655789 0 -0.24472391137428079 -0.42881802809351088 0 -0.23129160106511851 -0.43709963730954993 0 -0.2192384910052303 -0.43488680371419752 0 -0.2253113165948063 -0.4223339662655789 0 -0.2130770286723927 -0.42480957310445888 0 -0.2192384910052303 -0.43488680371419752 0 -0.2253113165948063 -0.4223339662655789 0 -0.2253113165948063 -0.4223339662655789 0 -0.24472391137428079 -0.42881802809351088 0 -0.23108052839123491 -0.40412965505078541 0 -0.2112768205308076 -0.41045335407315958 0 -0.2253113165948063 -0.4223339662655789 0 -0.23108052839123491 -0.40412965505078541 0 -0.25088597312503602 -0.40590154939457251 0 -0.24472391137428079 -0.42881802809351088 0 -0.25088597312503602 -0.40590154939457251 0 -0.24472391137428079 -0.42881802809351088 0 -0.23108052839123491 -0.40412965505078541 0 -0.21576852154598239 -0.37643282426404501 0 -0.22452694288275349 -0.38773070279792382 0 -0.23820743526712029 -0.37264572552727099 0 -0.22452694288275349 -0.38773070279792382 0 -0.24034978290838721 -0.39067854069323732 0 -0.23820743526712029 -0.37264572552727099 0 -0.22452694288275349 -0.38773070279792382 0 -0.23108052839123491 -0.40412965505078541 0 -0.24034978290838721 -0.39067854069323732 0 -0.21548332061321299 -0.39742161253697078 0 -0.2112768205308076 -0.41045335407315958 0 -0.23108052839123491 -0.40412965505078541 0 -0.21548332061321299 -0.39742161253697078 0 -0.22452694288275349 -0.38773070279792382 0 -0.23108052839123491 -0.40412965505078541 0 -0.25088597312503602 -0.40590154939457251 0 -0.25704803487579092 -0.38298507069563392 0 -0.24034978290838721 -0.39067854069323732 0 -0.25088597312503602 -0.40590154939457251 0 -0.23108052839123491 -0.40412965505078541 0 -0.24034978290838721 -0.39067854069323732 0 -0.25704803487579092 -0.38298507069563392 0 -0.24034978290838721 -0.39067854069323732 0 -0.23820743526712029 -0.37264572552727099 0 -0.25704803487579092 -0.38298507069563392 0 -0.23820743526712029 -0.37264572552727099 0 -0.2537697303883914 -0.37248603908174333 0 -0.25704803487579092 -0.38298507069563392 0 -0.23820743526712029 -0.37264572552727099 0 -0.25300435451518749 -0.35969863246827188 0 -0.23820743526712029 -0.37264572552727099 0 -0.23765945627743909 -0.34686298652561548 0 -0.25300435451518749 -0.35969863246827188 0 -0.2537697303883914 -0.37248603908174333 0 -0.23820743526712029 -0.37264572552727099 0 -0.23820743526712029 -0.37264572552727099 0 -0.2193668356584505 -0.362306380358907 0 -0.23765945627743909 -0.34686298652561548 0 -0.23820743526712029 -0.37264572552727099 0 -0.2193668356584505 -0.362306380358907 0 -0.21576852154598239 -0.37643282426404501 0 -0.23820743526712029 -0.37264572552727099 0 -0.2193668356584505 -0.362306380358907 0 -0.2193668356584505 -0.362306380358907 0 -0.23765945627743909 -0.34686298652561548 0 -0.2169593907974379 -0.34564605119534653 0 -0.25300435451518749 -0.35969863246827188 0 -0.2580372555781828 -0.34474315983665882 0 -0.23765945627743909 -0.34686298652561548 0 -0.2580372555781828 -0.34474315983665882 0 -0.25225645023502208 -0.33168591279810861 0 -0.23765945627743909 -0.34686298652561548 0 -0.25225645023502208 -0.33168591279810861 0 -0.23765945627743909 -0.34686298652561548 0 -0.23901155064040011 -0.3240817370220449 0 -0.25246230460774721 -0.31461311935138508 0 -0.23901155064040011 -0.3240817370220449 0 -0.2331790186848042 -0.30493943721822642 0 -0.25225645023502208 -0.33168591279810861 0 -0.25246230460774721 -0.31461311935138508 0 -0.23901155064040011 -0.3240817370220449 0 -0.23901155064040011 -0.3240817370220449 0 -0.22410108280689511 -0.33223980257165081 0 -0.2165502477483848 -0.31044764729021362 0 -0.23901155064040011 -0.3240817370220449 0 -0.2331790186848042 -0.30493943721822642 0 -0.2165502477483848 -0.31044764729021362 0 -0.23765945627743909 -0.34686298652561548 0 -0.23901155064040011 -0.3240817370220449 0 -0.22410108280689511 -0.33223980257165081 0 -0.23765945627743909 -0.34686298652561548 0 -0.22410108280689511 -0.33223980257165081 0 -0.2169593907974379 -0.34564605119534653 0 -0.2085382418990846 -0.33120734124037871 0 -0.20052623604978101 -0.35196703519054262 0 -0.2169593907974379 -0.34564605119534653 0 -0.2085382418990846 -0.33120734124037871 0 -0.20052623604978101 -0.35196703519054262 0 -0.22410108280689511 -0.33223980257165081 0 -0.2085382418990846 -0.33120734124037871 0 -0.2169593907974379 -0.34564605119534653 0 -0.22410108280689511 -0.33223980257165081 0 -0.2085382418990846 -0.33120734124037871 0 -0.2165502477483848 -0.31044764729021362 0 -0.2085382418990846 -0.33120734124037871 0 -0.2165502477483848 -0.31044764729021362 0 -0.2085382418990846 -0.33120734124037871 0 -0.2165502477483848 -0.31044764729021362 0 -0.19862651296620101 -0.30840817899464601 0 -0.2085382418990846 -0.33120734124037871 0 -0.1904389857752265 -0.32402854625902711 0 -0.19862651296620101 -0.30840817899464601 0 -0.1904389857752265 -0.32402854625902711 0 -0.19862651296620101 -0.30840817899464601 0 -0.18630864575992029 -0.31364786540529599 0 -0.2085382418990846 -0.33120734124037871 0 -0.19415661737463211 -0.33658168300831393 0 -0.20052623604978101 -0.35196703519054262 0 -0.2085382418990846 -0.33120734124037871 0 -0.1904389857752265 -0.32402854625902711 0 -0.19415661737463211 -0.33658168300831393 0 -0.19415661737463211 -0.33658168300831393 0 -0.20052623604978101 -0.35196703519054262 0 -0.17712300577443679 -0.33912380934330733 0 -0.20052623604978101 -0.35196703519054262 0 -0.17712300577443679 -0.33912380934330733 0 -0.20052623604978101 -0.35196703519054262 0 -0.1936176589590955 -0.36986766441266911 0 -0.18129467182878151 -0.35754384868795069 0 -0.20052623604978101 -0.35196703519054262 0 -0.1936176589590955 -0.36986766441266911 0 -0.20664135076263049 -0.3686035366206345 0 -0.20052623604978101 -0.35196703519054262 0 -0.1936176589590955 -0.36986766441266911 0 -0.198392631158402 -0.37933055233259272 0 -0.1936176589590955 -0.36986766441266911 0 -0.20664135076263049 -0.3686035366206345 0 -0.2193668356584505 -0.362306380358907 0 -0.20052623604978101 -0.35196703519054262 0 -0.20664135076263049 -0.3686035366206345 0 -0.198392631158402 -0.37933055233259272 0 -0.21576852154598239 -0.37643282426404501 0 -0.20664135076263049 -0.3686035366206345 0 -0.21576852154598239 -0.37643282426404501 0 -0.2193668356584505 -0.362306380358907 0 -0.20664135076263049 -0.3686035366206345 0 -0.2193668356584505 -0.362306380358907 0 -0.20052623604978101 -0.35196703519054262 0 -0.2193668356584505 -0.362306380358907 0 -0.20052623604978101 -0.35196703519054262 0 -0.2169593907974379 -0.34564605119534653 0 -0.22123898279613269 -0.25275702491106239 0 -0.22507569117076121 -0.26256021488732012 0 -0.21475210666427599 -0.26298068087708337 0 -0.22507569117076121 -0.26256021488732012 0 -0.22166039805252219 -0.2705925891853545 0 -0.21475210666427599 -0.26298068087708337 0 -0.22507569117076121 -0.26256021488732012 0 -0.23590736163769621 -0.25558715954368849 0 -0.23181960670317889 -0.27088361991941168 0 -0.22123898279613269 -0.25275702491106239 0 -0.22507569117076121 -0.26256021488732012 0 -0.23590736163769621 -0.25558715954368849 0 -0.25509643939260801 -0.25372761686286172 0 -0.23590736163769621 -0.25558715954368849 0 -0.24701821730940651 -0.26713600026353113 0 -0.25509643939260801 -0.25372761686286172 0 -0.23590736163769621 -0.25558715954368849 0 -0.2445407545490455 -0.242169086467064 0 -0.23590736163769621 -0.25558715954368849 0 -0.24701821730940651 -0.26713600026353113 0 -0.23181960670317889 -0.27088361991941168 0 -0.24701821730940651 -0.26713600026353113 0 -0.24168946669341149 -0.27821812889605269 0 -0.23181960670317889 -0.27088361991941168 0 -0.25552696275014952 -0.28188501557604367 0 -0.24701821730940651 -0.26713600026353113 0 -0.24168946669341149 -0.27821812889605269 0 -0.24168946669341149 -0.27821812889605269 0 -0.23181960670317889 -0.27088361991941168 0 -0.22712445612159521 -0.28304909894637981 0 -0.23181960670317889 -0.27088361991941168 0 -0.22712445612159521 -0.28304909894637981 0 -0.23181960670317889 -0.27088361991941168 0 -0.22166039805252219 -0.2705925891853545 0 -0.22712445612159521 -0.28304909894637981 0 -0.22507569117076121 -0.26256021488732012 0 -0.23181960670317889 -0.27088361991941168 0 -0.22166039805252219 -0.2705925891853545 0 -0.22166039805252219 -0.2705925891853545 0 -0.22712445612159521 -0.28304909894637981 0 -0.211810835392201 -0.27260068078549721 0 -0.22712445612159521 -0.28304909894637981 0 -0.211810835392201 -0.27260068078549721 0 -0.2245622535976825 -0.28968795334004749 0 -0.2335391576876556 -0.28742582248706311 0 -0.2331790186848042 -0.30493943721822642 0 -0.2245622535976825 -0.28968795334004749 0 -0.22712445612159521 -0.28304909894637981 0 -0.21455580173652189 -0.28373520328382018 0 -0.2245622535976825 -0.28968795334004749 0 -0.22712445612159521 -0.28304909894637981 0 -0.2245622535976825 -0.28968795334004749 0 -0.2335391576876556 -0.28742582248706311 0 -0.22712445612159521 -0.28304909894637981 0 -0.24168946669341149 -0.27821812889605269 0 -0.2335391576876556 -0.28742582248706311 0 -0.22712445612159521 -0.28304909894637981 0 -0.2245622535976825 -0.28968795334004749 0 -0.2335391576876556 -0.28742582248706311 0 -0.2335391576876556 -0.28742582248706311 0 -0.22712445612159521 -0.28304909894637981 0 -0.25058554513010328 -0.29905649999165052 0 -0.2335391576876556 -0.28742582248706311 0 -0.25552696275014952 -0.28188501557604367 0 -0.24168946669341149 -0.27821812889605269 0 -0.2335391576876556 -0.28742582248706311 0 -0.25552696275014952 -0.28188501557604367 0 -0.2335391576876556 -0.28742582248706311 0 -0.25058554513010328 -0.29905649999165052 0 -0.25552696275014952 -0.28188501557604367 0 -0.2335391576876556 -0.28742582248706311 0 -0.25058554513010328 -0.29905649999165052 0 -0.2335391576876556 -0.28742582248706311 0 -0.2331790186848042 -0.30493943721822642 0 -0.25246230460774721 -0.31461311935138508 0 -0.25058554513010328 -0.29905649999165052 0 -0.2331790186848042 -0.30493943721822642 0 -0.2245622535976825 -0.28968795334004749 0 -0.2165502477483848 -0.31044764729021362 0 -0.2245622535976825 -0.28968795334004749 0 -0.2331790186848042 -0.30493943721822642 0 -0.2165502477483848 -0.31044764729021362 0 -0.2245622535976825 -0.28968795334004749 0 -0.2165502477483848 -0.31044764729021362 0 -0.20415730266322041 -0.29482988964679918 0 -0.2165502477483848 -0.31044764729021362 0 -0.19862651296620101 -0.30840817899464601 0 -0.20415730266322041 -0.29482988964679918 0 -0.20415730266322041 -0.29482988964679918 0 -0.18375235172875881 -0.29997182595355348 0 -0.19862651296620101 -0.30840817899464601 0 -0.20415730266322041 -0.29482988964679918 0 -0.18375235172875881 -0.29997182595355348 0 -0.19862651296620101 -0.30840817899464601 0 -0.18454974136587551 -0.30430890130232219 0 -0.18630864575992029 -0.31364786540529599 0 -0.19862651296620101 -0.30840817899464601 0 -0.18454974136587551 -0.30430890130232219 0 -0.18375235172875881 -0.29997182595355348 0 -0.19234981302424681 -0.28484999945516393 0 -0.20415730266322041 -0.29482988964679918 0 -0.18375235172875881 -0.29997182595355348 0 -0.19234981302424681 -0.28484999945516393 0 -0.20415730266322041 -0.29482988964679918 0 -0.20218335790267239 -0.28093273203969338 0 -0.20415730266322041 -0.29482988964679918 0 -0.21455580173652189 -0.28373520328382018 0 -0.20218335790267239 -0.28093273203969338 0 -0.2245622535976825 -0.28968795334004749 0 -0.20415730266322041 -0.29482988964679918 0 -0.2245622535976825 -0.28968795334004749 0 -0.20415730266322041 -0.29482988964679918 0 -0.21455580173652189 -0.28373520328382018 0 -0.22712445612159521 -0.28304909894637981 0 -0.21455580173652189 -0.28373520328382018 0 -0.211810835392201 -0.27260068078549721 0 -0.22166039805252219 -0.2705925891853545 0 -0.211810835392201 -0.27260068078549721 0 -0.21475210666427599 -0.26298068087708337 0 -0.211810835392201 -0.27260068078549721 0 -0.2033017377273994 -0.26489218144547988 0 -0.21475210666427599 -0.26298068087708337 0 -0.211810835392201 -0.27260068078549721 0 -0.19649721466280681 -0.26215226262461477 0 -0.211810835392201 -0.27260068078549721 0 -0.19649721466280681 -0.26215226262461477 0 -0.2033017377273994 -0.26489218144547988 0 -0.21455580173652189 -0.28373520328382018 0 -0.211810835392201 -0.27260068078549721 0 -0.20218335790267239 -0.28093273203969338 0 -0.211810835392201 -0.27260068078549721 0 -0.20218335790267239 -0.28093273203969338 0 -0.19248006653516661 -0.27197025351455473 0 -0.211810835392201 -0.27260068078549721 0 -0.19248006653516661 -0.27197025351455473 0 -0.19649721466280681 -0.26215226262461477 0 -0.19234981302424681 -0.28484999945516393 0 -0.20218335790267239 -0.28093273203969338 0 -0.19248006653516661 -0.27197025351455473 0 -0.19234981302424681 -0.28484999945516393 0 -0.19248006653516661 -0.27197025351455473 0 -0.17948827724285121 -0.27677913385259301 0 -0.19649721466280681 -0.26215226262461477 0 -0.17397364154919151 -0.24678452467897261 0 -0.1927761404030483 -0.24738098496973321 0 -0.19248006653516661 -0.27197025351455473 0 -0.19649721466280681 -0.26215226262461477 0 -0.18098947037320079 -0.25590789251301371 0 -0.19649721466280681 -0.26215226262461477 0 -0.20632428494652991 -0.25294021015760532 0 -0.2033017377273994 -0.26489218144547988 0 -0.19649721466280681 -0.26215226262461477 0 -0.2033017377273994 -0.26489218144547988 0 -0.19649721466280681 -0.26215226262461477 0 -0.18098947037320079 -0.25590789251301371 0 -0.19649721466280681 -0.26215226262461477 0 -0.20632428494652991 -0.25294021015760532 0 -0.1927761404030483 -0.24738098496973321 0 -0.20632428494652991 -0.25294021015760532 0 -0.2033017377273994 -0.26489218144547988 0 -0.21475210666427599 -0.26298068087708337 0 -0.22123898279613269 -0.25275702491106239 0 -0.20632428494652991 -0.25294021015760532 0 -0.21475210666427599 -0.26298068087708337 0 -0.17522420275694239 -0.25358644175163281 0 -0.15967070578823961 -0.26816480599322717 0 -0.15352784145279941 -0.2448501544149298 0 -0.18098947037320079 -0.25590789251301371 0 -0.17397364154919151 -0.24678452467897261 0 -0.19248006653516661 -0.27197025351455473 0 -0.18098947037320079 -0.25590789251301371 0 -0.17522420275694239 -0.25358644175163281 0 -0.18255576349924671 -0.26553437952712972 0 -0.17948827724285121 -0.27677913385259301 0 -0.19248006653516661 -0.27197025351455473 0 -0.18098947037320079 -0.25590789251301371 0 -0.18255576349924671 -0.26553437952712972 0 -0.17522420275694239 -0.25358644175163281 0 -0.17397364154919151 -0.24678452467897261 0 -0.19649721466280681 -0.26215226262461477 0 -0.17397364154919151 -0.24678452467897261 0 -0.19649721466280681 -0.26215226262461477 0 -0.18098947037320079 -0.25590789251301371 0 -0.17397364154919151 -0.24678452467897261 0 -0.17522420275694239 -0.25358644175163281 0 -0.18098947037320079 -0.25590789251301371 0 -0.17397364154919151 -0.24678452467897261 0 -0.17522420275694239 -0.25358644175163281 0 -0.17948827724285121 -0.27677913385259301 0 -0.17522420275694239 -0.25358644175163281 0 -0.18098947037320079 -0.25590789251301371 0 -0.17522420275694239 -0.25358644175163281 0 -0.18098947037320079 -0.25590789251301371 0 -0.18255576349924671 -0.26553437952712972 0 -0.19248006653516661 -0.27197025351455473 0 -0.18255576349924671 -0.26553437952712972 0 -0.17948827724285121 -0.27677913385259301 0 -0.17948827724285121 -0.27677913385259301 0 -0.15967070578823961 -0.26816480599322717 0 -0.16678440438703701 -0.2884456277909308 0 -0.17522420275694239 -0.25358644175163281 0 -0.17948827724285121 -0.27677913385259301 0 -0.15967070578823961 -0.26816480599322717 0 -0.15967070578823961 -0.26816480599322717 0 -0.16678440438703701 -0.2884456277909308 0 -0.1427570724296407 -0.28541550230392287 0 -0.17948827724285121 -0.27677913385259301 0 -0.18375235172875881 -0.29997182595355348 0 -0.16678440438703701 -0.2884456277909308 0 -0.17820702621905041 -0.30136921772688618 0 -0.18375235172875881 -0.29997182595355348 0 -0.19234981302424681 -0.28484999945516393 0 -0.17948827724285121 -0.27677913385259301 0 -0.18375235172875881 -0.29997182595355348 0 -0.17948827724285121 -0.27677913385259301 0 -0.16678440438703701 -0.2884456277909308 0 -0.18375235172875881 -0.29997182595355348 0 -0.17820702621905041 -0.30136921772688618 0 -0.18375235172875881 -0.29997182595355348 0 -0.17820702621905041 -0.30136921772688618 0 -0.182247013923133 -0.30123430270277213 0 -0.182247013923133 -0.30123430270277213 0 -0.18454974136587551 -0.30430890130232219 0 -0.18375235172875881 -0.29997182595355348 0 -0.17820702621905041 -0.30136921772688618 0 -0.182247013923133 -0.30123430270277213 0 -0.18454974136587551 -0.30430890130232219 0 -0.17820702621905041 -0.30136921772688618 0 -0.182247013923133 -0.30123430270277213 0 -0.18375235172875881 -0.29997182595355348 0 -0.18454974136587551 -0.30430890130232219 0 -0.18375235172875881 -0.29997182595355348 0 -0.17820702621905041 -0.30136921772688618 0 -0.18454974136587551 -0.30430890130232219 0 -0.17750787240998811 -0.31119014579366311 0 -0.18454974136587551 -0.30430890130232219 0 -0.17750787240998811 -0.31119014579366311 0 -0.18630864575992029 -0.31364786540529599 0 -0.17820702621905041 -0.30136921772688618 0 -0.17750787240998811 -0.31119014579366311 0 -0.1542617857213997 -0.30740328768786318 0 -0.17820702621905041 -0.30136921772688618 0 -0.15624943433525179 -0.30210248952260088 0 -0.17820702621905041 -0.30136921772688618 0 -0.15624943433525179 -0.30210248952260088 0 -0.1542617857213997 -0.30740328768786318 0 -0.16678440438703701 -0.2884456277909308 0 -0.17820702621905041 -0.30136921772688618 0 -0.15624943433525179 -0.30210248952260088 0 -0.17820702621905041 -0.30136921772688618 0 -0.1542617857213997 -0.30740328768786318 0 -0.1542617857213997 -0.30740328768786318 0 -0.13031654522374839 -0.31343735764883729 0 -0.15624943433525179 -0.30210248952260088 0 -0.13429184245145331 -0.30283576131831758 0 -0.15624943433525179 -0.30210248952260088 0 -0.1542617857213997 -0.30740328768786318 0 -0.13429184245145331 -0.30283576131831758 0 -0.1542617857213997 -0.30740328768786318 0 -0.13429184245145331 -0.30283576131831758 0 -0.13031654522374839 -0.31343735764883729 0 -0.13429184245145331 -0.30283576131831758 0 -0.13031654522374839 -0.31343735764883729 0 -0.11233425056765491 -0.30356903311403483 0 -0.13429184245145331 -0.30283576131831758 0 -0.1427570724296407 -0.28541550230392287 0 -0.1230090408380061 -0.29409904358223921 0 -0.1427570724296407 -0.28541550230392287 0 -0.1216867723207317 -0.27989047380845328 0 -0.1230090408380061 -0.29409904358223921 0 -0.15624943433525179 -0.30210248952260088 0 -0.13429184245145331 -0.30283576131831758 0 -0.1427570724296407 -0.28541550230392287 0 -0.16678440438703701 -0.2884456277909308 0 -0.15624943433525179 -0.30210248952260088 0 -0.1427570724296407 -0.28541550230392287 0 -0.15967070578823961 -0.26816480599322717 0 -0.1427570724296407 -0.28541550230392287 0 -0.13760730688676531 -0.26237031411169143 0 -0.1427570724296407 -0.28541550230392287 0 -0.13760730688676531 -0.26237031411169143 0 -0.1216867723207317 -0.27989047380845328 0 -0.13760730688676531 -0.26237031411169143 0 -0.1219718459382431 -0.26117742982747882 0 -0.1216867723207317 -0.27989047380845328 0 -0.13760730688676531 -0.26237031411169143 0 -0.1216867723207317 -0.27989047380845328 0 -0.13760730688676531 -0.26237031411169143 0 -0.1219718459382431 -0.26117742982747882 0 -0.14467308579152019 -0.24979515566572699 0 -0.1219718459382431 -0.26117742982747882 0 -0.14467308579152019 -0.24979515566572699 0 -0.1219718459382431 -0.26117742982747882 0 -0.14467308579152019 -0.24979515566572699 0 -0.13028287227370461 -0.24829102399749131 0 -0.13760730688676531 -0.26237031411169143 0 -0.15352784145279941 -0.2448501544149298 0 -0.14467308579152019 -0.24979515566572699 0 -0.13760730688676531 -0.26237031411169143 0 -0.15352784145279941 -0.2448501544149298 0 -0.15967070578823961 -0.26816480599322717 0 -0.13760730688676531 -0.26237031411169143 0 -0.15352784145279941 -0.2448501544149298 0 -0.16480071465305959 -0.35267565485329172 0 -0.17040574370753489 -0.37408507963994281 0 -0.16480071465305959 -0.35267565485329172 0 -0.17040574370753489 -0.37408507963994281 0 -0.14954442587581379 -0.35938928238291112 0 -0.1936176589590955 -0.36986766441266911 0 -0.17040574370753489 -0.37408507963994281 0 -0.18129467182878151 -0.35754384868795069 0 -0.16480071465305959 -0.35267565485329172 0 -0.17040574370753489 -0.37408507963994281 0 -0.18129467182878151 -0.35754384868795069 0 -0.20052623604978101 -0.35196703519054262 0 -0.18129467182878151 -0.35754384868795069 0 -0.17712300577443679 -0.33912380934330733 0 -0.16480071465305959 -0.35267565485329172 0 -0.18129467182878151 -0.35754384868795069 0 -0.17712300577443679 -0.33912380934330733 0 -0.1904389857752265 -0.32402854625902711 0 -0.19415661737463211 -0.33658168300831393 0 -0.17712300577443679 -0.33912380934330733 0 -0.1904389857752265 -0.32402854625902711 0 -0.17712300577443679 -0.33912380934330733 0 -0.17336766791711741 -0.32012312686935729 0 -0.1904389857752265 -0.32402854625902711 0 -0.18630864575992029 -0.31364786540529599 0 -0.17336766791711741 -0.32012312686935729 0 -0.17750787240998811 -0.31119014579366311 0 -0.18630864575992029 -0.31364786540529599 0 -0.17336766791711741 -0.32012312686935729 0 -0.1542617857213997 -0.30740328768786318 0 -0.17336766791711741 -0.32012312686935729 0 -0.15371977549909299 -0.32628058349607159 0 -0.17750787240998811 -0.31119014579366311 0 -0.1542617857213997 -0.30740328768786318 0 -0.17336766791711741 -0.32012312686935729 0 -0.16480071465305959 -0.35267565485329172 0 -0.17712300577443679 -0.33912380934330733 0 -0.1591956855985843 -0.33126623006664058 0 -0.16480071465305959 -0.35267565485329172 0 -0.1591956855985843 -0.33126623006664058 0 -0.17712300577443679 -0.33912380934330733 0 -0.1591956855985843 -0.33126623006664058 0 -0.15371977549909299 -0.32628058349607159 0 -0.17712300577443679 -0.33912380934330733 0 -0.17336766791711741 -0.32012312686935729 0 -0.15371977549909299 -0.32628058349607159 0 -0.16480071465305959 -0.35267565485329172 0 -0.1591956855985843 -0.33126623006664058 0 -0.15289465343104461 -0.34477349986594619 0 -0.17712300577443679 -0.33912380934330733 0 -0.15371977549909299 -0.32628058349607159 0 -0.1484123914829534 -0.33576734252068802 0 -0.15371977549909299 -0.32628058349607159 0 -0.13577616276485879 -0.33134454888927067 0 -0.1591956855985843 -0.33126623006664058 0 -0.1484123914829534 -0.33576734252068802 0 -0.15289465343104461 -0.34477349986594619 0 -0.1591956855985843 -0.33126623006664058 0 -0.1484123914829534 -0.33576734252068802 0 -0.15371977549909299 -0.32628058349607159 0 -0.1484123914829534 -0.33576734252068802 0 -0.13577616276485879 -0.33134454888927067 0 -0.14047568012118641 -0.34517185028551051 0 -0.1484123914829534 -0.33576734252068802 0 -0.14047568012118641 -0.34517185028551051 0 -0.15289465343104461 -0.34477349986594619 0 -0.15371977549909299 -0.32628058349607159 0 -0.13031654522374839 -0.31343735764883729 0 -0.1542617857213997 -0.30740328768786318 0 -0.15371977549909299 -0.32628058349607159 0 -0.13031654522374839 -0.31343735764883729 0 -0.13031654522374839 -0.31343735764883729 0 -0.13577616276485879 -0.33134454888927067 0 -0.1249685804051176 -0.32503637420095821 0 -0.15371977549909299 -0.32628058349607159 0 -0.13031654522374839 -0.31343735764883729 0 -0.13577616276485879 -0.33134454888927067 0 -0.13577616276485879 -0.33134454888927067 0 -0.11471963443342791 -0.34277664596287127 0 -0.1249685804051176 -0.32503637420095821 0 -0.13577616276485879 -0.33134454888927067 0 -0.14047568012118641 -0.34517185028551051 0 -0.11471963443342791 -0.34277664596287127 0 -0.14047568012118641 -0.34517185028551051 0 -0.14954442587581379 -0.35938928238291112 0 -0.1314551321928682 -0.36301767168702992 0 -0.14047568012118641 -0.34517185028551051 0 -0.1314551321928682 -0.36301767168702992 0 -0.11471963443342791 -0.34277664596287127 0 -0.14047568012118641 -0.34517185028551051 0 -0.15289465343104461 -0.34477349986594619 0 -0.14954442587581379 -0.35938928238291112 0 -0.16480071465305959 -0.35267565485329172 0 -0.15289465343104461 -0.34477349986594619 0 -0.14954442587581379 -0.35938928238291112 0 -0.14819062995230839 -0.38325869741118851 0 -0.14954442587581379 -0.35938928238291112 0 -0.1314551321928682 -0.36301767168702992 0 -0.14819062995230839 -0.38325869741118851 0 -0.17040574370753489 -0.37408507963994281 0 -0.14954442587581379 -0.35938928238291112 0 -0.14819062995230839 -0.38325869741118851 0 -0.1314551321928682 -0.36301767168702992 0 -0.126179364221604 -0.38421012841432062 0 -0.1314551321928682 -0.36301767168702992 0 -0.1086727911308718 -0.3771463550453375 0 -0.1314551321928682 -0.36301767168702992 0 -0.1061366769319084 -0.35898338218367609 0 -0.1086727911308718 -0.3771463550453375 0 -0.088219580269369116 -0.36289530058630892 0 -0.1086727911308718 -0.3771463550453375 0 -0.088863777993192616 -0.38044904001208169 0 -0.1061366769319084 -0.35898338218367609 0 -0.088219580269369116 -0.36289530058630892 0 -0.1086727911308718 -0.3771463550453375 0 -0.1061366769319084 -0.35898338218367609 0 -0.11471963443342791 -0.34277664596287127 0 -0.093286021529017965 -0.34214439765500843 0 -0.1061366769319084 -0.35898338218367609 0 -0.093286021529017965 -0.34214439765500843 0 -0.088219580269369116 -0.36289530058630892 0 -0.1314551321928682 -0.36301767168702992 0 -0.1061366769319084 -0.35898338218367609 0 -0.11471963443342791 -0.34277664596287127 0 -0.1314551321928682 -0.36301767168702992 0 -0.11471963443342791 -0.34277664596287127 0 -0.11471963443342791 -0.34277664596287127 0 -0.1249685804051176 -0.32503637420095821 0 -0.11476253679321891 -0.31735688291118119 0 -0.13031654522374839 -0.31343735764883729 0 -0.1249685804051176 -0.32503637420095821 0 -0.11476253679321891 -0.31735688291118119 0 -0.13031654522374839 -0.31343735764883729 0 -0.11476253679321891 -0.31735688291118119 0 -0.11471963443342791 -0.34277664596287127 0 -0.11476253679321891 -0.31735688291118119 0 -0.097984136673987615 -0.32253562023871257 0 -0.11476253679321891 -0.31735688291118119 0 -0.097984136673987615 -0.32253562023871257 0 -0.1040247861545654 -0.31206345828747722 0 -0.097984136673987615 -0.32253562023871257 0 -0.091451703422000513 -0.31347425061693601 0 -0.1040247861545654 -0.31206345828747722 0 -0.11471963443342791 -0.34277664596287127 0 -0.097984136673987615 -0.32253562023871257 0 -0.11471963443342791 -0.34277664596287127 0 -0.097984136673987615 -0.32253562023871257 0 -0.093286021529017965 -0.34214439765500843 0 -0.093286021529017965 -0.34214439765500843 0 -0.074172695176090125 -0.33433341197941829 0 -0.082039086183403498 -0.35143669041701542 0 -0.097984136673987615 -0.32253562023871257 0 -0.093286021529017965 -0.34214439765500843 0 -0.086394442855400461 -0.32476088346284732 0 -0.093286021529017965 -0.34214439765500843 0 -0.086394442855400461 -0.32476088346284732 0 -0.074172695176090125 -0.33433341197941829 0 -0.086394442855400461 -0.32476088346284732 0 -0.077638708896932251 -0.31485203122265459 0 -0.074172695176090125 -0.33433341197941829 0 -0.097984136673987615 -0.32253562023871257 0 -0.091451703422000513 -0.31347425061693601 0 -0.086394442855400461 -0.32476088346284732 0 -0.091451703422000513 -0.31347425061693601 0 -0.086394442855400461 -0.32476088346284732 0 -0.077638708896932251 -0.31485203122265459 0 -0.077638708896932251 -0.31485203122265459 0 -0.074172695176090125 -0.33433341197941829 0 -0.06232705567388247 -0.31607076631558889 0 -0.074172695176090125 -0.33433341197941829 0 -0.057372881831761043 -0.33181678542764781 0 -0.06232705567388247 -0.31607076631558889 0 -0.074172695176090125 -0.33433341197941829 0 -0.063581007738924097 -0.34183981599360458 0 -0.057372881831761043 -0.33181678542764781 0 -0.074172695176090125 -0.33433341197941829 0 -0.063581007738924097 -0.34183981599360458 0 -0.07094720726158299 -0.34991361115292968 0 -0.074172695176090125 -0.33433341197941829 0 -0.07094720726158299 -0.34991361115292968 0 -0.082039086183403498 -0.35143669041701542 0 -0.063581007738924097 -0.34183981599360458 0 -0.07094720726158299 -0.34991361115292968 0 -0.059910395796370627 -0.35316023954511239 0 -0.07094720726158299 -0.34991361115292968 0 -0.069590954953861944 -0.36233640732595718 0 -0.082039086183403498 -0.35143669041701542 0 -0.07094720726158299 -0.34991361115292968 0 -0.069590954953861944 -0.36233640732595718 0 -0.059910395796370627 -0.35316023954511239 0 -0.069590954953861944 -0.36233640732595718 0 -0.088219580269369116 -0.36289530058630892 0 -0.074512076485066581 -0.37665453674020399 0 -0.069590954953861944 -0.36233640732595718 0 -0.062397948458787267 -0.37488570279703531 0 -0.074512076485066581 -0.37665453674020399 0 -0.088219580269369116 -0.36289530058630892 0 -0.088863777993192616 -0.38044904001208169 0 -0.074512076485066581 -0.37665453674020399 0 -0.093286021529017965 -0.34214439765500843 0 -0.088219580269369116 -0.36289530058630892 0 -0.082039086183403498 -0.35143669041701542 0 -0.069590954953861944 -0.36233640732595718 0 -0.088219580269369116 -0.36289530058630892 0 -0.082039086183403498 -0.35143669041701542 0 -0.096665960940051032 -0.25610933762668647 0 -0.10931740613783621 -0.25525066145170427 0 -0.099270606084965934 -0.27255970398923057 0 -0.096665960940051032 -0.25610933762668647 0 -0.1047441773361453 -0.24825177899687451 0 -0.09738865516331853 -0.24664385226085889 0 -0.096665960940051032 -0.25610933762668647 0 -0.10931740613783621 -0.25525066145170427 0 -0.1047441773361453 -0.24825177899687451 0 -0.10931740613783621 -0.25525066145170427 0 -0.1219718459382431 -0.26117742982747882 0 -0.1195935868873325 -0.24923947994859169 0 -0.10931740613783621 -0.25525066145170427 0 -0.1219718459382431 -0.26117742982747882 0 -0.099270606084965934 -0.27255970398923057 0 -0.1219718459382431 -0.26117742982747882 0 -0.1195935868873325 -0.24923947994859169 0 -0.13028287227370461 -0.24829102399749131 0 -0.1219718459382431 -0.26117742982747882 0 -0.1216867723207317 -0.27989047380845328 0 -0.099270606084965934 -0.27255970398923057 0 -0.1219718459382431 -0.26117742982747882 0 -0.099270606084965934 -0.27255970398923057 0 -0.1216867723207317 -0.27989047380845328 0 -0.099270606084965934 -0.27255970398923057 0 -0.1036262187773269 -0.284695608537954 0 -0.099270606084965934 -0.27255970398923057 0 -0.094451808399671433 -0.29375550563251063 0 -0.1036262187773269 -0.284695608537954 0 -0.094451808399671433 -0.29375550563251063 0 -0.1036262187773269 -0.284695608537954 0 -0.10576623775469809 -0.29741063350521518 0 -0.1216867723207317 -0.27989047380845328 0 -0.1230090408380061 -0.29409904358223921 0 -0.10576623775469809 -0.29741063350521518 0 -0.1216867723207317 -0.27989047380845328 0 -0.10576623775469809 -0.29741063350521518 0 -0.1216867723207317 -0.27989047380845328 0 -0.1036262187773269 -0.284695608537954 0 -0.10576623775469809 -0.29741063350521518 0 -0.13429184245145331 -0.30283576131831758 0 -0.11233425056765491 -0.30356903311403483 0 -0.13031654522374839 -0.31343735764883729 0 -0.11233425056765491 -0.30356903311403483 0 -0.1230090408380061 -0.29409904358223921 0 -0.11233425056765491 -0.30356903311403483 0 -0.10576623775469809 -0.29741063350521518 0 -0.13429184245145331 -0.30283576131831758 0 -0.1230090408380061 -0.29409904358223921 0 -0.11233425056765491 -0.30356903311403483 0 -0.13031654522374839 -0.31343735764883729 0 -0.11476253679321891 -0.31735688291118119 0 -0.11233425056765491 -0.30356903311403483 0 -0.11476253679321891 -0.31735688291118119 0 -0.11233425056765491 -0.30356903311403483 0 -0.1040247861545654 -0.31206345828747722 0 -0.094451808399671433 -0.29375550563251063 0 -0.11233425056765491 -0.30356903311403483 0 -0.097649529430842971 -0.30405942804871439 0 -0.094451808399671433 -0.29375550563251063 0 -0.11233425056765491 -0.30356903311403483 0 -0.10576623775469809 -0.29741063350521518 0 -0.11233425056765491 -0.30356903311403483 0 -0.1040247861545654 -0.31206345828747722 0 -0.097649529430842971 -0.30405942804871439 0 -0.094451808399671433 -0.29375550563251063 0 -0.11233425056765491 -0.30356903311403483 0 -0.11233425056765491 -0.30356903311403483 0 -0.097649529430842971 -0.30405942804871439 0 -0.091451703422000513 -0.31347425061693601 0 -0.1040247861545654 -0.31206345828747722 0 -0.097649529430842971 -0.30405942804871439 0 -0.091451703422000513 -0.31347425061693601 0 -0.097649529430842971 -0.30405942804871439 0 -0.083780746960874022 -0.30271531650208339 0 -0.094451808399671433 -0.29375550563251063 0 -0.097649529430842971 -0.30405942804871439 0 -0.083780746960874022 -0.30271531650208339 0 -0.091451703422000513 -0.31347425061693601 0 -0.077638708896932251 -0.31485203122265459 0 -0.083780746960874022 -0.30271531650208339 0 -0.077638708896932251 -0.31485203122265459 0 -0.083780746960874022 -0.30271531650208339 0 -0.069945804297731728 -0.30176288077593072 0 -0.077638708896932251 -0.31485203122265459 0 -0.069945804297731728 -0.30176288077593072 0 -0.06232705567388247 -0.31607076631558889 0 -0.069945804297731728 -0.30176288077593072 0 -0.076569366231689445 -0.28394197815098371 0 -0.05279771533835198 -0.29586095039629567 0 -0.076569366231689445 -0.28394197815098371 0 -0.06411434761547874 -0.27710691242982211 0 -0.05279771533835198 -0.29586095039629567 0 -0.083780746960874022 -0.30271531650208339 0 -0.069945804297731728 -0.30176288077593072 0 -0.076569366231689445 -0.28394197815098371 0 -0.076569366231689445 -0.28394197815098371 0 -0.05279771533835198 -0.29586095039629567 0 -0.094451808399671433 -0.29375550563251063 0 -0.083780746960874022 -0.30271531650208339 0 -0.076569366231689445 -0.28394197815098371 0 -0.099270606084965934 -0.27255970398923057 0 -0.094451808399671433 -0.29375550563251063 0 -0.076569366231689445 -0.28394197815098371 0 -0.094451808399671433 -0.29375550563251063 0 -0.076569366231689445 -0.28394197815098371 0 -0.099270606084965934 -0.27255970398923057 0 -0.076569366231689445 -0.28394197815098371 0 -0.099270606084965934 -0.27255970398923057 0 -0.076569366231689445 -0.28394197815098371 0 -0.079570227585980188 -0.26417846211872581 0 -0.076569366231689445 -0.28394197815098371 0 -0.06411434761547874 -0.27710691242982211 0 -0.076569366231689445 -0.28394197815098371 0 -0.06411434761547874 -0.27710691242982211 0 -0.079570227585980188 -0.26417846211872581 0 -0.06411434761547874 -0.27710691242982211 0 -0.063363785046684287 -0.26154930817452821 0 -0.079570227585980188 -0.26417846211872581 0 -0.063363785046684287 -0.26154930817452821 0 -0.079570227585980188 -0.26417846211872581 0 -0.071604140050827339 -0.2458442540854556 0 -0.096665960940051032 -0.25610933762668647 0 -0.099270606084965934 -0.27255970398923057 0 -0.079570227585980188 -0.26417846211872581 0 -0.079570227585980188 -0.26417846211872581 0 -0.08621409042463074 -0.25069620380078528 0 -0.071604140050827339 -0.2458442540854556 0 -0.096665960940051032 -0.25610933762668647 0 -0.079570227585980188 -0.26417846211872581 0 -0.08621409042463074 -0.25069620380078528 0 -0.096665960940051032 -0.25610933762668647 0 -0.08621409042463074 -0.25069620380078528 0 -0.09738865516331853 -0.24664385226085889 0 -0.048384655956861727 -0.25338641839162213 0 -0.025165171862896119 -0.26092858269778868 0 -0.029961008511695159 -0.24612032589200489 0 -0.048384655956861727 -0.25338641839162213 0 -0.041607751468791282 -0.27631727878630952 0 -0.025165171862896119 -0.26092858269778868 0 -0.048384655956861727 -0.25338641839162213 0 -0.025165171862896119 -0.26092858269778868 0 -0.048384655956861727 -0.25338641839162213 0 -0.054367635021954012 -0.26708997944557039 0 -0.041607751468791282 -0.27631727878630952 0 -0.063363785046684287 -0.26154930817452821 0 -0.048384655956861727 -0.25338641839162213 0 -0.071604140050827339 -0.2458442540854556 0 -0.063363785046684287 -0.26154930817452821 0 -0.048384655956861727 -0.25338641839162213 0 -0.054367635021954012 -0.26708997944557039 0 -0.06411434761547874 -0.27710691242982211 0 -0.054367635021954012 -0.26708997944557039 0 -0.041607751468791282 -0.27631727878630952 0 -0.06411434761547874 -0.27710691242982211 0 -0.063363785046684287 -0.26154930817452821 0 -0.054367635021954012 -0.26708997944557039 0 -0.041607751468791282 -0.27631727878630952 0 -0.034949446402053212 -0.29278024887951121 0 -0.05279771533835198 -0.29586095039629567 0 -0.041607751468791282 -0.27631727878630952 0 -0.034949446402053212 -0.29278024887951121 0 -0.02032020728894739 -0.28308486290935531 0 -0.06411434761547874 -0.27710691242982211 0 -0.041607751468791282 -0.27631727878630952 0 -0.05279771533835198 -0.29586095039629567 0 -0.05279771533835198 -0.29586095039629567 0 -0.06232705567388247 -0.31607076631558889 0 -0.046579768449943368 -0.31665354720935351 0 -0.069945804297731728 -0.30176288077593072 0 -0.05279771533835198 -0.29586095039629567 0 -0.06232705567388247 -0.31607076631558889 0 -0.034949446402053212 -0.29278024887951121 0 -0.05279771533835198 -0.29586095039629567 0 -0.029026064445015012 -0.30777992264160908 0 -0.05279771533835198 -0.29586095039629567 0 -0.029026064445015012 -0.30777992264160908 0 -0.046579768449943368 -0.31665354720935351 0 -0.05279771533835198 -0.29586095039629567 0 -0.029026064445015012 -0.30777992264160908 0 -0.034949446402053212 -0.29278024887951121 0 -0.029026064445015012 -0.30777992264160908 0 -0.01341582803751455 -0.30631130210187879 0 -0.029026064445015012 -0.30777992264160908 0 -0.01341582803751455 -0.30631130210187879 0 -0.0052544135516779328 -0.31969889488692221 0 -0.01341582803751455 -0.30631130210187879 0 -0.0036000506603035519 -0.29408482094543792 0 -0.0052544135516779328 -0.31969889488692221 0 -0.0036000506603035519 -0.29408482094543792 0 -0.0052544135516779328 -0.31969889488692221 0 -0.0036000506603035519 -0.29408482094543792 0 -0.001945687768929825 -0.26847074700395329 0 -0.0036000506603035519 -0.29408482094543792 0 -0.02032020728894739 -0.28308486290935531 0 -0.001945687768929825 -0.26847074700395329 0 -0.01341582803751455 -0.30631130210187879 0 -0.0036000506603035519 -0.29408482094543792 0 -0.02032020728894739 -0.28308486290935531 0 -0.034949446402053212 -0.29278024887951121 0 -0.01341582803751455 -0.30631130210187879 0 -0.02032020728894739 -0.28308486290935531 0 -0.041607751468791282 -0.27631727878630952 0 -0.02032020728894739 -0.28308486290935531 0 -0.025165171862896119 -0.26092858269778868 0 -0.02032020728894739 -0.28308486290935531 0 -0.001945687768929825 -0.26847074700395329 0 -0.025165171862896119 -0.26092858269778868 0 -0.001945687768929825 -0.26847074700395329 0 -0.0013499795393466961 -0.2592475501348519 0 -0.025165171862896119 -0.26092858269778868 0 -0.001945687768929825 -0.26847074700395329 0 -0.025165171862896119 -0.26092858269778868 0 -0.0013499795393466961 -0.2592475501348519 0 -0.025165171862896119 -0.26092858269778868 0 -0.013927496954496001 -0.2469218739772201 0 -0.001945687768929825 -0.26847074700395329 0 -0.0013499795393466961 -0.2592475501348519 0 -0.001945687768929825 -0.26847074700395329 0 -0.0013499795393466961 -0.2592475501348519 0 0.00192333823438529 -0.2632535055597901 0 -0.025165171862896119 -0.26092858269778868 0 -0.029961008511695159 -0.24612032589200489 0 -0.013927496954496001 -0.2469218739772201 0 -0.042539989230450638 -0.34506501587449201 0 -0.034063160855794077 -0.3532586356890402 0 -0.034292596549787807 -0.33738344755727012 0 -0.034063160855794077 -0.3532586356890402 0 -0.048872082040541907 -0.3681590472324856 0 -0.048176893739280427 -0.35573190043100389 0 -0.042539989230450638 -0.34506501587449201 0 -0.034063160855794077 -0.3532586356890402 0 -0.048176893739280427 -0.35573190043100389 0 -0.048872082040541907 -0.3681590472324856 0 -0.054985368636130322 -0.36447653797276319 0 -0.035073819187519228 -0.38584336618902332 0 -0.034063160855794077 -0.3532586356890402 0 -0.048872082040541907 -0.3681590472324856 0 -0.029827872295024722 -0.36814135572602391 0 -0.048872082040541907 -0.3681590472324856 0 -0.029827872295024722 -0.36814135572602391 0 -0.035073819187519228 -0.38584336618902332 0 -0.034063160855794077 -0.3532586356890402 0 -0.048872082040541907 -0.3681590472324856 0 -0.048872082040541907 -0.3681590472324856 0 -0.054985368636130322 -0.36447653797276319 0 -0.048176893739280427 -0.35573190043100389 0 -0.062397948458787267 -0.37488570279703531 0 -0.054985368636130322 -0.36447653797276319 0 -0.052622806273112402 -0.38207490110933112 0 -0.069590954953861944 -0.36233640732595718 0 -0.062397948458787267 -0.37488570279703531 0 -0.054985368636130322 -0.36447653797276319 0 -0.069590954953861944 -0.36233640732595718 0 -0.054985368636130322 -0.36447653797276319 0 -0.059910395796370627 -0.35316023954511239 0 -0.054985368636130322 -0.36447653797276319 0 -0.059910395796370627 -0.35316023954511239 0 -0.048176893739280427 -0.35573190043100389 0 -0.042539989230450638 -0.34506501587449201 0 -0.048176893739280427 -0.35573190043100389 0 -0.052180942448444012 -0.34466316439441558 0 -0.059910395796370627 -0.35316023954511239 0 -0.048176893739280427 -0.35573190043100389 0 -0.052180942448444012 -0.34466316439441558 0 -0.063581007738924097 -0.34183981599360458 0 -0.059910395796370627 -0.35316023954511239 0 -0.052180942448444012 -0.34466316439441558 0 -0.063581007738924097 -0.34183981599360458 0 -0.052180942448444012 -0.34466316439441558 0 -0.057372881831761043 -0.33181678542764781 0 -0.052180942448444012 -0.34466316439441558 0 -0.057372881831761043 -0.33181678542764781 0 -0.043986352558946881 -0.3342879313007302 0 -0.057372881831761043 -0.33181678542764781 0 -0.06232705567388247 -0.31607076631558889 0 -0.046579768449943368 -0.31665354720935351 0 -0.057372881831761043 -0.33181678542764781 0 -0.046579768449943368 -0.31665354720935351 0 -0.043986352558946881 -0.3342879313007302 0 -0.029026064445015012 -0.30777992264160908 0 -0.046579768449943368 -0.31665354720935351 0 -0.037889559269027727 -0.32465980251824511 0 -0.046579768449943368 -0.31665354720935351 0 -0.037889559269027727 -0.32465980251824511 0 -0.043986352558946881 -0.3342879313007302 0 -0.042539989230450638 -0.34506501587449201 0 -0.043986352558946881 -0.3342879313007302 0 -0.034292596549787807 -0.33738344755727012 0 -0.042539989230450638 -0.34506501587449201 0 -0.052180942448444012 -0.34466316439441558 0 -0.043986352558946881 -0.3342879313007302 0 -0.037889559269027727 -0.32465980251824511 0 -0.043986352558946881 -0.3342879313007302 0 -0.034292596549787807 -0.33738344755727012 0 -0.037889559269027727 -0.32465980251824511 0 -0.034292596549787807 -0.33738344755727012 0 -0.026459779091778102 -0.32765646479133659 0 -0.034063160855794077 -0.3532586356890402 0 -0.034292596549787807 -0.33738344755727012 0 -0.01925423967104626 -0.3383582241455948 0 -0.034292596549787807 -0.33738344755727012 0 -0.01925423967104626 -0.3383582241455948 0 -0.026459779091778102 -0.32765646479133659 0 -0.01863089002827353 -0.33016188059773882 0 -0.01925423967104626 -0.3383582241455948 0 -0.0099333534441187338 -0.32897975295257642 0 -0.01925423967104626 -0.3383582241455948 0 -0.026459779091778102 -0.32765646479133659 0 -0.01863089002827353 -0.33016188059773882 0 -0.01925423967104626 -0.3383582241455948 0 -0.026459779091778102 -0.32765646479133659 0 -0.029026064445015012 -0.30777992264160908 0 -0.01863089002827353 -0.33016188059773882 0 -0.026459779091778102 -0.32765646479133659 0 -0.029026064445015012 -0.30777992264160908 0 -0.037889559269027727 -0.32465980251824511 0 -0.026459779091778102 -0.32765646479133659 0 -0.029026064445015012 -0.30777992264160908 0 -0.01863089002827353 -0.33016188059773882 0 -0.0052544135516779328 -0.31969889488692221 0 -0.029026064445015012 -0.30777992264160908 0 -0.0052544135516779328 -0.31969889488692221 0 -0.01863089002827353 -0.33016188059773882 0 -0.0052544135516779328 -0.31969889488692221 0 -0.0099333534441187338 -0.32897975295257642 0 -0.0055703042154493709 -0.324589748557221 0 -0.0052544135516779328 -0.31969889488692221 0 -0.0099333534441187338 -0.32897975295257642 0 -0.0055703042154493709 -0.324589748557221 0 -0.0022210525713660619 -0.32121980504568931 0 0.001168824432842991 -0.33045720967714221 0 -0.0055703042154493709 -0.324589748557221 0 -0.0099333534441187338 -0.32897975295257642 0 -0.0055703042154493709 -0.324589748557221 0 -0.0022210525713660619 -0.32121980504568931 0 -0.0022210525713660619 -0.32121980504568931 0 -0.0052544135516779328 -0.31969889488692221 0 -0.0055703042154493709 -0.324589748557221 0 -0.0022210525713660619 -0.32121980504568931 0 -0.0052544135516779328 -0.31969889488692221 0 -0.0055703042154493709 -0.324589748557221 0 -0.0052544135516779328 -0.31969889488692221 0 -0.0061942153590944342 -0.3342496038704359 0 -0.0065203273706707469 -0.3392987120324209 0 0.0082968131085368151 -0.35467290943829721 0 -0.01925423967104626 -0.3383582241455948 0 -0.0061942153590944342 -0.3342496038704359 0 -0.0065203273706707469 -0.3392987120324209 0 -0.01925423967104626 -0.3383582241455948 0 -0.0099333534441187338 -0.32897975295257642 0 -0.01925423967104626 -0.3383582241455948 0 -0.0099333534441187338 -0.32897975295257642 0 -0.0061942153590944342 -0.3342496038704359 0 -0.0099333534441187338 -0.32897975295257642 0 -0.0061942153590944342 -0.3342496038704359 0 -0.0055703042154493709 -0.324589748557221 0 -0.0099333534441187338 -0.32897975295257642 0 -0.0061942153590944342 -0.3342496038704359 0 -0.0055703042154493709 -0.324589748557221 0 -0.0061942153590944342 -0.3342496038704359 0 0.001168824432842991 -0.33045720967714221 0 -0.0055703042154493709 -0.324589748557221 0 -0.0061942153590944342 -0.3342496038704359 0 -0.0061942153590944342 -0.3342496038704359 0 0.0027171044227525189 -0.33950663027710132 0 0.001168824432842991 -0.33045720967714221 0 -0.0061942153590944342 -0.3342496038704359 0 -0.0065203273706707469 -0.3392987120324209 0 -0.01925423967104626 -0.3383582241455948 0 -0.0065203273706707469 -0.3392987120324209 0 -0.005891012688517723 -0.35820545986425312 0 -0.0065203273706707469 -0.3392987120324209 0 -0.005891012688517723 -0.35820545986425312 0 0.0082968131085368151 -0.35467290943829721 0 -0.01925423967104626 -0.3383582241455948 0 -0.005891012688517723 -0.35820545986425312 0 -0.01925423967104626 -0.3383582241455948 0 -0.005891012688517723 -0.35820545986425312 0 -0.02112115666210844 -0.35670980683355802 0 -0.034063160855794077 -0.3532586356890402 0 -0.01925423967104626 -0.3383582241455948 0 -0.02112115666210844 -0.35670980683355802 0 -0.034063160855794077 -0.3532586356890402 0 -0.02112115666210844 -0.35670980683355802 0 -0.029827872295024722 -0.36814135572602391 0 -0.034063160855794077 -0.3532586356890402 0 -0.01925423967104626 -0.3383582241455948 0 -0.02112115666210844 -0.35670980683355802 0 -0.029827872295024722 -0.36814135572602391 0 -0.0161445839022985 -0.36658065373790988 0 -0.029827872295024722 -0.36814135572602391 0 -0.0161445839022985 -0.36658065373790988 0 -0.018473740731704571 -0.37952825934480922 0 -0.005891012688517723 -0.35820545986425312 0 -0.0067307527660310932 -0.37372707628901403 0 0.0074722142940108396 -0.37805269558291138 0 -0.0161445839022985 -0.36658065373790988 0 -0.0067307527660310932 -0.37372707628901403 0 -0.018473740731704571 -0.37952825934480922 0 -0.005891012688517723 -0.35820545986425312 0 -0.02112115666210844 -0.35670980683355802 0 -0.0161445839022985 -0.36658065373790988 0 -0.005891012688517723 -0.35820545986425312 0 -0.0161445839022985 -0.36658065373790988 0 -0.0067307527660310932 -0.37372707628901403 0 -0.0067307527660310932 -0.37372707628901403 0 -0.003259872065433636 -0.39308569165140339 0 -0.018473740731704571 -0.37952825934480922 0 -0.0067307527660310932 -0.37372707628901403 0 -0.003259872065433636 -0.39308569165140339 0 0.0074722142940108396 -0.37805269558291138 0 -0.003259872065433636 -0.39308569165140339 0 -0.01799242543089136 -0.3914168778976298 0 -0.018473740731704571 -0.37952825934480922 0 -0.003259872065433636 -0.39308569165140339 0 -0.01799242543089136 -0.3914168778976298 0 -0.015162269738907891 -0.40721019440528339 0 -0.003259872065433636 -0.39308569165140339 0 -0.015162269738907891 -0.40721019440528339 0 0.0066211565102503971 -0.40895534065416661 0 -0.035073819187519228 -0.38584336618902332 0 -0.036846191794470351 -0.40547301978438027 0 -0.015162269738907891 -0.40721019440528339 0 -0.01799242543089136 -0.3914168778976298 0 -0.035073819187519228 -0.38584336618902332 0 -0.015162269738907891 -0.40721019440528339 0 -0.035073819187519228 -0.38584336618902332 0 -0.015162269738907891 -0.40721019440528339 0 -0.029827872295024722 -0.36814135572602391 0 -0.018473740731704571 -0.37952825934480922 0 -0.035073819187519228 -0.38584336618902332 0 -0.01799242543089136 -0.3914168778976298 0 -0.018473740731704571 -0.37952825934480922 0 -0.035073819187519228 -0.38584336618902332 0 -0.054985368636130322 -0.36447653797276319 0 -0.035073819187519228 -0.38584336618902332 0 -0.035073819187519228 -0.38584336618902332 0 -0.048777686234763709 -0.39487953185929059 0 -0.052622806273112402 -0.38207490110933112 0 -0.035073819187519228 -0.38584336618902332 0 -0.036846191794470351 -0.40547301978438027 0 -0.048777686234763709 -0.39487953185929059 0 -0.056340947321212531 -0.40611807422956658 0 -0.048777686234763709 -0.39487953185929059 0 -0.063779705886484572 -0.38975799280985529 0 -0.036846191794470351 -0.40547301978438027 0 -0.056340947321212531 -0.40611807422956658 0 -0.048777686234763709 -0.39487953185929059 0 -0.054985368636130322 -0.36447653797276319 0 -0.035073819187519228 -0.38584336618902332 0 -0.052622806273112402 -0.38207490110933112 0 -0.048777686234763709 -0.39487953185929059 0 -0.052622806273112402 -0.38207490110933112 0 -0.063779705886484572 -0.38975799280985529 0 -0.062397948458787267 -0.37488570279703531 0 -0.052622806273112402 -0.38207490110933112 0 -0.063779705886484572 -0.38975799280985529 0 -0.058587294715505112 -0.4315578549591752 0 -0.048374560415046779 -0.4171789944696479 0 -0.058587294715505112 -0.4315578549591752 0 -0.048374560415046779 -0.4171789944696479 0 -0.045477911903479433 -0.42767699133407322 0 -0.052635795216390308 -0.43648010739199888 0 -0.045477911903479433 -0.42767699133407322 0 -0.044931319668361787 -0.43701859771710988 0 -0.052635795216390308 -0.43648010739199888 0 -0.058587294715505112 -0.4315578549591752 0 -0.045477911903479433 -0.42767699133407322 0 -0.056340947321212531 -0.40611807422956658 0 -0.048374560415046779 -0.4171789944696479 0 -0.065807412286244121 -0.41670919740185908 0 -0.058587294715505112 -0.4315578549591752 0 -0.048374560415046779 -0.4171789944696479 0 -0.065807412286244121 -0.41670919740185908 0 -0.036846191794470351 -0.40547301978438027 0 -0.056340947321212531 -0.40611807422956658 0 -0.048374560415046779 -0.4171789944696479 0 -0.036846191794470351 -0.40547301978438027 0 -0.033984228641966013 -0.42490009167598353 0 -0.026076097734252901 -0.41546144754826031 0 -0.036846191794470351 -0.40547301978438027 0 -0.048374560415046779 -0.4171789944696479 0 -0.033984228641966013 -0.42490009167598353 0 -0.033984228641966013 -0.42490009167598353 0 -0.044931319668361787 -0.43701859771710988 0 -0.028616328745775511 -0.44032353621063641 0 -0.048374560415046779 -0.4171789944696479 0 -0.033984228641966013 -0.42490009167598353 0 -0.045477911903479433 -0.42767699133407322 0 -0.033984228641966013 -0.42490009167598353 0 -0.045477911903479433 -0.42767699133407322 0 -0.044931319668361787 -0.43701859771710988 0 -0.018311700761667229 -0.42426248432739372 0 -0.0090122328767619497 -0.43758507999149487 0 -0.028616328745775511 -0.44032353621063641 0 -0.033984228641966013 -0.42490009167598353 0 -0.018311700761667229 -0.42426248432739372 0 -0.028616328745775511 -0.44032353621063641 0 -0.033984228641966013 -0.42490009167598353 0 -0.018311700761667229 -0.42426248432739372 0 -0.026076097734252901 -0.41546144754826031 0 -0.018311700761667229 -0.42426248432739372 0 -0.026076097734252901 -0.41546144754826031 0 -0.015162269738907891 -0.40721019440528339 0 -0.036846191794470351 -0.40547301978438027 0 -0.026076097734252901 -0.41546144754826031 0 -0.015162269738907891 -0.40721019440528339 0 -0.036846191794470351 -0.40547301978438027 0 -0.015162269738907891 -0.40721019440528339 0 -0.018311700761667229 -0.42426248432739372 0 -0.015162269738907891 -0.40721019440528339 0 -0.002285203373328108 -0.42102840908881828 0 -0.015162269738907891 -0.40721019440528339 0 0.0066211565102503971 -0.40895534065416661 0 -0.015162269738907891 -0.40721019440528339 0 -0.002285203373328108 -0.42102840908881828 0 0.0066211565102503971 -0.40895534065416661 0 -0.015162269738907891 -0.40721019440528339 0 -0.002285203373328108 -0.42102840908881828 0 -0.002285203373328108 -0.42102840908881828 0 -0.0090122328767619497 -0.43758507999149487 0 0.010591862992251601 -0.43484662377235328 0 -0.018311700761667229 -0.42426248432739372 0 -0.002285203373328108 -0.42102840908881828 0 -0.0090122328767619497 -0.43758507999149487 0 -0.005577595179060809 -0.44499050769520798 0 -0.011182769503661689 -0.45749411919417993 0 -0.021410859245325931 -0.45077846902927798 0 -0.005577595179060809 -0.44499050769520798 0 -0.0090122328767619497 -0.43758507999149487 0 -0.028616328745775511 -0.44032353621063641 0 -0.005577595179060809 -0.44499050769520798 0 -0.0090122328767619497 -0.43758507999149487 0 0.010591862992251601 -0.43484662377235328 0 -0.005577595179060809 -0.44499050769520798 0 -0.011182769503661689 -0.45749411919417993 0 0.0028291302825320728 -0.45876387370612298 0 -0.011182769503661689 -0.45749411919417993 0 -0.0035289706845435449 -0.47124467642878848 0 0.0028291302825320728 -0.45876387370612298 0 -0.011182769503661689 -0.45749411919417993 0 -0.0035289706845435449 -0.47124467642878848 0 -0.013376518818665519 -0.46881203549648293 0 -0.025155978503658569 -0.46433956424197592 0 -0.036521624294473129 -0.44674461780438929 0 -0.03135651710320176 -0.46737719477122408 0 -0.011182769503661689 -0.45749411919417993 0 -0.025155978503658569 -0.46433956424197592 0 -0.025155978503658569 -0.46433956424197592 0 -0.036521624294473129 -0.44674461780438929 0 -0.025155978503658569 -0.46433956424197592 0 -0.021410859245325931 -0.45077846902927798 0 -0.036521624294473129 -0.44674461780438929 0 -0.011182769503661689 -0.45749411919417993 0 -0.025155978503658569 -0.46433956424197592 0 -0.021410859245325931 -0.45077846902927798 0 -0.011182769503661689 -0.45749411919417993 0 -0.025155978503658569 -0.46433956424197592 0 -0.013376518818665519 -0.46881203549648293 0 -0.025155978503658569 -0.46433956424197592 0 -0.03135651710320176 -0.46737719477122408 0 -0.0090122328767619497 -0.43758507999149487 0 -0.028616328745775511 -0.44032353621063641 0 -0.028616328745775511 -0.44032353621063641 0 -0.021410859245325931 -0.45077846902927798 0 -0.036521624294473129 -0.44674461780438929 0 -0.005577595179060809 -0.44499050769520798 0 -0.028616328745775511 -0.44032353621063641 0 -0.005577595179060809 -0.44499050769520798 0 -0.028616328745775511 -0.44032353621063641 0 -0.021410859245325931 -0.45077846902927798 0 -0.01059836770153239 -0.50000000000000111 0 -0.01363835658279846 -0.4821697821209876 0 -0.020977442402367499 -0.48368859738561287 0 -0.0021207346619387391 -0.49999999999999961 0 -0.01363835658279846 -0.4821697821209876 0 0.001175748076098193 -0.48555418352193808 0 -0.0021207346619387391 -0.49999999999999961 0 -0.01363835658279846 -0.4821697821209876 0 -0.01059836770153239 -0.50000000000000111 0 -0.0021207346619387391 -0.49999999999999961 0 -0.01363835658279846 -0.4821697821209876 0 -0.01363835658279846 -0.4821697821209876 0 -0.0035289706845435449 -0.47124467642878848 0 0.001175748076098193 -0.48555418352193808 0 -0.01363835658279846 -0.4821697821209876 0 -0.0035289706845435449 -0.47124467642878848 0 -0.013376518818665519 -0.46881203549648293 0 -0.025155978503658569 -0.46433956424197592 0 -0.01363835658279846 -0.4821697821209876 0 -0.020977442402367499 -0.48368859738561287 0 -0.020977442402367499 -0.48368859738561287 0 -0.038972657543340922 -0.48457114172026261 0 -0.03135651710320176 -0.46737719477122408 0 -0.025155978503658569 -0.46433956424197592 0 -0.01363835658279846 -0.4821697821209876 0 -0.020977442402367499 -0.48368859738561287 0 -0.03135651710320176 -0.46737719477122408 0 -0.025155978503658569 -0.46433956424197592 0 -0.01363835658279846 -0.4821697821209876 0 -0.013376518818665519 -0.46881203549648293 0 -0.025155978503658569 -0.46433956424197592 0 -0.020977442402367499 -0.48368859738561287 0 -0.03135651710320176 -0.46737719477122408 0 -0.01059836770153239 -0.50000000000000111 0 -0.020977442402367499 -0.48368859738561287 0 -0.034748534709605372 -0.5 0 -0.01059836770153239 -0.50000000000000111 0 -0.020977442402367499 -0.48368859738561287 0 -0.020977442402367499 -0.48368859738561287 0 -0.034748534709605372 -0.5 0 -0.038972657543340922 -0.48457114172026261 0 -0.034748534709605372 -0.5 0 -0.038972657543340922 -0.48457114172026261 0 -0.049988855997792389 -0.4909189631153511 0 -0.058240009796674062 -0.48054736004436038 0 -0.03135651710320176 -0.46737719477122408 0 -0.045708637783471798 -0.46156584156003377 0 -0.058240009796674062 -0.48054736004436038 0 -0.03135651710320176 -0.46737719477122408 0 -0.038972657543340922 -0.48457114172026261 0 -0.058240009796674062 -0.48054736004436038 0 -0.03135651710320176 -0.46737719477122408 0 -0.038972657543340922 -0.48457114172026261 0 -0.058240009796674062 -0.48054736004436038 0 -0.049988855997792389 -0.4909189631153511 0 -0.034748534709605372 -0.5 0 -0.049988855997792389 -0.4909189631153511 0 -0.058898701717678408 -0.5 0 -0.058240009796674062 -0.48054736004436038 0 -0.049988855997792389 -0.4909189631153511 0 -0.064771701790745442 -0.49006366044473981 0 -0.049988855997792389 -0.4909189631153511 0 -0.058898701717678408 -0.5 0 -0.064771701790745442 -0.49006366044473981 0 -0.028616328745775511 -0.44032353621063641 0 -0.048708178880869792 -0.4431301258296686 0 -0.028616328745775511 -0.44032353621063641 0 -0.036521624294473129 -0.44674461780438929 0 -0.048708178880869792 -0.4431301258296686 0 -0.044931319668361787 -0.43701859771710988 0 -0.028616328745775511 -0.44032353621063641 0 -0.044931319668361787 -0.43701859771710988 0 -0.028616328745775511 -0.44032353621063641 0 -0.048708178880869792 -0.4431301258296686 0 -0.044676476404074961 -0.44644399742692381 0 -0.036521624294473129 -0.44674461780438929 0 -0.048708178880869792 -0.4431301258296686 0 -0.044676476404074961 -0.44644399742692381 0 -0.03135651710320176 -0.46737719477122408 0 -0.044676476404074961 -0.44644399742692381 0 -0.03135651710320176 -0.46737719477122408 0 -0.045708637783471798 -0.46156584156003377 0 -0.044676476404074961 -0.44644399742692381 0 -0.036521624294473129 -0.44674461780438929 0 -0.03135651710320176 -0.46737719477122408 0 -0.044676476404074961 -0.44644399742692381 0 -0.045708637783471798 -0.46156584156003377 0 -0.057543701141753757 -0.45669122202490819 0 -0.058240009796674062 -0.48054736004436038 0 -0.045708637783471798 -0.46156584156003377 0 -0.057543701141753757 -0.45669122202490819 0 -0.048708178880869792 -0.4431301258296686 0 -0.068800029015963854 -0.44593671544870211 0 -0.057543701141753757 -0.45669122202490819 0 -0.048708178880869792 -0.4431301258296686 0 -0.068800029015963854 -0.44593671544870211 0 -0.052635795216390308 -0.43648010739199888 0 -0.058587294715505112 -0.4315578549591752 0 -0.068800029015963854 -0.44593671544870211 0 -0.052635795216390308 -0.43648010739199888 0 -0.048708178880869792 -0.4431301258296686 0 -0.068800029015963854 -0.44593671544870211 0 -0.044676476404074961 -0.44644399742692381 0 -0.057543701141753757 -0.45669122202490819 0 -0.048708178880869792 -0.4431301258296686 0 -0.052635795216390308 -0.43648010739199888 0 -0.044931319668361787 -0.43701859771710988 0 -0.048708178880869792 -0.4431301258296686 0 -0.068800029015963854 -0.44593671544870211 0 -0.081467977394421298 -0.46377235643019782 0 -0.081594812388724292 -0.44772399267555257 0 -0.058587294715505112 -0.4315578549591752 0 -0.068800029015963854 -0.44593671544870211 0 -0.068800029015963854 -0.44593671544870211 0 -0.081594812388724292 -0.44772399267555257 0 -0.078937336747985379 -0.43504207013150709 0 -0.068800029015963854 -0.44593671544870211 0 -0.081594812388724292 -0.44772399267555257 0 -0.057543701141753757 -0.45669122202490819 0 -0.068800029015963854 -0.44593671544870211 0 -0.081467977394421298 -0.46377235643019782 0 -0.058240009796674062 -0.48054736004436038 0 -0.057543701141753757 -0.45669122202490819 0 -0.081467977394421298 -0.46377235643019782 0 -0.068800029015963854 -0.44593671544870211 0 -0.081467977394421298 -0.46377235643019782 0 -0.081467977394421298 -0.46377235643019782 0 -0.1023325149737547 -0.44870419810648732 0 -0.081467977394421298 -0.46377235643019782 0 -0.081594812388724292 -0.44772399267555257 0 -0.1023325149737547 -0.44870419810648732 0 -0.081594812388724292 -0.44772399267555257 0 -0.1023325149737547 -0.44870419810648732 0 -0.092029216822858112 -0.43404764191854478 0 -0.081594812388724292 -0.44772399267555257 0 -0.078937336747985379 -0.43504207013150709 0 -0.092029216822858112 -0.43404764191854478 0 -0.058240009796674062 -0.48054736004436038 0 -0.080547446161197481 -0.49147572516010812 0 -0.058240009796674062 -0.48054736004436038 0 -0.064771701790745442 -0.49006366044473981 0 -0.080547446161197481 -0.49147572516010812 0 -0.058898701717678408 -0.5 0 -0.064771701790745442 -0.49006366044473981 0 -0.083048868725751401 -0.5 0 -0.064771701790745442 -0.49006366044473981 0 -0.080547446161197481 -0.49147572516010812 0 -0.083048868725751401 -0.5 0 -0.058240009796674062 -0.48054736004436038 0 -0.081467977394421298 -0.46377235643019782 0 -0.079869971490211744 -0.47854276560769943 0 -0.058240009796674062 -0.48054736004436038 0 -0.081467977394421298 -0.46377235643019782 0 -0.058240009796674062 -0.48054736004436038 0 -0.079869971490211744 -0.47854276560769943 0 -0.080547446161197481 -0.49147572516010812 0 -0.081467977394421298 -0.46377235643019782 0 -0.094333506564122066 -0.48188617821510099 0 -0.081467977394421298 -0.46377235643019782 0 -0.079869971490211744 -0.47854276560769943 0 -0.094333506564122066 -0.48188617821510099 0 -0.079869971490211744 -0.47854276560769943 0 -0.080547446161197481 -0.49147572516010812 0 -0.094333506564122066 -0.48188617821510099 0 -0.080547446161197481 -0.49147572516010812 0 -0.091716000225614963 -0.49282750173494833 0 -0.094333506564122066 -0.48188617821510099 0 -0.080547446161197481 -0.49147572516010812 0 -0.091716000225614963 -0.49282750173494833 0 -0.083048868725751401 -0.5 0 -0.1071990357338244 -0.50000000000000333 0 -0.094333506564122066 -0.48188617821510099 0 -0.091716000225614963 -0.49282750173494833 0 -0.1071990357338244 -0.50000000000000333 0 -0.094333506564122066 -0.48188617821510099 0 -0.091716000225614963 -0.49282750173494833 0 -0.083048868725751401 -0.5 0 -0.1071990357338244 -0.50000000000000333 0 -0.1071990357338244 -0.50000000000000333 0 -0.094333506564122066 -0.48188617821510099 0 -0.11100940090714891 -0.48366780031108858 0 -0.094333506564122066 -0.48188617821510099 0 -0.11100940090714891 -0.48366780031108858 0 -0.1056764498154134 -0.46701151437820437 0 -0.081467977394421298 -0.46377235643019782 0 -0.094333506564122066 -0.48188617821510099 0 -0.1056764498154134 -0.46701151437820437 0 -0.1220003165794752 -0.47100054322375778 0 -0.11100940090714891 -0.48366780031108858 0 -0.1056764498154134 -0.46701151437820437 0 -0.13618722554989629 -0.5 0 -0.1220003165794752 -0.47100054322375778 0 -0.11100940090714891 -0.48366780031108858 0 -0.13618722554989629 -0.5 0 -0.1071990357338244 -0.50000000000000333 0 -0.11100940090714891 -0.48366780031108858 0 -0.081467977394421298 -0.46377235643019782 0 -0.1023325149737547 -0.44870419810648732 0 -0.1056764498154134 -0.46701151437820437 0 -0.12609498559090451 -0.4536751920835832 0 -0.1023325149737547 -0.44870419810648732 0 -0.1056764498154134 -0.46701151437820437 0 -0.12609498559090451 -0.4536751920835832 0 -0.1220003165794752 -0.47100054322375778 0 -0.1056764498154134 -0.46701151437820437 0 -0.1023325149737547 -0.44870419810648732 0 -0.1231970525530857 -0.43363603978277332 0 -0.12609498559090451 -0.4536751920835832 0 -0.1023325149737547 -0.44870419810648732 0 -0.1231970525530857 -0.43363603978277332 0 -0.1023325149737547 -0.44870419810648732 0 -0.1231970525530857 -0.43363603978277332 0 -0.1076824883078715 -0.42738060456593402 0 -0.1231970525530857 -0.43363603978277332 0 -0.1076824883078715 -0.42738060456593402 0 -0.1239451303712449 -0.41521880271736639 0 -0.1076824883078715 -0.42738060456593402 0 -0.096439458707995515 -0.42126504342240612 0 -0.092029216822858112 -0.43404764191854478 0 -0.1023325149737547 -0.44870419810648732 0 -0.1076824883078715 -0.42738060456593402 0 -0.092029216822858112 -0.43404764191854478 0 -0.1081515564182898 -0.41141190144802597 0 -0.096439458707995515 -0.42126504342240612 0 -0.092402701367792259 -0.41018195754804931 0 -0.1076824883078715 -0.42738060456593402 0 -0.1081515564182898 -0.41141190144802597 0 -0.096439458707995515 -0.42126504342240612 0 -0.1076824883078715 -0.42738060456593402 0 -0.1081515564182898 -0.41141190144802597 0 -0.1239451303712449 -0.41521880271736639 0 -0.1081515564182898 -0.41141190144802597 0 -0.1239451303712449 -0.41521880271736639 0 -0.1221605545703203 -0.39811076834837961 0 -0.1081515564182898 -0.41141190144802597 0 -0.1221605545703203 -0.39811076834837961 0 -0.1066388270608124 -0.39313485276849808 0 -0.126179364221604 -0.38421012841432062 0 -0.1221605545703203 -0.39811076834837961 0 -0.1066388270608124 -0.39313485276849808 0 -0.126179364221604 -0.38421012841432062 0 -0.1086727911308718 -0.3771463550453375 0 -0.1066388270608124 -0.39313485276849808 0 -0.1066388270608124 -0.39313485276849808 0 -0.0891324388680515 -0.39572990786928469 0 -0.088863777993192616 -0.38044904001208169 0 -0.1086727911308718 -0.3771463550453375 0 -0.1066388270608124 -0.39313485276849808 0 -0.088863777993192616 -0.38044904001208169 0 -0.1066388270608124 -0.39313485276849808 0 -0.0891324388680515 -0.39572990786928469 0 -0.092402701367792259 -0.41018195754804931 0 -0.1081515564182898 -0.41141190144802597 0 -0.1066388270608124 -0.39313485276849808 0 -0.092402701367792259 -0.41018195754804931 0 -0.0891324388680515 -0.39572990786928469 0 -0.075405721377080334 -0.40440243416511618 0 -0.092402701367792259 -0.41018195754804931 0 -0.0891324388680515 -0.39572990786928469 0 -0.078338744121975126 -0.38939878231930841 0 -0.075405721377080334 -0.40440243416511618 0 -0.0891324388680515 -0.39572990786928469 0 -0.088863777993192616 -0.38044904001208169 0 -0.078338744121975126 -0.38939878231930841 0 -0.088863777993192616 -0.38044904001208169 0 -0.078338744121975126 -0.38939878231930841 0 -0.074512076485066581 -0.37665453674020399 0 -0.078338744121975126 -0.38939878231930841 0 -0.074512076485066581 -0.37665453674020399 0 -0.063779705886484572 -0.38975799280985529 0 -0.062397948458787267 -0.37488570279703531 0 -0.074512076485066581 -0.37665453674020399 0 -0.063779705886484572 -0.38975799280985529 0 -0.056340947321212531 -0.40611807422956658 0 -0.063779705886484572 -0.38975799280985529 0 -0.075405721377080334 -0.40440243416511618 0 -0.078338744121975126 -0.38939878231930841 0 -0.063779705886484572 -0.38975799280985529 0 -0.075405721377080334 -0.40440243416511618 0 -0.056340947321212531 -0.40611807422956658 0 -0.075405721377080334 -0.40440243416511618 0 -0.065807412286244121 -0.41670919740185908 0 -0.075405721377080334 -0.40440243416511618 0 -0.065807412286244121 -0.41670919740185908 0 -0.081768643552167092 -0.42105892254680022 0 -0.058587294715505112 -0.4315578549591752 0 -0.068800029015963854 -0.44593671544870211 0 -0.069741672244740219 -0.42826374817094809 0 -0.068800029015963854 -0.44593671544870211 0 -0.069741672244740219 -0.42826374817094809 0 -0.078937336747985379 -0.43504207013150709 0 -0.065807412286244121 -0.41670919740185908 0 -0.069741672244740219 -0.42826374817094809 0 -0.081768643552167092 -0.42105892254680022 0 -0.058587294715505112 -0.4315578549591752 0 -0.065807412286244121 -0.41670919740185908 0 -0.069741672244740219 -0.42826374817094809 0 -0.069741672244740219 -0.42826374817094809 0 -0.078937336747985379 -0.43504207013150709 0 -0.081768643552167092 -0.42105892254680022 0 -0.078937336747985379 -0.43504207013150709 0 -0.092029216822858112 -0.43404764191854478 0 -0.081768643552167092 -0.42105892254680022 0 -0.096439458707995515 -0.42126504342240612 0 -0.092029216822858112 -0.43404764191854478 0 -0.081768643552167092 -0.42105892254680022 0 -0.096439458707995515 -0.42126504342240612 0 -0.092402701367792259 -0.41018195754804931 0 -0.081768643552167092 -0.42105892254680022 0 -0.075405721377080334 -0.40440243416511618 0 -0.092402701367792259 -0.41018195754804931 0 -0.081768643552167092 -0.42105892254680022 0 -0.087384778302227725 -0.082253978765832847 0 -0.071077440927873686 -0.08031991690627828 0 -0.081262101008759718 -0.1005927993359111 0 -0.087384778302227725 -0.082253978765832847 0 -0.081262101008759718 -0.1005927993359111 0 -0.103174572870824 -0.096327426299960661 0 -0.087384778302227725 -0.082253978765832847 0 -0.086228729455799527 -0.063209245975050898 0 -0.071077440927873686 -0.08031991690627828 0 -0.087384778302227725 -0.082253978765832847 0 -0.086228729455799527 -0.063209245975050898 0 -0.1014826564757403 -0.073832596544226595 0 -0.086228729455799527 -0.063209245975050898 0 -0.071077440927873686 -0.08031991690627828 0 -0.086228729455799527 -0.063209245975050898 0 -0.071077440927873686 -0.08031991690627828 0 -0.062402438069185308 -0.064698450667390772 0 -0.071077440927873686 -0.08031991690627828 0 -0.05438239004447816 -0.08406477130069967 0 -0.062402438069185308 -0.064698450667390772 0 -0.071077440927873686 -0.08031991690627828 0 -0.081262101008759718 -0.1005927993359111 0 -0.06120099168706427 -0.1026592969625425 0 -0.071333720728019662 -0.1182395118359027 0 -0.081262101008759718 -0.1005927993359111 0 -0.06120099168706427 -0.1026592969625425 0 -0.071333720728019662 -0.1182395118359027 0 -0.091318256771398987 -0.1238796836358954 0 -0.081262101008759718 -0.1005927993359111 0 -0.091318256771398987 -0.1238796836358954 0 -0.081262101008759718 -0.1005927993359111 0 -0.103174572870824 -0.096327426299960661 0 -0.091318256771398987 -0.1238796836358954 0 -0.103174572870824 -0.096327426299960661 0 -0.11161036192447719 -0.1162173407966679 0 -0.11161036192447719 -0.1162173407966679 0 -0.12773106944785939 -0.1302683276577824 0 -0.12834653564563239 -0.10083667827016669 0 -0.103174572870824 -0.096327426299960661 0 -0.11161036192447719 -0.1162173407966679 0 -0.12834653564563239 -0.10083667827016669 0 -0.103174572870824 -0.096327426299960661 0 -0.116387766544777 -0.081436152704049941 0 -0.12834653564563239 -0.10083667827016669 0 -0.087384778302227725 -0.082253978765832847 0 -0.103174572870824 -0.096327426299960661 0 -0.1014826564757403 -0.073832596544226595 0 -0.103174572870824 -0.096327426299960661 0 -0.116387766544777 -0.081436152704049941 0 -0.1014826564757403 -0.073832596544226595 0 -0.086228729455799527 -0.063209245975050898 0 -0.1014826564757403 -0.073832596544226595 0 -0.10076228593278801 -0.060798056122276539 0 -0.1014826564757403 -0.073832596544226595 0 -0.1139577398158869 -0.060051806926005112 0 -0.10076228593278801 -0.060798056122276539 0 -0.116387766544777 -0.081436152704049941 0 -0.1139577398158869 -0.060051806926005112 0 -0.13497732791580139 -0.076132255479890693 0 -0.116387766544777 -0.081436152704049941 0 -0.1014826564757403 -0.073832596544226595 0 -0.1139577398158869 -0.060051806926005112 0 -0.1139577398158869 -0.060051806926005112 0 -0.13497732791580139 -0.076132255479890693 0 -0.1139577398158869 -0.060051806926005112 0 -0.11631220064756249 -0.044057363794101613 0 -0.1013800179837253 -0.046098575043823559 0 -0.1139577398158869 -0.060051806926005112 0 -0.11631220064756249 -0.044057363794101613 0 -0.1302813490505676 -0.046114076915425177 0 -0.11631220064756249 -0.044057363794101613 0 -0.1013800179837253 -0.046098575043823559 0 -0.1165313065116514 -0.028987904112596389 0 -0.12405433683914049 -0.038238732028205748 0 -0.1165313065116514 -0.028987904112596389 0 -0.13309249114678059 -0.033795583290699857 0 -0.12405433683914049 -0.038238732028205748 0 -0.11631220064756249 -0.044057363794101613 0 -0.1302813490505676 -0.046114076915425177 0 -0.12405433683914049 -0.038238732028205748 0 -0.11631220064756249 -0.044057363794101613 0 -0.1165313065116514 -0.028987904112596389 0 -0.095532526442870289 -0.034604148045169508 0 -0.1165313065116514 -0.028987904112596389 0 -0.095532526442870289 -0.034604148045169508 0 -0.1013800179837253 -0.046098575043823559 0 -0.1165313065116514 -0.028987904112596389 0 -0.1013800179837253 -0.046098575043823559 0 -0.1165313065116514 -0.028987904112596389 0 -0.095532526442870289 -0.034604148045169508 0 -0.1013800179837253 -0.046098575043823559 0 -0.086744056919633383 -0.047610598817476479 0 -0.086228729455799527 -0.063209245975050898 0 -0.1013800179837253 -0.046098575043823559 0 -0.10076228593278801 -0.060798056122276539 0 -0.086228729455799527 -0.063209245975050898 0 -0.1013800179837253 -0.046098575043823559 0 -0.1139577398158869 -0.060051806926005112 0 -0.1013800179837253 -0.046098575043823559 0 -0.10076228593278801 -0.060798056122276539 0 -0.1155530629942846 -0.0040336814150362509 0 -0.1223008309163644 -0.01266638868992407 0 -0.1308273698701844 -0.003706324753454524 0 -0.1155530629942846 -0.0040336814150362509 0 -0.1223008309163644 -0.01266638868992407 0 -0.11138628540534511 -0.018249734454342911 0 -0.11138628540534511 -0.018249734454342911 0 -0.1217729598611689 -0.023068394004009941 0 -0.1165313065116514 -0.028987904112596389 0 -0.1223008309163644 -0.01266638868992407 0 -0.11138628540534511 -0.018249734454342911 0 -0.1217729598611689 -0.023068394004009941 0 -0.1217729598611689 -0.023068394004009941 0 -0.1165313065116514 -0.028987904112596389 0 -0.095532526442870289 -0.034604148045169508 0 -0.1165313065116514 -0.028987904112596389 0 -0.098911201335801516 -0.02263682649892907 0 -0.11138628540534511 -0.018249734454342911 0 -0.1165313065116514 -0.028987904112596389 0 -0.098911201335801516 -0.02263682649892907 0 -0.11138628540534511 -0.018249734454342911 0 -0.098911201335801516 -0.02263682649892907 0 -0.10038097562275521 -0.0095636440604990307 0 -0.1155530629942846 -0.0040336814150362509 0 -0.11138628540534511 -0.018249734454342911 0 -0.10038097562275521 -0.0095636440604990307 0 -0.10038097562275521 -0.0095636440604990307 0 -0.090400042956509136 -0.0016468222240374789 0 -0.102069930659121 0.0058161948806418904 0 -0.1155530629942846 -0.0040336814150362509 0 -0.10038097562275521 -0.0095636440604990307 0 -0.102069930659121 0.0058161948806418904 0 -0.079130125441821936 -0.01191819417384915 0 -0.090400042956509136 -0.0016468222240374789 0 -0.080019140102338349 0.0090783544575563768 0 -0.098911201335801516 -0.02263682649892907 0 -0.10038097562275521 -0.0095636440604990307 0 -0.079130125441821936 -0.01191819417384915 0 -0.10038097562275521 -0.0095636440604990307 0 -0.079130125441821936 -0.01191819417384915 0 -0.090400042956509136 -0.0016468222240374789 0 -0.095532526442870289 -0.034604148045169508 0 -0.098911201335801516 -0.02263682649892907 0 -0.082614933785987527 -0.027337079900780149 0 -0.098911201335801516 -0.02263682649892907 0 -0.079130125441821936 -0.01191819417384915 0 -0.082614933785987527 -0.027337079900780149 0 -0.079130125441821936 -0.01191819417384915 0 -0.082614933785987527 -0.027337079900780149 0 -0.066332545873565421 -0.028877415042082761 0 -0.079130125441821936 -0.01191819417384915 0 -0.066332545873565421 -0.028877415042082761 0 -0.079130125441821936 -0.01191819417384915 0 -0.066332545873565421 -0.028877415042082761 0 -0.061922113567694302 -0.01224106905728786 0 -0.079130125441821936 -0.01191819417384915 0 -0.0656650319423632 -0.001268180764667408 0 -0.080019140102338349 0.0090783544575563768 0 -0.079130125441821936 -0.01191819417384915 0 -0.0656650319423632 -0.001268180764667408 0 -0.061922113567694302 -0.01224106905728786 0 -0.086228729455799527 -0.063209245975050898 0 -0.1013800179837253 -0.046098575043823559 0 -0.086744056919633383 -0.047610598817476479 0 -0.086744056919633383 -0.047610598817476479 0 -0.074533746374089146 -0.040220391977742249 0 -0.07604526434168267 -0.053920633045596161 0 -0.086228729455799527 -0.063209245975050898 0 -0.086744056919633383 -0.047610598817476479 0 -0.07604526434168267 -0.053920633045596161 0 -0.095532526442870289 -0.034604148045169508 0 -0.074533746374089146 -0.040220391977742249 0 -0.095532526442870289 -0.034604148045169508 0 -0.086744056919633383 -0.047610598817476479 0 -0.074533746374089146 -0.040220391977742249 0 -0.095532526442870289 -0.034604148045169508 0 -0.082614933785987527 -0.027337079900780149 0 -0.074533746374089146 -0.040220391977742249 0 -0.082614933785987527 -0.027337079900780149 0 -0.066332545873565421 -0.028877415042082761 0 -0.074533746374089146 -0.040220391977742249 0 -0.066332545873565421 -0.028877415042082761 0 -0.074533746374089146 -0.040220391977742249 0 -0.053534966305308282 -0.04583663591031592 0 -0.074533746374089146 -0.040220391977742249 0 -0.053534966305308282 -0.04583663591031592 0 -0.074533746374089146 -0.040220391977742249 0 -0.07604526434168267 -0.053920633045596161 0 -0.053534966305308282 -0.04583663591031592 0 -0.086228729455799527 -0.063209245975050898 0 -0.07604526434168267 -0.053920633045596161 0 -0.062402438069185308 -0.064698450667390772 0 -0.07604526434168267 -0.053920633045596161 0 -0.053534966305308282 -0.04583663591031592 0 -0.062402438069185308 -0.064698450667390772 0 -0.050657788623046339 -0.062127901701216917 0 -0.053534966305308282 -0.04583663591031592 0 -0.03933471195551666 -0.064654666977736169 0 -0.050657788623046339 -0.062127901701216917 0 -0.053534966305308282 -0.04583663591031592 0 -0.062402438069185308 -0.064698450667390772 0 -0.066332545873565421 -0.028877415042082761 0 -0.053534966305308282 -0.04583663591031592 0 -0.054906725199860708 -0.022520621581663011 0 -0.066332545873565421 -0.028877415042082761 0 -0.053534966305308282 -0.04583663591031592 0 -0.053534966305308282 -0.04583663591031592 0 -0.054906725199860708 -0.022520621581663011 0 -0.042050652285652947 -0.026664681160136639 0 -0.053534966305308282 -0.04583663591031592 0 -0.033327678371719897 -0.036869960918508048 0 -0.029816195799649892 -0.052180356855256529 0 -0.053534966305308282 -0.04583663591031592 0 -0.033327678371719897 -0.036869960918508048 0 -0.042050652285652947 -0.026664681160136639 0 -0.053534966305308282 -0.04583663591031592 0 -0.03933471195551666 -0.064654666977736169 0 -0.053534966305308282 -0.04583663591031592 0 -0.029816195799649892 -0.052180356855256529 0 -0.053534966305308282 -0.04583663591031592 0 -0.029816195799649892 -0.052180356855256529 0 -0.03933471195551666 -0.064654666977736169 0 -0.029816195799649892 -0.052180356855256529 0 -0.02603440067254887 -0.065538246605562428 0 -0.03933471195551666 -0.064654666977736169 0 -0.029816195799649892 -0.052180356855256529 0 -0.03933471195551666 -0.064654666977736169 0 -0.048933732325526003 -0.0029621306740495062 0 -0.054906725199860708 -0.022520621581663011 0 -0.040988656910417171 -0.01446178299950656 0 -0.061922113567694302 -0.01224106905728786 0 -0.048933732325526003 -0.0029621306740495062 0 -0.054906725199860708 -0.022520621581663011 0 -0.0656650319423632 -0.001268180764667408 0 -0.061922113567694302 -0.01224106905728786 0 -0.048933732325526003 -0.0029621306740495062 0 -0.066332545873565421 -0.028877415042082761 0 -0.061922113567694302 -0.01224106905728786 0 -0.054906725199860708 -0.022520621581663011 0 -0.042050652285652947 -0.026664681160136639 0 -0.040988656910417171 -0.01446178299950656 0 -0.026282033230630799 -0.019071289943683331 0 -0.033327678371719897 -0.036869960918508048 0 -0.042050652285652947 -0.026664681160136639 0 -0.026282033230630799 -0.019071289943683331 0 -0.054906725199860708 -0.022520621581663011 0 -0.042050652285652947 -0.026664681160136639 0 -0.040988656910417171 -0.01446178299950656 0 -0.048933732325526003 -0.0029621306740495062 0 -0.031850607683756693 -0.00085088897714030286 0 -0.040988656910417171 -0.01446178299950656 0 -0.031850607683756693 -0.00085088897714030286 0 -0.040988656910417171 -0.01446178299950656 0 -0.026282033230630799 -0.019071289943683331 0 -0.031850607683756693 -0.00085088897714030286 0 -0.026282033230630799 -0.019071289943683331 0 -0.01557282743566684 0.00075989858952775491 0 -0.026282033230630799 -0.019071289943683331 0 -0.0054506867423313801 -0.02024860286168588 0 -0.01557282743566684 0.00075989858952775491 0 -0.026282033230630799 -0.019071289943683331 0 -0.0054506867423313801 -0.02024860286168588 0 -0.017633441270990421 -0.036214479858471343 0 -0.033327678371719897 -0.036869960918508048 0 -0.026282033230630799 -0.019071289943683331 0 -0.017633441270990421 -0.036214479858471343 0 -0.0081999764837987002 -0.031176467430896609 0 -0.0054506867423313801 -0.02024860286168588 0 -0.017633441270990421 -0.036214479858471343 0 -0.002425590017454001 -0.02652719064859925 0 -0.0054506867423313801 -0.02024860286168588 0 0.0032282499690442449 -0.0088745875952064811 0 -0.0054506867423313801 -0.02024860286168588 0 -0.017633441270990421 -0.036214479858471343 0 -0.0081999764837987002 -0.031176467430896609 0 -0.002425590017454001 -0.02652719064859925 0 -0.0054506867423313801 -0.02024860286168588 0 -0.002425590017454001 -0.02652719064859925 0 -0.0054506867423313801 -0.02024860286168588 0 -0.01557282743566684 0.00075989858952775491 0 -0.0020858838102024279 0.0039170107241266374 0 0.0032282499690442449 -0.0088745875952064811 0 -0.0054506867423313801 -0.02024860286168588 0 -0.01557282743566684 0.00075989858952775491 0 0.0032282499690442449 -0.0088745875952064811 0 -0.0054506867423313801 -0.02024860286168588 0 -0.01557282743566684 0.00075989858952775491 0 -0.0054506867423313801 -0.02024860286168588 0 0.0032282499690442449 -0.0088745875952064811 0 -0.029816195799649892 -0.052180356855256529 0 -0.012154785791383569 -0.056904002061058452 0 -0.029816195799649892 -0.052180356855256529 0 -0.012154785791383569 -0.056904002061058452 0 -0.02603440067254887 -0.065538246605562428 0 -0.01676421280808359 -0.047054449575529733 0 -0.029816195799649892 -0.052180356855256529 0 -0.012154785791383569 -0.056904002061058452 0 -0.033327678371719897 -0.036869960918508048 0 -0.029816195799649892 -0.052180356855256529 0 -0.017633441270990421 -0.036214479858471343 0 -0.029816195799649892 -0.052180356855256529 0 -0.017633441270990421 -0.036214479858471343 0 -0.01676421280808359 -0.047054449575529733 0 -0.029816195799649892 -0.052180356855256529 0 -0.017633441270990421 -0.036214479858471343 0 -0.002425590017454001 -0.02652719064859925 0 -0.0072901879044174342 -0.041715596354829257 0 0.006694469641824588 -0.045455873067852828 0 -0.01676421280808359 -0.047054449575529733 0 -0.017633441270990421 -0.036214479858471343 0 -0.0072901879044174342 -0.041715596354829257 0 -0.0081999764837987002 -0.031176467430896609 0 -0.017633441270990421 -0.036214479858471343 0 -0.0072901879044174342 -0.041715596354829257 0 -0.002425590017454001 -0.02652719064859925 0 -0.0072901879044174342 -0.041715596354829257 0 -0.0081999764837987002 -0.031176467430896609 0 -0.002425590017454001 -0.02652719064859925 0 -0.0072901879044174342 -0.041715596354829257 0 -0.0072901879044174342 -0.041715596354829257 0 -0.012154785791383569 -0.056904002061058452 0 0.00076600631178217024 -0.05211500674271155 0 -0.0072901879044174342 -0.041715596354829257 0 -0.012154785791383569 -0.056904002061058452 0 -0.01676421280808359 -0.047054449575529733 0 -0.0072901879044174342 -0.041715596354829257 0 -0.012154785791383569 -0.056904002061058452 0 -0.012154785791383569 -0.056904002061058452 0 -0.0071097612631524426 -0.078114451273502583 0 -0.020958947031511469 -0.084392640572456892 0 -0.012154785791383569 -0.056904002061058452 0 -0.0071097612631524426 -0.078114451273502583 0 0.0043923339882334317 -0.072413952491771169 0 -0.0071097612631524426 -0.078114451273502583 0 0.0020876159228450362 -0.083587805440608301 0 0.0043923339882334317 -0.072413952491771169 0 -0.0071097612631524426 -0.078114451273502583 0 -0.020958947031511469 -0.084392640572456892 0 -0.008003249791205572 -0.09561207256085448 0 -0.0071097612631524426 -0.078114451273502583 0 -0.008003249791205572 -0.09561207256085448 0 0.0020876159228450362 -0.083587805440608301 0 -0.020958947031511469 -0.084392640572456892 0 -0.033041808105215092 -0.072993958460989272 0 -0.039034547138440429 -0.081434599043252953 0 -0.020958947031511469 -0.084392640572456892 0 -0.02603440067254887 -0.065538246605562428 0 -0.033041808105215092 -0.072993958460989272 0 -0.012154785791383569 -0.056904002061058452 0 -0.020958947031511469 -0.084392640572456892 0 -0.02603440067254887 -0.065538246605562428 0 -0.012154785791383569 -0.056904002061058452 0 -0.020958947031511469 -0.084392640572456892 0 -0.02603440067254887 -0.065538246605562428 0 -0.03933471195551666 -0.064654666977736169 0 -0.033041808105215092 -0.072993958460989272 0 -0.03933471195551666 -0.064654666977736169 0 -0.033041808105215092 -0.072993958460989272 0 -0.050657788623046339 -0.062127901701216917 0 -0.03933471195551666 -0.064654666977736169 0 -0.045231085754533801 -0.072382047397385879 0 -0.03933471195551666 -0.064654666977736169 0 -0.045231085754533801 -0.072382047397385879 0 -0.033041808105215092 -0.072993958460989272 0 -0.03933471195551666 -0.064654666977736169 0 -0.045231085754533801 -0.072382047397385879 0 -0.045231085754533801 -0.072382047397385879 0 -0.033041808105215092 -0.072993958460989272 0 -0.039034547138440429 -0.081434599043252953 0 -0.020958947031511469 -0.084392640572456892 0 -0.039034547138440429 -0.081434599043252953 0 -0.041558504756463638 -0.09333957748473308 0 -0.039034547138440429 -0.081434599043252953 0 -0.041558504756463638 -0.09333957748473308 0 -0.05438239004447816 -0.08406477130069967 0 -0.045231085754533801 -0.072382047397385879 0 -0.039034547138440429 -0.081434599043252953 0 -0.05438239004447816 -0.08406477130069967 0 -0.071077440927873686 -0.08031991690627828 0 -0.05438239004447816 -0.08406477130069967 0 -0.06120099168706427 -0.1026592969625425 0 -0.041558504756463638 -0.09333957748473308 0 -0.05438239004447816 -0.08406477130069967 0 -0.06120099168706427 -0.1026592969625425 0 -0.045231085754533801 -0.072382047397385879 0 -0.05438239004447816 -0.08406477130069967 0 -0.062402438069185308 -0.064698450667390772 0 -0.050657788623046339 -0.062127901701216917 0 -0.045231085754533801 -0.072382047397385879 0 -0.062402438069185308 -0.064698450667390772 0 -0.054643572447683607 -0.1238556032366591 0 -0.06120099168706427 -0.1026592969625425 0 -0.029763108271639471 -0.11188127908385539 0 -0.041558504756463638 -0.09333957748473308 0 -0.06120099168706427 -0.1026592969625425 0 -0.029763108271639471 -0.11188127908385539 0 -0.071333720728019662 -0.1182395118359027 0 -0.054643572447683607 -0.1238556032366591 0 -0.06120099168706427 -0.1026592969625425 0 -0.054643572447683607 -0.1238556032366591 0 -0.029763108271639471 -0.11188127908385539 0 -0.043932490787199248 -0.13687757207129531 0 -0.029763108271639471 -0.11188127908385539 0 -0.0079539226757655221 -0.1150958422717388 0 -0.01372060402952738 -0.13094434672327571 0 -0.020958947031511469 -0.084392640572456892 0 -0.029763108271639471 -0.11188127908385539 0 -0.020958947031511469 -0.084392640572456892 0 -0.029763108271639471 -0.11188127908385539 0 -0.008003249791205572 -0.09561207256085448 0 -0.020958947031511469 -0.084392640572456892 0 -0.041558504756463638 -0.09333957748473308 0 -0.029763108271639471 -0.11188127908385539 0 -0.029763108271639471 -0.11188127908385539 0 -0.008003249791205572 -0.09561207256085448 0 -0.0079539226757655221 -0.1150958422717388 0 -0.008003249791205572 -0.09561207256085448 0 -0.0079539226757655221 -0.1150958422717388 0 0.003459360455224499 -0.1064706842325762 0 -0.0079539226757655221 -0.1150958422717388 0 -0.01372060402952738 -0.13094434672327571 0 0.002064890662622494 -0.12644808147915401 0 -0.0028890046353027888 -0.13536793891998999 0 -0.01372060402952738 -0.13094434672327571 0 0.002064890662622494 -0.12644808147915401 0 -0.0094249880707617979 -0.14019776670663139 0 -0.01372060402952738 -0.13094434672327571 0 -0.016985595417945209 -0.14732562550629241 0 -0.0028890046353027888 -0.13536793891998999 0 -0.0094249880707617979 -0.14019776670663139 0 -0.003094464573322353 -0.14556905266318071 0 -0.0028890046353027888 -0.13536793891998999 0 -0.0094249880707617979 -0.14019776670663139 0 -0.01372060402952738 -0.13094434672327571 0 -0.029763108271639471 -0.11188127908385539 0 -0.01372060402952738 -0.13094434672327571 0 -0.027231384032607941 -0.13732167639320619 0 -0.01372060402952738 -0.13094434672327571 0 -0.027231384032607941 -0.13732167639320619 0 -0.016985595417945209 -0.14732562550629241 0 -0.027231384032607941 -0.13732167639320619 0 -0.016985595417945209 -0.14732562550629241 0 -0.032980954034809662 -0.15157955642288121 0 -0.016985595417945209 -0.14732562550629241 0 -0.022313216426005821 -0.16277919101957811 0 -0.032980954034809662 -0.15157955642288121 0 -0.016985595417945209 -0.14732562550629241 0 -0.0084360841992662753 -0.15764165390904589 0 -0.022313216426005821 -0.16277919101957811 0 -0.016985595417945209 -0.14732562550629241 0 -0.003094464573322353 -0.14556905266318071 0 -0.0084360841992662753 -0.15764165390904589 0 -0.0094249880707617979 -0.14019776670663139 0 -0.016985595417945209 -0.14732562550629241 0 -0.003094464573322353 -0.14556905266318071 0 -0.003094464573322353 -0.14556905266318071 0 -0.0084360841992662753 -0.15764165390904589 0 0.002775149226100111 -0.1461070162142882 0 -0.013623143195151399 -0.17058675284778549 0 -0.0084360841992662753 -0.15764165390904589 0 0.002592722288945457 -0.17119553403993629 0 -0.0084360841992662753 -0.15764165390904589 0 0.002592722288945457 -0.17119553403993629 0 0.002775149226100111 -0.1461070162142882 0 -0.013623143195151399 -0.17058675284778549 0 -0.0084360841992662753 -0.15764165390904589 0 -0.022313216426005821 -0.16277919101957811 0 -0.013623143195151399 -0.17058675284778549 0 -0.013621508378482141 -0.1839774372137796 0 0.002592722288945457 -0.17119553403993629 0 -0.013621508378482141 -0.1839774372137796 0 0.0024102953517908042 -0.19628405186558409 0 0.002592722288945457 -0.17119553403993629 0 -0.013621508378482141 -0.1839774372137796 0 -0.026337629260948219 -0.17733994805658759 0 -0.029107438693580099 -0.1979817880153773 0 -0.013623143195151399 -0.17058675284778549 0 -0.013621508378482141 -0.1839774372137796 0 -0.026337629260948219 -0.17733994805658759 0 -0.026337629260948219 -0.17733994805658759 0 -0.022313216426005821 -0.16277919101957811 0 -0.038518103204237722 -0.16709639193136111 0 -0.013623143195151399 -0.17058675284778549 0 -0.026337629260948219 -0.17733994805658759 0 -0.022313216426005821 -0.16277919101957811 0 -0.038518103204237722 -0.16709639193136111 0 -0.05073224421126319 -0.15641714128266471 0 -0.032980954034809662 -0.15157955642288121 0 -0.022313216426005821 -0.16277919101957811 0 -0.038518103204237722 -0.16709639193136111 0 -0.032980954034809662 -0.15157955642288121 0 -0.026337629260948219 -0.17733994805658759 0 -0.043033658670042899 -0.18330399212516091 0 -0.029107438693580099 -0.1979817880153773 0 -0.026337629260948219 -0.17733994805658759 0 -0.038518103204237722 -0.16709639193136111 0 -0.043033658670042899 -0.18330399212516091 0 -0.038518103204237722 -0.16709639193136111 0 -0.043033658670042899 -0.18330399212516091 0 -0.055710916622356589 -0.17115852268129381 0 -0.043033658670042899 -0.18330399212516091 0 -0.061475228946294591 -0.18650843493844049 0 -0.055710916622356589 -0.17115852268129381 0 -0.05073224421126319 -0.15641714128266471 0 -0.055710916622356589 -0.17115852268129381 0 -0.071230263546124231 -0.16693204361373071 0 -0.038518103204237722 -0.16709639193136111 0 -0.05073224421126319 -0.15641714128266471 0 -0.055710916622356589 -0.17115852268129381 0 -0.05073224421126319 -0.15641714128266471 0 -0.043932490787199248 -0.13687757207129531 0 -0.068243681725191727 -0.14021017600850519 0 -0.054643572447683607 -0.1238556032366591 0 -0.043932490787199248 -0.13687757207129531 0 -0.068243681725191727 -0.14021017600850519 0 -0.029763108271639471 -0.11188127908385539 0 -0.027231384032607941 -0.13732167639320619 0 -0.043932490787199248 -0.13687757207129531 0 -0.05073224421126319 -0.15641714128266471 0 -0.043932490787199248 -0.13687757207129531 0 -0.032980954034809662 -0.15157955642288121 0 -0.027231384032607941 -0.13732167639320619 0 -0.043932490787199248 -0.13687757207129531 0 -0.032980954034809662 -0.15157955642288121 0 -0.029961008511695159 -0.24612032589200489 0 -0.013927496954496001 -0.2469218739772201 0 -0.023143406459867889 -0.23429637880741949 0 -0.029961008511695159 -0.24612032589200489 0 -0.023143406459867889 -0.23429637880741949 0 -0.039184311324354071 -0.2350683755859744 0 -0.013927496954496001 -0.2469218739772201 0 -0.0092414433629382058 -0.23091620779093769 0 -0.023143406459867889 -0.23429637880741949 0 -0.013927496954496001 -0.2469218739772201 0 -0.0092414433629382058 -0.23091620779093769 0 0.00207560332451072 -0.24231303762551121 0 -0.0013499795393466961 -0.2592475501348519 0 -0.013927496954496001 -0.2469218739772201 0 0.00207560332451072 -0.24231303762551121 0 -0.0092414433629382058 -0.23091620779093769 0 0.00207560332451072 -0.24231303762551121 0 0.0022278684146351522 -0.22137256969123209 0 -0.0092414433629382058 -0.23091620779093769 0 -0.01343978513947301 -0.20967717885330539 0 0.0022278684146351522 -0.22137256969123209 0 -0.0092414433629382058 -0.23091620779093769 0 -0.023143406459867889 -0.23429637880741949 0 -0.01343978513947301 -0.20967717885330539 0 -0.023143406459867889 -0.23429637880741949 0 -0.01343978513947301 -0.20967717885330539 0 -0.031612395084015157 -0.21657588047117909 0 -0.01343978513947301 -0.20967717885330539 0 -0.029107438693580099 -0.1979817880153773 0 -0.01343978513947301 -0.20967717885330539 0 -0.029107438693580099 -0.1979817880153773 0 -0.031612395084015157 -0.21657588047117909 0 -0.01343978513947301 -0.20967717885330539 0 0.0022278684146351522 -0.22137256969123209 0 -0.01343978513947301 -0.20967717885330539 0 0.0022278684146351522 -0.22137256969123209 0 0.0024102953517908042 -0.19628405186558409 0 -0.01343978513947301 -0.20967717885330539 0 -0.012207504915588439 -0.19678363247773331 0 0.0024102953517908042 -0.19628405186558409 0 -0.013621508378482141 -0.1839774372137796 0 -0.012207504915588439 -0.19678363247773331 0 0.0024102953517908042 -0.19628405186558409 0 -0.013621508378482141 -0.1839774372137796 0 -0.012207504915588439 -0.19678363247773331 0 -0.029107438693580099 -0.1979817880153773 0 -0.01343978513947301 -0.20967717885330539 0 -0.012207504915588439 -0.19678363247773331 0 -0.029107438693580099 -0.1979817880153773 0 -0.043033658670042899 -0.18330399212516091 0 -0.029107438693580099 -0.1979817880153773 0 -0.049909242108636932 -0.2035655319692708 0 -0.061475228946294591 -0.18650843493844049 0 -0.049909242108636932 -0.2035655319692708 0 -0.074999694773775868 -0.2035541682492053 0 -0.043033658670042899 -0.18330399212516091 0 -0.061475228946294591 -0.18650843493844049 0 -0.049909242108636932 -0.2035655319692708 0 -0.049909242108636932 -0.2035655319692708 0 -0.061661949946783021 -0.2169620332692965 0 -0.047695574256153193 -0.22194661015137229 0 -0.049909242108636932 -0.2035655319692708 0 -0.061661949946783021 -0.2169620332692965 0 -0.074999694773775868 -0.2035541682492053 0 -0.029107438693580099 -0.1979817880153773 0 -0.049909242108636932 -0.2035655319692708 0 -0.031612395084015157 -0.21657588047117909 0 -0.049909242108636932 -0.2035655319692708 0 -0.031612395084015157 -0.21657588047117909 0 -0.047695574256153193 -0.22194661015137229 0 -0.031612395084015157 -0.21657588047117909 0 -0.047695574256153193 -0.22194661015137229 0 -0.039184311324354071 -0.2350683755859744 0 -0.023143406459867889 -0.23429637880741949 0 -0.031612395084015157 -0.21657588047117909 0 -0.039184311324354071 -0.2350683755859744 0 -0.047695574256153193 -0.22194661015137229 0 -0.05702849520941889 -0.23302432072796381 0 -0.039184311324354071 -0.2350683755859744 0 -0.061661949946783021 -0.2169620332692965 0 -0.047695574256153193 -0.22194661015137229 0 -0.05702849520941889 -0.23302432072796381 0 -0.048384655956861727 -0.25338641839162213 0 -0.05702849520941889 -0.23302432072796381 0 -0.039184311324354071 -0.2350683755859744 0 -0.048384655956861727 -0.25338641839162213 0 -0.071604140050827339 -0.2458442540854556 0 -0.048384655956861727 -0.25338641839162213 0 -0.05702849520941889 -0.23302432072796381 0 -0.071604140050827339 -0.2458442540854556 0 -0.048384655956861727 -0.25338641839162213 0 -0.029961008511695159 -0.24612032589200489 0 -0.039184311324354071 -0.2350683755859744 0 -0.071604140050827339 -0.2458442540854556 0 -0.086999847522169632 -0.23041386212378631 0 -0.094823624144792923 -0.2383020897792891 0 -0.08621409042463074 -0.25069620380078528 0 -0.071604140050827339 -0.2458442540854556 0 -0.094823624144792923 -0.2383020897792891 0 -0.071604140050827339 -0.2458442540854556 0 -0.094823624144792923 -0.2383020897792891 0 -0.08621409042463074 -0.25069620380078528 0 -0.094823624144792923 -0.2383020897792891 0 -0.09738865516331853 -0.24664385226085889 0 -0.05702849520941889 -0.23302432072796381 0 -0.071604140050827339 -0.2458442540854556 0 -0.073640339721533998 -0.22493823288406231 0 -0.061661949946783021 -0.2169620332692965 0 -0.05702849520941889 -0.23302432072796381 0 -0.073640339721533998 -0.22493823288406231 0 -0.071604140050827339 -0.2458442540854556 0 -0.073640339721533998 -0.22493823288406231 0 -0.086999847522169632 -0.23041386212378631 0 -0.073640339721533998 -0.22493823288406231 0 -0.086999847522169632 -0.23041386212378631 0 -0.086618465811188899 -0.2190926317145038 0 -0.086618465811188899 -0.2190926317145038 0 -0.096006559666008601 -0.20634809160077869 0 -0.097569327297545139 -0.23383756092240651 0 -0.086999847522169632 -0.23041386212378631 0 -0.086618465811188899 -0.2190926317145038 0 -0.097569327297545139 -0.23383756092240651 0 -0.086999847522169632 -0.23041386212378631 0 -0.097569327297545139 -0.23383756092240651 0 -0.094823624144792923 -0.2383020897792891 0 -0.086618465811188899 -0.2190926317145038 0 -0.074999694773775868 -0.2035541682492053 0 -0.096006559666008601 -0.20634809160077869 0 -0.073640339721533998 -0.22493823288406231 0 -0.086618465811188899 -0.2190926317145038 0 -0.074999694773775868 -0.2035541682492053 0 -0.061661949946783021 -0.2169620332692965 0 -0.073640339721533998 -0.22493823288406231 0 -0.074999694773775868 -0.2035541682492053 0 -0.061475228946294591 -0.18650843493844049 0 -0.074999694773775868 -0.2035541682492053 0 -0.079631107793335085 -0.18844027213626119 0 -0.074999694773775868 -0.2035541682492053 0 -0.079631107793335085 -0.18844027213626119 0 -0.096006559666008601 -0.20634809160077869 0 -0.079631107793335085 -0.18844027213626119 0 -0.096006559666008601 -0.20634809160077869 0 -0.094443792034472063 -0.17885862227915089 0 -0.1143857750292695 -0.1943677251533 0 -0.1156798765029972 -0.20491323378230469 0 -0.096006559666008601 -0.20634809160077869 0 -0.1143857750292695 -0.1943677251533 0 -0.096006559666008601 -0.20634809160077869 0 -0.094443792034472063 -0.17885862227915089 0 -0.096006559666008601 -0.20634809160077869 0 -0.094443792034472063 -0.17885862227915089 0 -0.1143857750292695 -0.1943677251533 0 -0.1231842406127192 -0.18837833370579599 0 -0.12827837381229321 -0.19566027665662339 0 -0.1143857750292695 -0.1943677251533 0 -0.12728262134963761 -0.20341486522038379 0 -0.12827837381229321 -0.19566027665662339 0 -0.1143857750292695 -0.1943677251533 0 -0.1156798765029972 -0.20491323378230469 0 -0.12728262134963761 -0.20341486522038379 0 -0.1135744021864543 -0.21444084180063239 0 -0.13358784167392579 -0.21622939676750591 0 -0.12728262134963761 -0.20341486522038379 0 -0.1135744021864543 -0.21444084180063239 0 -0.118713430413513 -0.2222437024274995 0 -0.13358784167392579 -0.21622939676750591 0 -0.1135744021864543 -0.21444084180063239 0 -0.13358784167392579 -0.21622939676750591 0 -0.1156798765029972 -0.20491323378230469 0 -0.1135744021864543 -0.21444084180063239 0 -0.12728262134963761 -0.20341486522038379 0 -0.1135744021864543 -0.21444084180063239 0 -0.096006559666008601 -0.20634809160077869 0 -0.1035330569014275 -0.2203306089525307 0 -0.1156798765029972 -0.20491323378230469 0 -0.1135744021864543 -0.21444084180063239 0 -0.096006559666008601 -0.20634809160077869 0 -0.096006559666008601 -0.20634809160077869 0 -0.097569327297545139 -0.23383756092240651 0 -0.1035330569014275 -0.2203306089525307 0 -0.096006559666008601 -0.20634809160077869 0 -0.097569327297545139 -0.23383756092240651 0 -0.097569327297545139 -0.23383756092240651 0 -0.10556651884836001 -0.23404837770830941 0 -0.1087769259278235 -0.22595274314483549 0 -0.097569327297545139 -0.23383756092240651 0 -0.1035330569014275 -0.2203306089525307 0 -0.1087769259278235 -0.22595274314483549 0 -0.1135744021864543 -0.21444084180063239 0 -0.1035330569014275 -0.2203306089525307 0 -0.1087769259278235 -0.22595274314483549 0 -0.1135744021864543 -0.21444084180063239 0 -0.1087769259278235 -0.22595274314483549 0 -0.118713430413513 -0.2222437024274995 0 -0.1087769259278235 -0.22595274314483549 0 -0.118713430413513 -0.2222437024274995 0 -0.11401774667704009 -0.23133325982959951 0 -0.118713430413513 -0.2222437024274995 0 -0.1208872327639846 -0.2301030520649732 0 -0.1267717092947987 -0.22423278556233489 0 -0.118713430413513 -0.2222437024274995 0 -0.1208872327639846 -0.2301030520649732 0 -0.11401774667704009 -0.23133325982959951 0 -0.1208872327639846 -0.2301030520649732 0 -0.11401774667704009 -0.23133325982959951 0 -0.1210996211434924 -0.23841220268522001 0 -0.10556651884836001 -0.23404837770830941 0 -0.1087769259278235 -0.22595274314483549 0 -0.11401774667704009 -0.23133325982959951 0 -0.11401774667704009 -0.23133325982959951 0 -0.1114092102234616 -0.23793599992183681 0 -0.1210996211434924 -0.23841220268522001 0 -0.10556651884836001 -0.23404837770830941 0 -0.11401774667704009 -0.23133325982959951 0 -0.1114092102234616 -0.23793599992183681 0 -0.1114092102234616 -0.23793599992183681 0 -0.1210996211434924 -0.23841220268522001 0 -0.1120203303371731 -0.2452663948616628 0 -0.1114092102234616 -0.23793599992183681 0 -0.1120203303371731 -0.2452663948616628 0 -0.10509789381175839 -0.2415745418102096 0 -0.1208872327639846 -0.2301030520649732 0 -0.1210996211434924 -0.23841220268522001 0 -0.1327250690184309 -0.23647368082845999 0 -0.1210996211434924 -0.23841220268522001 0 -0.1195935868873325 -0.24923947994859169 0 -0.13028287227370461 -0.24829102399749131 0 -0.1210996211434924 -0.23841220268522001 0 -0.1195935868873325 -0.24923947994859169 0 -0.1120203303371731 -0.2452663948616628 0 -0.10931740613783621 -0.25525066145170427 0 -0.1195935868873325 -0.24923947994859169 0 -0.1120203303371731 -0.2452663948616628 0 -0.10931740613783621 -0.25525066145170427 0 -0.1120203303371731 -0.2452663948616628 0 -0.1047441773361453 -0.24825177899687451 0 -0.1047441773361453 -0.24825177899687451 0 -0.10509789381175839 -0.2415745418102096 0 -0.09738865516331853 -0.24664385226085889 0 -0.1120203303371731 -0.2452663948616628 0 -0.1047441773361453 -0.24825177899687451 0 -0.10509789381175839 -0.2415745418102096 0 -0.10556651884836001 -0.23404837770830941 0 -0.1114092102234616 -0.23793599992183681 0 -0.10509789381175839 -0.2415745418102096 0 -0.10556651884836001 -0.23404837770830941 0 -0.10509789381175839 -0.2415745418102096 0 -0.10008920385315501 -0.23888128449621471 0 -0.097569327297545139 -0.23383756092240651 0 -0.10556651884836001 -0.23404837770830941 0 -0.10008920385315501 -0.23888128449621471 0 -0.10008920385315501 -0.23888128449621471 0 -0.094823624144792923 -0.2383020897792891 0 -0.09738865516331853 -0.24664385226085889 0 -0.097569327297545139 -0.23383756092240651 0 -0.10008920385315501 -0.23888128449621471 0 -0.094823624144792923 -0.2383020897792891 0 -0.10509789381175839 -0.2415745418102096 0 -0.10008920385315501 -0.23888128449621471 0 -0.09738865516331853 -0.24664385226085889 0 -0.091318256771398987 -0.1238796836358954 0 -0.092881024402935525 -0.15136915295752321 0 -0.068243681725191727 -0.14021017600850519 0 -0.091318256771398987 -0.1238796836358954 0 -0.092881024402935525 -0.15136915295752321 0 -0.071333720728019662 -0.1182395118359027 0 -0.091318256771398987 -0.1238796836358954 0 -0.068243681725191727 -0.14021017600850519 0 -0.071333720728019662 -0.1182395118359027 0 -0.054643572447683607 -0.1238556032366591 0 -0.068243681725191727 -0.14021017600850519 0 -0.05073224421126319 -0.15641714128266471 0 -0.068243681725191727 -0.14021017600850519 0 -0.071230263546124231 -0.16693204361373071 0 -0.092881024402935525 -0.15136915295752321 0 -0.068243681725191727 -0.14021017600850519 0 -0.071230263546124231 -0.16693204361373071 0 -0.061475228946294591 -0.18650843493844049 0 -0.055710916622356589 -0.17115852268129381 0 -0.071230263546124231 -0.16693204361373071 0 -0.061475228946294591 -0.18650843493844049 0 -0.079631107793335085 -0.18844027213626119 0 -0.071230263546124231 -0.16693204361373071 0 -0.079631107793335085 -0.18844027213626119 0 -0.071230263546124231 -0.16693204361373071 0 -0.094443792034472063 -0.17885862227915089 0 -0.092881024402935525 -0.15136915295752321 0 -0.071230263546124231 -0.16693204361373071 0 -0.094443792034472063 -0.17885862227915089 0 -0.092881024402935525 -0.15136915295752321 0 -0.094443792034472063 -0.17885862227915089 0 -0.092881024402935525 -0.15136915295752321 0 -0.094443792034472063 -0.17885862227915089 0 -0.1101705896506905 -0.1629608978902953 0 -0.1143857750292695 -0.1943677251533 0 -0.094443792034472063 -0.17885862227915089 0 -0.1152394611392747 -0.17824820694907059 0 -0.094443792034472063 -0.17885862227915089 0 -0.1152394611392747 -0.17824820694907059 0 -0.1101705896506905 -0.1629608978902953 0 -0.1143857750292695 -0.1943677251533 0 -0.1231842406127192 -0.18837833370579599 0 -0.1152394611392747 -0.17824820694907059 0 -0.1152394611392747 -0.17824820694907059 0 -0.1243235652291762 -0.16866318745464889 0 -0.12549998751358121 -0.17834080261474369 0 -0.1231842406127192 -0.18837833370579599 0 -0.1152394611392747 -0.17824820694907059 0 -0.12549998751358121 -0.17834080261474369 0 -0.1101705896506905 -0.1629608978902953 0 -0.1243235652291762 -0.16866318745464889 0 -0.126131695923515 -0.15556894587578199 0 -0.1152394611392747 -0.17824820694907059 0 -0.1101705896506905 -0.1629608978902953 0 -0.1243235652291762 -0.16866318745464889 0 -0.11324052538255221 -0.14071040956971209 0 -0.13284067955698869 -0.14470851817403849 0 -0.126131695923515 -0.15556894587578199 0 -0.1101705896506905 -0.1629608978902953 0 -0.11324052538255221 -0.14071040956971209 0 -0.126131695923515 -0.15556894587578199 0 -0.092881024402935525 -0.15136915295752321 0 -0.1101705896506905 -0.1629608978902953 0 -0.11324052538255221 -0.14071040956971209 0 -0.091318256771398987 -0.1238796836358954 0 -0.11161036192447719 -0.1162173407966679 0 -0.11324052538255221 -0.14071040956971209 0 -0.091318256771398987 -0.1238796836358954 0 -0.092881024402935525 -0.15136915295752321 0 -0.11324052538255221 -0.14071040956971209 0 -0.11161036192447719 -0.1162173407966679 0 -0.11324052538255221 -0.14071040956971209 0 -0.12773106944785939 -0.1302683276577824 0 -0.11324052538255221 -0.14071040956971209 0 -0.12773106944785939 -0.1302683276577824 0 -0.13284067955698869 -0.14470851817403849 0 -0.12773106944785939 -0.1302683276577824 0 -0.14438535185289131 -0.14103801387529691 0 -0.13284067955698869 -0.14470851817403849 0 -0.12773106944785939 -0.1302683276577824 0 -0.14438535185289131 -0.14103801387529691 0 -0.14664080783937489 -0.1178448104280701 0 -0.14438535185289131 -0.14103801387529691 0 -0.1631084809502045 -0.13431637081015149 0 -0.14664080783937489 -0.1178448104280701 0 -0.14920045778477961 -0.16033958903264009 0 -0.1631084809502045 -0.13431637081015149 0 -0.14438535185289131 -0.14103801387529691 0 -0.1374745817412191 -0.1531553653830503 0 -0.14920045778477961 -0.16033958903264009 0 -0.14438535185289131 -0.14103801387529691 0 -0.14920045778477961 -0.16033958903264009 0 -0.1631084809502045 -0.13431637081015149 0 -0.14438535185289131 -0.14103801387529691 0 -0.1374745817412191 -0.1531553653830503 0 -0.13284067955698869 -0.14470851817403849 0 -0.1374745817412191 -0.1531553653830503 0 -0.13284067955698869 -0.14470851817403849 0 -0.126131695923515 -0.15556894587578199 0 -0.1374745817412191 -0.1531553653830503 0 -0.126131695923515 -0.15556894587578199 0 -0.13481472358792079 -0.1641217599574939 0 -0.1243235652291762 -0.16866318745464889 0 -0.126131695923515 -0.15556894587578199 0 -0.13481472358792079 -0.1641217599574939 0 -0.1243235652291762 -0.16866318745464889 0 -0.13481472358792079 -0.1641217599574939 0 -0.1340849335600752 -0.17273851144050789 0 -0.13481472358792079 -0.1641217599574939 0 -0.1340849335600752 -0.17273851144050789 0 -0.14920045778477961 -0.16033958903264009 0 -0.1374745817412191 -0.1531553653830503 0 -0.13481472358792079 -0.1641217599574939 0 -0.14920045778477961 -0.16033958903264009 0 -0.1340849335600752 -0.17273851144050789 0 -0.13529243461935481 -0.18636280725512849 0 -0.14920045778477961 -0.16033958903264009 0 -0.1231842406127192 -0.18837833370579599 0 -0.12549998751358121 -0.17834080261474369 0 -0.13471154143201569 -0.1912173585686279 0 -0.12549998751358121 -0.17834080261474369 0 -0.13529243461935481 -0.18636280725512849 0 -0.13471154143201569 -0.1912173585686279 0 -0.12549998751358121 -0.17834080261474369 0 -0.13471154143201569 -0.1912173585686279 0 -0.12549998751358121 -0.17834080261474369 0 -0.1340849335600752 -0.17273851144050789 0 -0.13529243461935481 -0.18636280725512849 0 -0.1243235652291762 -0.16866318745464889 0 -0.12549998751358121 -0.17834080261474369 0 -0.1340849335600752 -0.17273851144050789 0 -0.13529243461935481 -0.18636280725512849 0 -0.14444429238256079 -0.18472902129963009 0 -0.1416148922574888 -0.18969634128016949 0 -0.13529243461935481 -0.18636280725512849 0 -0.14695979310817109 -0.17587023085522391 0 -0.14920045778477961 -0.16033958903264009 0 -0.13529243461935481 -0.18636280725512849 0 -0.14920045778477961 -0.16033958903264009 0 -0.14444429238256079 -0.18472902129963009 0 -0.1500984230909842 -0.18192308275718919 0 -0.1489715260421193 -0.18984032843132151 0 -0.13529243461935481 -0.18636280725512849 0 -0.14444429238256079 -0.18472902129963009 0 -0.14695979310817109 -0.17587023085522391 0 -0.14444429238256079 -0.18472902129963009 0 -0.14695979310817109 -0.17587023085522391 0 -0.1500984230909842 -0.18192308275718919 0 -0.14695979310817109 -0.17587023085522391 0 -0.15485006166200049 -0.17700858986443169 0 -0.15207105305167101 -0.17051490962997859 0 -0.14695979310817109 -0.17587023085522391 0 -0.15485006166200049 -0.17700858986443169 0 -0.1500984230909842 -0.18192308275718919 0 -0.15485006166200049 -0.17700858986443169 0 -0.15207105305167101 -0.17051490962997859 0 -0.15727389965173269 -0.16884122876761889 0 -0.1500984230909842 -0.18192308275718919 0 -0.1561071508392412 -0.18175704105296911 0 -0.1489715260421193 -0.18984032843132151 0 -0.1561071508392412 -0.18175704105296911 0 -0.16218289343450201 -0.18265356459191651 0 -0.1489715260421193 -0.18984032843132151 0 -0.15485006166200049 -0.17700858986443169 0 -0.1500984230909842 -0.18192308275718919 0 -0.1561071508392412 -0.18175704105296911 0 -0.14695979310817109 -0.17587023085522391 0 -0.15207105305167101 -0.17051490962997859 0 -0.14920045778477961 -0.16033958903264009 0 -0.15207105305167101 -0.17051490962997859 0 -0.14920045778477961 -0.16033958903264009 0 -0.15727389965173269 -0.16884122876761889 0 -0.14920045778477961 -0.16033958903264009 0 -0.16118729435046891 -0.16135344195652351 0 -0.15727389965173269 -0.16884122876761889 0 -0.14920045778477961 -0.16033958903264009 0 -0.16118729435046891 -0.16135344195652351 0 -0.15815333258832551 -0.15208917936453539 0 -0.16118729435046891 -0.16135344195652351 0 -0.17128123912037341 -0.15907121553325471 0 -0.15815333258832551 -0.15208917936453539 0 -0.15727389965173269 -0.16884122876761889 0 -0.16502437787685609 -0.16704613309718969 0 -0.16184520858908949 -0.1738208023688145 0 -0.16118729435046891 -0.16135344195652351 0 -0.15727389965173269 -0.16884122876761889 0 -0.16502437787685609 -0.16704613309718969 0 -0.16502437787685609 -0.16704613309718969 0 -0.16184520858908949 -0.1738208023688145 0 -0.17323157540359641 -0.16968038676164479 0 -0.16502437787685609 -0.16704613309718969 0 -0.17128123912037341 -0.15907121553325471 0 -0.17323157540359641 -0.16968038676164479 0 -0.16118729435046891 -0.16135344195652351 0 -0.16502437787685609 -0.16704613309718969 0 -0.17128123912037341 -0.15907121553325471 0 -0.16218289343450201 -0.18265356459191651 0 -0.17836579397271571 -0.1810416930293004 0 -0.17323157540359641 -0.16968038676164479 0 -0.1561071508392412 -0.18175704105296911 0 -0.16184732014416819 -0.1808283506971444 0 -0.15869268066167311 -0.1782883299758114 0 -0.1561071508392412 -0.18175704105296911 0 -0.16184732014416819 -0.1808283506971444 0 -0.16218289343450201 -0.18265356459191651 0 -0.16184732014416819 -0.1808283506971444 0 -0.16218289343450201 -0.18265356459191651 0 -0.15485006166200049 -0.17700858986443169 0 -0.15727389965173269 -0.16884122876761889 0 -0.16184520858908949 -0.1738208023688145 0 -0.16184732014416819 -0.1808283506971444 0 -0.15869268066167311 -0.1782883299758114 0 -0.16184520858908949 -0.1738208023688145 0 -0.15485006166200049 -0.17700858986443169 0 -0.15869268066167311 -0.1782883299758114 0 -0.16184520858908949 -0.1738208023688145 0 -0.15485006166200049 -0.17700858986443169 0 -0.1561071508392412 -0.18175704105296911 0 -0.15869268066167311 -0.1782883299758114 0 -0.16184732014416819 -0.1808283506971444 0 -0.16184520858908949 -0.1738208023688145 0 -0.17323157540359641 -0.16968038676164479 0 -0.16184732014416819 -0.1808283506971444 0 -0.16218289343450201 -0.18265356459191651 0 -0.17323157540359641 -0.16968038676164479 0 -0.16218289343450201 -0.18265356459191651 0 -0.17323157540359641 -0.16968038676164479 0 -0.17836579397271571 -0.1810416930293004 0 -0.18912216696908421 -0.19127628253442061 0 -0.1911774566480792 -0.17465322978038381 0 -0.16218289343450201 -0.18265356459191651 0 -0.17836579397271571 -0.1810416930293004 0 -0.17558366203960671 -0.1926717371218353 0 -0.17836579397271571 -0.1810416930293004 0 -0.17323157540359641 -0.16968038676164479 0 -0.18403619985510999 -0.1690183103103638 0 -0.17836579397271571 -0.1810416930293004 0 -0.18403619985510999 -0.1690183103103638 0 -0.1911774566480792 -0.17465322978038381 0 -0.17128123912037341 -0.15907121553325471 0 -0.17323157540359641 -0.16968038676164479 0 -0.18428025737269091 -0.1567072089313733 0 -0.17323157540359641 -0.16968038676164479 0 -0.18428025737269091 -0.1567072089313733 0 -0.17323157540359641 -0.16968038676164479 0 -0.18403619985510999 -0.1690183103103638 0 -0.18428025737269091 -0.1567072089313733 0 -0.18403619985510999 -0.1690183103103638 0 -0.18428025737269091 -0.1567072089313733 0 -0.19312591587846781 -0.16300903304911649 0 -0.17128123912037341 -0.15907121553325471 0 -0.18428025737269091 -0.1567072089313733 0 -0.1846484633716747 -0.14670496701039559 0 -0.1846484633716747 -0.14670496701039559 0 -0.1749736544985365 -0.1386064815496687 0 -0.15815333258832551 -0.15208917936453539 0 -0.1749736544985365 -0.1386064815496687 0 -0.18126402438478001 -0.12766945086563031 0 -0.1631084809502045 -0.13431637081015149 0 -0.1846484633716747 -0.14670496701039559 0 -0.1749736544985365 -0.1386064815496687 0 -0.1915247720916454 -0.1356637587344432 0 -0.1749736544985365 -0.1386064815496687 0 -0.18126402438478001 -0.12766945086563031 0 -0.1915247720916454 -0.1356637587344432 0 -0.1846484633716747 -0.14670496701039559 0 -0.15815333258832551 -0.15208917936453539 0 -0.1749736544985365 -0.1386064815496687 0 -0.1631084809502045 -0.13431637081015149 0 -0.15815333258832551 -0.15208917936453539 0 -0.17128123912037341 -0.15907121553325471 0 -0.1846484633716747 -0.14670496701039559 0 -0.15815333258832551 -0.15208917936453539 0 -0.14920045778477961 -0.16033958903264009 0 -0.1631084809502045 -0.13431637081015149 0 -0.15815333258832551 -0.15208917936453539 0 -0.15352784145279941 -0.2448501544149298 0 -0.1403022171341137 -0.2448525037266519 0 -0.1327250690184309 -0.23647368082845999 0 -0.15352784145279941 -0.2448501544149298 0 -0.1327250690184309 -0.23647368082845999 0 -0.1464665114763051 -0.2323669675838527 0 -0.15352784145279941 -0.2448501544149298 0 -0.1327250690184309 -0.23647368082845999 0 -0.15352784145279941 -0.2448501544149298 0 -0.15470735857195661 -0.23427071108878469 0 -0.16026774791472079 -0.2374330518632306 0 -0.15352784145279941 -0.2448501544149298 0 -0.1464665114763051 -0.2323669675838527 0 -0.15470735857195661 -0.23427071108878469 0 -0.15352784145279941 -0.2448501544149298 0 -0.14467308579152019 -0.24979515566572699 0 -0.1403022171341137 -0.2448525037266519 0 -0.1403022171341137 -0.2448525037266519 0 -0.13028287227370461 -0.24829102399749131 0 -0.1327250690184309 -0.23647368082845999 0 -0.14467308579152019 -0.24979515566572699 0 -0.1403022171341137 -0.2448525037266519 0 -0.13028287227370461 -0.24829102399749131 0 -0.1210996211434924 -0.23841220268522001 0 -0.13028287227370461 -0.24829102399749131 0 -0.1327250690184309 -0.23647368082845999 0 -0.1327250690184309 -0.23647368082845999 0 -0.13712896433219879 -0.22647688017053769 0 -0.1464665114763051 -0.2323669675838527 0 -0.1208872327639846 -0.2301030520649732 0 -0.1327250690184309 -0.23647368082845999 0 -0.1267717092947987 -0.22423278556233489 0 -0.1327250690184309 -0.23647368082845999 0 -0.1267717092947987 -0.22423278556233489 0 -0.13712896433219879 -0.22647688017053769 0 -0.1267717092947987 -0.22423278556233489 0 -0.13712896433219879 -0.22647688017053769 0 -0.13358784167392579 -0.21622939676750591 0 -0.118713430413513 -0.2222437024274995 0 -0.1267717092947987 -0.22423278556233489 0 -0.13358784167392579 -0.21622939676750591 0 -0.1267717092947987 -0.22423278556233489 0 -0.13358784167392579 -0.21622939676750591 0 -0.13712896433219879 -0.22647688017053769 0 -0.14277165400724409 -0.22327954671350109 0 -0.13358784167392579 -0.21622939676750591 0 -0.14277165400724409 -0.22327954671350109 0 -0.1539032985465483 -0.21804494233210769 0 -0.13358784167392579 -0.21622939676750591 0 -0.14277165400724409 -0.22327954671350109 0 -0.1464665114763051 -0.2323669675838527 0 -0.1539032985465483 -0.21804494233210769 0 -0.1464665114763051 -0.2323669675838527 0 -0.15470735857195661 -0.23427071108878469 0 -0.1539032985465483 -0.21804494233210769 0 -0.13712896433219879 -0.22647688017053769 0 -0.14277165400724409 -0.22327954671350109 0 -0.1464665114763051 -0.2323669675838527 0 -0.1539032985465483 -0.21804494233210769 0 -0.1439230953504505 -0.20409391452251191 0 -0.1655598252252056 -0.20102100623173039 0 -0.1539032985465483 -0.21804494233210769 0 -0.13358784167392579 -0.21622939676750591 0 -0.1539032985465483 -0.21804494233210769 0 -0.1439230953504505 -0.20409391452251191 0 -0.13358784167392579 -0.21622939676750591 0 -0.1539032985465483 -0.21804494233210769 0 -0.1439230953504505 -0.20409391452251191 0 -0.13358784167392579 -0.21622939676750591 0 -0.12728262134963761 -0.20341486522038379 0 -0.13516668387198419 -0.20096599477898941 0 -0.1439230953504505 -0.20409391452251191 0 -0.13358784167392579 -0.21622939676750591 0 -0.1439230953504505 -0.20409391452251191 0 -0.13358784167392579 -0.21622939676750591 0 -0.13516668387198419 -0.20096599477898941 0 -0.1439230953504505 -0.20409391452251191 0 -0.13471154143201569 -0.1912173585686279 0 -0.14230526377051861 -0.1937119857006577 0 -0.1439230953504505 -0.20409391452251191 0 -0.13471154143201569 -0.1912173585686279 0 -0.1439230953504505 -0.20409391452251191 0 -0.13516668387198419 -0.20096599477898941 0 -0.13471154143201569 -0.1912173585686279 0 -0.12728262134963761 -0.20341486522038379 0 -0.13516668387198419 -0.20096599477898941 0 -0.12827837381229321 -0.19566027665662339 0 -0.13516668387198419 -0.20096599477898941 0 -0.12827837381229321 -0.19566027665662339 0 -0.13471154143201569 -0.1912173585686279 0 -0.1231842406127192 -0.18837833370579599 0 -0.12827837381229321 -0.19566027665662339 0 -0.13471154143201569 -0.1912173585686279 0 -0.13471154143201569 -0.1912173585686279 0 -0.1416148922574888 -0.18969634128016949 0 -0.14230526377051861 -0.1937119857006577 0 -0.13529243461935481 -0.18636280725512849 0 -0.13471154143201569 -0.1912173585686279 0 -0.1416148922574888 -0.18969634128016949 0 -0.1416148922574888 -0.18969634128016949 0 -0.14230526377051861 -0.1937119857006577 0 -0.1489715260421193 -0.18984032843132151 0 -0.16218289343450201 -0.18265356459191651 0 -0.1439230953504505 -0.20409391452251191 0 -0.16218289343450201 -0.18265356459191651 0 -0.1439230953504505 -0.20409391452251191 0 -0.1489715260421193 -0.18984032843132151 0 -0.14444429238256079 -0.18472902129963009 0 -0.1416148922574888 -0.18969634128016949 0 -0.1489715260421193 -0.18984032843132151 0 -0.1439230953504505 -0.20409391452251191 0 -0.14230526377051861 -0.1937119857006577 0 -0.1489715260421193 -0.18984032843132151 0 -0.16218289343450201 -0.18265356459191651 0 -0.1655598252252056 -0.20102100623173039 0 -0.17558366203960671 -0.1926717371218353 0 -0.16218289343450201 -0.18265356459191651 0 -0.1439230953504505 -0.20409391452251191 0 -0.1655598252252056 -0.20102100623173039 0 -0.16218289343450201 -0.18265356459191651 0 -0.1655598252252056 -0.20102100623173039 0 -0.1655598252252056 -0.20102100623173039 0 -0.17558366203960671 -0.1926717371218353 0 -0.18268763059652621 -0.20736613922180891 0 -0.17558366203960671 -0.1926717371218353 0 -0.18268763059652621 -0.20736613922180891 0 -0.18912216696908421 -0.19127628253442061 0 -0.17836579397271571 -0.1810416930293004 0 -0.17558366203960671 -0.1926717371218353 0 -0.18912216696908421 -0.19127628253442061 0 -0.18268763059652621 -0.20736613922180891 0 -0.16893675701590841 -0.21938844787154441 0 -0.19446674646327111 -0.22167000419568131 0 -0.1655598252252056 -0.20102100623173039 0 -0.18268763059652621 -0.20736613922180891 0 -0.16893675701590841 -0.21938844787154441 0 -0.1539032985465483 -0.21804494233210769 0 -0.1655598252252056 -0.20102100623173039 0 -0.16893675701590841 -0.21938844787154441 0 -0.1655598252252056 -0.20102100623173039 0 -0.16893675701590841 -0.21938844787154441 0 -0.1539032985465483 -0.21804494233210769 0 -0.16893675701590841 -0.21938844787154441 0 -0.15470735857195661 -0.23427071108878469 0 -0.1539032985465483 -0.21804494233210769 0 -0.16446710107527709 -0.2328117662091039 0 -0.1539032985465483 -0.21804494233210769 0 -0.16446710107527709 -0.2328117662091039 0 -0.1539032985465483 -0.21804494233210769 0 -0.16446710107527709 -0.2328117662091039 0 -0.16893675701590841 -0.21938844787154441 0 -0.16446710107527709 -0.2328117662091039 0 -0.17023723619220851 -0.2264618733520993 0 -0.17023723619220851 -0.2264618733520993 0 -0.16893675701590841 -0.21938844787154441 0 -0.17378248675083849 -0.22256041164586299 0 -0.17023723619220851 -0.2264618733520993 0 -0.16893675701590841 -0.21938844787154441 0 -0.16446710107527709 -0.2328117662091039 0 -0.17023723619220851 -0.2264618733520993 0 -0.16893675701590841 -0.21938844787154441 0 -0.17378248675083849 -0.22256041164586299 0 -0.1828728819850387 -0.2363193331271172 0 -0.19446674646327111 -0.22167000419568131 0 -0.16893675701590841 -0.21938844787154441 0 -0.17378248675083849 -0.22256041164586299 0 -0.19446674646327111 -0.22167000419568131 0 -0.16893675701590841 -0.21938844787154441 0 -0.19446674646327111 -0.22167000419568131 0 -0.17023723619220851 -0.2264618733520993 0 -0.17378248675083849 -0.22256041164586299 0 -0.17023723619220851 -0.2264618733520993 0 -0.17378248675083849 -0.22256041164586299 0 -0.1828728819850387 -0.2363193331271172 0 -0.17023723619220851 -0.2264618733520993 0 -0.17397364154919151 -0.24678452467897261 0 -0.17023723619220851 -0.2264618733520993 0 -0.1828728819850387 -0.2363193331271172 0 -0.17397364154919151 -0.24678452467897261 0 -0.1828728819850387 -0.2363193331271172 0 -0.17397364154919151 -0.24678452467897261 0 -0.1927761404030483 -0.24738098496973321 0 -0.17522420275694239 -0.25358644175163281 0 -0.15352784145279941 -0.2448501544149298 0 -0.17397364154919151 -0.24678452467897261 0 -0.16446710107527709 -0.2328117662091039 0 -0.17023723619220851 -0.2264618733520993 0 -0.17397364154919151 -0.24678452467897261 0 -0.17522420275694239 -0.25358644175163281 0 -0.15352784145279941 -0.2448501544149298 0 -0.15352784145279941 -0.2448501544149298 0 -0.17397364154919151 -0.24678452467897261 0 -0.16026774791472079 -0.2374330518632306 0 -0.16446710107527709 -0.2328117662091039 0 -0.17397364154919151 -0.24678452467897261 0 -0.16026774791472079 -0.2374330518632306 0 -0.16446710107527709 -0.2328117662091039 0 -0.17397364154919151 -0.24678452467897261 0 -0.17397364154919151 -0.24678452467897261 0 -0.16026774791472079 -0.2374330518632306 0 -0.15470735857195661 -0.23427071108878469 0 -0.16446710107527709 -0.2328117662091039 0 -0.16026774791472079 -0.2374330518632306 0 -0.16446710107527709 -0.2328117662091039 0 -0.16026774791472079 -0.2374330518632306 0 -0.15352784145279941 -0.2448501544149298 0 -0.16026774791472079 -0.2374330518632306 0 -0.21535174887558051 -0.24323111077953299 0 -0.20173347918597681 -0.23783975887483111 0 -0.21999673591063401 -0.22395156051981621 0 -0.22123898279613269 -0.25275702491106239 0 -0.20632428494652991 -0.25294021015760532 0 -0.21535174887558051 -0.24323111077953299 0 -0.20632428494652991 -0.25294021015760532 0 -0.21535174887558051 -0.24323111077953299 0 -0.20173347918597681 -0.23783975887483111 0 -0.20632428494652991 -0.25294021015760532 0 -0.1927761404030483 -0.24738098496973321 0 -0.20173347918597681 -0.23783975887483111 0 -0.1828728819850387 -0.2363193331271172 0 -0.1927761404030483 -0.24738098496973321 0 -0.20173347918597681 -0.23783975887483111 0 -0.1828728819850387 -0.2363193331271172 0 -0.20173347918597681 -0.23783975887483111 0 -0.19446674646327111 -0.22167000419568131 0 -0.19446674646327111 -0.22167000419568131 0 -0.21999673591063401 -0.22395156051981621 0 -0.20173347918597681 -0.23783975887483111 0 -0.19446674646327111 -0.22167000419568131 0 -0.21999673591063401 -0.22395156051981621 0 -0.20393492949338241 -0.20145906137733791 0 -0.22803138080037119 -0.19845620280455439 0 -0.21999673591063401 -0.22395156051981621 0 -0.19446674646327111 -0.22167000419568131 0 -0.20393492949338241 -0.20145906137733791 0 -0.21999673591063401 -0.22395156051981621 0 -0.18268763059652621 -0.20736613922180891 0 -0.19446674646327111 -0.22167000419568131 0 -0.20393492949338241 -0.20145906137733791 0 -0.18912216696908421 -0.19127628253442061 0 -0.20393492949338241 -0.20145906137733791 0 -0.20002178004568821 -0.1832409690932881 0 -0.18268763059652621 -0.20736613922180891 0 -0.18912216696908421 -0.19127628253442061 0 -0.20393492949338241 -0.20145906137733791 0 -0.20393492949338241 -0.20145906137733791 0 -0.22803138080037119 -0.19845620280455439 0 -0.21361183285721311 -0.18442027167803379 0 -0.20393492949338241 -0.20145906137733791 0 -0.20002178004568821 -0.1832409690932881 0 -0.21361183285721311 -0.18442027167803379 0 -0.22803138080037119 -0.19845620280455439 0 -0.21361183285721311 -0.18442027167803379 0 -0.22672050310085259 -0.1827103983696414 0 -0.22803138080037119 -0.19845620280455439 0 -0.24728644507765571 -0.2002560626264171 0 -0.24061794079690979 -0.18131396252955059 0 -0.24728644507765571 -0.2002560626264171 0 -0.24061794079690979 -0.18131396252955059 0 -0.25774260565997792 -0.1890357780921619 0 -0.22803138080037119 -0.19845620280455439 0 -0.24728644507765571 -0.2002560626264171 0 -0.23996393313580219 -0.2117325393530167 0 -0.24728644507765571 -0.2002560626264171 0 -0.23996393313580219 -0.2117325393530167 0 -0.25558452198744702 -0.21497569689874149 0 -0.23996393313580219 -0.2117325393530167 0 -0.2455267253579968 -0.22623311684395109 0 -0.25558452198744702 -0.21497569689874149 0 -0.22803138080037119 -0.19845620280455439 0 -0.23996393313580219 -0.2117325393530167 0 -0.21999673591063401 -0.22395156051981621 0 -0.21999673591063401 -0.22395156051981621 0 -0.2455267253579968 -0.22623311684395109 0 -0.21999673591063401 -0.22395156051981621 0 -0.2455267253579968 -0.22623311684395109 0 -0.22895648894281681 -0.23918949786925989 0 -0.23996393313580219 -0.2117325393530167 0 -0.21999673591063401 -0.22395156051981621 0 -0.2455267253579968 -0.22623311684395109 0 -0.2455267253579968 -0.22623311684395109 0 -0.2445407545490455 -0.242169086467064 0 -0.25721675741410982 -0.23610804121555889 0 -0.2455267253579968 -0.22623311684395109 0 -0.2445407545490455 -0.242169086467064 0 -0.22895648894281681 -0.23918949786925989 0 -0.23590736163769621 -0.25558715954368849 0 -0.2445407545490455 -0.242169086467064 0 -0.22895648894281681 -0.23918949786925989 0 -0.22123898279613269 -0.25275702491106239 0 -0.23590736163769621 -0.25558715954368849 0 -0.22895648894281681 -0.23918949786925989 0 -0.21535174887558051 -0.24323111077953299 0 -0.21999673591063401 -0.22395156051981621 0 -0.22895648894281681 -0.23918949786925989 0 -0.22123898279613269 -0.25275702491106239 0 -0.21535174887558051 -0.24323111077953299 0 -0.22895648894281681 -0.23918949786925989 0 -0.2162058765890931 -0.1558945490252413 0 -0.2111435941550239 -0.1413207546562559 0 -0.19956934042216809 -0.15478525196500609 0 -0.2111435941550239 -0.1413207546562559 0 -0.20054923953594611 -0.12629621427753979 0 -0.22039661709150971 -0.12530263399076541 0 -0.18126402438478001 -0.12766945086563031 0 -0.20054923953594611 -0.12629621427753979 0 -0.1915247720916454 -0.1356637587344432 0 -0.2111435941550239 -0.1413207546562559 0 -0.20054923953594611 -0.12629621427753979 0 -0.1915247720916454 -0.1356637587344432 0 -0.1846484633716747 -0.14670496701039559 0 -0.2111435941550239 -0.1413207546562559 0 -0.1915247720916454 -0.1356637587344432 0 -0.1846484633716747 -0.14670496701039559 0 -0.2111435941550239 -0.1413207546562559 0 -0.19956934042216809 -0.15478525196500609 0 -0.1846484633716747 -0.14670496701039559 0 -0.2111435941550239 -0.1413207546562559 0 -0.18428025737269091 -0.1567072089313733 0 -0.1846484633716747 -0.14670496701039559 0 -0.19956934042216809 -0.15478525196500609 0 -0.18428025737269091 -0.1567072089313733 0 -0.19956934042216809 -0.15478525196500609 0 -0.19312591587846781 -0.16300903304911649 0 -0.18403619985510999 -0.1690183103103638 0 -0.19312591587846781 -0.16300903304911649 0 -0.1911774566480792 -0.17465322978038381 0 -0.19312591587846781 -0.16300903304911649 0 -0.1911774566480792 -0.17465322978038381 0 -0.20569616414973141 -0.16586096363866029 0 -0.19956934042216809 -0.15478525196500609 0 -0.19312591587846781 -0.16300903304911649 0 -0.20569616414973141 -0.16586096363866029 0 -0.20002178004568821 -0.1832409690932881 0 -0.1911774566480792 -0.17465322978038381 0 -0.20569616414973141 -0.16586096363866029 0 -0.18912216696908421 -0.19127628253442061 0 -0.20002178004568821 -0.1832409690932881 0 -0.1911774566480792 -0.17465322978038381 0 -0.21361183285721311 -0.18442027167803379 0 -0.20569616414973141 -0.16586096363866029 0 -0.22491509098693141 -0.16874494134683221 0 -0.20002178004568821 -0.1832409690932881 0 -0.21361183285721311 -0.18442027167803379 0 -0.20569616414973141 -0.16586096363866029 0 -0.2162058765890931 -0.1558945490252413 0 -0.19956934042216809 -0.15478525196500609 0 -0.20569616414973141 -0.16586096363866029 0 -0.2162058765890931 -0.1558945490252413 0 -0.20569616414973141 -0.16586096363866029 0 -0.22491509098693141 -0.16874494134683221 0 -0.2162058765890931 -0.1558945490252413 0 -0.22491509098693141 -0.16874494134683221 0 -0.23052257572453869 -0.14878643637005151 0 -0.22491509098693141 -0.16874494134683221 0 -0.23887816087994479 -0.16469721671546461 0 -0.23052257572453869 -0.14878643637005151 0 -0.22803138080037119 -0.19845620280455439 0 -0.22672050310085259 -0.1827103983696414 0 -0.24061794079690979 -0.18131396252955059 0 -0.21361183285721311 -0.18442027167803379 0 -0.22491509098693141 -0.16874494134683221 0 -0.22672050310085259 -0.1827103983696414 0 -0.22491509098693141 -0.16874494134683221 0 -0.22672050310085259 -0.1827103983696414 0 -0.24061794079690979 -0.18131396252955059 0 -0.24061794079690979 -0.18131396252955059 0 -0.23887816087994479 -0.16469721671546461 0 -0.25185558617192882 -0.17065781086998111 0 -0.22491509098693141 -0.16874494134683221 0 -0.24061794079690979 -0.18131396252955059 0 -0.23887816087994479 -0.16469721671546461 0 -0.23887816087994479 -0.16469721671546461 0 -0.24647961071941521 -0.1539829324609073 0 -0.25185558617192882 -0.17065781086998111 0 -0.24754887274922219 -0.14467637963377011 0 -0.23052257572453869 -0.14878643637005151 0 -0.23763872493837329 -0.1359365423021161 0 -0.23887816087994479 -0.16469721671546461 0 -0.24647961071941521 -0.1539829324609073 0 -0.23052257572453869 -0.14878643637005151 0 -0.24647961071941521 -0.1539829324609073 0 -0.24754887274922219 -0.14467637963377011 0 -0.23052257572453869 -0.14878643637005151 0 -0.24647961071941521 -0.1539829324609073 0 -0.23052257572453869 -0.14878643637005151 0 -0.2162058765890931 -0.1558945490252413 0 -0.2111435941550239 -0.1413207546562559 0 -0.23052257572453869 -0.14878643637005151 0 -0.2111435941550239 -0.1413207546562559 0 -0.23052257572453869 -0.14878643637005151 0 -0.23763872493837329 -0.1359365423021161 0 -0.2111435941550239 -0.1413207546562559 0 -0.22039661709150971 -0.12530263399076541 0 -0.23763872493837329 -0.1359365423021161 0 -0.2111435941550239 -0.1413207546562559 0 -0.23763872493837329 -0.1359365423021161 0 -0.22039661709150971 -0.12530263399076541 0 -0.23763872493837329 -0.1359365423021161 0 -0.23857506954762561 -0.11975223491879269 0 -0.23763872493837329 -0.1359365423021161 0 -0.24924508807722659 -0.1257843991541214 0 -0.25430937103603363 -0.1358634516022558 0 -0.23763872493837329 -0.1359365423021161 0 -0.24924508807722659 -0.1257843991541214 0 -0.23857506954762561 -0.11975223491879269 0 -0.24754887274922219 -0.14467637963377011 0 -0.23763872493837329 -0.1359365423021161 0 -0.25430937103603363 -0.1358634516022558 0 -0.24924508807722659 -0.1257843991541214 0 -0.23857506954762561 -0.11975223491879269 0 -0.25337825677268122 -0.1120537464675339 0 -0.23857506954762561 -0.11975223491879269 0 -0.23957340314030251 -0.1043872682842823 0 -0.25337825677268122 -0.1120537464675339 0 -0.23957340314030251 -0.1043872682842823 0 -0.23870816928080391 -0.087568890414997227 0 -0.25263941859887101 -0.093970859555490477 0 -0.23957340314030251 -0.1043872682842823 0 -0.25337825677268122 -0.1120537464675339 0 -0.25263941859887101 -0.093970859555490477 0 -0.23957340314030251 -0.1043872682842823 0 -0.22620169119527619 -0.098170497920498395 0 -0.23870816928080391 -0.087568890414997227 0 -0.23957340314030251 -0.1043872682842823 0 -0.22620169119527619 -0.098170497920498395 0 -0.22431828110894131 -0.1125286152567881 0 -0.22620169119527619 -0.098170497920498395 0 -0.22431828110894131 -0.1125286152567881 0 -0.2150911321756101 -0.10444880558683869 0 -0.22039661709150971 -0.12530263399076541 0 -0.23857506954762561 -0.11975223491879269 0 -0.22431828110894131 -0.1125286152567881 0 -0.23857506954762561 -0.11975223491879269 0 -0.23957340314030251 -0.1043872682842823 0 -0.22431828110894131 -0.1125286152567881 0 -0.23650986791081599 -0.068627799573093812 0 -0.23870816928080391 -0.087568890414997227 0 -0.25175401642449291 -0.077053893218510347 0 -0.23650986791081599 -0.068627799573093812 0 -0.25115174390531159 -0.058546135902508643 0 -0.25175401642449291 -0.077053893218510347 0 -0.23870816928080391 -0.087568890414997227 0 -0.25175401642449291 -0.077053893218510347 0 -0.25263941859887101 -0.093970859555490477 0 -0.23650986791081599 -0.068627799573093812 0 -0.23870816928080391 -0.087568890414997227 0 -0.22505824124925569 -0.080324490178351859 0 -0.22620169119527619 -0.098170497920498395 0 -0.22505824124925569 -0.080324490178351859 0 -0.21382639562410599 -0.090140836129450327 0 -0.22620169119527619 -0.098170497920498395 0 -0.23870816928080391 -0.087568890414997227 0 -0.22505824124925569 -0.080324490178351859 0 -0.23650986791081599 -0.068627799573093812 0 -0.22505824124925569 -0.080324490178351859 0 -0.217824421958107 -0.061522165585685122 0 -0.21083325515215859 -0.075203223242030229 0 -0.1957179401497483 -0.073301008470471163 0 -0.2030177189233604 -0.056391249796619268 0 -0.21083325515215859 -0.075203223242030229 0 -0.2030177189233604 -0.056391249796619268 0 -0.217824421958107 -0.061522165585685122 0 -0.22505824124925569 -0.080324490178351859 0 -0.21083325515215859 -0.075203223242030229 0 -0.217824421958107 -0.061522165585685122 0 -0.21083325515215859 -0.075203223242030229 0 -0.21382639562410599 -0.090140836129450327 0 -0.20001012175347971 -0.08684171700883013 0 -0.22505824124925569 -0.080324490178351859 0 -0.21083325515215859 -0.075203223242030229 0 -0.21382639562410599 -0.090140836129450327 0 -0.20001012175347971 -0.08684171700883013 0 -0.1957179401497483 -0.073301008470471163 0 -0.1863672221326888 -0.090797080529067181 0 -0.1957179401497483 -0.073301008470471163 0 -0.1863672221326888 -0.090797080529067181 0 -0.21083325515215859 -0.075203223242030229 0 -0.20001012175347971 -0.08684171700883013 0 -0.1957179401497483 -0.073301008470471163 0 -0.1957179401497483 -0.073301008470471163 0 -0.18229511840462689 -0.063800491120187125 0 -0.19031866432022471 -0.057023969427033513 0 -0.20054923953594611 -0.12629621427753979 0 -0.22039661709150971 -0.12530263399076541 0 -0.2106473165585559 -0.11565544996114691 0 -0.20054923953594611 -0.12629621427753979 0 -0.2106473165585559 -0.11565544996114691 0 -0.20046197639117111 -0.10574862866630939 0 -0.22039661709150971 -0.12530263399076541 0 -0.22431828110894131 -0.1125286152567881 0 -0.2106473165585559 -0.11565544996114691 0 -0.22431828110894131 -0.1125286152567881 0 -0.2106473165585559 -0.11565544996114691 0 -0.2150911321756101 -0.10444880558683869 0 -0.21382639562410599 -0.090140836129450327 0 -0.20001012175347971 -0.08684171700883013 0 -0.20046197639117111 -0.10574862866630939 0 -0.22620169119527619 -0.098170497920498395 0 -0.21382639562410599 -0.090140836129450327 0 -0.2150911321756101 -0.10444880558683869 0 -0.21382639562410599 -0.090140836129450327 0 -0.2150911321756101 -0.10444880558683869 0 -0.20046197639117111 -0.10574862866630939 0 -0.2106473165585559 -0.11565544996114691 0 -0.2150911321756101 -0.10444880558683869 0 -0.20046197639117111 -0.10574862866630939 0 -0.20001012175347971 -0.08684171700883013 0 -0.20046197639117111 -0.10574862866630939 0 -0.1863672221326888 -0.090797080529067181 0 -0.20046197639117111 -0.10574862866630939 0 -0.1770165041156295 -0.1082931525876633 0 -0.1863672221326888 -0.090797080529067181 0 -0.20054923953594611 -0.12629621427753979 0 -0.20046197639117111 -0.10574862866630939 0 -0.1770165041156295 -0.1082931525876633 0 -0.20054923953594611 -0.12629621427753979 0 -0.1770165041156295 -0.1082931525876633 0 -0.18126402438478001 -0.12766945086563031 0 -0.20054923953594611 -0.12629621427753979 0 -0.1770165041156295 -0.1082931525876633 0 -0.18126402438478001 -0.12766945086563031 0 -0.1631084809502045 -0.13431637081015149 0 -0.1770165041156295 -0.1082931525876633 0 -0.1631084809502045 -0.13431637081015149 0 -0.1770165041156295 -0.1082931525876633 0 -0.1631084809502045 -0.13431637081015149 0 -0.16027649312394629 -0.1083967679212471 0 -0.1770165041156295 -0.1082931525876633 0 -0.1631084809502045 -0.13431637081015149 0 -0.16027649312394629 -0.1083967679212471 0 -0.14664080783937489 -0.1178448104280701 0 -0.1770165041156295 -0.1082931525876633 0 -0.155996916015716 -0.092212704033776294 0 -0.16027649312394629 -0.1083967679212471 0 -0.1770165041156295 -0.1082931525876633 0 -0.155996916015716 -0.092212704033776294 0 -0.1770165041156295 -0.1082931525876633 0 -0.1863672221326888 -0.090797080529067181 0 -0.155996916015716 -0.092212704033776294 0 -0.1770165041156295 -0.1082931525876633 0 -0.1863672221326888 -0.090797080529067181 0 -0.1957179401497483 -0.073301008470471163 0 -0.1863672221326888 -0.090797080529067181 0 -0.17124881910847781 -0.073778571315876618 0 -0.1957179401497483 -0.073301008470471163 0 -0.18229511840462689 -0.063800491120187125 0 -0.17124881910847781 -0.073778571315876618 0 -0.18229511840462689 -0.063800491120187125 0 -0.17124881910847781 -0.073778571315876618 0 -0.17510559098224349 -0.051131697104315137 0 -0.17124881910847781 -0.073778571315876618 0 -0.1538029965563637 -0.064387312451108 0 -0.17510559098224349 -0.051131697104315137 0 -0.17124881910847781 -0.073778571315876618 0 -0.155996916015716 -0.092212704033776294 0 -0.1538029965563637 -0.064387312451108 0 -0.1863672221326888 -0.090797080529067181 0 -0.17124881910847781 -0.073778571315876618 0 -0.155996916015716 -0.092212704033776294 0 -0.155996916015716 -0.092212704033776294 0 -0.13497732791580139 -0.076132255479890693 0 -0.1538029965563637 -0.064387312451108 0 -0.13497732791580139 -0.076132255479890693 0 -0.13533633977788939 -0.059474615633110281 0 -0.155996916015716 -0.092212704033776294 0 -0.1538029965563637 -0.064387312451108 0 -0.13497732791580139 -0.076132255479890693 0 -0.1139577398158869 -0.060051806926005112 0 -0.13497732791580139 -0.076132255479890693 0 -0.13533633977788939 -0.059474615633110281 0 -0.155996916015716 -0.092212704033776294 0 -0.13497732791580139 -0.076132255479890693 0 -0.12834653564563239 -0.10083667827016669 0 -0.116387766544777 -0.081436152704049941 0 -0.13497732791580139 -0.076132255479890693 0 -0.12834653564563239 -0.10083667827016669 0 -0.12773106944785939 -0.1302683276577824 0 -0.12834653564563239 -0.10083667827016669 0 -0.14664080783937489 -0.1178448104280701 0 -0.16027649312394629 -0.1083967679212471 0 -0.155996916015716 -0.092212704033776294 0 -0.14664080783937489 -0.1178448104280701 0 -0.155996916015716 -0.092212704033776294 0 -0.12834653564563239 -0.10083667827016669 0 -0.14664080783937489 -0.1178448104280701 0 -0.14295110907722361 -0.021921776681734211 0 -0.13309249114678059 -0.033795583290699857 0 -0.15158807436094451 -0.036407454492567173 0 -0.14295110907722361 -0.021921776681734211 0 -0.15158807436094451 -0.036407454492567173 0 -0.16937091164279569 -0.014855649250871669 0 -0.14295110907722361 -0.021921776681734211 0 -0.16937091164279569 -0.014855649250871669 0 -0.14190339469330571 -0.010117617497673381 0 -0.1308273698701844 -0.003706324753454524 0 -0.14915950396313971 0.006694546598058051 0 -0.14295110907722361 -0.021921776681734211 0 -0.15372413480418251 -0.0092773897285387073 0 -0.16937091164279569 -0.014855649250871669 0 -0.15372413480418251 -0.0092773897285387073 0 -0.14190339469330571 -0.010117617497673381 0 -0.14915950396313971 0.006694546598058051 0 -0.14295110907722361 -0.021921776681734211 0 -0.15372413480418251 -0.0092773897285387073 0 -0.14190339469330571 -0.010117617497673381 0 -0.14295110907722361 -0.021921776681734211 0 -0.14190339469330571 -0.010117617497673381 0 -0.1319644764508387 -0.014273808822776721 0 -0.14190339469330571 -0.010117617497673381 0 -0.1308273698701844 -0.003706324753454524 0 -0.1319644764508387 -0.014273808822776721 0 -0.1223008309163644 -0.01266638868992407 0 -0.1308273698701844 -0.003706324753454524 0 -0.1319644764508387 -0.014273808822776721 0 -0.1217729598611689 -0.023068394004009941 0 -0.14295110907722361 -0.021921776681734211 0 -0.1319644764508387 -0.014273808822776721 0 -0.1223008309163644 -0.01266638868992407 0 -0.1217729598611689 -0.023068394004009941 0 -0.1319644764508387 -0.014273808822776721 0 -0.1165313065116514 -0.028987904112596389 0 -0.14295110907722361 -0.021921776681734211 0 -0.13309249114678059 -0.033795583290699857 0 -0.1165313065116514 -0.028987904112596389 0 -0.14295110907722361 -0.021921776681734211 0 -0.1217729598611689 -0.023068394004009941 0 -0.1165313065116514 -0.028987904112596389 0 -0.14295110907722361 -0.021921776681734211 0 -0.12405433683914049 -0.038238732028205748 0 -0.1302813490505676 -0.046114076915425177 0 -0.13309249114678059 -0.033795583290699857 0 -0.1302813490505676 -0.046114076915425177 0 -0.13309249114678059 -0.033795583290699857 0 -0.14377592298582359 -0.048182651593287273 0 -0.1139577398158869 -0.060051806926005112 0 -0.1302813490505676 -0.046114076915425177 0 -0.13533633977788939 -0.059474615633110281 0 -0.1302813490505676 -0.046114076915425177 0 -0.13533633977788939 -0.059474615633110281 0 -0.14377592298582359 -0.048182651593287273 0 -0.1538029965563637 -0.064387312451108 0 -0.14377592298582359 -0.048182651593287273 0 -0.15861110573989351 -0.047664379376895598 0 -0.1538029965563637 -0.064387312451108 0 -0.13533633977788939 -0.059474615633110281 0 -0.14377592298582359 -0.048182651593287273 0 -0.13309249114678059 -0.033795583290699857 0 -0.14377592298582359 -0.048182651593287273 0 -0.15158807436094451 -0.036407454492567173 0 -0.14377592298582359 -0.048182651593287273 0 -0.15158807436094451 -0.036407454492567173 0 -0.15861110573989351 -0.047664379376895598 0 -0.15158807436094451 -0.036407454492567173 0 -0.16758248790402799 -0.037642509972719528 0 -0.1758975211610789 -0.023504920906405619 0 -0.16758248790402799 -0.037642509972719528 0 -0.15861110573989351 -0.047664379376895598 0 -0.17510559098224349 -0.051131697104315137 0 -0.15158807436094451 -0.036407454492567173 0 -0.16758248790402799 -0.037642509972719528 0 -0.15861110573989351 -0.047664379376895598 0 -0.1538029965563637 -0.064387312451108 0 -0.15861110573989351 -0.047664379376895598 0 -0.17510559098224349 -0.051131697104315137 0 -0.17510559098224349 -0.051131697104315137 0 -0.19031866432022471 -0.057023969427033513 0 -0.19129306798239129 -0.045770222528604562 0 -0.18229511840462689 -0.063800491120187125 0 -0.17510559098224349 -0.051131697104315137 0 -0.19031866432022471 -0.057023969427033513 0 -0.16758248790402799 -0.037642509972719528 0 -0.17510559098224349 -0.051131697104315137 0 -0.17626497858470699 -0.033096811948537662 0 -0.17510559098224349 -0.051131697104315137 0 -0.17626497858470699 -0.033096811948537662 0 -0.18601539167933601 -0.036442119038596038 0 -0.17510559098224349 -0.051131697104315137 0 -0.18601539167933601 -0.036442119038596038 0 -0.19129306798239129 -0.045770222528604562 0 -0.16758248790402799 -0.037642509972719528 0 -0.17626497858470699 -0.033096811948537662 0 -0.1758975211610789 -0.023504920906405619 0 -0.17626497858470699 -0.033096811948537662 0 -0.18601539167933601 -0.036442119038596038 0 -0.18577207079687341 -0.029153014965294769 0 -0.18577207079687341 -0.029153014965294769 0 -0.1758975211610789 -0.023504920906405619 0 -0.18916079395695351 -0.023180833158666429 0 -0.1758975211610789 -0.023504920906405619 0 -0.18916079395695351 -0.023180833158666429 0 -0.19351967008589191 -0.01886640123371041 0 -0.1758975211610789 -0.023504920906405619 0 -0.17726052073477691 -0.01445355104179012 0 -0.18582346022452961 -0.01196680666757349 0 -0.1758975211610789 -0.023504920906405619 0 -0.16937091164279569 -0.014855649250871669 0 -0.17726052073477691 -0.01445355104179012 0 -0.17626497858470699 -0.033096811948537662 0 -0.18577207079687341 -0.029153014965294769 0 -0.1758975211610789 -0.023504920906405619 0 -0.15158807436094451 -0.036407454492567173 0 -0.1758975211610789 -0.023504920906405619 0 -0.15158807436094451 -0.036407454492567173 0 -0.1758975211610789 -0.023504920906405619 0 -0.16937091164279569 -0.014855649250871669 0 -0.15372413480418251 -0.0092773897285387073 0 -0.16937091164279569 -0.014855649250871669 0 -0.17482108057029491 -0.0012271014601547951 0 -0.15372413480418251 -0.0092773897285387073 0 -0.17482108057029491 -0.0012271014601547951 0 -0.14915950396313971 0.006694546598058051 0 -0.17482108057029491 -0.0012271014601547951 0 -0.18582346022452961 -0.01196680666757349 0 -0.20048265717745009 -0.0091487495183676416 0 -0.1758975211610789 -0.023504920906405619 0 -0.18582346022452961 -0.01196680666757349 0 -0.20020696796121329 -0.01060238732024405 0 -0.16937091164279569 -0.014855649250871669 0 -0.17482108057029491 -0.0012271014601547951 0 -0.17726052073477691 -0.01445355104179012 0 -0.17482108057029491 -0.0012271014601547951 0 -0.17726052073477691 -0.01445355104179012 0 -0.18582346022452961 -0.01196680666757349 0 -0.17482108057029491 -0.0012271014601547951 0 -0.1916493180489231 -0.0013587422905579211 0 -0.20048265717745009 -0.0091487495183676416 0 -0.17482108057029491 -0.0012271014601547951 0 -0.20048265717745009 -0.0091487495183676416 0 -0.1916493180489231 -0.0013587422905579211 0 -0.1988101645859931 -0.0018992895646593819 0 -0.20048265717745009 -0.0091487495183676416 0 -0.1916493180489231 -0.0013587422905579211 0 -0.1988101645859931 -0.0018992895646593819 0 -0.19624554147368009 0.00242762966048044 0 -0.1988101645859931 -0.0018992895646593819 0 -0.20048265717745009 -0.0091487495183676416 0 -0.2050648132605469 0.00070925757607599434 0 -0.18582346022452961 -0.01196680666757349 0 -0.20048265717745009 -0.0091487495183676416 0 -0.20020696796121329 -0.01060238732024405 0 -0.20020696796121329 -0.01060238732024405 0 -0.19351967008589191 -0.01886640123371041 0 -0.19898353718776879 -0.016066615627418991 0 -0.20020696796121329 -0.01060238732024405 0 -0.19898353718776879 -0.016066615627418991 0 -0.20261325837447919 -0.01828009819718325 0 -0.1758975211610789 -0.023504920906405619 0 -0.20020696796121329 -0.01060238732024405 0 -0.1758975211610789 -0.023504920906405619 0 -0.20020696796121329 -0.01060238732024405 0 -0.19351967008589191 -0.01886640123371041 0 -0.18916079395695351 -0.023180833158666429 0 -0.19351967008589191 -0.01886640123371041 0 -0.19760361472161581 -0.02249473730185407 0 -0.18916079395695351 -0.023180833158666429 0 -0.19182737550431431 -0.02684418947397469 0 -0.19760361472161581 -0.02249473730185407 0 -0.19182737550431431 -0.02684418947397469 0 -0.19760361472161581 -0.02249473730185407 0 -0.19477302254181439 -0.032548172470083472 0 -0.18577207079687341 -0.029153014965294769 0 -0.19182737550431431 -0.02684418947397469 0 -0.19477302254181439 -0.032548172470083472 0 -0.18577207079687341 -0.029153014965294769 0 -0.18916079395695351 -0.023180833158666429 0 -0.19182737550431431 -0.02684418947397469 0 -0.20267882519495919 -0.027380440373662711 0 -0.19760361472161581 -0.02249473730185407 0 -0.19477302254181439 -0.032548172470083472 0 -0.20267882519495919 -0.027380440373662711 0 -0.19760361472161581 -0.02249473730185407 0 -0.20261325837447919 -0.01828009819718325 0 -0.19351967008589191 -0.01886640123371041 0 -0.1987178075221058 -0.01873447530289846 0 -0.19898353718776879 -0.016066615627418991 0 -0.19351967008589191 -0.01886640123371041 0 -0.1987178075221058 -0.01873447530289846 0 -0.19760361472161581 -0.02249473730185407 0 -0.1987178075221058 -0.01873447530289846 0 -0.19760361472161581 -0.02249473730185407 0 -0.20261325837447919 -0.01828009819718325 0 -0.1987178075221058 -0.01873447530289846 0 -0.19898353718776879 -0.016066615627418991 0 -0.20261325837447919 -0.01828009819718325 0 -0.20267882519495919 -0.027380440373662711 0 -0.20261325837447919 -0.01828009819718325 0 -0.20938741566724259 -0.023817128691490101 0 -0.20261325837447919 -0.01828009819718325 0 -0.20938741566724259 -0.023817128691490101 0 -0.21296342334433821 -0.01436513850116387 0 -0.20267882519495919 -0.027380440373662711 0 -0.20938741566724259 -0.023817128691490101 0 -0.20990982638016001 -0.033819320913168638 0 -0.20938741566724259 -0.023817128691490101 0 -0.20990982638016001 -0.033819320913168638 0 -0.21877174504227639 -0.025240645472272019 0 -0.20938741566724259 -0.023817128691490101 0 -0.21296342334433821 -0.01436513850116387 0 -0.21877174504227639 -0.025240645472272019 0 -0.20020696796121329 -0.01060238732024405 0 -0.2245164147613477 0.0023001462659175201 0 -0.20048265717745009 -0.0091487495183676416 0 -0.2050648132605469 0.00070925757607599434 0 -0.2245164147613477 0.0023001462659175201 0 -0.20020696796121329 -0.01060238732024405 0 -0.21296342334433821 -0.01436513850116387 0 -0.2245164147613477 0.0023001462659175201 0 -0.20048265717745009 -0.0091487495183676416 0 -0.20020696796121329 -0.01060238732024405 0 -0.2245164147613477 0.0023001462659175201 0 -0.20020696796121329 -0.01060238732024405 0 -0.20261325837447919 -0.01828009819718325 0 -0.21296342334433821 -0.01436513850116387 0 -0.1957179401497483 -0.073301008470471163 0 -0.2030177189233604 -0.056391249796619268 0 -0.19031866432022471 -0.057023969427033513 0 -0.2030177189233604 -0.056391249796619268 0 -0.19031866432022471 -0.057023969427033513 0 -0.19129306798239129 -0.045770222528604562 0 -0.2030177189233604 -0.056391249796619268 0 -0.20139772668656089 -0.042197652815864288 0 -0.19129306798239129 -0.045770222528604562 0 -0.20139772668656089 -0.042197652815864288 0 -0.19129306798239129 -0.045770222528604562 0 -0.19477302254181439 -0.032548172470083472 0 -0.18601539167933601 -0.036442119038596038 0 -0.18577207079687341 -0.029153014965294769 0 -0.19477302254181439 -0.032548172470083472 0 -0.18601539167933601 -0.036442119038596038 0 -0.19129306798239129 -0.045770222528604562 0 -0.19477302254181439 -0.032548172470083472 0 -0.20267882519495919 -0.027380440373662711 0 -0.19477302254181439 -0.032548172470083472 0 -0.2021898502008736 -0.033986396643194777 0 -0.20139772668656089 -0.042197652815864288 0 -0.19477302254181439 -0.032548172470083472 0 -0.2021898502008736 -0.033986396643194777 0 -0.20139772668656089 -0.042197652815864288 0 -0.2021898502008736 -0.033986396643194777 0 -0.20990982638016001 -0.033819320913168638 0 -0.20267882519495919 -0.027380440373662711 0 -0.2021898502008736 -0.033986396643194777 0 -0.20990982638016001 -0.033819320913168638 0 -0.20990982638016001 -0.033819320913168638 0 -0.2229389916637923 -0.037209639315723277 0 -0.21877174504227639 -0.025240645472272019 0 -0.20990982638016001 -0.033819320913168638 0 -0.21397949739148869 -0.04715833384969647 0 -0.2229389916637923 -0.037209639315723277 0 -0.20139772668656089 -0.042197652815864288 0 -0.20990982638016001 -0.033819320913168638 0 -0.21397949739148869 -0.04715833384969647 0 -0.2030177189233604 -0.056391249796619268 0 -0.20139772668656089 -0.042197652815864288 0 -0.21397949739148869 -0.04715833384969647 0 -0.2030177189233604 -0.056391249796619268 0 -0.21397949739148869 -0.04715833384969647 0 -0.217824421958107 -0.061522165585685122 0 -0.23650986791081599 -0.068627799573093812 0 -0.217824421958107 -0.061522165585685122 0 -0.23298009712084161 -0.048457193276090667 0 -0.21397949739148869 -0.04715833384969647 0 -0.217824421958107 -0.061522165585685122 0 -0.23298009712084161 -0.048457193276090667 0 -0.23298009712084161 -0.048457193276090667 0 -0.2229389916637923 -0.037209639315723277 0 -0.23373555259425061 -0.030412903087978779 0 -0.21397949739148869 -0.04715833384969647 0 -0.23298009712084161 -0.048457193276090667 0 -0.2229389916637923 -0.037209639315723277 0 -0.23298009712084161 -0.048457193276090667 0 -0.23373555259425061 -0.030412903087978779 0 -0.25008687705643012 -0.037811544699967531 0 -0.23650986791081599 -0.068627799573093812 0 -0.23298009712084161 -0.048457193276090667 0 -0.25115174390531159 -0.058546135902508643 0 -0.23298009712084161 -0.048457193276090667 0 -0.25008687705643012 -0.037811544699967531 0 -0.25115174390531159 -0.058546135902508643 0 -0.2488730923558598 -0.0172032822455544 0 -0.25976749961366202 -0.0010753608270254731 0 -0.2245164147613477 0.0023001462659175201 0 -0.21296342334433821 -0.01436513850116387 0 -0.22815262244213569 -0.016445044713286599 0 -0.2245164147613477 0.0023001462659175201 0 -0.22815262244213569 -0.016445044713286599 0 -0.2488730923558598 -0.0172032822455544 0 -0.2245164147613477 0.0023001462659175201 0 -0.21296342334433821 -0.01436513850116387 0 -0.21877174504227639 -0.025240645472272019 0 -0.22815262244213569 -0.016445044713286599 0 -0.2229389916637923 -0.037209639315723277 0 -0.21877174504227639 -0.025240645472272019 0 -0.23373555259425061 -0.030412903087978779 0 -0.21877174504227639 -0.025240645472272019 0 -0.23373555259425061 -0.030412903087978779 0 -0.22815262244213569 -0.016445044713286599 0 -0.23373555259425061 -0.030412903087978779 0 -0.22815262244213569 -0.016445044713286599 0 -0.2488730923558598 -0.0172032822455544 0 -0.23373555259425061 -0.030412903087978779 0 -0.2488730923558598 -0.0172032822455544 0 -0.25008687705643012 -0.037811544699967531 0 -0.2488730923558598 -0.0172032822455544 0 -0.25976749961366202 -0.0010753608270254731 0 -0.27250295981119332 -0.017847891610294538 0 -0.2488730923558598 -0.0172032822455544 0 -0.26752634218707838 -0.034292856088331887 0 -0.25008687705643012 -0.037811544699967531 0 -0.2488730923558598 -0.0172032822455544 0 -0.27250295981119332 -0.017847891610294538 0 -0.26752634218707838 -0.034292856088331887 0 -0.27250295981119332 -0.017847891610294538 0 -0.28748077792494192 -0.03311402999097604 0 -0.26752634218707838 -0.034292856088331887 0 -0.25976749961366202 -0.0010753608270254731 0 -0.27250295981119332 -0.017847891610294538 0 -0.286468818953594 -0.0051721761543546442 0 -0.27250295981119332 -0.017847891610294538 0 -0.286468818953594 -0.0051721761543546442 0 -0.29247317643533932 -0.020792290693576462 0 -0.286468818953594 -0.0051721761543546442 0 -0.29247317643533932 -0.020792290693576462 0 -0.31083389858319399 -0.01771263237121502 0 -0.27250295981119332 -0.017847891610294538 0 -0.29247317643533932 -0.020792290693576462 0 -0.28748077792494192 -0.03311402999097604 0 -0.29247317643533932 -0.020792290693576462 0 -0.3029324749253583 -0.033385346120961487 0 -0.28748077792494192 -0.03311402999097604 0 -0.29247317643533932 -0.020792290693576462 0 -0.31083389858319399 -0.01771263237121502 0 -0.3029324749253583 -0.033385346120961487 0 -0.31083389858319399 -0.01771263237121502 0 -0.3029324749253583 -0.033385346120961487 0 -0.31797791488597388 -0.03414608070223938 0 -0.286468818953594 -0.0051721761543546442 0 -0.31083389858319399 -0.01771263237121502 0 -0.286468818953594 -0.0051721761543546442 0 -0.31083389858319399 -0.01771263237121502 0 -0.30622626610694459 0.00024583799610343368 0 -0.29471012009422592 -0.046221419021362023 0 -0.29936803152355562 -0.063498925962243991 0 -0.31304548563926732 -0.049960935336359723 0 -0.29936803152355562 -0.063498925962243991 0 -0.31604318545389631 -0.069902362457255757 0 -0.31304548563926732 -0.049960935336359723 0 -0.3029324749253583 -0.033385346120961487 0 -0.31797791488597388 -0.03414608070223938 0 -0.31304548563926732 -0.049960935336359723 0 -0.3029324749253583 -0.033385346120961487 0 -0.29471012009422592 -0.046221419021362023 0 -0.31304548563926732 -0.049960935336359723 0 -0.3029324749253583 -0.033385346120961487 0 -0.29471012009422592 -0.046221419021362023 0 -0.28748077792494192 -0.03311402999097604 0 -0.29471012009422592 -0.046221419021362023 0 -0.28748077792494192 -0.03311402999097604 0 -0.28014884294153047 -0.044560520968446329 0 -0.29471012009422592 -0.046221419021362023 0 -0.28275071198362661 -0.057686033747952482 0 -0.28014884294153047 -0.044560520968446329 0 -0.29471012009422592 -0.046221419021362023 0 -0.28275071198362661 -0.057686033747952482 0 -0.29936803152355562 -0.063498925962243991 0 -0.28275071198362661 -0.057686033747952482 0 -0.26827626251777958 -0.051488265993609228 0 -0.28014884294153047 -0.044560520968446329 0 -0.28275071198362661 -0.057686033747952482 0 -0.26827626251777958 -0.051488265993609228 0 -0.2677013479846112 -0.066832593215303437 0 -0.28748077792494192 -0.03311402999097604 0 -0.26752634218707838 -0.034292856088331887 0 -0.28014884294153047 -0.044560520968446329 0 -0.26827626251777958 -0.051488265993609228 0 -0.26752634218707838 -0.034292856088331887 0 -0.28014884294153047 -0.044560520968446329 0 -0.26827626251777958 -0.051488265993609228 0 -0.26752634218707838 -0.034292856088331887 0 -0.25008687705643012 -0.037811544699967531 0 -0.26827626251777958 -0.051488265993609228 0 -0.25115174390531159 -0.058546135902508643 0 -0.2677013479846112 -0.066832593215303437 0 -0.26827626251777958 -0.051488265993609228 0 -0.25008687705643012 -0.037811544699967531 0 -0.25115174390531159 -0.058546135902508643 0 -0.25175401642449291 -0.077053893218510347 0 -0.26733863509825839 -0.083025937522562918 0 -0.2677013479846112 -0.066832593215303437 0 -0.25115174390531159 -0.058546135902508643 0 -0.25175401642449291 -0.077053893218510347 0 -0.2677013479846112 -0.066832593215303437 0 -0.25175401642449291 -0.077053893218510347 0 -0.26733863509825839 -0.083025937522562918 0 -0.25263941859887101 -0.093970859555490477 0 -0.26733863509825839 -0.083025937522562918 0 -0.25263941859887101 -0.093970859555490477 0 -0.2650840308766873 -0.099735421425056259 0 -0.26733863509825839 -0.083025937522562918 0 -0.28493671797819831 -0.07319529290667702 0 -0.2837522637890037 -0.089908174417965447 0 -0.26733863509825839 -0.083025937522562918 0 -0.2650840308766873 -0.099735421425056259 0 -0.2837522637890037 -0.089908174417965447 0 -0.28275071198362661 -0.057686033747952482 0 -0.2677013479846112 -0.066832593215303437 0 -0.28493671797819831 -0.07319529290667702 0 -0.26733863509825839 -0.083025937522562918 0 -0.2677013479846112 -0.066832593215303437 0 -0.28493671797819831 -0.07319529290667702 0 -0.24924508807722659 -0.1257843991541214 0 -0.25337825677268122 -0.1120537464675339 0 -0.26232401809141931 -0.12531602047990839 0 -0.25337825677268122 -0.1120537464675339 0 -0.26545255323713352 -0.1137642390911566 0 -0.26232401809141931 -0.12531602047990839 0 -0.25337825677268122 -0.1120537464675339 0 -0.25263941859887101 -0.093970859555490477 0 -0.2650840308766873 -0.099735421425056259 0 -0.25337825677268122 -0.1120537464675339 0 -0.26545255323713352 -0.1137642390911566 0 -0.2650840308766873 -0.099735421425056259 0 -0.2650840308766873 -0.099735421425056259 0 -0.28118783881817672 -0.1069481668380006 0 -0.2837522637890037 -0.089908174417965447 0 -0.26545255323713352 -0.1137642390911566 0 -0.2650840308766873 -0.099735421425056259 0 -0.28118783881817672 -0.1069481668380006 0 -0.26545255323713352 -0.1137642390911566 0 -0.28118783881817672 -0.1069481668380006 0 -0.27551603752324622 -0.12138573291103801 0 -0.26545255323713352 -0.1137642390911566 0 -0.27551603752324622 -0.12138573291103801 0 -0.26232401809141931 -0.12531602047990839 0 -0.28118783881817672 -0.1069481668380006 0 -0.28829694366981751 -0.122180913281198 0 -0.29685206651416879 -0.1132040496784268 0 -0.28829694366981751 -0.122180913281198 0 -0.29685206651416879 -0.1132040496784268 0 -0.30036533075545663 -0.12763974635465661 0 -0.27551603752324622 -0.12138573291103801 0 -0.28829694366981751 -0.122180913281198 0 -0.28164259098368349 -0.12773858005991989 0 -0.28118783881817672 -0.1069481668380006 0 -0.27551603752324622 -0.12138573291103801 0 -0.28829694366981751 -0.122180913281198 0 -0.28118783881817672 -0.1069481668380006 0 -0.29685206651416879 -0.1132040496784268 0 -0.29876268961467811 -0.099309109427749898 0 -0.28118783881817672 -0.1069481668380006 0 -0.29876268961467811 -0.099309109427749898 0 -0.2837522637890037 -0.089908174417965447 0 -0.29876268961467811 -0.099309109427749898 0 -0.31224451900450118 -0.1147882246518258 0 -0.31276094390531128 -0.099248964117085836 0 -0.29685206651416879 -0.1132040496784268 0 -0.29876268961467811 -0.099309109427749898 0 -0.31224451900450118 -0.1147882246518258 0 -0.31224451900450118 -0.1147882246518258 0 -0.31168865834382392 -0.1302914114040104 0 -0.30036533075545663 -0.12763974635465661 0 -0.29685206651416879 -0.1132040496784268 0 -0.31224451900450118 -0.1147882246518258 0 -0.30036533075545663 -0.12763974635465661 0 -0.28493671797819831 -0.07319529290667702 0 -0.30208504580473872 -0.082467925292468852 0 -0.29936803152355562 -0.063498925962243991 0 -0.28275071198362661 -0.057686033747952482 0 -0.28493671797819831 -0.07319529290667702 0 -0.29936803152355562 -0.063498925962243991 0 -0.29876268961467811 -0.099309109427749898 0 -0.2837522637890037 -0.089908174417965447 0 -0.30208504580473872 -0.082467925292468852 0 -0.28493671797819831 -0.07319529290667702 0 -0.2837522637890037 -0.089908174417965447 0 -0.30208504580473872 -0.082467925292468852 0 -0.30208504580473872 -0.082467925292468852 0 -0.31884588140366471 -0.085707165747491001 0 -0.31276094390531128 -0.099248964117085836 0 -0.29876268961467811 -0.099309109427749898 0 -0.30208504580473872 -0.082467925292468852 0 -0.31276094390531128 -0.099248964117085836 0 -0.30208504580473872 -0.082467925292468852 0 -0.31604318545389631 -0.069902362457255757 0 -0.31884588140366471 -0.085707165747491001 0 -0.30208504580473872 -0.082467925292468852 0 -0.29936803152355562 -0.063498925962243991 0 -0.31604318545389631 -0.069902362457255757 0 -0.31604318545389631 -0.069902362457255757 0 -0.33702022574480611 -0.079023215191283025 0 -0.32645263802288998 -0.059456299311171378 0 -0.31604318545389631 -0.069902362457255757 0 -0.31884588140366471 -0.085707165747491001 0 -0.33702022574480611 -0.079023215191283025 0 -0.31884588140366471 -0.085707165747491001 0 -0.33702022574480611 -0.079023215191283025 0 -0.3274363969406609 -0.09929394587432841 0 -0.33702022574480611 -0.079023215191283025 0 -0.3274363969406609 -0.09929394587432841 0 -0.34844546322183301 -0.095295898859187975 0 -0.33702022574480611 -0.079023215191283025 0 -0.34911433812553838 -0.057742046875553191 0 -0.33702022574480611 -0.079023215191283025 0 -0.32645263802288998 -0.059456299311171378 0 -0.33741006274824481 -0.056276989107042028 0 -0.33702022574480611 -0.079023215191283025 0 -0.34911433812553838 -0.057742046875553191 0 -0.33741006274824481 -0.056276989107042028 0 -0.31224451900450118 -0.1147882246518258 0 -0.32920422099498597 -0.11942458871672321 0 -0.32205285601257022 -0.12890680514571221 0 -0.31224451900450118 -0.1147882246518258 0 -0.3274363969406609 -0.09929394587432841 0 -0.32920422099498597 -0.11942458871672321 0 -0.31224451900450118 -0.1147882246518258 0 -0.31168865834382392 -0.1302914114040104 0 -0.32205285601257022 -0.12890680514571221 0 -0.31224451900450118 -0.1147882246518258 0 -0.31276094390531128 -0.099248964117085836 0 -0.3274363969406609 -0.09929394587432841 0 -0.31884588140366471 -0.085707165747491001 0 -0.31276094390531128 -0.099248964117085836 0 -0.3274363969406609 -0.09929394587432841 0 -0.3274363969406609 -0.09929394587432841 0 -0.33952191557871331 -0.1073513236379135 0 -0.32920422099498597 -0.11942458871672321 0 -0.3274363969406609 -0.09929394587432841 0 -0.33952191557871331 -0.1073513236379135 0 -0.34844546322183301 -0.095295898859187975 0 -0.32920422099498597 -0.11942458871672321 0 -0.35300158115737351 -0.1153908611014145 0 -0.337730033971816 -0.1369690566387215 0 -0.33952191557871331 -0.1073513236379135 0 -0.32920422099498597 -0.11942458871672321 0 -0.35300158115737351 -0.1153908611014145 0 -0.35300158115737351 -0.1153908611014145 0 -0.36637657814104618 -0.1248527974026854 0 -0.35520250956017879 -0.1320261243990688 0 -0.35300158115737351 -0.1153908611014145 0 -0.34844546322183301 -0.095295898859187975 0 -0.36827312834293391 -0.093812665564109526 0 -0.33952191557871331 -0.1073513236379135 0 -0.35300158115737351 -0.1153908611014145 0 -0.34844546322183301 -0.095295898859187975 0 -0.36827312834293391 -0.093812665564109526 0 -0.37300257255490549 -0.1111697193622338 0 -0.35300158115737351 -0.1153908611014145 0 -0.36827312834293391 -0.093812665564109526 0 -0.35300158115737351 -0.1153908611014145 0 -0.36827312834293391 -0.093812665564109526 0 -0.37300257255490549 -0.1111697193622338 0 -0.36827312834293391 -0.093812665564109526 0 -0.37300257255490549 -0.1111697193622338 0 -0.38255888383713033 -0.092502536681813657 0 -0.35300158115737351 -0.1153908611014145 0 -0.37300257255490549 -0.1111697193622338 0 -0.36637657814104618 -0.1248527974026854 0 -0.37300257255490549 -0.1111697193622338 0 -0.36637657814104618 -0.1248527974026854 0 -0.38034207896725769 -0.1263442640507923 0 -0.33702022574480611 -0.079023215191283025 0 -0.34845544954266972 -0.082627750281131521 0 -0.34911433812553838 -0.057742046875553191 0 -0.35989634204588627 -0.079041248468637776 0 -0.36184699791954 -0.070228775687469103 0 -0.34911433812553838 -0.057742046875553191 0 -0.34845544954266972 -0.082627750281131521 0 -0.35989634204588627 -0.079041248468637776 0 -0.34911433812553838 -0.057742046875553191 0 -0.35989634204588627 -0.079041248468637776 0 -0.34911433812553838 -0.057742046875553191 0 -0.34844546322183301 -0.095295898859187975 0 -0.36827312834293391 -0.093812665564109526 0 -0.35626759578833073 -0.087694390793266699 0 -0.33702022574480611 -0.079023215191283025 0 -0.34844546322183301 -0.095295898859187975 0 -0.34845544954266972 -0.082627750281131521 0 -0.34844546322183301 -0.095295898859187975 0 -0.34845544954266972 -0.082627750281131521 0 -0.35626759578833073 -0.087694390793266699 0 -0.34845544954266972 -0.082627750281131521 0 -0.35626759578833073 -0.087694390793266699 0 -0.35989634204588627 -0.079041248468637776 0 -0.36827312834293391 -0.093812665564109526 0 -0.35989634204588627 -0.079041248468637776 0 -0.36184699791954 -0.070228775687469103 0 -0.36827312834293391 -0.093812665564109526 0 -0.36184699791954 -0.070228775687469103 0 -0.36827312834293391 -0.093812665564109526 0 -0.36840710195405918 -0.080061405315211526 0 -0.36184699791954 -0.070228775687469103 0 -0.36827312834293391 -0.093812665564109526 0 -0.35626759578833073 -0.087694390793266699 0 -0.35989634204588627 -0.079041248468637776 0 -0.36827312834293391 -0.093812665564109526 0 -0.37774874928737529 -0.080423923801911157 0 -0.36827312834293391 -0.093812665564109526 0 -0.36840710195405918 -0.080061405315211526 0 -0.37774874928737529 -0.080423923801911157 0 -0.36840710195405918 -0.080061405315211526 0 -0.37841599573768031 -0.052496443599965727 0 -0.36840710195405918 -0.080061405315211526 0 -0.36184699791954 -0.070228775687469103 0 -0.37841599573768031 -0.052496443599965727 0 -0.35805189482353278 -0.042015250031470393 0 -0.37841599573768031 -0.052496443599965727 0 -0.36184699791954 -0.070228775687469103 0 -0.36391321239596602 -0.053939343057610861 0 -0.37841599573768031 -0.052496443599965727 0 -0.36184699791954 -0.070228775687469103 0 -0.36391321239596602 -0.053939343057610861 0 -0.35542086749614182 -0.046644885810829761 0 -0.36391321239596602 -0.053939343057610861 0 -0.35805189482353278 -0.042015250031470393 0 -0.37841599573768031 -0.052496443599965727 0 -0.36184699791954 -0.070228775687469103 0 -0.34911433812553838 -0.057742046875553191 0 -0.35542086749614182 -0.046644885810829761 0 -0.36184699791954 -0.070228775687469103 0 -0.35542086749614182 -0.046644885810829761 0 -0.34911433812553838 -0.057742046875553191 0 -0.35542086749614182 -0.046644885810829761 0 -0.36391321239596602 -0.053939343057610861 0 -0.35542086749614182 -0.046644885810829761 0 -0.35805189482353278 -0.042015250031470393 0 -0.34911433812553838 -0.057742046875553191 0 -0.34215665816916452 -0.043997567731815727 0 -0.34911433812553838 -0.057742046875553191 0 -0.35542086749614182 -0.046644885810829761 0 -0.34215665816916452 -0.043997567731815727 0 -0.35352444508595821 -0.039685018155720092 0 -0.35210727634680061 -0.034484010818675283 0 -0.3351989782127931 -0.030253088588076928 0 -0.35352444508595821 -0.039685018155720092 0 -0.3351989782127931 -0.030253088588076928 0 -0.35805189482353278 -0.042015250031470393 0 -0.35210727634680061 -0.034484010818675283 0 -0.35661672874640349 -0.024850974032903209 0 -0.35352444508595821 -0.039685018155720092 0 -0.35542086749614182 -0.046644885810829761 0 -0.34215665816916452 -0.043997567731815727 0 -0.35352444508595821 -0.039685018155720092 0 -0.35542086749614182 -0.046644885810829761 0 -0.35542086749614182 -0.046644885810829761 0 -0.35805189482353278 -0.042015250031470393 0 -0.35352444508595821 -0.039685018155720092 0 -0.35805189482353278 -0.042015250031470393 0 -0.35352444508595821 -0.039685018155720092 0 -0.35542086749614182 -0.046644885810829761 0 -0.35805189482353278 -0.042015250031470393 0 -0.35352444508595821 -0.039685018155720092 0 -0.35805189482353278 -0.042015250031470393 0 -0.35210727634680061 -0.034484010818675283 0 -0.35352444508595821 -0.039685018155720092 0 -0.35210727634680061 -0.034484010818675283 0 -0.35805189482353278 -0.042015250031470393 0 -0.37242176172479219 -0.038602561064218867 0 -0.36968045282994472 -0.021553285365267918 0 -0.35805189482353278 -0.042015250031470393 0 -0.36968045282994472 -0.021553285365267918 0 -0.35805189482353278 -0.042015250031470393 0 -0.37242176172479219 -0.038602561064218867 0 -0.37841599573768031 -0.052496443599965727 0 -0.35805189482353278 -0.042015250031470393 0 -0.36968045282994472 -0.021553285365267918 0 -0.35661672874640349 -0.024850974032903209 0 -0.36968045282994472 -0.021553285365267918 0 -0.3632545040566233 -0.012463460552657089 0 -0.35661672874640349 -0.024850974032903209 0 -0.36968045282994472 -0.021553285365267918 0 -0.3632545040566233 -0.012463460552657089 0 -0.38130901083635682 -0.0010913206990655409 0 -0.3632545040566233 -0.012463460552657089 0 -0.36557867523590631 -0.0021662686662354169 0 -0.38130901083635682 -0.0010913206990655409 0 -0.36557867523590631 -0.0021662686662354169 0 -0.3556439998422094 -0.00520968311981758 0 -0.3591266599220081 0.002314006955012288 0 -0.3632545040566233 -0.012463460552657089 0 -0.36557867523590631 -0.0021662686662354169 0 -0.3556439998422094 -0.00520968311981758 0 -0.3632545040566233 -0.012463460552657089 0 -0.3556439998422094 -0.00520968311981758 0 -0.35019270780724809 -0.01452683231234856 0 -0.35019270780724809 -0.01452683231234856 0 -0.3457554037342303 -0.0046582507321048317 0 -0.33947905219084878 -0.013916007299954279 0 -0.3556439998422094 -0.00520968311981758 0 -0.35019270780724809 -0.01452683231234856 0 -0.3457554037342303 -0.0046582507321048317 0 -0.3556439998422094 -0.00520968311981758 0 -0.3457554037342303 -0.0046582507321048317 0 -0.3515305953768067 0.0043846640713042723 0 -0.35210727634680061 -0.034484010818675283 0 -0.34638389081368581 -0.023747314477905661 0 -0.3351989782127931 -0.030253088588076928 0 -0.35210727634680061 -0.034484010818675283 0 -0.35661672874640349 -0.024850974032903209 0 -0.34638389081368581 -0.023747314477905661 0 -0.3632545040566233 -0.012463460552657089 0 -0.35019270780724809 -0.01452683231234856 0 -0.35661672874640349 -0.024850974032903209 0 -0.35019270780724809 -0.01452683231234856 0 -0.35661672874640349 -0.024850974032903209 0 -0.34638389081368581 -0.023747314477905661 0 -0.35019270780724809 -0.01452683231234856 0 -0.34638389081368581 -0.023747314477905661 0 -0.33947905219084878 -0.013916007299954279 0 -0.3351989782127931 -0.030253088588076928 0 -0.33947905219084878 -0.013916007299954279 0 -0.32385765207493478 -0.0078489795256403549 0 -0.34638389081368581 -0.023747314477905661 0 -0.3351989782127931 -0.030253088588076928 0 -0.33947905219084878 -0.013916007299954279 0 -0.3351989782127931 -0.030253088588076928 0 -0.32385765207493478 -0.0078489795256403549 0 -0.3457554037342303 -0.0046582507321048317 0 -0.33548568050220218 -0.0024615781636486839 0 -0.3413382638878204 0.0063593465364551686 0 -0.3457554037342303 -0.0046582507321048317 0 -0.33947905219084878 -0.013916007299954279 0 -0.33548568050220218 -0.0024615781636486839 0 -0.33947905219084878 -0.013916007299954279 0 -0.33548568050220218 -0.0024615781636486839 0 -0.32385765207493478 -0.0078489795256403549 0 -0.33548568050220218 -0.0024615781636486839 0 -0.32385765207493478 -0.0078489795256403549 0 -0.32977592091503111 0.0063646395929695329 0 -0.31083389858319399 -0.01771263237121502 0 -0.32385765207493478 -0.0078489795256403549 0 -0.30622626610694459 0.00024583799610343368 0 -0.31083389858319399 -0.01771263237121502 0 -0.3351989782127931 -0.030253088588076928 0 -0.31083389858319399 -0.01771263237121502 0 -0.3351989782127931 -0.030253088588076928 0 -0.31797791488597388 -0.03414608070223938 0 -0.31083389858319399 -0.01771263237121502 0 -0.3351989782127931 -0.030253088588076928 0 -0.32385765207493478 -0.0078489795256403549 0 -0.31797791488597388 -0.03414608070223938 0 -0.31304548563926732 -0.049960935336359723 0 -0.32898384069503772 -0.045334441382984453 0 -0.3351989782127931 -0.030253088588076928 0 -0.31797791488597388 -0.03414608070223938 0 -0.32898384069503772 -0.045334441382984453 0 -0.31604318545389631 -0.069902362457255757 0 -0.31304548563926732 -0.049960935336359723 0 -0.32645263802288998 -0.059456299311171378 0 -0.31304548563926732 -0.049960935336359723 0 -0.32645263802288998 -0.059456299311171378 0 -0.32898384069503772 -0.045334441382984453 0 -0.32645263802288998 -0.059456299311171378 0 -0.33741006274824481 -0.056276989107042028 0 -0.32898384069503772 -0.045334441382984453 0 -0.34911433812553838 -0.057742046875553191 0 -0.33741006274824481 -0.056276989107042028 0 -0.34215665816916452 -0.043997567731815727 0 -0.33741006274824481 -0.056276989107042028 0 -0.34215665816916452 -0.043997567731815727 0 -0.32898384069503772 -0.045334441382984453 0 -0.35352444508595821 -0.039685018155720092 0 -0.3351989782127931 -0.030253088588076928 0 -0.34215665816916452 -0.043997567731815727 0 -0.3351989782127931 -0.030253088588076928 0 -0.34215665816916452 -0.043997567731815727 0 -0.3351989782127931 -0.030253088588076928 0 -0.34215665816916452 -0.043997567731815727 0 -0.32898384069503772 -0.045334441382984453 0 -0.29053868512760439 -0.25056299608644328 0 -0.30795773519465919 -0.25381458906647419 0 -0.3093005505405762 -0.2319324366364478 0 -0.3093005505405762 -0.2319324366364478 0 -0.30603211463924718 -0.22419577587051931 0 -0.3135535780935807 -0.22440143216467451 0 -0.30603211463924718 -0.22419577587051931 0 -0.30654023177491008 -0.21782177043080059 0 -0.3135535780935807 -0.22440143216467451 0 -0.3093005505405762 -0.2319324366364478 0 -0.30603211463924718 -0.22419577587051931 0 -0.29473409814792212 -0.22262746425015431 0 -0.30603211463924718 -0.22419577587051931 0 -0.29473409814792212 -0.22262746425015431 0 -0.30654023177491008 -0.21782177043080059 0 -0.3093005505405762 -0.2319324366364478 0 -0.29473409814792212 -0.22262746425015431 0 -0.28411737634441858 -0.22968187439209031 0 -0.3093005505405762 -0.2319324366364478 0 -0.28411737634441858 -0.22968187439209031 0 -0.29473409814792212 -0.22262746425015431 0 -0.28411737634441858 -0.22968187439209031 0 -0.28048167195113649 -0.2178591154430479 0 -0.28411737634441858 -0.22968187439209031 0 -0.28048167195113649 -0.2178591154430479 0 -0.27443664003918761 -0.25354702483286451 0 -0.29053868512760439 -0.25056299608644328 0 -0.27893920543334361 -0.24093273706553359 0 -0.29053868512760439 -0.25056299608644328 0 -0.28411737634441858 -0.22968187439209031 0 -0.27893920543334361 -0.24093273706553359 0 -0.29053868512760439 -0.25056299608644328 0 -0.28411737634441858 -0.22968187439209031 0 -0.29053868512760439 -0.25056299608644328 0 -0.3093005505405762 -0.2319324366364478 0 -0.28411737634441858 -0.22968187439209031 0 -0.25509643939260801 -0.25372761686286172 0 -0.27443664003918761 -0.25354702483286451 0 -0.27135851226572638 -0.23074984100070339 0 -0.27443664003918761 -0.25354702483286451 0 -0.27893920543334361 -0.24093273706553359 0 -0.27135851226572638 -0.23074984100070339 0 -0.27443664003918761 -0.25354702483286451 0 -0.27135851226572638 -0.23074984100070339 0 -0.27893920543334361 -0.24093273706553359 0 -0.27135851226572638 -0.23074984100070339 0 -0.27716447250231657 -0.23291411694808159 0 -0.28411737634441858 -0.22968187439209031 0 -0.27893920543334361 -0.24093273706553359 0 -0.27716447250231657 -0.23291411694808159 0 -0.25509643939260801 -0.25372761686286172 0 -0.2445407545490455 -0.242169086467064 0 -0.25721675741410982 -0.23610804121555889 0 -0.25509643939260801 -0.25372761686286172 0 -0.27135851226572638 -0.23074984100070339 0 -0.25509643939260801 -0.25372761686286172 0 -0.25721675741410982 -0.23610804121555889 0 -0.27135851226572638 -0.23074984100070339 0 -0.2455267253579968 -0.22623311684395109 0 -0.25721675741410982 -0.23610804121555889 0 -0.27105671480535981 -0.22851467316808499 0 -0.2455267253579968 -0.22623311684395109 0 -0.27105671480535981 -0.22851467316808499 0 -0.25558452198744702 -0.21497569689874149 0 -0.2455267253579968 -0.22623311684395109 0 -0.27105671480535981 -0.22851467316808499 0 -0.27105671480535981 -0.22851467316808499 0 -0.26939578132031738 -0.21621349245751231 0 -0.25558452198744702 -0.21497569689874149 0 -0.27105671480535981 -0.22851467316808499 0 -0.26939578132031738 -0.21621349245751231 0 -0.27105671480535981 -0.22851467316808499 0 -0.27282835555404172 -0.22867300061912049 0 -0.26939578132031738 -0.21621349245751231 0 -0.25721675741410982 -0.23610804121555889 0 -0.27105671480535981 -0.22851467316808499 0 -0.27135851226572638 -0.23074984100070339 0 -0.27105671480535981 -0.22851467316808499 0 -0.27282835555404172 -0.22867300061912049 0 -0.27105671480535981 -0.22851467316808499 0 -0.27282835555404172 -0.22867300061912049 0 -0.27135851226572638 -0.23074984100070339 0 -0.27282835555404172 -0.22867300061912049 0 -0.27135851226572638 -0.23074984100070339 0 -0.27105671480535981 -0.22851467316808499 0 -0.27135851226572638 -0.23074984100070339 0 -0.28411737634441858 -0.22968187439209031 0 -0.27282835555404172 -0.22867300061912049 0 -0.28411737634441858 -0.22968187439209031 0 -0.27282835555404172 -0.22867300061912049 0 -0.27716447250231657 -0.23291411694808159 0 -0.27282835555404172 -0.22867300061912049 0 -0.27135851226572638 -0.23074984100070339 0 -0.27716447250231657 -0.23291411694808159 0 -0.28411737634441858 -0.22968187439209031 0 -0.27282835555404172 -0.22867300061912049 0 -0.28048167195113649 -0.2178591154430479 0 -0.27282835555404172 -0.22867300061912049 0 -0.28048167195113649 -0.2178591154430479 0 -0.26939578132031738 -0.21621349245751231 0 -0.27282835555404172 -0.22867300061912049 0 -0.28048167195113649 -0.2178591154430479 0 -0.26939578132031738 -0.21621349245751231 0 -0.26084769027921217 -0.20399822282102689 0 -0.27446666320552249 -0.19829921981261869 0 -0.28048167195113649 -0.2178591154430479 0 -0.27446666320552249 -0.19829921981261869 0 -0.28048167195113649 -0.2178591154430479 0 -0.26939578132031738 -0.21621349245751231 0 -0.27446666320552249 -0.19829921981261869 0 -0.26939578132031738 -0.21621349245751231 0 -0.26084769027921217 -0.20399822282102689 0 -0.25558452198744702 -0.21497569689874149 0 -0.24728644507765571 -0.2002560626264171 0 -0.26084769027921217 -0.20399822282102689 0 -0.25558452198744702 -0.21497569689874149 0 -0.26084769027921217 -0.20399822282102689 0 -0.25774260565997792 -0.1890357780921619 0 -0.27446666320552249 -0.19829921981261869 0 -0.24728644507765571 -0.2002560626264171 0 -0.26084769027921217 -0.20399822282102689 0 -0.25774260565997792 -0.1890357780921619 0 -0.27446666320552249 -0.19829921981261869 0 -0.26845165445990821 -0.1787393241821896 0 -0.27446666320552249 -0.19829921981261869 0 -0.28601168365374952 -0.19043813099713211 0 -0.26845165445990821 -0.1787393241821896 0 -0.25774260565997792 -0.1890357780921619 0 -0.27446666320552249 -0.19829921981261869 0 -0.26845165445990821 -0.1787393241821896 0 -0.27446666320552249 -0.19829921981261869 0 -0.28601168365374952 -0.19043813099713211 0 -0.29053633634148113 -0.20365220427414821 0 -0.28601168365374952 -0.19043813099713211 0 -0.29053633634148113 -0.20365220427414821 0 -0.30059100073182948 -0.1894452931052511 0 -0.29053633634148113 -0.20365220427414821 0 -0.30059100073182948 -0.1894452931052511 0 -0.28048167195113649 -0.2178591154430479 0 -0.27446666320552249 -0.19829921981261869 0 -0.29053633634148113 -0.20365220427414821 0 -0.28048167195113649 -0.2178591154430479 0 -0.29053633634148113 -0.20365220427414821 0 -0.29473409814792212 -0.22262746425015431 0 -0.28048167195113649 -0.2178591154430479 0 -0.29139368133773569 -0.21376980700867301 0 -0.28048167195113649 -0.2178591154430479 0 -0.29139368133773569 -0.21376980700867301 0 -0.29053633634148113 -0.20365220427414821 0 -0.29473409814792212 -0.22262746425015431 0 -0.29139368133773569 -0.21376980700867301 0 -0.2998226189104029 -0.2109404440673415 0 -0.29139368133773569 -0.21376980700867301 0 -0.29053633634148113 -0.20365220427414821 0 -0.2998226189104029 -0.2109404440673415 0 -0.2998226189104029 -0.2109404440673415 0 -0.31593507560035511 -0.20678962154806879 0 -0.31504917971357688 -0.21334105842322079 0 -0.2998226189104029 -0.2109404440673415 0 -0.30172125789601723 -0.2027068907487023 0 -0.31593507560035511 -0.20678962154806879 0 -0.29053633634148113 -0.20365220427414821 0 -0.2998226189104029 -0.2109404440673415 0 -0.30172125789601723 -0.2027068907487023 0 -0.29473409814792212 -0.22262746425015431 0 -0.2998226189104029 -0.2109404440673415 0 -0.30654023177491008 -0.21782177043080059 0 -0.30654023177491008 -0.21782177043080059 0 -0.31504917971357688 -0.21334105842322079 0 -0.3135535780935807 -0.22440143216467451 0 -0.2998226189104029 -0.2109404440673415 0 -0.31504917971357688 -0.21334105842322079 0 -0.2998226189104029 -0.2109404440673415 0 -0.30654023177491008 -0.21782177043080059 0 -0.31504917971357688 -0.21334105842322079 0 -0.30059100073182948 -0.1894452931052511 0 -0.31593507560035511 -0.20678962154806879 0 -0.30059100073182948 -0.1894452931052511 0 -0.31813489754757951 -0.19052135025466191 0 -0.31593507560035511 -0.20678962154806879 0 -0.30059100073182948 -0.1894452931052511 0 -0.30172125789601723 -0.2027068907487023 0 -0.31593507560035511 -0.20678962154806879 0 -0.29053633634148113 -0.20365220427414821 0 -0.30059100073182948 -0.1894452931052511 0 -0.30172125789601723 -0.2027068907487023 0 -0.29966526059328807 -0.1785665249690451 0 -0.31085239279341842 -0.17494628251387809 0 -0.29463645419896339 -0.1696654730437776 0 -0.31085239279341842 -0.17494628251387809 0 -0.29463645419896339 -0.1696654730437776 0 -0.30059100073182948 -0.1894452931052511 0 -0.31085239279341842 -0.17494628251387809 0 -0.31813489754757951 -0.19052135025466191 0 -0.31085239279341842 -0.17494628251387809 0 -0.29463645419896339 -0.1696654730437776 0 -0.31297668627359221 -0.1719447254655431 0 -0.30059100073182948 -0.1894452931052511 0 -0.29966526059328807 -0.1785665249690451 0 -0.31085239279341842 -0.17494628251387809 0 -0.30059100073182948 -0.1894452931052511 0 -0.31085239279341842 -0.17494628251387809 0 -0.31085239279341842 -0.17494628251387809 0 -0.31297668627359221 -0.1719447254655431 0 -0.30252330730599908 -0.15852659737208191 0 -0.28630605104736961 -0.163577645268116 0 -0.31297668627359221 -0.1719447254655431 0 -0.29463645419896339 -0.1696654730437776 0 -0.28630605104736961 -0.163577645268116 0 -0.31297668627359221 -0.1719447254655431 0 -0.28630605104736961 -0.163577645268116 0 -0.31297668627359221 -0.1719447254655431 0 -0.31248211439623558 -0.16154068549317041 0 -0.30252330730599908 -0.15852659737208191 0 -0.31297668627359221 -0.1719447254655431 0 -0.31248211439623558 -0.16154068549317041 0 -0.30252330730599908 -0.15852659737208191 0 -0.31028305771630571 -0.15454610130322691 0 -0.29463645419896339 -0.1696654730437776 0 -0.27842051560450848 -0.1643846635736767 0 -0.29463645419896339 -0.1696654730437776 0 -0.28950575816816998 -0.1769149783394631 0 -0.27842051560450848 -0.1643846635736767 0 -0.29463645419896339 -0.1696654730437776 0 -0.28630605104736961 -0.163577645268116 0 -0.27842051560450848 -0.1643846635736767 0 -0.30252330730599908 -0.15852659737208191 0 -0.28630605104736961 -0.163577645268116 0 -0.2912346765450069 -0.15361794488836891 0 -0.28630605104736961 -0.163577645268116 0 -0.28173653564174972 -0.1563685272013712 0 -0.2912346765450069 -0.15361794488836891 0 -0.28630605104736961 -0.163577645268116 0 -0.28173653564174972 -0.1563685272013712 0 -0.27842051560450848 -0.1643846635736767 0 -0.28950575816816998 -0.1769149783394631 0 -0.27842051560450848 -0.1643846635736767 0 -0.28601168365374952 -0.19043813099713211 0 -0.28950575816816998 -0.1769149783394631 0 -0.26845165445990821 -0.1787393241821896 0 -0.29966526059328807 -0.1785665249690451 0 -0.29463645419896339 -0.1696654730437776 0 -0.28950575816816998 -0.1769149783394631 0 -0.30059100073182948 -0.1894452931052511 0 -0.28950575816816998 -0.1769149783394631 0 -0.28601168365374952 -0.19043813099713211 0 -0.30059100073182948 -0.1894452931052511 0 -0.28950575816816998 -0.1769149783394631 0 -0.30059100073182948 -0.1894452931052511 0 -0.29966526059328807 -0.1785665249690451 0 -0.28950575816816998 -0.1769149783394631 0 -0.28950575816816998 -0.1769149783394631 0 -0.26845165445990821 -0.1787393241821896 0 -0.27842051560450848 -0.1643846635736767 0 -0.24061794079690979 -0.18131396252955059 0 -0.25774260565997792 -0.1890357780921619 0 -0.25185558617192882 -0.17065781086998111 0 -0.25774260565997792 -0.1890357780921619 0 -0.26845165445990821 -0.1787393241821896 0 -0.25185558617192882 -0.17065781086998111 0 -0.26845165445990821 -0.1787393241821896 0 -0.25185558617192882 -0.17065781086998111 0 -0.26243664571429243 -0.1591794285517609 0 -0.26845165445990821 -0.1787393241821896 0 -0.26243664571429243 -0.1591794285517609 0 -0.24647961071941521 -0.1539829324609073 0 -0.25185558617192882 -0.17065781086998111 0 -0.26243664571429243 -0.1591794285517609 0 -0.24647961071941521 -0.1539829324609073 0 -0.26243664571429243 -0.1591794285517609 0 -0.26243664571429243 -0.1591794285517609 0 -0.26124795401837619 -0.15531398354707021 0 -0.26243664571429243 -0.1591794285517609 0 -0.27842051560450848 -0.1643846635736767 0 -0.26845165445990821 -0.1787393241821896 0 -0.26243664571429243 -0.1591794285517609 0 -0.27842051560450848 -0.1643846635736767 0 -0.26243664571429243 -0.1591794285517609 0 -0.27336988596649042 -0.1586756338644599 0 -0.26781847092595412 -0.1531766459561679 0 -0.26243664571429243 -0.1591794285517609 0 -0.27336988596649042 -0.1586756338644599 0 -0.27842051560450848 -0.1643846635736767 0 -0.28173653564174972 -0.1563685272013712 0 -0.27336988596649042 -0.1586756338644599 0 -0.27842051560450848 -0.1643846635736767 0 -0.27336988596649042 -0.1586756338644599 0 -0.27842051560450848 -0.1643846635736767 0 -0.28173653564174972 -0.1563685272013712 0 -0.27617787836631807 -0.15048011723399729 0 -0.28491020632080588 -0.14747515837960659 0 -0.28173653564174972 -0.1563685272013712 0 -0.27336988596649042 -0.1586756338644599 0 -0.27617787836631807 -0.15048011723399729 0 -0.27617787836631807 -0.15048011723399729 0 -0.27863063054663251 -0.1411588362312281 0 -0.26970928140547867 -0.14439704218144259 0 -0.27617787836631807 -0.15048011723399729 0 -0.27863063054663251 -0.1411588362312281 0 -0.28491020632080588 -0.14747515837960659 0 -0.27617787836631807 -0.15048011723399729 0 -0.26970928140547867 -0.14439704218144259 0 -0.26781847092595412 -0.1531766459561679 0 -0.26970928140547867 -0.14439704218144259 0 -0.26781847092595412 -0.1531766459561679 0 -0.26333319627589202 -0.14949727627894921 0 -0.27336988596649042 -0.1586756338644599 0 -0.27617787836631807 -0.15048011723399729 0 -0.26781847092595412 -0.1531766459561679 0 -0.24647961071941521 -0.1539829324609073 0 -0.26243664571429243 -0.1591794285517609 0 -0.26124795401837619 -0.15531398354707021 0 -0.26781847092595412 -0.1531766459561679 0 -0.26124795401837619 -0.15531398354707021 0 -0.26333319627589202 -0.14949727627894921 0 -0.26243664571429243 -0.1591794285517609 0 -0.26781847092595412 -0.1531766459561679 0 -0.26124795401837619 -0.15531398354707021 0 -0.26124795401837619 -0.15531398354707021 0 -0.26333319627589202 -0.14949727627894921 0 -0.25621760643898461 -0.1495195702395756 0 -0.26970928140547867 -0.14439704218144259 0 -0.26333319627589202 -0.14949727627894921 0 -0.260125347637988 -0.14396934482771459 0 -0.26970928140547867 -0.14439704218144259 0 -0.260125347637988 -0.14396934482771459 0 -0.26413989947066852 -0.13640376007999361 0 -0.26333319627589202 -0.14949727627894921 0 -0.260125347637988 -0.14396934482771459 0 -0.25621760643898461 -0.1495195702395756 0 -0.24754887274922219 -0.14467637963377011 0 -0.260125347637988 -0.14396934482771459 0 -0.25430937103603363 -0.1358634516022558 0 -0.24754887274922219 -0.14467637963377011 0 -0.260125347637988 -0.14396934482771459 0 -0.25621760643898461 -0.1495195702395756 0 -0.24647961071941521 -0.1539829324609073 0 -0.26124795401837619 -0.15531398354707021 0 -0.25621760643898461 -0.1495195702395756 0 -0.24647961071941521 -0.1539829324609073 0 -0.24754887274922219 -0.14467637963377011 0 -0.25621760643898461 -0.1495195702395756 0 -0.24924508807722659 -0.1257843991541214 0 -0.25430937103603363 -0.1358634516022558 0 -0.26232401809141931 -0.12531602047990839 0 -0.260125347637988 -0.14396934482771459 0 -0.25430937103603363 -0.1358634516022558 0 -0.26413989947066852 -0.13640376007999361 0 -0.25430937103603363 -0.1358634516022558 0 -0.26413989947066852 -0.13640376007999361 0 -0.26232401809141931 -0.12531602047990839 0 -0.26413989947066852 -0.13640376007999361 0 -0.26232401809141931 -0.12531602047990839 0 -0.27423147918242302 -0.1324729413086464 0 -0.27551603752324622 -0.12138573291103801 0 -0.26232401809141931 -0.12531602047990839 0 -0.27423147918242302 -0.1324729413086464 0 -0.26970928140547867 -0.14439704218144259 0 -0.26413989947066852 -0.13640376007999361 0 -0.27423147918242302 -0.1324729413086464 0 -0.27863063054663251 -0.1411588362312281 0 -0.26970928140547867 -0.14439704218144259 0 -0.27423147918242302 -0.1324729413086464 0 -0.27863063054663251 -0.1411588362312281 0 -0.27423147918242302 -0.1324729413086464 0 -0.28743688568394332 -0.13546594243000559 0 -0.27551603752324622 -0.12138573291103801 0 -0.27423147918242302 -0.1324729413086464 0 -0.28164259098368349 -0.12773858005991989 0 -0.27423147918242302 -0.1324729413086464 0 -0.28164259098368349 -0.12773858005991989 0 -0.28743688568394332 -0.13546594243000559 0 -0.28829694366981751 -0.122180913281198 0 -0.28164259098368349 -0.12773858005991989 0 -0.28743688568394332 -0.13546594243000559 0 -0.28829694366981751 -0.122180913281198 0 -0.28743688568394332 -0.13546594243000559 0 -0.30036533075545663 -0.12763974635465661 0 -0.28743688568394332 -0.13546594243000559 0 -0.30036533075545663 -0.12763974635465661 0 -0.2975133441389845 -0.13975982706115239 0 -0.28743688568394332 -0.13546594243000559 0 -0.29251519382118901 -0.1452181374993953 0 -0.2975133441389845 -0.13975982706115239 0 -0.28743688568394332 -0.13546594243000559 0 -0.28491020632080588 -0.14747515837960659 0 -0.29251519382118901 -0.1452181374993953 0 -0.27863063054663251 -0.1411588362312281 0 -0.28743688568394332 -0.13546594243000559 0 -0.28491020632080588 -0.14747515837960659 0 -0.28173653564174972 -0.1563685272013712 0 -0.28491020632080588 -0.14747515837960659 0 -0.2912346765450069 -0.15361794488836891 0 -0.28491020632080588 -0.14747515837960659 0 -0.2912346765450069 -0.15361794488836891 0 -0.29251519382118901 -0.1452181374993953 0 -0.2912346765450069 -0.15361794488836891 0 -0.29251519382118901 -0.1452181374993953 0 -0.30137404263177819 -0.1485132690018704 0 -0.29251519382118901 -0.1452181374993953 0 -0.30137404263177819 -0.1485132690018704 0 -0.2975133441389845 -0.13975982706115239 0 -0.30137404263177819 -0.1485132690018704 0 -0.30730635033950188 -0.13870549479087729 0 -0.2975133441389845 -0.13975982706115239 0 -0.30252330730599908 -0.15852659737208191 0 -0.2912346765450069 -0.15361794488836891 0 -0.30137404263177819 -0.1485132690018704 0 -0.30137404263177819 -0.1485132690018704 0 -0.31028305771630571 -0.15454610130322691 0 -0.313514037539673 -0.14651657118878589 0 -0.30252330730599908 -0.15852659737208191 0 -0.30137404263177819 -0.1485132690018704 0 -0.31028305771630571 -0.15454610130322691 0 -0.30730635033950188 -0.13870549479087729 0 -0.3159281799089047 -0.13671763178998489 0 -0.313514037539673 -0.14651657118878589 0 -0.30137404263177819 -0.1485132690018704 0 -0.30730635033950188 -0.13870549479087729 0 -0.313514037539673 -0.14651657118878589 0 -0.30730635033950188 -0.13870549479087729 0 -0.31168865834382392 -0.1302914114040104 0 -0.3159281799089047 -0.13671763178998489 0 -0.30730635033950188 -0.13870549479087729 0 -0.31168865834382392 -0.1302914114040104 0 -0.30036533075545663 -0.12763974635465661 0 -0.30730635033950188 -0.13870549479087729 0 -0.30036533075545663 -0.12763974635465661 0 -0.2975133441389845 -0.13975982706115239 0 -0.32507899730895462 -0.13916787642053849 0 -0.32205285601257022 -0.12890680514571221 0 -0.3159281799089047 -0.13671763178998489 0 -0.31168865834382392 -0.1302914114040104 0 -0.32205285601257022 -0.12890680514571221 0 -0.3159281799089047 -0.13671763178998489 0 -0.32507899730895462 -0.13916787642053849 0 -0.3159281799089047 -0.13671763178998489 0 -0.313514037539673 -0.14651657118878589 0 -0.32507899730895462 -0.13916787642053849 0 -0.313514037539673 -0.14651657118878589 0 -0.32245848678625882 -0.15854725217602861 0 -0.32507899730895462 -0.13916787642053849 0 -0.32245848678625882 -0.15854725217602861 0 -0.31028305771630571 -0.15454610130322691 0 -0.313514037539673 -0.14651657118878589 0 -0.32245848678625882 -0.15854725217602861 0 -0.33872826036548198 -0.153836537473128 0 -0.337730033971816 -0.1369690566387215 0 -0.32245848678625882 -0.15854725217602861 0 -0.337730033971816 -0.1369690566387215 0 -0.32245848678625882 -0.15854725217602861 0 -0.33872826036548198 -0.153836537473128 0 -0.337730033971816 -0.1369690566387215 0 -0.3532930225747426 -0.14625505478622289 0 -0.32507899730895462 -0.13916787642053849 0 -0.337730033971816 -0.1369690566387215 0 -0.32245848678625882 -0.15854725217602861 0 -0.32920422099498597 -0.11942458871672321 0 -0.32205285601257022 -0.12890680514571221 0 -0.337730033971816 -0.1369690566387215 0 -0.32507899730895462 -0.13916787642053849 0 -0.32205285601257022 -0.12890680514571221 0 -0.337730033971816 -0.1369690566387215 0 -0.337730033971816 -0.1369690566387215 0 -0.35520250956017879 -0.1320261243990688 0 -0.3532930225747426 -0.14625505478622289 0 -0.35300158115737351 -0.1153908611014145 0 -0.337730033971816 -0.1369690566387215 0 -0.35300158115737351 -0.1153908611014145 0 -0.337730033971816 -0.1369690566387215 0 -0.35520250956017879 -0.1320261243990688 0 -0.35520250956017879 -0.1320261243990688 0 -0.37033414846551499 -0.13933301809991741 0 -0.3532930225747426 -0.14625505478622289 0 -0.36637657814104618 -0.1248527974026854 0 -0.35520250956017879 -0.1320261243990688 0 -0.37033414846551499 -0.13933301809991741 0 -0.36637657814104618 -0.1248527974026854 0 -0.37033414846551499 -0.13933301809991741 0 -0.38034207896725769 -0.1263442640507923 0 -0.37033414846551499 -0.13933301809991741 0 -0.36755111874268631 -0.15413462722283369 0 -0.3532930225747426 -0.14625505478622289 0 -0.36755111874268631 -0.15413462722283369 0 -0.3532930225747426 -0.14625505478622289 0 -0.35021206434277757 -0.16123096488366781 0 -0.33872826036548198 -0.153836537473128 0 -0.3532930225747426 -0.14625505478622289 0 -0.35021206434277757 -0.16123096488366781 0 -0.35021206434277757 -0.16123096488366781 0 -0.34578936231047042 -0.1822386794551695 0 -0.33550457865995859 -0.16602130258984979 0 -0.36755111874268631 -0.15413462722283369 0 -0.35021206434277757 -0.16123096488366781 0 -0.36164159184826478 -0.17471782474634501 0 -0.36755111874268631 -0.15413462722283369 0 -0.37497398290543532 -0.1672393582268307 0 -0.36164159184826478 -0.17471782474634501 0 -0.37497398290543532 -0.1672393582268307 0 -0.36164159184826478 -0.17471782474634501 0 -0.37124400512613698 -0.19022427994908231 0 -0.37497398290543532 -0.1672393582268307 0 -0.37124400512613698 -0.19022427994908231 0 -0.36164159184826478 -0.17471782474634501 0 -0.34578936231047042 -0.1822386794551695 0 -0.37124400512613698 -0.19022427994908231 0 -0.35021206434277757 -0.16123096488366781 0 -0.36164159184826478 -0.17471782474634501 0 -0.34578936231047042 -0.1822386794551695 0 -0.34578936231047042 -0.1822386794551695 0 -0.37124400512613698 -0.19022427994908231 0 -0.34578936231047042 -0.1822386794551695 0 -0.33550457865995859 -0.16602130258984979 0 -0.32033471949480441 -0.17425307896125519 0 -0.34578936231047042 -0.1822386794551695 0 -0.32033471949480441 -0.17425307896125519 0 -0.33872826036548198 -0.153836537473128 0 -0.33550457865995859 -0.16602130258984979 0 -0.32245848678625882 -0.15854725217602861 0 -0.33872826036548198 -0.153836537473128 0 -0.35021206434277757 -0.16123096488366781 0 -0.33550457865995859 -0.16602130258984979 0 -0.33550457865995859 -0.16602130258984979 0 -0.32245848678625882 -0.15854725217602861 0 -0.32033471949480441 -0.17425307896125519 0 -0.32245848678625882 -0.15854725217602861 0 -0.31297668627359221 -0.1719447254655431 0 -0.32033471949480441 -0.17425307896125519 0 -0.32245848678625882 -0.15854725217602861 0 -0.32033471949480441 -0.17425307896125519 0 -0.31248211439623558 -0.16154068549317041 0 -0.31028305771630571 -0.15454610130322691 0 -0.32245848678625882 -0.15854725217602861 0 -0.31248211439623558 -0.16154068549317041 0 -0.32245848678625882 -0.15854725217602861 0 -0.31297668627359221 -0.1719447254655431 0 -0.32245848678625882 -0.15854725217602861 0 -0.31297668627359221 -0.1719447254655431 0 -0.31085239279341842 -0.17494628251387809 0 -0.31297668627359221 -0.1719447254655431 0 -0.31478163385959562 -0.17622586144862079 0 -0.31297668627359221 -0.1719447254655431 0 -0.31478163385959562 -0.17622586144862079 0 -0.32033471949480441 -0.17425307896125519 0 -0.31478163385959562 -0.17622586144862079 0 -0.32033471949480441 -0.17425307896125519 0 -0.31813489754757951 -0.19052135025466191 0 -0.31085239279341842 -0.17494628251387809 0 -0.31478163385959562 -0.17622586144862079 0 -0.32033471949480441 -0.17425307896125519 0 -0.31813489754757951 -0.19052135025466191 0 -0.34578936231047042 -0.1822386794551695 0 -0.32033471949480441 -0.17425307896125519 0 -0.31813489754757951 -0.19052135025466191 0 -0.31297668627359221 -0.1719447254655431 0 -0.32033471949480441 -0.17425307896125519 0 -0.31085239279341842 -0.17494628251387809 0 -0.31478163385959562 -0.17622586144862079 0 -0.31813489754757951 -0.19052135025466191 0 -0.31813489754757951 -0.19052135025466191 0 -0.31593507560035511 -0.20678962154806879 0 -0.31813489754757951 -0.19052135025466191 0 -0.31593507560035511 -0.20678962154806879 0 -0.33130173448687628 -0.20126569998359761 0 -0.31593507560035511 -0.20678962154806879 0 -0.31504917971357688 -0.21334105842322079 0 -0.31593507560035511 -0.20678962154806879 0 -0.32281397409937618 -0.21456525324396089 0 -0.31504917971357688 -0.21334105842322079 0 -0.32281397409937618 -0.21456525324396089 0 -0.31860757482294583 -0.22252325135789491 0 -0.31504917971357688 -0.21334105842322079 0 -0.32281397409937618 -0.21456525324396089 0 -0.31593507560035511 -0.20678962154806879 0 -0.31504917971357688 -0.21334105842322079 0 -0.32281397409937618 -0.21456525324396089 0 -0.31593507560035511 -0.20678962154806879 0 -0.32281397409937618 -0.21456525324396089 0 -0.33130173448687628 -0.20126569998359761 0 -0.32281397409937618 -0.21456525324396089 0 -0.33130173448687628 -0.20126569998359761 0 -0.34449915780498402 -0.21798413187232951 0 -0.32281397409937618 -0.21456525324396089 0 -0.34449915780498402 -0.21798413187232951 0 -0.33130173448687628 -0.20126569998359761 0 -0.34534632330101622 -0.2032582556082419 0 -0.34449915780498402 -0.21798413187232951 0 -0.34578936231047042 -0.1822386794551695 0 -0.33130173448687628 -0.20126569998359761 0 -0.34534632330101622 -0.2032582556082419 0 -0.34578936231047042 -0.1822386794551695 0 -0.31813489754757951 -0.19052135025466191 0 -0.33130173448687628 -0.20126569998359761 0 -0.34578936231047042 -0.1822386794551695 0 -0.37124400512613698 -0.19022427994908231 0 -0.36005221778385998 -0.20440096667511021 0 -0.34578936231047042 -0.1822386794551695 0 -0.36005221778385998 -0.20440096667511021 0 -0.34534632330101622 -0.2032582556082419 0 -0.37124400512613698 -0.19022427994908231 0 -0.36835182259138211 -0.20804652798946921 0 -0.37124400512613698 -0.19022427994908231 0 -0.36835182259138211 -0.20804652798946921 0 -0.36005221778385998 -0.20440096667511021 0 -0.37468689411984901 -0.19130437901972611 0 -0.37124400512613698 -0.19022427994908231 0 -0.36835182259138211 -0.20804652798946921 0 -0.37468689411984901 -0.19130437901972611 0 -0.37124400512613698 -0.19022427994908231 0 -0.36835182259138211 -0.20804652798946921 0 -0.36618434151059132 -0.22140301050070069 0 -0.36835182259138211 -0.20804652798946921 0 -0.36005221778385998 -0.20440096667511021 0 -0.35956526354828361 -0.21299876299814391 0 -0.36835182259138211 -0.20804652798946921 0 -0.36005221778385998 -0.20440096667511021 0 -0.36835182259138211 -0.20804652798946921 0 -0.35956526354828361 -0.21299876299814391 0 -0.36618434151059132 -0.22140301050070069 0 -0.35956526354828361 -0.21299876299814391 0 -0.3523657406095359 -0.20966052928845641 0 -0.34449915780498402 -0.21798413187232951 0 -0.35956526354828361 -0.21299876299814391 0 -0.34449915780498402 -0.21798413187232951 0 -0.36618434151059132 -0.22140301050070069 0 -0.36005221778385998 -0.20440096667511021 0 -0.3523657406095359 -0.20966052928845641 0 -0.34534632330101622 -0.2032582556082419 0 -0.36005221778385998 -0.20440096667511021 0 -0.35956526354828361 -0.21299876299814391 0 -0.3523657406095359 -0.20966052928845641 0 -0.3523657406095359 -0.20966052928845641 0 -0.34534632330101622 -0.2032582556082419 0 -0.34449915780498402 -0.21798413187232951 0 -0.34449915780498402 -0.21798413187232951 0 -0.35413538695721408 -0.22734526041597411 0 -0.3406573787672369 -0.2347347241145874 0 -0.34449915780498402 -0.21798413187232951 0 -0.35413538695721408 -0.22734526041597411 0 -0.36618434151059132 -0.22140301050070069 0 -0.35413538695721408 -0.22734526041597411 0 -0.36368689367734419 -0.2367928187915668 0 -0.3406573787672369 -0.2347347241145874 0 -0.34449915780498402 -0.21798413187232951 0 -0.36618434151059132 -0.22140301050070069 0 -0.36618434151059132 -0.22140301050070069 0 -0.36666999903678799 -0.2370594120430978 0 -0.36368689367734419 -0.2367928187915668 0 -0.36618434151059132 -0.22140301050070069 0 -0.36666999903678799 -0.2370594120430978 0 -0.37909914072473783 -0.238680451824519 0 -0.36618434151059132 -0.22140301050070069 0 -0.36368689367734419 -0.2367928187915668 0 -0.35413538695721408 -0.22734526041597411 0 -0.36618434151059132 -0.22140301050070069 0 -0.36368689367734419 -0.2367928187915668 0 -0.36095548195748128 -0.25362436264706378 0 -0.36744040811277451 -0.24659334707129699 0 -0.36368689367734419 -0.2367928187915668 0 -0.36095548195748128 -0.25362436264706378 0 -0.36368689367734419 -0.2367928187915668 0 -0.36744040811277451 -0.24659334707129699 0 -0.36666999903678799 -0.2370594120430978 0 -0.37909914072473783 -0.238680451824519 0 -0.36744040811277451 -0.24659334707129699 0 -0.36666999903678799 -0.2370594120430978 0 -0.36368689367734419 -0.2367928187915668 0 -0.36666999903678799 -0.2370594120430978 0 -0.36368689367734419 -0.2367928187915668 0 -0.36095548195748128 -0.25362436264706378 0 -0.35071525358356731 -0.2461037434752176 0 -0.36368689367734419 -0.2367928187915668 0 -0.3406573787672369 -0.2347347241145874 0 -0.36368689367734419 -0.2367928187915668 0 -0.35071525358356731 -0.2461037434752176 0 -0.3406573787672369 -0.2347347241145874 0 -0.36095548195748128 -0.25362436264706378 0 -0.36368689367734419 -0.2367928187915668 0 -0.35071525358356731 -0.2461037434752176 0 -0.35071525358356731 -0.2461037434752176 0 -0.3406573787672369 -0.2347347241145874 0 -0.35071525358356731 -0.2461037434752176 0 -0.33735618903199571 -0.24751717438331339 0 -0.33448372473673371 -0.2341829988808036 0 -0.35071525358356731 -0.2461037434752176 0 -0.3406573787672369 -0.2347347241145874 0 -0.33448372473673371 -0.2341829988808036 0 -0.35071525358356731 -0.2461037434752176 0 -0.33448372473673371 -0.2341829988808036 0 -0.33735618903199571 -0.24751717438331339 0 -0.33448372473673371 -0.2341829988808036 0 -0.32479312107020503 -0.24904071669932959 0 -0.3406573787672369 -0.2347347241145874 0 -0.33448372473673371 -0.2341829988808036 0 -0.32281397409937618 -0.21456525324396089 0 -0.3406573787672369 -0.2347347241145874 0 -0.32281397409937618 -0.21456525324396089 0 -0.34449915780498402 -0.21798413187232951 0 -0.3406573787672369 -0.2347347241145874 0 -0.32281397409937618 -0.21456525324396089 0 -0.3406573787672369 -0.2347347241145874 0 -0.33448372473673371 -0.2341829988808036 0 -0.33448372473673371 -0.2341829988808036 0 -0.31860757482294583 -0.22252325135789491 0 -0.3093005505405762 -0.2319324366364478 0 -0.33448372473673371 -0.2341829988808036 0 -0.31860757482294583 -0.22252325135789491 0 -0.32281397409937618 -0.21456525324396089 0 -0.33448372473673371 -0.2341829988808036 0 -0.31860757482294583 -0.22252325135789491 0 -0.3093005505405762 -0.2319324366364478 0 -0.33448372473673371 -0.2341829988808036 0 -0.31504917971357688 -0.21334105842322079 0 -0.3135535780935807 -0.22440143216467451 0 -0.31504917971357688 -0.21334105842322079 0 -0.31860757482294583 -0.22252325135789491 0 -0.3135535780935807 -0.22440143216467451 0 -0.3093005505405762 -0.2319324366364478 0 -0.31860757482294583 -0.22252325135789491 0 -0.3135535780935807 -0.22440143216467451 0 -0.30795773519465919 -0.25381458906647419 0 -0.3093005505405762 -0.2319324366364478 0 -0.32479312107020503 -0.24904071669932959 0 -0.3093005505405762 -0.2319324366364478 0 -0.33448372473673371 -0.2341829988808036 0 -0.32479312107020503 -0.24904071669932959 0 -0.42067324302288123 -0.23102845913695261 0 -0.44570822278707722 -0.24202495304851401 0 -0.42933896999383259 -0.24913933364668489 0 -0.42067324302288123 -0.23102845913695261 0 -0.41772787251651178 -0.24780639585967709 0 -0.42933896999383259 -0.24913933364668489 0 -0.42067324302288123 -0.23102845913695261 0 -0.44570822278707722 -0.24202495304851401 0 -0.42067324302288123 -0.23102845913695261 0 -0.43957565115114111 -0.21788493810174631 0 -0.44570822278707722 -0.24202495304851401 0 -0.42067324302288123 -0.23102845913695261 0 -0.41293186555365258 -0.21465675755378399 0 -0.43957565115114111 -0.21788493810174631 0 -0.42067324302288123 -0.23102845913695261 0 -0.39563826325868368 -0.22003196522539439 0 -0.42067324302288123 -0.23102845913695261 0 -0.40429525010634049 -0.23310851273133529 0 -0.40178404082806651 -0.22701564688990819 0 -0.42067324302288123 -0.23102845913695261 0 -0.39563826325868368 -0.22003196522539439 0 -0.41293186555365258 -0.21465675755378399 0 -0.41065935976163948 -0.23916252369100491 0 -0.40829689960347881 -0.244967098553731 0 -0.40261825545653068 -0.23948164972542471 0 -0.42067324302288123 -0.23102845913695261 0 -0.41065935976163948 -0.23916252369100491 0 -0.40429525010634049 -0.23310851273133529 0 -0.42067324302288123 -0.23102845913695261 0 -0.41065935976163948 -0.23916252369100491 0 -0.41772787251651178 -0.24780639585967709 0 -0.41065935976163948 -0.23916252369100491 0 -0.41772787251651178 -0.24780639585967709 0 -0.40829689960347881 -0.244967098553731 0 -0.40957277933576608 -0.25183864413063539 0 -0.41772787251651178 -0.24780639585967709 0 -0.40829689960347881 -0.244967098553731 0 -0.40957277933576608 -0.25183864413063539 0 -0.40829689960347881 -0.244967098553731 0 -0.40090623094694627 -0.2465462793619129 0 -0.39752955424204278 -0.25059308814801001 0 -0.40261825545653068 -0.23948164972542471 0 -0.39601415613117102 -0.22610596884677281 0 -0.39752955424204278 -0.25059308814801001 0 -0.37909914072473783 -0.238680451824519 0 -0.39601415613117102 -0.22610596884677281 0 -0.39752955424204278 -0.25059308814801001 0 -0.40090623094694627 -0.2465462793619129 0 -0.40261825545653068 -0.23948164972542471 0 -0.39752955424204278 -0.25059308814801001 0 -0.39601415613117102 -0.22610596884677281 0 -0.40829689960347881 -0.244967098553731 0 -0.40090623094694627 -0.2465462793619129 0 -0.40261825545653068 -0.23948164972542471 0 -0.41065935976163948 -0.23916252369100491 0 -0.40261825545653068 -0.23948164972542471 0 -0.40429525010634049 -0.23310851273133529 0 -0.3807563853150594 -0.25032788433723541 0 -0.39752955424204278 -0.25059308814801001 0 -0.37909914072473783 -0.238680451824519 0 -0.3807563853150594 -0.25032788433723541 0 -0.36744040811277451 -0.24659334707129699 0 -0.37909914072473783 -0.238680451824519 0 -0.36618434151059132 -0.22140301050070069 0 -0.39601415613117102 -0.22610596884677281 0 -0.39563826325868368 -0.22003196522539439 0 -0.36618434151059132 -0.22140301050070069 0 -0.37909914072473783 -0.238680451824519 0 -0.39601415613117102 -0.22610596884677281 0 -0.36618434151059132 -0.22140301050070069 0 -0.39601415613117102 -0.22610596884677281 0 -0.42067324302288123 -0.23102845913695261 0 -0.39563826325868368 -0.22003196522539439 0 -0.40178404082806651 -0.22701564688990819 0 -0.39601415613117102 -0.22610596884677281 0 -0.39563826325868368 -0.22003196522539439 0 -0.39601415613117102 -0.22610596884677281 0 -0.39563826325868368 -0.22003196522539439 0 -0.40178404082806651 -0.22701564688990819 0 -0.40261825545653068 -0.23948164972542471 0 -0.39601415613117102 -0.22610596884677281 0 -0.40429525010634049 -0.23310851273133529 0 -0.39601415613117102 -0.22610596884677281 0 -0.40429525010634049 -0.23310851273133529 0 -0.40178404082806651 -0.22701564688990819 0 -0.39601415613117102 -0.22610596884677281 0 -0.40178404082806651 -0.22701564688990819 0 -0.39563826325868368 -0.22003196522539439 0 -0.39437045317688341 -0.1995455884103261 0 -0.41293186555365258 -0.21465675755378399 0 -0.39563826325868368 -0.22003196522539439 0 -0.39437045317688341 -0.1995455884103261 0 -0.39563826325868368 -0.22003196522539439 0 -0.38305159219524731 -0.2025422795423501 0 -0.39437045317688341 -0.1995455884103261 0 -0.36835182259138211 -0.20804652798946921 0 -0.36618434151059132 -0.22140301050070069 0 -0.39563826325868368 -0.22003196522539439 0 -0.36835182259138211 -0.20804652798946921 0 -0.39563826325868368 -0.22003196522539439 0 -0.38305159219524731 -0.2025422795423501 0 -0.36835182259138211 -0.20804652798946921 0 -0.39563826325868368 -0.22003196522539439 0 -0.38468438854884368 -0.19186967175280131 0 -0.39437045317688341 -0.1995455884103261 0 -0.39042038852240979 -0.1819565293971856 0 -0.37468689411984901 -0.19130437901972611 0 -0.36835182259138211 -0.20804652798946921 0 -0.38305159219524731 -0.2025422795423501 0 -0.37468689411984901 -0.19130437901972611 0 -0.38468438854884368 -0.19186967175280131 0 -0.37920193184453499 -0.1845188436691253 0 -0.37468689411984901 -0.19130437901972611 0 -0.38305159219524731 -0.2025422795423501 0 -0.38468438854884368 -0.19186967175280131 0 -0.37468689411984901 -0.19130437901972611 0 -0.37124400512613698 -0.19022427994908231 0 -0.37920193184453499 -0.1845188436691253 0 -0.38305159219524731 -0.2025422795423501 0 -0.38468438854884368 -0.19186967175280131 0 -0.39437045317688341 -0.1995455884103261 0 -0.39437045317688341 -0.1995455884103261 0 -0.40840809975100878 -0.1827484292434173 0 -0.39042038852240979 -0.1819565293971856 0 -0.42399187545107497 -0.20031668367258179 0 -0.40840809975100878 -0.1827484292434173 0 -0.39437045317688341 -0.1995455884103261 0 -0.42399187545107497 -0.20031668367258179 0 -0.40840809975100878 -0.1827484292434173 0 -0.39437045317688341 -0.1995455884103261 0 -0.41293186555365258 -0.21465675755378399 0 -0.42399187545107497 -0.20031668367258179 0 -0.41293186555365258 -0.21465675755378399 0 -0.42399187545107497 -0.20031668367258179 0 -0.43957565115114111 -0.21788493810174631 0 -0.42399187545107497 -0.20031668367258179 0 -0.43957565115114111 -0.21788493810174631 0 -0.42399187545107497 -0.20031668367258179 0 -0.42765345890582152 -0.1787071634390785 0 -0.45104476203650951 -0.1957243200994005 0 -0.42765345890582152 -0.1787071634390785 0 -0.42363856964206231 -0.15981562742280231 0 -0.44690053296274029 -0.16812907512907491 0 -0.42363856964206231 -0.15981562742280231 0 -0.43377070591067318 -0.1492069037065854 0 -0.44690053296274029 -0.16812907512907491 0 -0.42363856964206231 -0.15981562742280231 0 -0.44690053296274029 -0.16812907512907491 0 -0.42765345890582152 -0.1787071634390785 0 -0.42363856964206231 -0.15981562742280231 0 -0.41186736950402902 -0.16728876174197529 0 -0.42363856964206231 -0.15981562742280231 0 -0.41186736950402902 -0.16728876174197529 0 -0.41169427454756391 -0.15498694502921559 0 -0.41186736950402902 -0.16728876174197529 0 -0.40107732294335818 -0.15588641657960031 0 -0.41169427454756391 -0.15498694502921559 0 -0.42765345890582152 -0.1787071634390785 0 -0.41186736950402902 -0.16728876174197529 0 -0.40840809975100878 -0.1827484292434173 0 -0.42399187545107497 -0.20031668367258179 0 -0.42765345890582152 -0.1787071634390785 0 -0.40840809975100878 -0.1827484292434173 0 -0.40840809975100878 -0.1827484292434173 0 -0.39042038852240979 -0.1819565293971856 0 -0.39655202571264658 -0.16739904485201371 0 -0.41186736950402902 -0.16728876174197529 0 -0.40840809975100878 -0.1827484292434173 0 -0.39655202571264658 -0.16739904485201371 0 -0.37497398290543532 -0.1672393582268307 0 -0.39042038852240979 -0.1819565293971856 0 -0.39655202571264658 -0.16739904485201371 0 -0.37497398290543532 -0.1672393582268307 0 -0.37124400512613698 -0.19022427994908231 0 -0.37920193184453499 -0.1845188436691253 0 -0.38468438854884368 -0.19186967175280131 0 -0.39042038852240979 -0.1819565293971856 0 -0.37920193184453499 -0.1845188436691253 0 -0.37497398290543532 -0.1672393582268307 0 -0.39042038852240979 -0.1819565293971856 0 -0.37920193184453499 -0.1845188436691253 0 -0.36755111874268631 -0.15413462722283369 0 -0.37497398290543532 -0.1672393582268307 0 -0.38837174790671619 -0.1510633323233361 0 -0.37497398290543532 -0.1672393582268307 0 -0.39655202571264658 -0.16739904485201371 0 -0.38837174790671619 -0.1510633323233361 0 -0.39655202571264658 -0.16739904485201371 0 -0.40107732294335818 -0.15588641657960031 0 -0.38837174790671619 -0.1510633323233361 0 -0.41186736950402902 -0.16728876174197529 0 -0.39655202571264658 -0.16739904485201371 0 -0.40107732294335818 -0.15588641657960031 0 -0.40107732294335818 -0.15588641657960031 0 -0.40095761745675029 -0.1444957092111922 0 -0.41169427454756391 -0.15498694502921559 0 -0.40095761745675029 -0.1444957092111922 0 -0.38837174790671619 -0.1510633323233361 0 -0.38737252973919162 -0.13789947899637431 0 -0.40107732294335818 -0.15588641657960031 0 -0.40095761745675029 -0.1444957092111922 0 -0.38837174790671619 -0.1510633323233361 0 -0.37033414846551499 -0.13933301809991741 0 -0.36755111874268631 -0.15413462722283369 0 -0.38837174790671619 -0.1510633323233361 0 -0.37033414846551499 -0.13933301809991741 0 -0.38837174790671619 -0.1510633323233361 0 -0.38737252973919162 -0.13789947899637431 0 -0.38034207896725769 -0.1263442640507923 0 -0.38737252973919162 -0.13789947899637431 0 -0.39674500839390447 -0.12919603823647469 0 -0.37033414846551499 -0.13933301809991741 0 -0.38034207896725769 -0.1263442640507923 0 -0.38737252973919162 -0.13789947899637431 0 -0.40095761745675029 -0.1444957092111922 0 -0.39674500839390447 -0.12919603823647469 0 -0.41247571955367351 -0.1372695527898517 0 -0.40095761745675029 -0.1444957092111922 0 -0.38737252973919162 -0.13789947899637431 0 -0.39674500839390447 -0.12919603823647469 0 -0.39674500839390447 -0.12919603823647469 0 -0.41247571955367351 -0.1372695527898517 0 -0.41079002616290999 -0.12487598626748569 0 -0.41247571955367351 -0.1372695527898517 0 -0.43031786685282142 -0.1285395965676599 0 -0.41079002616290999 -0.12487598626748569 0 -0.41247571955367351 -0.1372695527898517 0 -0.41169427454756391 -0.15498694502921559 0 -0.42557922578777813 -0.13995335281233731 0 -0.40095761745675029 -0.1444957092111922 0 -0.41247571955367351 -0.1372695527898517 0 -0.41169427454756391 -0.15498694502921559 0 -0.41169427454756391 -0.15498694502921559 0 -0.43377070591067318 -0.1492069037065854 0 -0.42557922578777813 -0.13995335281233731 0 -0.42363856964206231 -0.15981562742280231 0 -0.41169427454756391 -0.15498694502921559 0 -0.43377070591067318 -0.1492069037065854 0 -0.41169427454756391 -0.15498694502921559 0 -0.43377070591067318 -0.1492069037065854 0 -0.43377070591067318 -0.1492069037065854 0 -0.42557922578777813 -0.13995335281233731 0 -0.44240676187411571 -0.1371420153964005 0 -0.41247571955367351 -0.1372695527898517 0 -0.42557922578777813 -0.13995335281233731 0 -0.43031786685282142 -0.1285395965676599 0 -0.42557922578777813 -0.13995335281233731 0 -0.43031786685282142 -0.1285395965676599 0 -0.44240676187411571 -0.1371420153964005 0 -0.44240676187411571 -0.1371420153964005 0 -0.45584713727378262 -0.1434268623839553 0 -0.45354524456854778 -0.12517749467285719 0 -0.43031786685282142 -0.1285395965676599 0 -0.45354524456854778 -0.12517749467285719 0 -0.43031786685282142 -0.1285395965676599 0 -0.44240676187411571 -0.1371420153964005 0 -0.45354524456854778 -0.12517749467285719 0 -0.43377070591067318 -0.1492069037065854 0 -0.44240676187411571 -0.1371420153964005 0 -0.45584713727378262 -0.1434268623839553 0 -0.43377070591067318 -0.1492069037065854 0 -0.45584713727378262 -0.1434268623839553 0 -0.43377070591067318 -0.1492069037065854 0 -0.44685778253824437 -0.15414235271279639 0 -0.45584713727378262 -0.1434268623839553 0 -0.44685778253824437 -0.15414235271279639 0 -0.46769062288948893 -0.1558323652821503 0 -0.45584713727378262 -0.1434268623839553 0 -0.46769062288948893 -0.1558323652821503 0 -0.45584713727378262 -0.1434268623839553 0 -0.47792356863689189 -0.13764682106132509 0 -0.45584713727378262 -0.1434268623839553 0 -0.4660669364029007 -0.1315956325419613 0 -0.47792356863689189 -0.13764682106132509 0 -0.45354524456854778 -0.12517749467285719 0 -0.4660669364029007 -0.1315956325419613 0 -0.47677262228427431 -0.1218153927780545 0 -0.45584713727378262 -0.1434268623839553 0 -0.45354524456854778 -0.12517749467285719 0 -0.4660669364029007 -0.1315956325419613 0 -0.45584713727378262 -0.1434268623839553 0 -0.47792356863689189 -0.13764682106132509 0 -0.47792356863689189 -0.13764682106132509 0 -0.48867404773029149 -0.12744557111533139 0 -0.47677262228427431 -0.1218153927780545 0 -0.4660669364029007 -0.1315956325419613 0 -0.47792356863689189 -0.13764682106132509 0 -0.47677262228427431 -0.1218153927780545 0 -0.47792356863689189 -0.13764682106132509 0 -0.50000000000000133 -0.1318667797386946 0 -0.48598724783999331 -0.15003893689165509 0 -0.47792356863689189 -0.13764682106132509 0 -0.50000000000000133 -0.1318667797386946 0 -0.47792356863689189 -0.13764682106132509 0 -0.48867404773029149 -0.12744557111533139 0 -0.50000000000000133 -0.1318667797386946 0 -0.48867404773029149 -0.12744557111533139 0 -0.50000000000000133 -0.1318667797386946 0 -0.50000000000000078 -0.1184532908832516 0 -0.50000000000000133 -0.1318667797386946 0 -0.48598724783999331 -0.15003893689165509 0 -0.5 -0.15948637078580061 0 -0.46769062288948893 -0.1558323652821503 0 -0.47792356863689189 -0.13764682106132509 0 -0.48598724783999331 -0.15003893689165509 0 -0.46769062288948893 -0.1558323652821503 0 -0.48432204767358572 -0.16536234759030499 0 -0.47016249628341827 -0.17644252283534759 0 -0.46769062288948893 -0.1558323652821503 0 -0.48598724783999331 -0.15003893689165509 0 -0.48432204767358572 -0.16536234759030499 0 -0.48598724783999331 -0.15003893689165509 0 -0.48432204767358572 -0.16536234759030499 0 -0.5 -0.15948637078580061 0 -0.48432204767358572 -0.16536234759030499 0 -0.5 -0.15948637078580061 0 -0.49345017558665188 -0.18059649186452831 0 -0.5 -0.15948637078580061 0 -0.49345017558665188 -0.18059649186452831 0 -0.49999999999999922 -0.18710596183290659 0 -0.49345017558665188 -0.18059649186452831 0 -0.49342445960409548 -0.1847559705416226 0 -0.47016249628341827 -0.17644252283534759 0 -0.49345017558665188 -0.18059649186452831 0 -0.49342445960409548 -0.1847559705416226 0 -0.49345017558665188 -0.18059649186452831 0 -0.49342445960409548 -0.1847559705416226 0 -0.49999999999999922 -0.18710596183290659 0 -0.49342445960409548 -0.1847559705416226 0 -0.49999999999999922 -0.18710596183290659 0 -0.49342445960409548 -0.1847559705416226 0 -0.47016249628341827 -0.17644252283534759 0 -0.49342445960409548 -0.1847559705416226 0 -0.47016249628341827 -0.17644252283534759 0 -0.47683884438111779 -0.19446286961288281 0 -0.48432204767358572 -0.16536234759030499 0 -0.49345017558665188 -0.18059649186452831 0 -0.47016249628341827 -0.17644252283534759 0 -0.47016249628341827 -0.17644252283534759 0 -0.44690053296274029 -0.16812907512907491 0 -0.45104476203650951 -0.1957243200994005 0 -0.47016249628341827 -0.17644252283534759 0 -0.44690053296274029 -0.16812907512907491 0 -0.46769062288948893 -0.1558323652821503 0 -0.47016249628341827 -0.17644252283534759 0 -0.44690053296274029 -0.16812907512907491 0 -0.44685778253824437 -0.15414235271279639 0 -0.46769062288948893 -0.1558323652821503 0 -0.44690053296274029 -0.16812907512907491 0 -0.43377070591067318 -0.1492069037065854 0 -0.44685778253824437 -0.15414235271279639 0 -0.44690053296274029 -0.16812907512907491 0 -0.42765345890582152 -0.1787071634390785 0 -0.44690053296274029 -0.16812907512907491 0 -0.45104476203650951 -0.1957243200994005 0 -0.45104476203650951 -0.1957243200994005 0 -0.43957565115114111 -0.21788493810174631 0 -0.45609495092426811 -0.2188027104586335 0 -0.42399187545107497 -0.20031668367258179 0 -0.45104476203650951 -0.1957243200994005 0 -0.43957565115114111 -0.21788493810174631 0 -0.45104476203650951 -0.1957243200994005 0 -0.46869608425764259 -0.20954376385372309 0 -0.45609495092426811 -0.2188027104586335 0 -0.47016249628341827 -0.17644252283534759 0 -0.45104476203650951 -0.1957243200994005 0 -0.47683884438111779 -0.19446286961288281 0 -0.45104476203650951 -0.1957243200994005 0 -0.46869608425764259 -0.20954376385372309 0 -0.47683884438111779 -0.19446286961288281 0 -0.49342445960409548 -0.1847559705416226 0 -0.49326368108970542 -0.21076138568941311 0 -0.49342445960409548 -0.1847559705416226 0 -0.49999999999999922 -0.18710596183290659 0 -0.49326368108970542 -0.21076138568941311 0 -0.49342445960409548 -0.1847559705416226 0 -0.47683884438111779 -0.19446286961288281 0 -0.49326368108970542 -0.21076138568941311 0 -0.49999999999999922 -0.18710596183290659 0 -0.5 -0.21336142585292939 0 -0.49326368108970542 -0.21076138568941311 0 -0.46869608425764259 -0.20954376385372309 0 -0.47683884438111779 -0.19446286961288281 0 -0.49326368108970542 -0.21076138568941311 0 -0.46869608425764259 -0.20954376385372309 0 -0.49326368108970542 -0.21076138568941311 0 -0.47346666084555422 -0.22818413598513559 0 -0.49326368108970542 -0.21076138568941311 0 -0.49310290257531619 -0.23676680083720381 0 -0.5 -0.21336142585292939 0 -0.5 -0.23961688987295221 0 -0.49310290257531619 -0.23676680083720381 0 -0.5 -0.21336142585292939 0 -0.49326368108970542 -0.21076138568941311 0 -0.49310290257531619 -0.23676680083720381 0 -0.49326368108970542 -0.21076138568941311 0 -0.47346666084555422 -0.22818413598513559 0 -0.49310290257531619 -0.23676680083720381 0 -0.49294212406092791 -0.26277221598499451 0 -0.5 -0.23961688987295221 0 -0.49310290257531619 -0.23676680083720381 0 -0.49294212406092791 -0.26277221598499451 0 -0.49310290257531619 -0.23676680083720381 0 -0.47074320255127322 -0.25302144696007528 0 -0.47346666084555422 -0.22818413598513559 0 -0.49310290257531619 -0.23676680083720381 0 -0.47074320255127322 -0.25302144696007528 0 -0.45515942685120719 -0.23545319253091071 0 -0.44570822278707722 -0.24202495304851401 0 -0.47074320255127322 -0.25302144696007528 0 -0.47346666084555422 -0.22818413598513559 0 -0.45515942685120719 -0.23545319253091071 0 -0.47074320255127322 -0.25302144696007528 0 -0.44570822278707722 -0.24202495304851401 0 -0.47074320255127322 -0.25302144696007528 0 -0.45515942685120719 -0.23545319253091071 0 -0.47346666084555422 -0.22818413598513559 0 -0.45515942685120719 -0.23545319253091071 0 -0.45609495092426811 -0.2188027104586335 0 -0.46869608425764259 -0.20954376385372309 0 -0.47346666084555422 -0.22818413598513559 0 -0.45609495092426811 -0.2188027104586335 0 -0.43957565115114111 -0.21788493810174631 0 -0.45515942685120719 -0.23545319253091071 0 -0.44570822278707722 -0.24202495304851401 0 -0.43957565115114111 -0.21788493810174631 0 -0.45515942685120719 -0.23545319253091071 0 -0.45609495092426811 -0.2188027104586335 0 -0.43957565115114111 -0.21788493810174631 0 -0.45515942685120719 -0.23545319253091071 0 -0.42080809412439962 -0.036074575055265359 0 -0.40721526295937782 -0.048610728589030858 0 -0.40365094664180667 -0.029594182317999179 0 -0.42080809412439962 -0.036074575055265359 0 -0.40721526295937782 -0.048610728589030858 0 -0.41823854165411373 -0.05511846823280022 0 -0.40721526295937782 -0.048610728589030858 0 -0.40845227329419348 -0.059015821578059589 0 -0.41823854165411373 -0.05511846823280022 0 -0.40845227329419348 -0.059015821578059589 0 -0.41823854165411373 -0.05511846823280022 0 -0.41567555128031142 -0.069122680286697019 0 -0.42080809412439962 -0.036074575055265359 0 -0.41823854165411373 -0.05511846823280022 0 -0.43354428434009168 -0.058866823887497248 0 -0.41823854165411373 -0.05511846823280022 0 -0.43354428434009168 -0.058866823887497248 0 -0.41567555128031142 -0.069122680286697019 0 -0.42080809412439962 -0.036074575055265359 0 -0.43354428434009168 -0.058866823887497248 0 -0.42080809412439962 -0.036074575055265359 0 -0.43354428434009168 -0.058866823887497248 0 -0.44385615549893392 -0.031964777972236257 0 -0.42080809412439962 -0.036074575055265359 0 -0.43456929112995568 -0.02147919602406749 0 -0.44385615549893392 -0.031964777972236257 0 -0.42080809412439962 -0.036074575055265359 0 -0.43456929112995568 -0.02147919602406749 0 -0.42440182997007891 -0.01184508931083491 0 -0.42440182997007891 -0.01184508931083491 0 -0.43931634419082582 -0.0085987782005039481 0 -0.43525668636307951 0.00038330375819188139 0 -0.43456929112995568 -0.02147919602406749 0 -0.42440182997007891 -0.01184508931083491 0 -0.43931634419082582 -0.0085987782005039481 0 -0.42440182997007891 -0.01184508931083491 0 -0.42411198325617849 -0.001150248148406384 0 -0.43525668636307951 0.00038330375819188139 0 -0.42440182997007891 -0.01184508931083491 0 -0.41547656231415919 -0.0050128807054608416 0 -0.4080719039087074 -0.01328232622303346 0 -0.42411198325617849 -0.001150248148406384 0 -0.41547656231415919 -0.0050128807054608416 0 -0.41772199918986802 0.004723125048957966 0 -0.42440182997007891 -0.01184508931083491 0 -0.42411198325617849 -0.001150248148406384 0 -0.41547656231415919 -0.0050128807054608416 0 -0.41547656231415919 -0.0050128807054608416 0 -0.40587735948277459 -0.0014428404637955451 0 -0.41772199918986802 0.004723125048957966 0 -0.41547656231415919 -0.0050128807054608416 0 -0.4080719039087074 -0.01328232622303346 0 -0.40587735948277459 -0.0014428404637955451 0 -0.42080809412439962 -0.036074575055265359 0 -0.4080719039087074 -0.01328232622303346 0 -0.42080809412439962 -0.036074575055265359 0 -0.4080719039087074 -0.01328232622303346 0 -0.40365094664180667 -0.029594182317999179 0 -0.42080809412439962 -0.036074575055265359 0 -0.42440182997007891 -0.01184508931083491 0 -0.4080719039087074 -0.01328232622303346 0 -0.40365094664180667 -0.029594182317999179 0 -0.39080588872940131 -0.018374098677925079 0 -0.39474608591880078 -0.040651725489547118 0 -0.4080719039087074 -0.01328232622303346 0 -0.40365094664180667 -0.029594182317999179 0 -0.39080588872940131 -0.018374098677925079 0 -0.39080588872940131 -0.018374098677925079 0 -0.39474608591880078 -0.040651725489547118 0 -0.4080719039087074 -0.01328232622303346 0 -0.39533571369301518 0.0095099226091984457 0 -0.4080719039087074 -0.01328232622303346 0 -0.40587735948277459 -0.0014428404637955451 0 -0.39533571369301518 0.0095099226091984457 0 -0.4080719039087074 -0.01328232622303346 0 -0.39543429768942018 -0.00027052773220046102 0 -0.39533571369301518 0.0095099226091984457 0 -0.4080719039087074 -0.01328232622303346 0 -0.39080588872940131 -0.018374098677925079 0 -0.39520064655000497 -0.0062707300448226269 0 -0.39080588872940131 -0.018374098677925079 0 -0.39520064655000497 -0.0062707300448226269 0 -0.38704313812526581 0.0029002563136639671 0 -0.4080719039087074 -0.01328232622303346 0 -0.39543429768942018 -0.00027052773220046102 0 -0.39520064655000497 -0.0062707300448226269 0 -0.39080588872940131 -0.018374098677925079 0 -0.39520064655000497 -0.0062707300448226269 0 -0.39543429768942018 -0.00027052773220046102 0 -0.39520064655000497 -0.0062707300448226269 0 -0.38704313812526581 0.0029002563136639671 0 -0.36968045282994472 -0.021553285365267918 0 -0.38130901083635682 -0.0010913206990655409 0 -0.39080588872940131 -0.018374098677925079 0 -0.38130901083635682 -0.0010913206990655409 0 -0.38704313812526581 0.0029002563136639671 0 -0.36968045282994472 -0.021553285365267918 0 -0.39080588872940131 -0.018374098677925079 0 -0.38130901083635682 -0.0010913206990655409 0 -0.39080588872940131 -0.018374098677925079 0 -0.38704313812526581 0.0029002563136639671 0 -0.36968045282994472 -0.021553285365267918 0 -0.39080588872940131 -0.018374098677925079 0 -0.38461094223354048 -0.035435271138945283 0 -0.39080588872940131 -0.018374098677925079 0 -0.38461094223354048 -0.035435271138945283 0 -0.37242176172479219 -0.038602561064218867 0 -0.38461094223354048 -0.035435271138945283 0 -0.37841599573768031 -0.052496443599965727 0 -0.37242176172479219 -0.038602561064218867 0 -0.36968045282994472 -0.021553285365267918 0 -0.38461094223354048 -0.035435271138945283 0 -0.39080588872940131 -0.018374098677925079 0 -0.38461094223354048 -0.035435271138945283 0 -0.39474608591880078 -0.040651725489547118 0 -0.38461094223354048 -0.035435271138945283 0 -0.39474608591880078 -0.040651725489547118 0 -0.37841599573768031 -0.052496443599965727 0 -0.38461094223354048 -0.035435271138945283 0 -0.37841599573768031 -0.052496443599965727 0 -0.40721526295937782 -0.048610728589030858 0 -0.40365094664180667 -0.029594182317999179 0 -0.39474608591880078 -0.040651725489547118 0 -0.40721526295937782 -0.048610728589030858 0 -0.39474608591880078 -0.040651725489547118 0 -0.39868628310820081 -0.062929352301169167 0 -0.39474608591880078 -0.040651725489547118 0 -0.39868628310820081 -0.062929352301169167 0 -0.40845227329419348 -0.059015821578059589 0 -0.40076438745680742 -0.063998931263927056 0 -0.39868628310820081 -0.062929352301169167 0 -0.40721526295937782 -0.048610728589030858 0 -0.40845227329419348 -0.059015821578059589 0 -0.39868628310820081 -0.062929352301169167 0 -0.39474608591880078 -0.040651725489547118 0 -0.37841599573768031 -0.052496443599965727 0 -0.39868628310820081 -0.062929352301169167 0 -0.37841599573768031 -0.052496443599965727 0 -0.39868628310820081 -0.062929352301169167 0 -0.37841599573768031 -0.052496443599965727 0 -0.38610179693901769 -0.06914454153611603 0 -0.39868628310820081 -0.062929352301169167 0 -0.36840710195405918 -0.080061405315211526 0 -0.38610179693901769 -0.06914454153611603 0 -0.37774874928737529 -0.080423923801911157 0 -0.36840710195405918 -0.080061405315211526 0 -0.37841599573768031 -0.052496443599965727 0 -0.38610179693901769 -0.06914454153611603 0 -0.38610179693901769 -0.06914454153611603 0 -0.37774874928737529 -0.080423923801911157 0 -0.38620431841762048 -0.080641476996558506 0 -0.38610179693901769 -0.06914454153611603 0 -0.38620431841762048 -0.080641476996558506 0 -0.39287713973676658 -0.075581590973971352 0 -0.37774874928737529 -0.080423923801911157 0 -0.38255888383713033 -0.092502536681813657 0 -0.38620431841762048 -0.080641476996558506 0 -0.36827312834293391 -0.093812665564109526 0 -0.37774874928737529 -0.080423923801911157 0 -0.38255888383713033 -0.092502536681813657 0 -0.38255888383713033 -0.092502536681813657 0 -0.39300624737962081 -0.084927824652997877 0 -0.39261082089878729 -0.094121094881663384 0 -0.38255888383713033 -0.092502536681813657 0 -0.38620431841762048 -0.080641476996558506 0 -0.39300624737962081 -0.084927824652997877 0 -0.39300624737962081 -0.084927824652997877 0 -0.40052008206592737 -0.079797710316775294 0 -0.39287713973676658 -0.075581590973971352 0 -0.38620431841762048 -0.080641476996558506 0 -0.39300624737962081 -0.084927824652997877 0 -0.39287713973676658 -0.075581590973971352 0 -0.39300624737962081 -0.084927824652997877 0 -0.40130071824299163 -0.089815819125510246 0 -0.40052008206592737 -0.079797710316775294 0 -0.39300624737962081 -0.084927824652997877 0 -0.40130071824299163 -0.089815819125510246 0 -0.39261082089878729 -0.094121094881663384 0 -0.40052008206592737 -0.079797710316775294 0 -0.40580750701898061 -0.074780333824473605 0 -0.41049874442742451 -0.082663324025247648 0 -0.40130071824299163 -0.089815819125510246 0 -0.40052008206592737 -0.079797710316775294 0 -0.41049874442742451 -0.082663324025247648 0 -0.40052008206592737 -0.079797710316775294 0 -0.40580750701898061 -0.074780333824473605 0 -0.4000546696579626 -0.070666123692120886 0 -0.40580750701898061 -0.074780333824473605 0 -0.4000546696579626 -0.070666123692120886 0 -0.40615087774165121 -0.067516778129055641 0 -0.40845227329419348 -0.059015821578059589 0 -0.40615087774165121 -0.067516778129055641 0 -0.40076438745680742 -0.063998931263927056 0 -0.4000546696579626 -0.070666123692120886 0 -0.40076438745680742 -0.063998931263927056 0 -0.39868628310820081 -0.062929352301169167 0 -0.40076438745680742 -0.063998931263927056 0 -0.39868628310820081 -0.062929352301169167 0 -0.4000546696579626 -0.070666123692120886 0 -0.40615087774165121 -0.067516778129055641 0 -0.40076438745680742 -0.063998931263927056 0 -0.4000546696579626 -0.070666123692120886 0 -0.39868628310820081 -0.062929352301169167 0 -0.38610179693901769 -0.06914454153611603 0 -0.39868628310820081 -0.062929352301169167 0 -0.39442997236048671 -0.069580402125844376 0 -0.4000546696579626 -0.070666123692120886 0 -0.39868628310820081 -0.062929352301169167 0 -0.39442997236048671 -0.069580402125844376 0 -0.40052008206592737 -0.079797710316775294 0 -0.4000546696579626 -0.070666123692120886 0 -0.39287713973676658 -0.075581590973971352 0 -0.38610179693901769 -0.06914454153611603 0 -0.39442997236048671 -0.069580402125844376 0 -0.39287713973676658 -0.075581590973971352 0 -0.4000546696579626 -0.070666123692120886 0 -0.39442997236048671 -0.069580402125844376 0 -0.39287713973676658 -0.075581590973971352 0 -0.38034207896725769 -0.1263442640507923 0 -0.39674500839390447 -0.12919603823647469 0 -0.38820763105645228 -0.1162680784765628 0 -0.37300257255490549 -0.1111697193622338 0 -0.38820763105645228 -0.1162680784765628 0 -0.38938527535659478 -0.104288553744507 0 -0.37300257255490549 -0.1111697193622338 0 -0.38034207896725769 -0.1263442640507923 0 -0.38820763105645228 -0.1162680784765628 0 -0.37300257255490549 -0.1111697193622338 0 -0.38255888383713033 -0.092502536681813657 0 -0.38938527535659478 -0.104288553744507 0 -0.38255888383713033 -0.092502536681813657 0 -0.38938527535659478 -0.104288553744507 0 -0.39261082089878729 -0.094121094881663384 0 -0.40130071824299163 -0.089815819125510246 0 -0.39261082089878729 -0.094121094881663384 0 -0.3995442938236286 -0.099627745417784672 0 -0.38938527535659478 -0.104288553744507 0 -0.39261082089878729 -0.094121094881663384 0 -0.3995442938236286 -0.099627745417784672 0 -0.40130071824299163 -0.089815819125510246 0 -0.3995442938236286 -0.099627745417784672 0 -0.41299477793557648 -0.098035718065740893 0 -0.3995442938236286 -0.099627745417784672 0 -0.40175810704168002 -0.1123206502541319 0 -0.41299477793557648 -0.098035718065740893 0 -0.38938527535659478 -0.104288553744507 0 -0.3995442938236286 -0.099627745417784672 0 -0.40175810704168002 -0.1123206502541319 0 -0.39674500839390447 -0.12919603823647469 0 -0.38820763105645228 -0.1162680784765628 0 -0.40175810704168002 -0.1123206502541319 0 -0.39674500839390447 -0.12919603823647469 0 -0.40175810704168002 -0.1123206502541319 0 -0.41079002616290999 -0.12487598626748569 0 -0.38820763105645228 -0.1162680784765628 0 -0.38938527535659478 -0.104288553744507 0 -0.40175810704168002 -0.1123206502541319 0 -0.43031786685282142 -0.1285395965676599 0 -0.4179929036411501 -0.1142900052896926 0 -0.41079002616290999 -0.12487598626748569 0 -0.40175810704168002 -0.1123206502541319 0 -0.4179929036411501 -0.1142900052896926 0 -0.41079002616290999 -0.12487598626748569 0 -0.40175810704168002 -0.1123206502541319 0 -0.4179929036411501 -0.1142900052896926 0 -0.41299477793557648 -0.098035718065740893 0 -0.4179929036411501 -0.1142900052896926 0 -0.41299477793557648 -0.098035718065740893 0 -0.43462308701927621 -0.1050922653563138 0 -0.41299477793557648 -0.098035718065740893 0 -0.43462308701927621 -0.1050922653563138 0 -0.42557721826032818 -0.082968482290179169 0 -0.43031786685282142 -0.1285395965676599 0 -0.4179929036411501 -0.1142900052896926 0 -0.43462308701927621 -0.1050922653563138 0 -0.43031786685282142 -0.1285395965676599 0 -0.43462308701927621 -0.1050922653563138 0 -0.44165426045941147 -0.1176726603470083 0 -0.40845227329419348 -0.059015821578059589 0 -0.40615087774165121 -0.067516778129055641 0 -0.41567555128031142 -0.069122680286697019 0 -0.40580750701898061 -0.074780333824473605 0 -0.40615087774165121 -0.067516778129055641 0 -0.41567555128031142 -0.069122680286697019 0 -0.40580750701898061 -0.074780333824473605 0 -0.41567555128031142 -0.069122680286697019 0 -0.41049874442742451 -0.082663324025247648 0 -0.40130071824299163 -0.089815819125510246 0 -0.41299477793557648 -0.098035718065740893 0 -0.41049874442742451 -0.082663324025247648 0 -0.41299477793557648 -0.098035718065740893 0 -0.41049874442742451 -0.082663324025247648 0 -0.42557721826032818 -0.082968482290179169 0 -0.41567555128031142 -0.069122680286697019 0 -0.41049874442742451 -0.082663324025247648 0 -0.42557721826032818 -0.082968482290179169 0 -0.43462308701927621 -0.1050922653563138 0 -0.42557721826032818 -0.082968482290179169 0 -0.44628047455578379 -0.081659072719729164 0 -0.43354428434009168 -0.058866823887497248 0 -0.42557721826032818 -0.082968482290179169 0 -0.44628047455578379 -0.081659072719729164 0 -0.43354428434009168 -0.058866823887497248 0 -0.41567555128031142 -0.069122680286697019 0 -0.42557721826032818 -0.082968482290179169 0 -0.43354428434009168 -0.058866823887497248 0 -0.44628047455578379 -0.081659072719729164 0 -0.45429464624660498 -0.061848647635388651 0 -0.43354428434009168 -0.058866823887497248 0 -0.44628047455578379 -0.081659072719729164 0 -0.44628047455578379 -0.081659072719729164 0 -0.45901666477147601 -0.104451321551961 0 -0.44628047455578379 -0.081659072719729164 0 -0.47487755147364541 -0.071594919821690806 0 -0.47263183725959362 -0.093416570260945159 0 -0.44628047455578379 -0.081659072719729164 0 -0.45901666477147601 -0.104451321551961 0 -0.47263183725959362 -0.093416570260945159 0 -0.44628047455578379 -0.081659072719729164 0 -0.47487755147364541 -0.071594919821690806 0 -0.45429464624660498 -0.061848647635388651 0 -0.43031786685282142 -0.1285395965676599 0 -0.45354524456854778 -0.12517749467285719 0 -0.44165426045941147 -0.1176726603470083 0 -0.45354524456854778 -0.12517749467285719 0 -0.44165426045941147 -0.1176726603470083 0 -0.45901666477147601 -0.104451321551961 0 -0.43462308701927621 -0.1050922653563138 0 -0.44628047455578379 -0.081659072719729164 0 -0.45901666477147601 -0.104451321551961 0 -0.43462308701927621 -0.1050922653563138 0 -0.44165426045941147 -0.1176726603470083 0 -0.45901666477147601 -0.104451321551961 0 -0.45901666477147601 -0.104451321551961 0 -0.47170183429193963 -0.1088648364907806 0 -0.47263183725959362 -0.093416570260945159 0 -0.45354524456854778 -0.12517749467285719 0 -0.47677262228427431 -0.1218153927780545 0 -0.47170183429193963 -0.1088648364907806 0 -0.45354524456854778 -0.12517749467285719 0 -0.47677262228427431 -0.1218153927780545 0 -0.45354524456854778 -0.12517749467285719 0 -0.45901666477147601 -0.104451321551961 0 -0.47170183429193963 -0.1088648364907806 0 -0.47677262228427431 -0.1218153927780545 0 -0.47170183429193963 -0.1088648364907806 0 -0.48439229629920821 -0.1065543608985685 0 -0.47170183429193963 -0.1088648364907806 0 -0.48439229629920821 -0.1065543608985685 0 -0.47263183725959362 -0.093416570260945159 0 -0.48439229629920821 -0.1065543608985685 0 -0.50000000000000078 -0.1184532908832516 0 -0.5 -0.090720796125734027 0 -0.48439229629920821 -0.1065543608985685 0 -0.47263183725959362 -0.093416570260945159 0 -0.5 -0.090720796125734027 0 -0.47677262228427431 -0.1218153927780545 0 -0.48439229629920821 -0.1065543608985685 0 -0.50000000000000078 -0.1184532908832516 0 -0.48867404773029149 -0.12744557111533139 0 -0.47677262228427431 -0.1218153927780545 0 -0.50000000000000078 -0.1184532908832516 0 -0.47677262228427431 -0.1218153927780545 0 -0.50000000000000078 -0.1184532908832516 0 -0.47487755147364541 -0.071594919821690806 0 -0.47263183725959362 -0.093416570260945159 0 -0.5 -0.090720796125734027 0 -0.47487755147364541 -0.071594919821690806 0 -0.5 -0.090720796125734027 0 -0.5 -0.062988301368216537 0 -0.5 -0.062988301368216537 0 -0.48600847228944938 -0.047860058210379287 0 -0.5 -0.035255806610698943 0 -0.47487755147364541 -0.071594919821690806 0 -0.5 -0.062988301368216537 0 -0.48600847228944938 -0.047860058210379287 0 -0.5 -0.035255806610698943 0 -0.48898795280113622 -0.035057008094814129 0 -0.49683896475706901 -0.029096798634237159 0 -0.48600847228944938 -0.047860058210379287 0 -0.5 -0.035255806610698943 0 -0.48898795280113622 -0.035057008094814129 0 -0.48600847228944938 -0.047860058210379287 0 -0.47551954839239269 -0.032209036587914068 0 -0.46723420032090418 -0.049450080788632778 0 -0.48600847228944938 -0.047860058210379287 0 -0.48898795280113622 -0.035057008094814129 0 -0.47551954839239269 -0.032209036587914068 0 -0.47487755147364541 -0.071594919821690806 0 -0.48600847228944938 -0.047860058210379287 0 -0.46723420032090418 -0.049450080788632778 0 -0.47487755147364541 -0.071594919821690806 0 -0.45429464624660498 -0.061848647635388651 0 -0.46723420032090418 -0.049450080788632778 0 -0.45429464624660498 -0.061848647635388651 0 -0.46723420032090418 -0.049450080788632778 0 -0.45178030980455253 -0.047637991816423073 0 -0.47551954839239269 -0.032209036587914068 0 -0.46723420032090418 -0.049450080788632778 0 -0.4599722626162282 -0.036059628798360388 0 -0.46723420032090418 -0.049450080788632778 0 -0.4599722626162282 -0.036059628798360388 0 -0.45178030980455253 -0.047637991816423073 0 -0.4599722626162282 -0.036059628798360388 0 -0.44385615549893392 -0.031964777972236257 0 -0.45178030980455253 -0.047637991816423073 0 -0.43354428434009168 -0.058866823887497248 0 -0.44385615549893392 -0.031964777972236257 0 -0.45178030980455253 -0.047637991816423073 0 -0.43354428434009168 -0.058866823887497248 0 -0.45429464624660498 -0.061848647635388651 0 -0.45178030980455253 -0.047637991816423073 0 -0.44889191567381281 -0.01254136296990541 0 -0.4450997529900188 -0.00012849009732438359 0 -0.45460061289039311 0.00097675914791782036 0 -0.44889191567381281 -0.01254136296990541 0 -0.4450997529900188 -0.00012849009732438359 0 -0.43931634419082582 -0.0085987782005039481 0 -0.4450997529900188 -0.00012849009732438359 0 -0.43931634419082582 -0.0085987782005039481 0 -0.43525668636307951 0.00038330375819188139 0 -0.43456929112995568 -0.02147919602406749 0 -0.44889191567381281 -0.01254136296990541 0 -0.43931634419082582 -0.0085987782005039481 0 -0.44385615549893392 -0.031964777972236257 0 -0.44889191567381281 -0.01254136296990541 0 -0.46171016803234177 -0.020877152634979902 0 -0.43456929112995568 -0.02147919602406749 0 -0.44385615549893392 -0.031964777972236257 0 -0.44889191567381281 -0.01254136296990541 0 -0.4599722626162282 -0.036059628798360388 0 -0.44385615549893392 -0.031964777972236257 0 -0.46171016803234177 -0.020877152634979902 0 -0.47551954839239269 -0.032209036587914068 0 -0.4599722626162282 -0.036059628798360388 0 -0.46171016803234177 -0.020877152634979902 0 -0.46171016803234177 -0.020877152634979902 0 -0.46309108498422069 -0.0057179050081437206 0 -0.47239338106715018 -0.01307555134394134 0 -0.46309108498422069 -0.0057179050081437206 0 -0.47239338106715018 -0.01307555134394134 0 -0.47068402366974649 0.0039225664184212132 0 -0.44889191567381281 -0.01254136296990541 0 -0.46171016803234177 -0.020877152634979902 0 -0.46309108498422069 -0.0057179050081437206 0 -0.46309108498422069 -0.0057179050081437206 0 -0.45460061289039311 0.00097675914791782036 0 -0.46138646552445689 0.0022823970218126531 0 -0.44889191567381281 -0.01254136296990541 0 -0.46309108498422069 -0.0057179050081437206 0 -0.45460061289039311 0.00097675914791782036 0 -0.48376149421340769 -0.01258711610790799 0 -0.47068402366974649 0.0039225664184212132 0 -0.48376149421340769 -0.01258711610790799 0 -0.47880327656304339 0.0064544685457847608 0 -0.47068402366974649 0.0039225664184212132 0 -0.47239338106715018 -0.01307555134394134 0 -0.48376149421340769 -0.01258711610790799 0 -0.47068402366974649 0.0039225664184212132 0 -0.47551954839239269 -0.032209036587914068 0 -0.46171016803234177 -0.020877152634979902 0 -0.47239338106715018 -0.01307555134394134 0 -0.47551954839239269 -0.032209036587914068 0 -0.47239338106715018 -0.01307555134394134 0 -0.48440723335070712 -0.02511542597803168 0 -0.47239338106715018 -0.01307555134394134 0 -0.48376149421340769 -0.01258711610790799 0 -0.48440723335070712 -0.02511542597803168 0 -0.48898795280113622 -0.035057008094814129 0 -0.47551954839239269 -0.032209036587914068 0 -0.48440723335070712 -0.02511542597803168 0 -0.48376149421340769 -0.01258711610790799 0 -0.48440723335070712 -0.02511542597803168 0 -0.49683896475706901 -0.029096798634237159 0 -0.5 -0.035255806610698943 0 -0.49683896475706901 -0.029096798634237159 0 -0.50000000000000144 -0.0075233118531813368 0 -0.48376149421340769 -0.01258711610790799 0 -0.49683896475706901 -0.029096798634237159 0 -0.48376149421340769 -0.01258711610790799 0 -0.49683896475706901 -0.029096798634237159 0 -0.50000000000000144 -0.0075233118531813368 0 -0.48898795280113622 -0.035057008094814129 0 -0.48440723335070712 -0.02511542597803168 0 -0.49683896475706901 -0.029096798634237159 0 -0.48376149421340769 -0.01258711610790799 0 -0.50000000000000144 -0.0075233118531813368 0 -0.47880327656304339 0.0064544685457847608 0 -0.50000000000000144 -0.0075233118531813368 0 -0.47880327656304339 0.0064544685457847608 0 -0.49999999999999978 -0.0049998575947891666 0 -0.50000000000000144 -0.0075233118531813368 0 -0.47880327656304339 0.0064544685457847608 0 -0.49999999999999978 -0.0049998575947891666 0 -0.5 0.023800533356784611 0 -0.48174252076349677 0.015951474442734929 0 -0.49999999999999978 -0.0049998575947891666 0 -0.48174252076349677 0.015951474442734929 0 -0.47880327656304339 0.0064544685457847608 0 -0.49999999999999978 -0.0049998575947891666 0 -0.48174252076349677 0.015951474442734929 0 -0.5 0.023800533356784611 0 -0.48174252076349677 0.015951474442734929 0 -0.48201034925041059 0.032823340938974113 0 -0.48174252076349677 0.015951474442734929 0 -0.46348504152699488 0.036902806480260182 0 -0.48174252076349677 0.015951474442734929 0 -0.48201034925041059 0.032823340938974113 0 -0.46348504152699488 0.036902806480260182 0 -0.47880327656304339 0.0064544685457847608 0 -0.47068402366974649 0.0039225664184212132 0 -0.457606553126085 0.020432248944750351 0 -0.48174252076349677 0.015951474442734929 0 -0.47880327656304339 0.0064544685457847608 0 -0.457606553126085 0.020432248944750351 0 -0.5 0.052600924308358443 0 -0.49035246424649892 0.048705583125362828 0 -0.48967027761566589 0.064289772438493584 0 -0.5 0.023800533356784611 0 -0.5 0.052600924308358443 0 -0.49035246424649892 0.048705583125362828 0 -0.5 0.023800533356784611 0 -0.49035246424649892 0.048705583125362828 0 -0.48201034925041059 0.032823340938974113 0 -0.49035246424649892 0.048705583125362828 0 -0.46348504152699488 0.036902806480260182 0 -0.49035246424649892 0.048705583125362828 0 -0.48201034925041059 0.032823340938974113 0 -0.46348504152699488 0.036902806480260182 0 -0.49035246424649892 0.048705583125362828 0 -0.47271759403157759 0.052084599174810432 0 -0.46348504152699488 0.036902806480260182 0 -0.49035246424649892 0.048705583125362828 0 -0.47271759403157759 0.052084599174810432 0 -0.48967027761566589 0.064289772438493584 0 -0.47271759403157759 0.052084599174810432 0 -0.47478482279965839 0.068954059100715823 0 -0.48967027761566589 0.064289772438493584 0 -0.47271759403157759 0.052084599174810432 0 -0.46092891465224212 0.055775519490319843 0 -0.47478482279965839 0.068954059100715823 0 -0.47271759403157759 0.052084599174810432 0 -0.46092891465224212 0.055775519490319843 0 -0.45683666178751131 0.044532140717975531 0 -0.46092891465224212 0.055775519490319843 0 -0.45027789984917821 0.06258741896801194 0 -0.47478482279965839 0.068954059100715823 0 -0.46092891465224212 0.055775519490319843 0 -0.45002759479328469 0.05071937949008546 0 -0.45027789984917821 0.06258741896801194 0 -0.46092891465224212 0.055775519490319843 0 -0.45683666178751131 0.044532140717975531 0 -0.45002759479328469 0.05071937949008546 0 -0.47271759403157759 0.052084599174810432 0 -0.45683666178751131 0.044532140717975531 0 -0.46348504152699488 0.036902806480260182 0 -0.45683666178751131 0.044532140717975531 0 -0.46348504152699488 0.036902806480260182 0 -0.46348504152699488 0.036902806480260182 0 -0.44944544727005531 0.03073525565365226 0 -0.45683666178751131 0.044532140717975531 0 -0.46348504152699488 0.036902806480260182 0 -0.44944544727005531 0.03073525565365226 0 -0.44944544727005531 0.03073525565365226 0 -0.43657783130451411 0.037166066632374962 0 -0.43466547935553762 0.049394259870358677 0 -0.44944544727005531 0.03073525565365226 0 -0.43466547935553762 0.049394259870358677 0 -0.44774379580159718 0.043845258933017953 0 -0.44944544727005531 0.03073525565365226 0 -0.43466547935553762 0.049394259870358677 0 -0.44944544727005531 0.03073525565365226 0 -0.43602176819642602 0.032483071001377588 0 -0.43657783130451411 0.037166066632374962 0 -0.45683666178751131 0.044532140717975531 0 -0.44774379580159718 0.043845258933017953 0 -0.44944544727005531 0.03073525565365226 0 -0.45683666178751131 0.044532140717975531 0 -0.44774379580159718 0.043845258933017953 0 -0.45002759479328469 0.05071937949008546 0 -0.42577097689869792 0.056220778835308037 0 -0.45027789984917821 0.06258741896801194 0 -0.45002759479328469 0.05071937949008546 0 -0.43466547935553762 0.049394259870358677 0 -0.45027789984917821 0.06258741896801194 0 -0.44774379580159718 0.043845258933017953 0 -0.45002759479328469 0.05071937949008546 0 -0.43466547935553762 0.049394259870358677 0 -0.47880327656304339 0.0064544685457847608 0 -0.457606553126085 0.020432248944750351 0 -0.47068402366974649 0.0039225664184212132 0 -0.45717014055346761 0.0099481675290553039 0 -0.457606553126085 0.020432248944750351 0 -0.47068402366974649 0.0039225664184212132 0 -0.457606553126085 0.020432248944750351 0 -0.45717014055346761 0.0099481675290553039 0 -0.457606553126085 0.020432248944750351 0 -0.44856046214620171 0.015612310790457129 0 -0.45717014055346761 0.0099481675290553039 0 -0.45460061289039311 0.00097675914791782036 0 -0.46138646552445689 0.0022823970218126531 0 -0.45717014055346761 0.0099481675290553039 0 -0.45460061289039311 0.00097675914791782036 0 -0.44922817503882939 0.0072996019531977796 0 -0.47068402366974649 0.0039225664184212132 0 -0.45717014055346761 0.0099481675290553039 0 -0.46138646552445689 0.0022823970218126531 0 -0.46309108498422069 -0.0057179050081437206 0 -0.47068402366974649 0.0039225664184212132 0 -0.46138646552445689 0.0022823970218126531 0 -0.48174252076349677 0.015951474442734929 0 -0.46348504152699488 0.036902806480260182 0 -0.457606553126085 0.020432248944750351 0 -0.46348504152699488 0.036902806480260182 0 -0.457606553126085 0.020432248944750351 0 -0.44944544727005531 0.03073525565365226 0 -0.457606553126085 0.020432248944750351 0 -0.44944544727005531 0.03073525565365226 0 -0.457606553126085 0.020432248944750351 0 -0.4494277531504029 0.02582560468329885 0 -0.4453533836348374 0.02177101477450304 0 -0.4494277531504029 0.02582560468329885 0 -0.44856046214620171 0.015612310790457129 0 -0.44944544727005531 0.03073525565365226 0 -0.42849425274902209 0.02672570232690594 0 -0.43602176819642602 0.032483071001377588 0 -0.457606553126085 0.020432248944750351 0 -0.4494277531504029 0.02582560468329885 0 -0.44856046214620171 0.015612310790457129 0 -0.457606553126085 0.020432248944750351 0 -0.4494277531504029 0.02582560468329885 0 -0.44944544727005531 0.03073525565365226 0 -0.4453533836348374 0.02177101477450304 0 -0.4494277531504029 0.02582560468329885 0 -0.44944544727005531 0.03073525565365226 0 -0.4453533836348374 0.02177101477450304 0 -0.44944544727005531 0.03073525565365226 0 -0.43834794228959018 0.020666229757094531 0 -0.4453533836348374 0.02177101477450304 0 -0.43834794228959018 0.020666229757094531 0 -0.44098531331793722 0.016015672988012559 0 -0.4453533836348374 0.02177101477450304 0 -0.44098531331793722 0.016015672988012559 0 -0.44856046214620171 0.015612310790457129 0 -0.44098531331793722 0.016015672988012559 0 -0.43989583860303227 0.0092818418187661945 0 -0.43279846442449799 0.01433933717462676 0 -0.44098531331793722 0.016015672988012559 0 -0.43989583860303227 0.0092818418187661945 0 -0.44856046214620171 0.015612310790457129 0 -0.43989583860303227 0.0092818418187661945 0 -0.44856046214620171 0.015612310790457129 0 -0.44922817503882939 0.0072996019531977796 0 -0.45717014055346761 0.0099481675290553039 0 -0.44856046214620171 0.015612310790457129 0 -0.44922817503882939 0.0072996019531977796 0 -0.4450997529900188 -0.00012849009732438359 0 -0.45460061289039311 0.00097675914791782036 0 -0.44922817503882939 0.0072996019531977796 0 -0.4450997529900188 -0.00012849009732438359 0 -0.43989583860303227 0.0092818418187661945 0 -0.43525668636307951 0.00038330375819188139 0 -0.4450997529900188 -0.00012849009732438359 0 -0.43989583860303227 0.0092818418187661945 0 -0.44922817503882939 0.0072996019531977796 0 -0.43989583860303227 0.0092818418187661945 0 -0.43525668636307951 0.00038330375819188139 0 -0.42910397056211319 0.0070338126822099226 0 -0.43989583860303227 0.0092818418187661945 0 -0.43279846442449799 0.01433933717462676 0 -0.42910397056211319 0.0070338126822099226 0 -0.43279846442449799 0.01433933717462676 0 -0.42381960475047881 0.01127670963609915 0 -0.42910397056211319 0.0070338126822099226 0 -0.43279846442449799 0.01433933717462676 0 -0.42381960475047881 0.01127670963609915 0 -0.42453962851733118 0.019794205632936639 0 -0.42411198325617849 -0.001150248148406384 0 -0.42910397056211319 0.0070338126822099226 0 -0.41772199918986802 0.004723125048957966 0 -0.42381960475047881 0.01127670963609915 0 -0.42910397056211319 0.0070338126822099226 0 -0.41772199918986802 0.004723125048957966 0 -0.42411198325617849 -0.001150248148406384 0 -0.43525668636307951 0.00038330375819188139 0 -0.42910397056211319 0.0070338126822099226 0 -0.41493396105858338 0.01049306764176447 0 -0.42453962851733118 0.019794205632936639 0 -0.39963380976460711 0.0088531556122211641 0 -0.42453962851733118 0.019794205632936639 0 -0.39963380976460711 0.0088531556122211641 0 -0.42381960475047881 0.01127670963609915 0 -0.41772199918986802 0.004723125048957966 0 -0.41493396105858338 0.01049306764176447 0 -0.42381960475047881 0.01127670963609915 0 -0.41493396105858338 0.01049306764176447 0 -0.42453962851733118 0.019794205632936639 0 -0.41493396105858338 0.01049306764176447 0 -0.40885627456412599 0.0058505917459658703 0 -0.39963380976460711 0.0088531556122211641 0 -0.41772199918986802 0.004723125048957966 0 -0.41493396105858338 0.01049306764176447 0 -0.40885627456412599 0.0058505917459658703 0 -0.40587735948277459 -0.0014428404637955451 0 -0.41772199918986802 0.004723125048957966 0 -0.40885627456412599 0.0058505917459658703 0 -0.40725510789069119 0.029306378522210359 0 -0.41251104340283168 0.02059175948260443 0 -0.42849425274902209 0.02672570232690594 0 -0.40725510789069119 0.029306378522210359 0 -0.42849425274902209 0.02672570232690594 0 -0.41251104340283168 0.02059175948260443 0 -0.42453962851733118 0.019794205632936639 0 -0.39963380976460711 0.0088531556122211641 0 -0.40725510789069119 0.029306378522210359 0 -0.42849425274902209 0.02672570232690594 0 -0.42204520312173499 0.037107760758566102 0 -0.41251104340283168 0.02059175948260443 0 -0.42849425274902209 0.02672570232690594 0 -0.42453962851733118 0.019794205632936639 0 -0.40725510789069119 0.029306378522210359 0 -0.41251104340283168 0.02059175948260443 0 -0.40263241809250688 0.018279355318748029 0 -0.44944544727005531 0.03073525565365226 0 -0.42849425274902209 0.02672570232690594 0 -0.42453962851733118 0.019794205632936639 0 -0.44944544727005531 0.03073525565365226 0 -0.43834794228959018 0.020666229757094531 0 -0.42453962851733118 0.019794205632936639 0 -0.44944544727005531 0.03073525565365226 0 -0.42453962851733118 0.019794205632936639 0 -0.43834794228959018 0.020666229757094531 0 -0.44098531331793722 0.016015672988012559 0 -0.43279846442449799 0.01433933717462676 0 -0.43834794228959018 0.020666229757094531 0 -0.43279846442449799 0.01433933717462676 0 -0.42453962851733118 0.019794205632936639 0 -0.42849425274902209 0.02672570232690594 0 -0.43602176819642602 0.032483071001377588 0 -0.42956954146211263 0.035305259392577351 0 -0.43602176819642602 0.032483071001377588 0 -0.43657783130451411 0.037166066632374962 0 -0.42956954146211263 0.035305259392577351 0 -0.43657783130451411 0.037166066632374962 0 -0.42968722021363548 0.040923873865961087 0 -0.42956954146211263 0.035305259392577351 0 -0.43657783130451411 0.037166066632374962 0 -0.42968722021363548 0.040923873865961087 0 -0.43466547935553762 0.049394259870358677 0 -0.42557804582427811 0.045646022675928377 0 -0.42968722021363548 0.040923873865961087 0 -0.43466547935553762 0.049394259870358677 0 -0.42557804582427811 0.045646022675928377 0 -0.42968722021363548 0.040923873865961087 0 -0.42204520312173499 0.037107760758566102 0 -0.42849425274902209 0.02672570232690594 0 -0.42204520312173499 0.037107760758566102 0 -0.42956954146211263 0.035305259392577351 0 -0.42968722021363548 0.040923873865961087 0 -0.42204520312173499 0.037107760758566102 0 -0.42956954146211263 0.035305259392577351 0 -0.43466547935553762 0.049394259870358677 0 -0.42577097689869792 0.056220778835308037 0 -0.45027789984917821 0.06258741896801194 0 -0.42557804582427811 0.045646022675928377 0 -0.43466547935553762 0.049394259870358677 0 -0.42577097689869792 0.056220778835308037 0 -0.42577097689869792 0.056220778835308037 0 -0.41288492062386828 0.043361494262469609 0 -0.40126405394821729 0.049854138702605091 0 -0.42577097689869792 0.056220778835308037 0 -0.41947225575865282 0.062178668370271653 0 -0.40126405394821729 0.049854138702605091 0 -0.42577097689869792 0.056220778835308037 0 -0.40126405394821729 0.049854138702605091 0 -0.41947225575865282 0.062178668370271653 0 -0.40126405394821729 0.049854138702605091 0 -0.41947225575865282 0.062178668370271653 0 -0.40126405394821729 0.049854138702605091 0 -0.40734847271455621 0.062886443679058865 0 -0.42557804582427811 0.045646022675928377 0 -0.42577097689869792 0.056220778835308037 0 -0.41288492062386828 0.043361494262469609 0 -0.42557804582427811 0.045646022675928377 0 -0.42204520312173499 0.037107760758566102 0 -0.41288492062386828 0.043361494262469609 0 -0.40725510789069119 0.029306378522210359 0 -0.42204520312173499 0.037107760758566102 0 -0.41288492062386828 0.043361494262469609 0 -0.40725510789069119 0.029306378522210359 0 -0.39468131396007911 0.039986873982000772 0 -0.39013980082667388 0.036503956118350167 0 -0.40126405394821729 0.049854138702605091 0 -0.38307446342927037 0.037542206402683062 0 -0.39468131396007911 0.039986873982000772 0 -0.40126405394821729 0.049854138702605091 0 -0.38307446342927037 0.037542206402683062 0 -0.40126405394821729 0.049854138702605091 0 -0.38307446342927037 0.037542206402683062 0 -0.38907039848070007 0.046686355606344827 0 -0.40725510789069119 0.029306378522210359 0 -0.38601596303236002 0.031887054717513602 0 -0.39013980082667388 0.036503956118350167 0 -0.41288492062386828 0.043361494262469609 0 -0.39468131396007911 0.039986873982000772 0 -0.40126405394821729 0.049854138702605091 0 -0.40725510789069119 0.029306378522210359 0 -0.41288492062386828 0.043361494262469609 0 -0.39468131396007911 0.039986873982000772 0 -0.3986379462642774 0.061814500485865731 0 -0.40126405394821729 0.049854138702605091 0 -0.40734847271455621 0.062886443679058865 0 -0.40126405394821729 0.049854138702605091 0 -0.39187194197058262 0.055665261132325762 0 -0.38907039848070007 0.046686355606344827 0 -0.40126405394821729 0.049854138702605091 0 -0.38907039848070007 0.046686355606344827 0 -0.3986379462642774 0.061814500485865731 0 -0.39187194197058262 0.055665261132325762 0 -0.38903759375437269 0.065080009460077901 0 -0.3986379462642774 0.061814500485865731 0 -0.40126405394821729 0.049854138702605091 0 -0.39187194197058262 0.055665261132325762 0 -0.38307446342927037 0.037542206402683062 0 -0.37221351552981768 0.050888614758005497 0 -0.37136538221014131 0.060053387542604843 0 -0.38307446342927037 0.037542206402683062 0 -0.37136538221014131 0.060053387542604843 0 -0.38377565698794103 0.055476192188355977 0 -0.38307446342927037 0.037542206402683062 0 -0.37136538221014131 0.060053387542604843 0 -0.39187194197058262 0.055665261132325762 0 -0.38377565698794103 0.055476192188355977 0 -0.38903759375437269 0.065080009460077901 0 -0.38377565698794103 0.055476192188355977 0 -0.38087255268076547 0.066788427207968529 0 -0.38903759375437269 0.065080009460077901 0 -0.39187194197058262 0.055665261132325762 0 -0.38377565698794103 0.055476192188355977 0 -0.38907039848070007 0.046686355606344827 0 -0.38377565698794103 0.055476192188355977 0 -0.38087255268076547 0.066788427207968529 0 -0.37136538221014131 0.060053387542604843 0 -0.38377565698794103 0.055476192188355977 0 -0.38307446342927037 0.037542206402683062 0 -0.38907039848070007 0.046686355606344827 0 -0.39468131396007911 0.039986873982000772 0 -0.38307446342927037 0.037542206402683062 0 -0.39013980082667388 0.036503956118350167 0 -0.38307446342927037 0.037542206402683062 0 -0.38601596303236002 0.031887054717513602 0 -0.39013980082667388 0.036503956118350167 0 -0.38307446342927037 0.037542206402683062 0 -0.38601596303236002 0.031887054717513602 0 -0.38307446342927037 0.037542206402683062 0 -0.38601596303236002 0.031887054717513602 0 -0.38259952347732379 0.032302171441430813 0 -0.38601596303236002 0.031887054717513602 0 -0.38259952347732379 0.032302171441430813 0 -0.3806053218906551 0.035870926148703512 0 -0.37221351552981768 0.050888614758005497 0 -0.38307446342927037 0.037542206402683062 0 -0.3806053218906551 0.035870926148703512 0 -0.37221351552981768 0.050888614758005497 0 -0.3806053218906551 0.035870926148703512 0 -0.37339704843748373 0.041375637354966938 0 -0.37221351552981768 0.050888614758005497 0 -0.3806053218906551 0.035870926148703512 0 -0.37643878611317899 0.033050735866564353 0 -0.37339704843748373 0.041375637354966938 0 -0.38307446342927037 0.037542206402683062 0 -0.3806053218906551 0.035870926148703512 0 -0.38259952347732379 0.032302171441430813 0 -0.38307446342927037 0.037542206402683062 0 -0.3806053218906551 0.035870926148703512 0 -0.3806053218906551 0.035870926148703512 0 -0.38259952347732379 0.032302171441430813 0 -0.37643878611317899 0.033050735866564353 0 -0.38259952347732379 0.032302171441430813 0 -0.37643878611317899 0.033050735866564353 0 -0.3806053218906551 0.035870926148703512 0 -0.38259952347732379 0.032302171441430813 0 -0.3806053218906551 0.035870926148703512 0 -0.37643878611317899 0.033050735866564353 0 -0.38259952347732379 0.032302171441430813 0 -0.38328038752113008 0.024174611305253009 0 -0.39533571369301518 0.0095099226091984457 0 -0.37756954655671388 0.028023453724104131 0 -0.38328038752113008 0.024174611305253009 0 -0.37529474423918152 0.021738631409773449 0 -0.38259952347732379 0.032302171441430813 0 -0.37756954655671388 0.028023453724104131 0 -0.38328038752113008 0.024174611305253009 0 -0.38259952347732379 0.032302171441430813 0 -0.37643878611317899 0.033050735866564353 0 -0.37756954655671388 0.028023453724104131 0 -0.38259952347732379 0.032302171441430813 0 -0.39533571369301518 0.0095099226091984457 0 -0.38259952347732379 0.032302171441430813 0 -0.39533571369301518 0.0095099226091984457 0 -0.39363697057986718 0.017235360177177441 0 -0.38601596303236002 0.031887054717513602 0 -0.38259952347732379 0.032302171441430813 0 -0.39363697057986718 0.017235360177177441 0 -0.38601596303236002 0.031887054717513602 0 -0.39363697057986718 0.017235360177177441 0 -0.38328038752113008 0.024174611305253009 0 -0.37529474423918152 0.021738631409773449 0 -0.37925283366226159 0.01351163360444637 0 -0.37529474423918152 0.021738631409773449 0 -0.37925283366226159 0.01351163360444637 0 -0.37168742558907247 0.01236927880737582 0 -0.38328038752113008 0.024174611305253009 0 -0.38704313812526581 0.0029002563136639671 0 -0.38328038752113008 0.024174611305253009 0 -0.37925283366226159 0.01351163360444637 0 -0.38704313812526581 0.0029002563136639671 0 -0.38328038752113008 0.024174611305253009 0 -0.38704313812526581 0.0029002563136639671 0 -0.39062958480375048 0.0081390436411252053 0 -0.38328038752113008 0.024174611305253009 0 -0.39062958480375048 0.0081390436411252053 0 -0.39533571369301518 0.0095099226091984457 0 -0.37925283366226159 0.01351163360444637 0 -0.37895847283665818 0.0063753901861656158 0 -0.37168742558907247 0.01236927880737582 0 -0.37925283366226159 0.01351163360444637 0 -0.37895847283665818 0.0063753901861656158 0 -0.38704313812526581 0.0029002563136639671 0 -0.38130901083635682 -0.0010913206990655409 0 -0.37895847283665818 0.0063753901861656158 0 -0.38704313812526581 0.0029002563136639671 0 -0.38130901083635682 -0.0010913206990655409 0 -0.37895847283665818 0.0063753901861656158 0 -0.37307081250001728 0.0043801736117486277 0 -0.39533571369301518 0.0095099226091984457 0 -0.39825169566672458 0.01420060334639159 0 -0.39963380976460711 0.0088531556122211641 0 -0.39533571369301518 0.0095099226091984457 0 -0.39825169566672458 0.01420060334639159 0 -0.39363697057986718 0.017235360177177441 0 -0.39543429768942018 -0.00027052773220046102 0 -0.39062958480375048 0.0081390436411252053 0 -0.39533571369301518 0.0095099226091984457 0 -0.39543429768942018 -0.00027052773220046102 0 -0.38704313812526581 0.0029002563136639671 0 -0.39062958480375048 0.0081390436411252053 0 -0.40587735948277459 -0.0014428404637955451 0 -0.39533571369301518 0.0095099226091984457 0 -0.40242578937613072 0.0056927073758974833 0 -0.40885627456412599 0.0058505917459658703 0 -0.40242578937613072 0.0056927073758974833 0 -0.39963380976460711 0.0088531556122211641 0 -0.40587735948277459 -0.0014428404637955451 0 -0.40885627456412599 0.0058505917459658703 0 -0.40242578937613072 0.0056927073758974833 0 -0.39825169566672458 0.01420060334639159 0 -0.39963380976460711 0.0088531556122211641 0 -0.40263241809250688 0.018279355318748029 0 -0.39533571369301518 0.0095099226091984457 0 -0.40242578937613072 0.0056927073758974833 0 -0.39963380976460711 0.0088531556122211641 0 -0.41251104340283168 0.02059175948260443 0 -0.39963380976460711 0.0088531556122211641 0 -0.40263241809250688 0.018279355318748029 0 -0.40725510789069119 0.029306378522210359 0 -0.38601596303236002 0.031887054717513602 0 -0.39363697057986718 0.017235360177177441 0 -0.40725510789069119 0.029306378522210359 0 -0.38601596303236002 0.031887054717513602 0 -0.40725510789069119 0.029306378522210359 0 -0.40263241809250688 0.018279355318748029 0 -0.39363697057986718 0.017235360177177441 0 -0.39825169566672458 0.01420060334639159 0 -0.40263241809250688 0.018279355318748029 0 -0.39363697057986718 0.017235360177177441 0 -0.39393251371540322 0.1014174921082746 0 -0.38428033213699891 0.092384837611189458 0 -0.40048973208734412 0.09220181445464587 0 -0.39393251371540322 0.1014174921082746 0 -0.39348953090315097 0.1124810498013893 0 -0.38458991378504143 0.1059553467003993 0 -0.39393251371540322 0.1014174921082746 0 -0.39348953090315097 0.1124810498013893 0 -0.40681305966448028 0.1040644119737489 0 -0.39393251371540322 0.1014174921082746 0 -0.40048973208734412 0.09220181445464587 0 -0.40681305966448028 0.1040644119737489 0 -0.40681305966448028 0.1040644119737489 0 -0.3958226763824943 0.12796341742527079 0 -0.40681305966448028 0.1040644119737489 0 -0.40646054046023961 0.1214422129747609 0 -0.3958226763824943 0.12796341742527079 0 -0.39348953090315097 0.1124810498013893 0 -0.40681305966448028 0.1040644119737489 0 -0.3958226763824943 0.12796341742527079 0 -0.39348953090315097 0.1124810498013893 0 -0.38955173101803708 0.1208915186452328 0 -0.3958226763824943 0.12796341742527079 0 -0.39348953090315097 0.1124810498013893 0 -0.38696791955935078 0.11355057590789611 0 -0.38955173101803708 0.1208915186452328 0 -0.39348953090315097 0.1124810498013893 0 -0.38696791955935078 0.11355057590789611 0 -0.38458991378504143 0.1059553467003993 0 -0.38955173101803708 0.1208915186452328 0 -0.38056257019442291 0.11797064620599371 0 -0.39080347407612498 0.13531425893852081 0 -0.38696791955935078 0.11355057590789611 0 -0.38056257019442291 0.11797064620599371 0 -0.38458991378504143 0.1059553467003993 0 -0.38696791955935078 0.11355057590789611 0 -0.38955173101803708 0.1208915186452328 0 -0.38056257019442291 0.11797064620599371 0 -0.38056257019442291 0.11797064620599371 0 -0.38193942842029999 0.12811118696371451 0 -0.37390022369158532 0.1222057060986861 0 -0.38056257019442291 0.11797064620599371 0 -0.38458991378504143 0.1059553467003993 0 -0.3703216663127199 0.1006270334734672 0 -0.38056257019442291 0.11797064620599371 0 -0.3703216663127199 0.1006270334734672 0 -0.39393251371540322 0.1014174921082746 0 -0.38458991378504143 0.1059553467003993 0 -0.38428033213699891 0.092384837611189458 0 -0.38458991378504143 0.1059553467003993 0 -0.38428033213699891 0.092384837611189458 0 -0.3703216663127199 0.1006270334734672 0 -0.37565769277846039 0.088083777040234679 0 -0.38428033213699891 0.092384837611189458 0 -0.3703216663127199 0.1006270334734672 0 -0.37605207241779792 0.078417952266938012 0 -0.38428033213699891 0.092384837611189458 0 -0.40048973208734412 0.09220181445464587 0 -0.37565769277846039 0.088083777040234679 0 -0.37605207241779792 0.078417952266938012 0 -0.38428033213699891 0.092384837611189458 0 -0.37605207241779792 0.078417952266938012 0 -0.39131099135685549 0.079527990411403793 0 -0.40048973208734412 0.09220181445464587 0 -0.37605207241779792 0.078417952266938012 0 -0.40048973208734412 0.09220181445464587 0 -0.37605207241779792 0.078417952266938012 0 -0.38087255268076547 0.066788427207968529 0 -0.37136538221014131 0.060053387542604843 0 -0.37605207241779792 0.078417952266938012 0 -0.38087255268076547 0.066788427207968529 0 -0.3866122965198292 0.072381780811939161 0 -0.37605207241779792 0.078417952266938012 0 -0.3866122965198292 0.072381780811939161 0 -0.39131099135685549 0.079527990411403793 0 -0.38087255268076547 0.066788427207968529 0 -0.3866122965198292 0.072381780811939161 0 -0.38903759375437269 0.065080009460077901 0 -0.3866122965198292 0.072381780811939161 0 -0.38903759375437269 0.065080009460077901 0 -0.39524118261577051 0.07174018812680738 0 -0.3986379462642774 0.061814500485865731 0 -0.38903759375437269 0.065080009460077901 0 -0.39524118261577051 0.07174018812680738 0 -0.3866122965198292 0.072381780811939161 0 -0.39524118261577051 0.07174018812680738 0 -0.39131099135685549 0.079527990411403793 0 -0.39524118261577051 0.07174018812680738 0 -0.39131099135685549 0.079527990411403793 0 -0.40021187915063527 0.079039708607713352 0 -0.40444243048648088 0.070775373743695649 0 -0.40021187915063527 0.079039708607713352 0 -0.40957505920672538 0.08095317630201404 0 -0.39524118261577051 0.07174018812680738 0 -0.40444243048648088 0.070775373743695649 0 -0.40021187915063527 0.079039708607713352 0 -0.3986379462642774 0.061814500485865731 0 -0.39524118261577051 0.07174018812680738 0 -0.40444243048648088 0.070775373743695649 0 -0.3986379462642774 0.061814500485865731 0 -0.40444243048648088 0.070775373743695649 0 -0.40734847271455621 0.062886443679058865 0 -0.39131099135685549 0.079527990411403793 0 -0.40021187915063527 0.079039708607713352 0 -0.40048973208734412 0.09220181445464587 0 -0.40021187915063527 0.079039708607713352 0 -0.40048973208734412 0.09220181445464587 0 -0.40957505920672538 0.08095317630201404 0 -0.40048973208734412 0.09220181445464587 0 -0.40957505920672538 0.08095317630201404 0 -0.42255069101833548 0.090832008897072283 0 -0.42017399027978147 0.075678341151790424 0 -0.42255069101833548 0.090832008897072283 0 -0.40957505920672538 0.08095317630201404 0 -0.42017399027978147 0.075678341151790424 0 -0.42255069101833548 0.090832008897072283 0 -0.41947225575865282 0.062178668370271653 0 -0.40734847271455621 0.062886443679058865 0 -0.41292567711515238 0.069809537092856214 0 -0.40444243048648088 0.070775373743695649 0 -0.40734847271455621 0.062886443679058865 0 -0.41292567711515238 0.069809537092856214 0 -0.40444243048648088 0.070775373743695649 0 -0.40957505920672538 0.08095317630201404 0 -0.41292567711515238 0.069809537092856214 0 -0.40957505920672538 0.08095317630201404 0 -0.41292567711515238 0.069809537092856214 0 -0.42017399027978147 0.075678341151790424 0 -0.41947225575865282 0.062178668370271653 0 -0.41292567711515238 0.069809537092856214 0 -0.42017399027978147 0.075678341151790424 0 -0.41947225575865282 0.062178668370271653 0 -0.43768045756908891 0.074503198037937313 0 -0.42577097689869792 0.056220778835308037 0 -0.41947225575865282 0.062178668370271653 0 -0.43768045756908891 0.074503198037937313 0 -0.41947225575865282 0.062178668370271653 0 -0.42017399027978147 0.075678341151790424 0 -0.43768045756908891 0.074503198037937313 0 -0.42017399027978147 0.075678341151790424 0 -0.42939074600797639 0.081996000198462218 0 -0.43768045756908891 0.074503198037937313 0 -0.42939074600797639 0.081996000198462218 0 -0.44372183692042949 0.095274741791683493 0 -0.43768045756908891 0.074503198037937313 0 -0.42255069101833548 0.090832008897072283 0 -0.42939074600797639 0.081996000198462218 0 -0.44372183692042949 0.095274741791683493 0 -0.42017399027978147 0.075678341151790424 0 -0.42255069101833548 0.090832008897072283 0 -0.42939074600797639 0.081996000198462218 0 -0.42255069101833548 0.090832008897072283 0 -0.42492739175688998 0.105985676642354 0 -0.44372183692042949 0.095274741791683493 0 -0.42255069101833548 0.090832008897072283 0 -0.42492739175688998 0.105985676642354 0 -0.40048973208734412 0.09220181445464587 0 -0.42492739175688998 0.105985676642354 0 -0.40681305966448028 0.1040644119737489 0 -0.40048973208734412 0.09220181445464587 0 -0.42255069101833548 0.090832008897072283 0 -0.42492739175688998 0.105985676642354 0 -0.40048973208734412 0.09220181445464587 0 -0.42492739175688998 0.105985676642354 0 -0.42492739175688998 0.105985676642354 0 -0.40681305966448028 0.1040644119737489 0 -0.41483617717996818 0.1208077877150906 0 -0.40681305966448028 0.1040644119737489 0 -0.40646054046023961 0.1214422129747609 0 -0.41483617717996818 0.1208077877150906 0 -0.42492739175688998 0.105985676642354 0 -0.41483617717996818 0.1208077877150906 0 -0.42946566619025389 0.13492137804746959 0 -0.42492739175688998 0.105985676642354 0 -0.44979796285638229 0.1200137189835848 0 -0.42946566619025389 0.13492137804746959 0 -0.42492739175688998 0.105985676642354 0 -0.42946566619025389 0.13492137804746959 0 -0.42492739175688998 0.105985676642354 0 -0.44979796285638229 0.1200137189835848 0 -0.44372183692042949 0.095274741791683493 0 -0.46632910603236438 0.1140491076286433 0 -0.47596612271260502 0.096787452453593256 0 -0.42492739175688998 0.105985676642354 0 -0.44979796285638229 0.1200137189835848 0 -0.44372183692042949 0.095274741791683493 0 -0.44979796285638229 0.1200137189835848 0 -0.44372183692042949 0.095274741791683493 0 -0.46632910603236438 0.1140491076286433 0 -0.44979796285638229 0.1200137189835848 0 -0.46632910603236438 0.1140491076286433 0 -0.47466853395587438 0.13404176132481599 0 -0.44372183692042949 0.095274741791683493 0 -0.456486227970192 0.07962137407038837 0 -0.47596612271260502 0.096787452453593256 0 -0.42577097689869792 0.056220778835308037 0 -0.43768045756908891 0.074503198037937313 0 -0.45027789984917821 0.06258741896801194 0 -0.43768045756908891 0.074503198037937313 0 -0.45027789984917821 0.06258741896801194 0 -0.456486227970192 0.07962137407038837 0 -0.44372183692042949 0.095274741791683493 0 -0.43768045756908891 0.074503198037937313 0 -0.456486227970192 0.07962137407038837 0 -0.45027789984917821 0.06258741896801194 0 -0.456486227970192 0.07962137407038837 0 -0.47478482279965839 0.068954059100715823 0 -0.45027789984917821 0.06258741896801194 0 -0.47478482279965839 0.068954059100715823 0 -0.456486227970192 0.07962137407038837 0 -0.47478482279965839 0.068954059100715823 0 -0.47596612271260502 0.096787452453593256 0 -0.47478482279965839 0.068954059100715823 0 -0.5 0.08140131525993255 0 -0.47596612271260502 0.096787452453593256 0 -0.47478482279965839 0.068954059100715823 0 -0.5 0.08140131525993255 0 -0.48967027761566589 0.064289772438493584 0 -0.5 0.052600924308358443 0 -0.5 0.08140131525993255 0 -0.48967027761566589 0.064289772438493584 0 -0.46632910603236438 0.1140491076286433 0 -0.48376532719256532 0.1192992830138926 0 -0.47466853395587438 0.13404176132481599 0 -0.46632910603236438 0.1140491076286433 0 -0.48376532719256532 0.1192992830138926 0 -0.47596612271260502 0.096787452453593256 0 -0.5 0.08140131525993255 0 -0.47596612271260502 0.096787452453593256 0 -0.5 0.1102017062115067 0 -0.48376532719256532 0.1192992830138926 0 -0.47596612271260502 0.096787452453593256 0 -0.5 0.1102017062115067 0 -0.48376532719256532 0.1192992830138926 0 -0.5 0.1102017062115067 0 -0.5 0.13900209716308071 0 -0.5 0.13900209716308071 0 -0.47466853395587438 0.13404176132481599 0 -0.5 0.14806980366604719 0 -0.48376532719256532 0.1192992830138926 0 -0.5 0.13900209716308071 0 -0.47466853395587438 0.13404176132481599 0 -0.47466853395587438 0.13404176132481599 0 -0.47897083358218662 0.15547490098250791 0 -0.46206584612615659 0.15863459700698221 0 -0.47897083358218662 0.15547490098250791 0 -0.5 0.14806980366604719 0 -0.49081967565663082 0.15960029383244409 0 -0.47466853395587438 0.13404176132481599 0 -0.47897083358218662 0.15547490098250791 0 -0.5 0.14806980366604719 0 -0.47466853395587438 0.13404176132481599 0 -0.5 0.14806980366604719 0 -0.5 0.14806980366604719 0 -0.5 0.16780248811465481 0 -0.49081967565663082 0.15960029383244409 0 -0.5 0.16780248811465481 0 -0.49081967565663082 0.15960029383244409 0 -0.47972099600338741 0.1773227043961812 0 -0.5 0.16780248811465481 0 -0.47972099600338741 0.1773227043961812 0 -0.5 0.1966028790662287 0 -0.47897083358218662 0.15547490098250791 0 -0.47972099600338741 0.1773227043961812 0 -0.46206584612615659 0.15863459700698221 0 -0.47897083358218662 0.15547490098250791 0 -0.49081967565663082 0.15960029383244409 0 -0.47972099600338741 0.1773227043961812 0 -0.47972099600338741 0.1773227043961812 0 -0.46206584612615659 0.15863459700698221 0 -0.45508856537640929 0.17862198996565251 0 -0.47972099600338741 0.1773227043961812 0 -0.45508856537640929 0.17862198996565251 0 -0.46140074274686788 0.19952559332949871 0 -0.45508856537640929 0.17862198996565251 0 -0.4385422150569831 0.19279278085770049 0 -0.43400394062361852 0.16385707945258501 0 -0.46206584612615659 0.15863459700698221 0 -0.45508856537640929 0.17862198996565251 0 -0.43400394062361852 0.16385707945258501 0 -0.46206584612615659 0.15863459700698221 0 -0.44994220721546369 0.1424891459201505 0 -0.43400394062361852 0.16385707945258501 0 -0.44994220721546369 0.1424891459201505 0 -0.42946566619025389 0.13492137804746959 0 -0.43400394062361852 0.16385707945258501 0 -0.44979796285638229 0.1200137189835848 0 -0.44994220721546369 0.1424891459201505 0 -0.42946566619025389 0.13492137804746959 0 -0.44979796285638229 0.1200137189835848 0 -0.47466853395587438 0.13404176132481599 0 -0.44994220721546369 0.1424891459201505 0 -0.44979796285638229 0.1200137189835848 0 -0.47466853395587438 0.13404176132481599 0 -0.47466853395587438 0.13404176132481599 0 -0.46206584612615659 0.15863459700698221 0 -0.44994220721546369 0.1424891459201505 0 -0.48564723922501901 0.23723790733276631 0 -0.46706786538544731 0.24730017438542959 0 -0.48477689619124198 0.25401214588668991 0 -0.48564723922501901 0.23723790733276631 0 -0.46924395170856148 0.22834000892558101 0 -0.46706786538544731 0.24730017438542959 0 -0.48564723922501901 0.23723790733276631 0 -0.48477689619124198 0.25401214588668991 0 -0.5 0.25420366096937652 0 -0.48564723922501901 0.23723790733276631 0 -0.5 0.22540327001780261 0 -0.5 0.25420366096937652 0 -0.48564723922501901 0.23723790733276631 0 -0.5 0.22540327001780261 0 -0.48016133774130582 0.20947912353118039 0 -0.48564723922501901 0.23723790733276631 0 -0.46924395170856148 0.22834000892558101 0 -0.48016133774130582 0.20947912353118039 0 -0.47972099600338741 0.1773227043961812 0 -0.48016133774130582 0.20947912353118039 0 -0.5 0.1966028790662287 0 -0.47972099600338741 0.1773227043961812 0 -0.48016133774130582 0.20947912353118039 0 -0.46140074274686788 0.19952559332949871 0 -0.46924395170856148 0.22834000892558101 0 -0.48016133774130582 0.20947912353118039 0 -0.46055816081325768 0.21815655250284191 0 -0.5 0.22540327001780261 0 -0.48016133774130582 0.20947912353118039 0 -0.5 0.1966028790662287 0 -0.47972099600338741 0.1773227043961812 0 -0.46140074274686788 0.19952559332949871 0 -0.45508856537640929 0.17862198996565251 0 -0.46140074274686788 0.19952559332949871 0 -0.4385422150569831 0.19279278085770049 0 -0.46140074274686788 0.19952559332949871 0 -0.44308048949034817 0.22172848226281591 0 -0.46140074274686788 0.19952559332949871 0 -0.4385422150569831 0.19279278085770049 0 -0.44308048949034817 0.22172848226281591 0 -0.4385422150569831 0.19279278085770049 0 -0.44308048949034817 0.22172848226281591 0 -0.46140074274686788 0.19952559332949871 0 -0.46055816081325768 0.21815655250284191 0 -0.44308048949034817 0.22172848226281591 0 -0.48016133774130582 0.20947912353118039 0 -0.46140074274686788 0.19952559332949871 0 -0.46055816081325768 0.21815655250284191 0 -0.46055816081325768 0.21815655250284191 0 -0.45622708656260852 0.2321952552632012 0 -0.44308048949034817 0.22172848226281591 0 -0.46924395170856148 0.22834000892558101 0 -0.46055816081325768 0.21815655250284191 0 -0.45622708656260852 0.2321952552632012 0 -0.45622708656260852 0.2321952552632012 0 -0.44308048949034817 0.22172848226281591 0 -0.4468537577718848 0.24578656114699779 0 -0.44308048949034817 0.22172848226281591 0 -0.4468537577718848 0.24578656114699779 0 -0.44308048949034817 0.22172848226281591 0 -0.4468537577718848 0.24578656114699779 0 -0.43122832758572438 0.2360924886279826 0 -0.4468537577718848 0.24578656114699779 0 -0.43122832758572438 0.2360924886279826 0 -0.4359761124487716 0.25737820880338202 0 -0.46924395170856148 0.22834000892558101 0 -0.45622708656260852 0.2321952552632012 0 -0.46706786538544731 0.24730017438542959 0 -0.45622708656260852 0.2321952552632012 0 -0.4468537577718848 0.24578656114699779 0 -0.46706786538544731 0.24730017438542959 0 -0.41881121939287302 0.2387466630996502 0 -0.43122832758572438 0.2360924886279826 0 -0.41279186945260171 0.25843620989219313 0 -0.41120729079074531 0.244333338263414 0 -0.40201382394766128 0.2425875868555146 0 -0.41279186945260171 0.25843620989219313 0 -0.41120729079074531 0.244333338263414 0 -0.41881121939287302 0.2387466630996502 0 -0.41279186945260171 0.25843620989219313 0 -0.41010784733696132 0.23779431442549009 0 -0.41881121939287302 0.2387466630996502 0 -0.41298789413747827 0.22924951945193059 0 -0.41120729079074531 0.244333338263414 0 -0.41010784733696132 0.23779431442549009 0 -0.40201382394766128 0.2425875868555146 0 -0.41120729079074531 0.244333338263414 0 -0.41010784733696132 0.23779431442549009 0 -0.41881121939287302 0.2387466630996502 0 -0.43122832758572438 0.2360924886279826 0 -0.4359761124487716 0.25737820880338202 0 -0.43122832758572438 0.2360924886279826 0 -0.41279186945260171 0.25843620989219313 0 -0.41881121939287302 0.2387466630996502 0 -0.43122832758572438 0.2360924886279826 0 -0.42131425450856419 0.22836268790898109 0 -0.43122832758572438 0.2360924886279826 0 -0.42767427371944899 0.22015861667124489 0 -0.42131425450856419 0.22836268790898109 0 -0.43122832758572438 0.2360924886279826 0 -0.42767427371944899 0.22015861667124489 0 -0.44308048949034817 0.22172848226281591 0 -0.43122832758572438 0.2360924886279826 0 -0.42767427371944899 0.22015861667124489 0 -0.44308048949034817 0.22172848226281591 0 -0.43122832758572438 0.2360924886279826 0 -0.42767427371944899 0.22015861667124489 0 -0.42131425450856419 0.22836268790898109 0 -0.4158695577072975 0.21756615169409821 0 -0.42131425450856419 0.22836268790898109 0 -0.41298789413747827 0.22924951945193059 0 -0.4158695577072975 0.21756615169409821 0 -0.41881121939287302 0.2387466630996502 0 -0.42131425450856419 0.22836268790898109 0 -0.41298789413747827 0.22924951945193059 0 -0.41010784733696132 0.23779431442549009 0 -0.41298789413747827 0.22924951945193059 0 -0.40346965788813499 0.2313372060740746 0 -0.41298789413747827 0.22924951945193059 0 -0.4039334185785009 0.2217089988276465 0 -0.40346965788813499 0.2313372060740746 0 -0.41298789413747827 0.22924951945193059 0 -0.4158695577072975 0.21756615169409821 0 -0.4039334185785009 0.2217089988276465 0 -0.4158695577072975 0.21756615169409821 0 -0.42544245259016322 0.20527356019366649 0 -0.41114630395948082 0.2018260055918297 0 -0.4158695577072975 0.21756615169409821 0 -0.41114630395948082 0.2018260055918297 0 -0.40578540021107018 0.21233568139004319 0 -0.4158695577072975 0.21756615169409821 0 -0.40578540021107018 0.21233568139004319 0 -0.4039334185785009 0.2217089988276465 0 -0.42767427371944899 0.22015861667124489 0 -0.4158695577072975 0.21756615169409821 0 -0.42544245259016322 0.20527356019366649 0 -0.4385422150569831 0.19279278085770049 0 -0.44308048949034817 0.22172848226281591 0 -0.42544245259016322 0.20527356019366649 0 -0.44308048949034817 0.22172848226281591 0 -0.42767427371944899 0.22015861667124489 0 -0.42544245259016322 0.20527356019366649 0 -0.4385422150569831 0.19279278085770049 0 -0.42544245259016322 0.20527356019366649 0 -0.4188765019150294 0.18371843155497011 0 -0.41114630395948082 0.2018260055918297 0 -0.4051771110941596 0.19029435899683469 0 -0.4188765019150294 0.18371843155497011 0 -0.42544245259016322 0.20527356019366649 0 -0.41114630395948082 0.2018260055918297 0 -0.4188765019150294 0.18371843155497011 0 -0.41114630395948082 0.2018260055918297 0 -0.4051771110941596 0.19029435899683469 0 -0.39968039090765889 0.2036220258499763 0 -0.4051771110941596 0.19029435899683469 0 -0.39292895889351959 0.19237363606777719 0 -0.39968039090765889 0.2036220258499763 0 -0.39292895889351959 0.19237363606777719 0 -0.38762796817934181 0.20498389653189061 0 -0.39968039090765889 0.2036220258499763 0 -0.37864064895668309 0.19837989903975889 0 -0.38762796817934181 0.20498389653189061 0 -0.38402015791595973 0.18322882924494679 0 -0.39292895889351959 0.19237363606777719 0 -0.38762796817934181 0.20498389653189061 0 -0.38402015791595973 0.18322882924494679 0 -0.38762796817934181 0.20498389653189061 0 -0.38402015791595973 0.18322882924494679 0 -0.37864064895668309 0.19837989903975889 0 -0.38402015791595973 0.18322882924494679 0 -0.3704555555390836 0.19211962862246479 0 -0.38762796817934181 0.20498389653189061 0 -0.38329283157865002 0.2150592236849308 0 -0.39123577844272339 0.2267389638188344 0 -0.38762796817934181 0.20498389653189061 0 -0.39123577844272339 0.2267389638188344 0 -0.38762796817934181 0.20498389653189061 0 -0.37945395089533751 0.207517412808953 0 -0.38329283157865002 0.2150592236849308 0 -0.37864064895668309 0.19837989903975889 0 -0.38762796817934181 0.20498389653189061 0 -0.37945395089533751 0.207517412808953 0 -0.37864064895668309 0.19837989903975889 0 -0.37945395089533751 0.207517412808953 0 -0.37145183611379129 0.20404661419699729 0 -0.37945395089533751 0.207517412808953 0 -0.38329283157865002 0.2150592236849308 0 -0.37350329825249279 0.2150731898125457 0 -0.38762796817934181 0.20498389653189061 0 -0.39739102448081609 0.21381241768777201 0 -0.39123577844272339 0.2267389638188344 0 -0.38762796817934181 0.20498389653189061 0 -0.39739102448081609 0.21381241768777201 0 -0.39968039090765889 0.2036220258499763 0 -0.39739102448081609 0.21381241768777201 0 -0.39968039090765889 0.2036220258499763 0 -0.40578540021107018 0.21233568139004319 0 -0.41114630395948082 0.2018260055918297 0 -0.39968039090765889 0.2036220258499763 0 -0.40578540021107018 0.21233568139004319 0 -0.39739102448081609 0.21381241768777201 0 -0.40578540021107018 0.21233568139004319 0 -0.4039334185785009 0.2217089988276465 0 -0.40346965788813499 0.2313372060740746 0 -0.39123577844272339 0.2267389638188344 0 -0.40201382394766128 0.2425875868555146 0 -0.4039334185785009 0.2217089988276465 0 -0.40346965788813499 0.2313372060740746 0 -0.39123577844272339 0.2267389638188344 0 -0.39123577844272339 0.2267389638188344 0 -0.39324031971491158 0.23882633179893931 0 -0.39739102448081609 0.21381241768777201 0 -0.4039334185785009 0.2217089988276465 0 -0.39123577844272339 0.2267389638188344 0 -0.38329283157865002 0.2150592236849308 0 -0.39123577844272339 0.2267389638188344 0 -0.38329283157865002 0.2150592236849308 0 -0.39123577844272339 0.2267389638188344 0 -0.37565668076706632 0.22879299734290351 0 -0.38329283157865002 0.2150592236849308 0 -0.37565668076706632 0.22879299734290351 0 -0.37350329825249279 0.2150731898125457 0 -0.39123577844272339 0.2267389638188344 0 -0.37565668076706632 0.22879299734290351 0 -0.38487056722633772 0.2347835915239587 0 -0.39123577844272339 0.2267389638188344 0 -0.38487056722633772 0.2347835915239587 0 -0.39324031971491158 0.23882633179893931 0 -0.37565668076706632 0.22879299734290351 0 -0.38487056722633772 0.2347835915239587 0 -0.38029180335294221 0.24586642203902559 0 -0.38487056722633772 0.2347835915239587 0 -0.38029180335294221 0.24586642203902559 0 -0.39324031971491158 0.23882633179893931 0 -0.38029180335294221 0.24586642203902559 0 -0.39294454383724442 0.2479356906039622 0 -0.39324031971491158 0.23882633179893931 0 -0.39123577844272339 0.2267389638188344 0 -0.39324031971491158 0.23882633179893931 0 -0.40201382394766128 0.2425875868555146 0 -0.39123577844272339 0.2267389638188344 0 -0.40201382394766128 0.2425875868555146 0 -0.39294454383724442 0.2479356906039622 0 -0.39324031971491158 0.23882633179893931 0 -0.40201382394766128 0.2425875868555146 0 -0.41010784733696132 0.23779431442549009 0 -0.40346965788813499 0.2313372060740746 0 -0.40201382394766128 0.2425875868555146 0 -0.39294454383724442 0.2479356906039622 0 -0.40201382394766128 0.2425875868555146 0 -0.4010632208850578 0.25428521508771351 0 -0.40792016555059701 0.1485615235137534 0 -0.42946566619025389 0.13492137804746959 0 -0.4175206763244288 0.16119103480064001 0 -0.41483617717996818 0.1208077877150906 0 -0.40837024861401577 0.1329332347849333 0 -0.42946566619025389 0.13492137804746959 0 -0.40792016555059701 0.1485615235137534 0 -0.40837024861401577 0.1329332347849333 0 -0.42946566619025389 0.13492137804746959 0 -0.40646054046023961 0.1214422129747609 0 -0.41483617717996818 0.1208077877150906 0 -0.40837024861401577 0.1329332347849333 0 -0.42946566619025389 0.13492137804746959 0 -0.43400394062361852 0.16385707945258501 0 -0.42946566619025389 0.13492137804746959 0 -0.43400394062361852 0.16385707945258501 0 -0.4175206763244288 0.16119103480064001 0 -0.43400394062361852 0.16385707945258501 0 -0.4188765019150294 0.18371843155497011 0 -0.4175206763244288 0.16119103480064001 0 -0.4385422150569831 0.19279278085770049 0 -0.43400394062361852 0.16385707945258501 0 -0.4385422150569831 0.19279278085770049 0 -0.43400394062361852 0.16385707945258501 0 -0.4188765019150294 0.18371843155497011 0 -0.4051771110941596 0.19029435899683469 0 -0.4188765019150294 0.18371843155497011 0 -0.40108326281261641 0.16971457982235319 0 -0.4188765019150294 0.18371843155497011 0 -0.4175206763244288 0.16119103480064001 0 -0.40108326281261641 0.16971457982235319 0 -0.40792016555059701 0.1485615235137534 0 -0.4175206763244288 0.16119103480064001 0 -0.40108326281261641 0.16971457982235319 0 -0.40792016555059701 0.1485615235137534 0 -0.40108326281261641 0.16971457982235319 0 -0.39732089012652833 0.15261257377966209 0 -0.40108326281261641 0.16971457982235319 0 -0.38483229310050771 0.1518624228767923 0 -0.39732089012652833 0.15261257377966209 0 -0.40108326281261641 0.16971457982235319 0 -0.38483229310050771 0.1518624228767923 0 -0.39292895889351959 0.19237363606777719 0 -0.40108326281261641 0.16971457982235319 0 -0.38402015791595973 0.18322882924494679 0 -0.4051771110941596 0.19029435899683469 0 -0.39292895889351959 0.19237363606777719 0 -0.40108326281261641 0.16971457982235319 0 -0.38402015791595973 0.18322882924494679 0 -0.38041234765257559 0.16147376195800339 0 -0.37101691200486098 0.18190449326217289 0 -0.38402015791595973 0.18322882924494679 0 -0.38041234765257559 0.16147376195800339 0 -0.38402015791595973 0.18322882924494679 0 -0.37101691200486098 0.18190449326217289 0 -0.3704555555390836 0.19211962862246479 0 -0.40108326281261641 0.16971457982235319 0 -0.38402015791595973 0.18322882924494679 0 -0.38041234765257559 0.16147376195800339 0 -0.38041234765257559 0.16147376195800339 0 -0.37101691200486098 0.18190449326217289 0 -0.40108326281261641 0.16971457982235319 0 -0.38041234765257559 0.16147376195800339 0 -0.38483229310050771 0.1518624228767923 0 -0.38041234765257559 0.16147376195800339 0 -0.38483229310050771 0.1518624228767923 0 -0.38041234765257559 0.16147376195800339 0 -0.37747878107045107 0.14378437872390501 0 -0.38483229310050771 0.1518624228767923 0 -0.38041234765257559 0.16147376195800339 0 -0.37747878107045107 0.14378437872390501 0 -0.38041234765257559 0.16147376195800339 0 -0.37747878107045107 0.14378437872390501 0 -0.36942484112729951 0.1540534382229756 0 -0.38483229310050771 0.1518624228767923 0 -0.39080347407612498 0.13531425893852081 0 -0.38249144571906663 0.13695413661165751 0 -0.37747878107045107 0.14378437872390501 0 -0.38483229310050771 0.1518624228767923 0 -0.38249144571906663 0.13695413661165751 0 -0.37747878107045107 0.14378437872390501 0 -0.38483229310050771 0.1518624228767923 0 -0.38483229310050771 0.1518624228767923 0 -0.39868466981856931 0.14266411637854121 0 -0.3958226763824943 0.12796341742527079 0 -0.38483229310050771 0.1518624228767923 0 -0.39732089012652833 0.15261257377966209 0 -0.39868466981856931 0.14266411637854121 0 -0.40792016555059701 0.1485615235137534 0 -0.40837024861401577 0.1329332347849333 0 -0.39868466981856931 0.14266411637854121 0 -0.40792016555059701 0.1485615235137534 0 -0.39732089012652833 0.15261257377966209 0 -0.39868466981856931 0.14266411637854121 0 -0.40646054046023961 0.1214422129747609 0 -0.40837024861401577 0.1329332347849333 0 -0.3958226763824943 0.12796341742527079 0 -0.40837024861401577 0.1329332347849333 0 -0.39868466981856931 0.14266411637854121 0 -0.3958226763824943 0.12796341742527079 0 -0.38955173101803708 0.1208915186452328 0 -0.39080347407612498 0.13531425893852081 0 -0.3958226763824943 0.12796341742527079 0 -0.38483229310050771 0.1518624228767923 0 -0.39080347407612498 0.13531425893852081 0 -0.3958226763824943 0.12796341742527079 0 -0.38483229310050771 0.1518624228767923 0 -0.3958226763824943 0.12796341742527079 0 -0.38056257019442291 0.11797064620599371 0 -0.39080347407612498 0.13531425893852081 0 -0.38193942842029999 0.12811118696371451 0 -0.37747878107045107 0.14378437872390501 0 -0.38249144571906663 0.13695413661165751 0 -0.37390022369158532 0.1222057060986861 0 -0.38056257019442291 0.11797064620599371 0 -0.39080347407612498 0.13531425893852081 0 -0.37747878107045107 0.14378437872390501 0 -0.37390022369158532 0.1222057060986861 0 -0.39080347407612498 0.13531425893852081 0 -0.38249144571906663 0.13695413661165751 0 -0.38193942842029999 0.12811118696371451 0 -0.38249144571906663 0.13695413661165751 0 -0.38193942842029999 0.12811118696371451 0 -0.37390022369158532 0.1222057060986861 0 -0.37747878107045107 0.14378437872390501 0 -0.3616757251158621 0.12642426790475991 0 -0.37747878107045107 0.14378437872390501 0 -0.3616757251158621 0.12642426790475991 0 -0.37390022369158532 0.1222057060986861 0 -0.37747878107045107 0.14378437872390501 0 -0.3616757251158621 0.12642426790475991 0 -0.35821238267705607 0.14562181663839829 0 -0.35200747485442851 0.1274103739483739 0 -0.35821238267705607 0.14562181663839829 0 -0.3616757251158621 0.12642426790475991 0 -0.35200747485442851 0.1274103739483739 0 -0.35821238267705607 0.14562181663839829 0 -0.35200747485442851 0.1274103739483739 0 -0.35821238267705607 0.14562181663839829 0 -0.34361917399200992 0.1414874166310166 0 -0.35821238267705607 0.14562181663839829 0 -0.36185791195927042 0.16469695290212141 0 -0.34416825931320633 0.15786867608720179 0 -0.35821238267705607 0.14562181663839829 0 -0.34416825931320633 0.15786867608720179 0 -0.34361917399200992 0.1414874166310166 0 -0.35821238267705607 0.14562181663839829 0 -0.36942484112729951 0.1540534382229756 0 -0.36185791195927042 0.16469695290212141 0 -0.37747878107045107 0.14378437872390501 0 -0.35821238267705607 0.14562181663839829 0 -0.36942484112729951 0.1540534382229756 0 -0.38041234765257559 0.16147376195800339 0 -0.36185791195927042 0.16469695290212141 0 -0.37101691200486098 0.18190449326217289 0 -0.38041234765257559 0.16147376195800339 0 -0.36942484112729951 0.1540534382229756 0 -0.36185791195927042 0.16469695290212141 0 -0.36185791195927042 0.16469695290212141 0 -0.37101691200486098 0.18190449326217289 0 -0.35689960129818488 0.17980925830125391 0 -0.37101691200486098 0.18190449326217289 0 -0.35689960129818488 0.17980925830125391 0 -0.36034162450920998 0.193659924254378 0 -0.35689960129818488 0.17980925830125391 0 -0.34646227175291477 0.1710837547357078 0 -0.34099203748117662 0.19014499088785561 0 -0.36185791195927042 0.16469695290212141 0 -0.34646227175291477 0.1710837547357078 0 -0.34416825931320633 0.15786867608720179 0 -0.36185791195927042 0.16469695290212141 0 -0.35689960129818488 0.17980925830125391 0 -0.34646227175291477 0.1710837547357078 0 -0.34416825931320633 0.15786867608720179 0 -0.33134359267051428 0.17227294322401429 0 -0.32351422282747261 0.1520491723919524 0 -0.34646227175291477 0.1710837547357078 0 -0.34416825931320633 0.15786867608720179 0 -0.33134359267051428 0.17227294322401429 0 -0.33134359267051428 0.17227294322401429 0 -0.34099203748117662 0.19014499088785561 0 -0.31845860852012919 0.19186954912095799 0 -0.34646227175291477 0.1710837547357078 0 -0.33134359267051428 0.17227294322401429 0 -0.34099203748117662 0.19014499088785561 0 -0.33134359267051428 0.17227294322401429 0 -0.31845860852012919 0.19186954912095799 0 -0.31237005072530721 0.17347429295875391 0 -0.32351422282747261 0.1520491723919524 0 -0.30261532748196651 0.1629102665937707 0 -0.31237005072530721 0.17347429295875391 0 -0.33134359267051428 0.17227294322401429 0 -0.32351422282747261 0.1520491723919524 0 -0.31237005072530721 0.17347429295875391 0 -0.32351422282747261 0.1520491723919524 0 -0.31237005072530721 0.17347429295875391 0 -0.32351422282747261 0.1520491723919524 0 -0.31515948897435409 0.14158971913247231 0 -0.334658394929638 0.13062405182515091 0 -0.32351422282747261 0.1520491723919524 0 -0.31515948897435409 0.14158971913247231 0 -0.30477353587736578 0.149645030277474 0 -0.31833074637889308 0.1296133023468129 0 -0.334658394929638 0.13062405182515091 0 -0.32353886662367859 0.1209842734201287 0 -0.31515948897435409 0.14158971913247231 0 -0.31833074637889308 0.1296133023468129 0 -0.334658394929638 0.13062405182515091 0 -0.31515948897435409 0.14158971913247231 0 -0.31833074637889308 0.1296133023468129 0 -0.3090503483835022 0.13398498222008451 0 -0.35200747485442851 0.1274103739483739 0 -0.334658394929638 0.13062405182515091 0 -0.34361917399200992 0.1414874166310166 0 -0.32351422282747261 0.1520491723919524 0 -0.334658394929638 0.13062405182515091 0 -0.34416825931320633 0.15786867608720179 0 -0.32351422282747261 0.1520491723919524 0 -0.34361917399200992 0.1414874166310166 0 -0.32351422282747261 0.1520491723919524 0 -0.334658394929638 0.13062405182515091 0 -0.34361917399200992 0.1414874166310166 0 -0.36502312147435351 0.24619534276921981 0 -0.34079662044490161 0.23168150955542949 0 -0.34884269561760822 0.25954676056681569 0 -0.37565668076706632 0.22879299734290351 0 -0.38029180335294221 0.24586642203902559 0 -0.36502312147435351 0.24619534276921981 0 -0.36502312147435351 0.24619534276921981 0 -0.36268237299178169 0.219927633511799 0 -0.37565668076706632 0.22879299734290351 0 -0.36502312147435351 0.24619534276921981 0 -0.36268237299178169 0.219927633511799 0 -0.37565668076706632 0.22879299734290351 0 -0.36268237299178169 0.219927633511799 0 -0.37350329825249279 0.2150731898125457 0 -0.36268237299178169 0.219927633511799 0 -0.34693050549554733 0.20866401174560431 0 -0.34079662044490161 0.23168150955542949 0 -0.36502312147435351 0.24619534276921981 0 -0.36268237299178169 0.219927633511799 0 -0.34079662044490161 0.23168150955542949 0 -0.36268237299178169 0.219927633511799 0 -0.34693050549554733 0.20866401174560431 0 -0.36034162450920998 0.193659924254378 0 -0.36268237299178169 0.219927633511799 0 -0.37350329825249279 0.2150731898125457 0 -0.37145183611379129 0.20404661419699729 0 -0.36268237299178169 0.219927633511799 0 -0.36034162450920998 0.193659924254378 0 -0.36268237299178169 0.219927633511799 0 -0.37145183611379129 0.20404661419699729 0 -0.36034162450920998 0.193659924254378 0 -0.37945395089533751 0.207517412808953 0 -0.37350329825249279 0.2150731898125457 0 -0.37145183611379129 0.20404661419699729 0 -0.37145183611379129 0.20404661419699729 0 -0.3704555555390836 0.19211962862246479 0 -0.36034162450920998 0.193659924254378 0 -0.37864064895668309 0.19837989903975889 0 -0.37145183611379129 0.20404661419699729 0 -0.3704555555390836 0.19211962862246479 0 -0.37101691200486098 0.18190449326217289 0 -0.3704555555390836 0.19211962862246479 0 -0.36034162450920998 0.193659924254378 0 -0.35689960129818488 0.17980925830125391 0 -0.36034162450920998 0.193659924254378 0 -0.34099203748117662 0.19014499088785561 0 -0.34693050549554733 0.20866401174560431 0 -0.36034162450920998 0.193659924254378 0 -0.34099203748117662 0.19014499088785561 0 -0.34099203748117662 0.19014499088785561 0 -0.31845860852012919 0.19186954912095799 0 -0.32767935787808877 0.2108386437450146 0 -0.31845860852012919 0.19186954912095799 0 -0.32767935787808877 0.2108386437450146 0 -0.3054939798685945 0.21864656439864891 0 -0.34693050549554733 0.20866401174560431 0 -0.34099203748117662 0.19014499088785561 0 -0.32767935787808877 0.2108386437450146 0 -0.34693050549554733 0.20866401174560431 0 -0.32767935787808877 0.2108386437450146 0 -0.34079662044490161 0.23168150955542949 0 -0.32767935787808877 0.2108386437450146 0 -0.34079662044490161 0.23168150955542949 0 -0.32406078547265232 0.22733820868681109 0 -0.32767935787808877 0.2108386437450146 0 -0.32406078547265232 0.22733820868681109 0 -0.3054939798685945 0.21864656439864891 0 -0.32406078547265232 0.22733820868681109 0 -0.31446442801379021 0.24011835057568609 0 -0.3054939798685945 0.21864656439864891 0 -0.31446442801379021 0.24011835057568609 0 -0.33117357873461722 0.2499228471262179 0 -0.31486817053965671 0.259311730800519 0 -0.32406078547265232 0.22733820868681109 0 -0.31446442801379021 0.24011835057568609 0 -0.33117357873461722 0.2499228471262179 0 -0.34079662044490161 0.23168150955542949 0 -0.33117357873461722 0.2499228471262179 0 -0.34884269561760822 0.25954676056681569 0 -0.34079662044490161 0.23168150955542949 0 -0.32406078547265232 0.22733820868681109 0 -0.33117357873461722 0.2499228471262179 0 -0.29608417921845082 0.24557422084738381 0 -0.2850787007666703 0.2297156934959512 0 -0.27420087427913759 0.25212895866241708 0 -0.31446442801379021 0.24011835057568609 0 -0.29608417921845082 0.24557422084738381 0 -0.3054939798685945 0.21864656439864891 0 -0.31446442801379021 0.24011835057568609 0 -0.29608417921845082 0.24557422084738381 0 -0.31486817053965671 0.259311730800519 0 -0.29608417921845082 0.24557422084738381 0 -0.2850787007666703 0.2297156934959512 0 -0.3054939798685945 0.21864656439864891 0 -0.2850787007666703 0.2297156934959512 0 -0.28170888117771231 0.21148308108312769 0 -0.3054939798685945 0.21864656439864891 0 -0.28170888117771231 0.21148308108312769 0 -0.3054939798685945 0.21864656439864891 0 -0.29697750946982482 0.1933303255960524 0 -0.31845860852012919 0.19186954912095799 0 -0.3054939798685945 0.21864656439864891 0 -0.29697750946982482 0.1933303255960524 0 -0.28170888117771231 0.21148308108312769 0 -0.29697750946982482 0.1933303255960524 0 -0.27434273592015568 0.189396293642524 0 -0.28170888117771231 0.21148308108312769 0 -0.27434273592015568 0.189396293642524 0 -0.2623399943966378 0.2074572994922125 0 -0.27434273592015568 0.189396293642524 0 -0.2623399943966378 0.2074572994922125 0 -0.24625838967984681 0.181395420132927 0 -0.28170888117771231 0.21148308108312769 0 -0.2623399943966378 0.2074572994922125 0 -0.2660203666443911 0.23035230987337721 0 -0.2850787007666703 0.2297156934959512 0 -0.28170888117771231 0.21148308108312769 0 -0.2660203666443911 0.23035230987337721 0 -0.2623399943966378 0.2074572994922125 0 -0.2660203666443911 0.23035230987337721 0 -0.24252528348747809 0.22916606022967431 0 -0.2660203666443911 0.23035230987337721 0 -0.2531312179692447 0.24693268900981011 0 -0.27420087427913759 0.25212895866241708 0 -0.2660203666443911 0.23035230987337721 0 -0.2531312179692447 0.24693268900981011 0 -0.24252528348747809 0.22916606022967431 0 -0.2850787007666703 0.2297156934959512 0 -0.2660203666443911 0.23035230987337721 0 -0.27420087427913759 0.25212895866241708 0 -0.29230633043244691 0.15322403008629129 0 -0.2817408233713109 0.14577996464035611 0 -0.27005306044314842 0.15157933961078229 0 -0.29500282952645063 0.14350272785757881 0 -0.29230633043244691 0.15322403008629129 0 -0.28887222896253328 0.14355796826303821 0 -0.29500282952645063 0.14350272785757881 0 -0.28887222896253328 0.14355796826303821 0 -0.28999819187614889 0.139395092452163 0 -0.29230633043244691 0.15322403008629129 0 -0.2817408233713109 0.14577996464035611 0 -0.28887222896253328 0.14355796826303821 0 -0.28887222896253328 0.14355796826303821 0 -0.28384921670847008 0.14057195054326219 0 -0.28999819187614889 0.139395092452163 0 -0.2817408233713109 0.14577996464035611 0 -0.28887222896253328 0.14355796826303821 0 -0.28384921670847008 0.14057195054326219 0 -0.29809352627904651 0.13747165351035029 0 -0.28211707011644038 0.1240764000657079 0 -0.29336068829918638 0.12106823902018619 0 -0.29809352627904651 0.13747165351035029 0 -0.27366981837973858 0.1215369207226151 0 -0.28318426638040411 0.1336386931251394 0 -0.29809352627904651 0.13747165351035029 0 -0.27366981837973858 0.1215369207226151 0 -0.29809352627904651 0.13747165351035029 0 -0.27366981837973858 0.1215369207226151 0 -0.28211707011644038 0.1240764000657079 0 -0.28384921670847008 0.14057195054326219 0 -0.28318426638040411 0.1336386931251394 0 -0.28999819187614889 0.139395092452163 0 -0.29500282952645063 0.14350272785757881 0 -0.28999819187614889 0.139395092452163 0 -0.29809352627904651 0.13747165351035029 0 -0.28318426638040411 0.1336386931251394 0 -0.28999819187614889 0.139395092452163 0 -0.29809352627904651 0.13747165351035029 0 -0.29500282952645063 0.14350272785757881 0 -0.29809352627904651 0.13747165351035029 0 -0.29809352627904651 0.13747165351035029 0 -0.30266518468369569 0.14045433555745099 0 -0.3090503483835022 0.13398498222008451 0 -0.29500282952645063 0.14350272785757881 0 -0.29809352627904651 0.13747165351035029 0 -0.30266518468369569 0.14045433555745099 0 -0.29809352627904651 0.13747165351035029 0 -0.3090503483835022 0.13398498222008451 0 -0.30883371973111939 0.1165136267616633 0 -0.31833074637889308 0.1296133023468129 0 -0.3090503483835022 0.13398498222008451 0 -0.30883371973111939 0.1165136267616633 0 -0.29809352627904651 0.13747165351035029 0 -0.29336068829918638 0.12106823902018619 0 -0.30883371973111939 0.1165136267616633 0 -0.29809352627904651 0.13747165351035029 0 -0.30883371973111939 0.1165136267616633 0 -0.29809352627904651 0.13747165351035029 0 -0.30266518468369569 0.14045433555745099 0 -0.31515948897435409 0.14158971913247231 0 -0.30266518468369569 0.14045433555745099 0 -0.3090503483835022 0.13398498222008451 0 -0.32351422282747261 0.1520491723919524 0 -0.30477353587736578 0.149645030277474 0 -0.30261532748196651 0.1629102665937707 0 -0.31515948897435409 0.14158971913247231 0 -0.30266518468369569 0.14045433555745099 0 -0.30477353587736578 0.149645030277474 0 -0.29500282952645063 0.14350272785757881 0 -0.30266518468369569 0.14045433555745099 0 -0.30477353587736578 0.149645030277474 0 -0.29500282952645063 0.14350272785757881 0 -0.29230633043244691 0.15322403008629129 0 -0.30477353587736578 0.149645030277474 0 -0.29230633043244691 0.15322403008629129 0 -0.30477353587736578 0.149645030277474 0 -0.30261532748196651 0.1629102665937707 0 -0.30261532748196651 0.1629102665937707 0 -0.31237005072530721 0.17347429295875391 0 -0.29009887615105601 0.17547572910353429 0 -0.31845860852012919 0.19186954912095799 0 -0.29697750946982482 0.1933303255960524 0 -0.31237005072530721 0.17347429295875391 0 -0.29697750946982482 0.1933303255960524 0 -0.31237005072530721 0.17347429295875391 0 -0.29009887615105601 0.17547572910353429 0 -0.29697750946982482 0.1933303255960524 0 -0.27434273592015568 0.189396293642524 0 -0.29009887615105601 0.17547572910353429 0 -0.29230633043244691 0.15322403008629129 0 -0.29009887615105601 0.17547572910353429 0 -0.26928236005614692 0.16730972510960909 0 -0.29230633043244691 0.15322403008629129 0 -0.30261532748196651 0.1629102665937707 0 -0.29009887615105601 0.17547572910353429 0 -0.29230633043244691 0.15322403008629129 0 -0.26928236005614692 0.16730972510960909 0 -0.27005306044314842 0.15157933961078229 0 -0.29230633043244691 0.15322403008629129 0 -0.26928236005614692 0.16730972510960909 0 -0.27434273592015568 0.189396293642524 0 -0.29009887615105601 0.17547572910353429 0 -0.26928236005614692 0.16730972510960909 0 -0.27434273592015568 0.189396293642524 0 -0.26928236005614692 0.16730972510960909 0 -0.24625838967984681 0.181395420132927 0 -0.26928236005614692 0.16730972510960909 0 -0.24625838967984681 0.181395420132927 0 -0.26928236005614692 0.16730972510960909 0 -0.27005306044314842 0.15157933961078229 0 -0.24009106869969429 0.15802268964771349 0 -0.26928236005614692 0.16730972510960909 0 -0.24009106869969429 0.15802268964771349 0 -0.24625838967984681 0.181395420132927 0 -0.27005306044314842 0.15157933961078229 0 -0.25688044353971651 0.13977980518516439 0 -0.24009106869969429 0.15802268964771349 0 -0.27005306044314842 0.15157933961078229 0 -0.27545057295195341 0.14048803423561421 0 -0.25688044353971651 0.13977980518516439 0 -0.2817408233713109 0.14577996464035611 0 -0.27005306044314842 0.15157933961078229 0 -0.27545057295195341 0.14048803423561421 0 -0.2817408233713109 0.14577996464035611 0 -0.28384921670847008 0.14057195054326219 0 -0.27545057295195341 0.14048803423561421 0 -0.27545057295195341 0.14048803423561421 0 -0.27283031897086979 0.1330258452896585 0 -0.25688044353971651 0.13977980518516439 0 -0.27283031897086979 0.1330258452896585 0 -0.25688044353971651 0.13977980518516439 0 -0.27366981837973858 0.1215369207226151 0 -0.28318426638040411 0.1336386931251394 0 -0.27283031897086979 0.1330258452896585 0 -0.27366981837973858 0.1215369207226151 0 -0.28318426638040411 0.1336386931251394 0 -0.27545057295195341 0.14048803423561421 0 -0.27283031897086979 0.1330258452896585 0 -0.28384921670847008 0.14057195054326219 0 -0.28318426638040411 0.1336386931251394 0 -0.27545057295195341 0.14048803423561421 0 -0.25688044353971651 0.13977980518516439 0 -0.27366981837973858 0.1215369207226151 0 -0.24904366568778949 0.12297968893121029 0 -0.25688044353971651 0.13977980518516439 0 -0.27366981837973858 0.1215369207226151 0 -0.25096589504962769 0.1067242250831951 0 -0.27366981837973858 0.1215369207226151 0 -0.24904366568778949 0.12297968893121029 0 -0.26340843163657129 0.1098467724110959 0 -0.25096589504962769 0.1067242250831951 0 -0.27366981837973858 0.1215369207226151 0 -0.25096589504962769 0.1067242250831951 0 -0.27366981837973858 0.1215369207226151 0 -0.25117752100816348 0.097584187418704199 0 -0.25914460312670862 0.099702102766160511 0 -0.25704971966588719 0.09142976905552154 0 -0.25117752100816348 0.097584187418704199 0 -0.25384145955287618 0.10207045342164239 0 -0.25914460312670862 0.099702102766160511 0 -0.26340843163657129 0.1098467724110959 0 -0.25659216648426808 0.1040929022886484 0 -0.25096589504962769 0.1067242250831951 0 -0.25117752100816348 0.097584187418704199 0 -0.25384145955287618 0.10207045342164239 0 -0.25096589504962769 0.1067242250831951 0 -0.25659216648426808 0.1040929022886484 0 -0.25384145955287618 0.10207045342164239 0 -0.25914460312670862 0.099702102766160511 0 -0.25659216648426808 0.1040929022886484 0 -0.25384145955287618 0.10207045342164239 0 -0.25096589504962769 0.1067242250831951 0 -0.26279213770107518 0.1044659261700743 0 -0.25914460312670862 0.099702102766160511 0 -0.26841809126467148 0.10216576743800421 0 -0.26340843163657129 0.1098467724110959 0 -0.25659216648426808 0.1040929022886484 0 -0.26279213770107518 0.1044659261700743 0 -0.26340843163657129 0.1098467724110959 0 -0.26279213770107518 0.1044659261700743 0 -0.2662963839579251 0.10797973918418489 0 -0.25659216648426808 0.1040929022886484 0 -0.26279213770107518 0.1044659261700743 0 -0.25914460312670862 0.099702102766160511 0 -0.26505512416828148 0.095065426452622614 0 -0.25914460312670862 0.099702102766160511 0 -0.26841809126467148 0.10216576743800421 0 -0.26505512416828148 0.095065426452622614 0 -0.25914460312670862 0.099702102766160511 0 -0.25704971966588719 0.09142976905552154 0 -0.26505512416828148 0.095065426452622614 0 -0.27295632718692092 0.094046172841933853 0 -0.26841809126467148 0.10216576743800421 0 -0.27295632718692092 0.094046172841933853 0 -0.26841809126467148 0.10216576743800421 0 -0.2754074737158253 0.100352418363765 0 -0.26841809126467148 0.10216576743800421 0 -0.27566715936015812 0.1066560388907969 0 -0.2754074737158253 0.100352418363765 0 -0.26279213770107518 0.1044659261700743 0 -0.26841809126467148 0.10216576743800421 0 -0.2662963839579251 0.10797973918418489 0 -0.26841809126467148 0.10216576743800421 0 -0.2662963839579251 0.10797973918418489 0 -0.27082488729726878 0.1090959766809227 0 -0.26841809126467148 0.10216576743800421 0 -0.27082488729726878 0.1090959766809227 0 -0.27566715936015812 0.1066560388907969 0 -0.27566715936015812 0.1066560388907969 0 -0.28135382032949507 0.11227964415039771 0 -0.28267013093392612 0.1044533184395328 0 -0.27566715936015812 0.1066560388907969 0 -0.2754074737158253 0.100352418363765 0 -0.28267013093392612 0.1044533184395328 0 -0.2754074737158253 0.100352418363765 0 -0.28267013093392612 0.1044533184395328 0 -0.28160826529532601 0.094657105446939643 0 -0.27295632718692092 0.094046172841933853 0 -0.2754074737158253 0.100352418363765 0 -0.28160826529532601 0.094657105446939643 0 -0.27013418824679358 0.1142809210178579 0 -0.27390886426498151 0.1166438049668458 0 -0.27366981837973858 0.1215369207226151 0 -0.26340843163657129 0.1098467724110959 0 -0.27013418824679358 0.1142809210178579 0 -0.27366981837973858 0.1215369207226151 0 -0.2662963839579251 0.10797973918418489 0 -0.27082488729726878 0.1090959766809227 0 -0.27013418824679358 0.1142809210178579 0 -0.26340843163657129 0.1098467724110959 0 -0.2662963839579251 0.10797973918418489 0 -0.27013418824679358 0.1142809210178579 0 -0.27082488729726878 0.1090959766809227 0 -0.27013418824679358 0.1142809210178579 0 -0.27471821157450232 0.1129619857551553 0 -0.27013418824679358 0.1142809210178579 0 -0.27390886426498151 0.1166438049668458 0 -0.27471821157450232 0.1129619857551553 0 -0.27390886426498151 0.1166438049668458 0 -0.27471821157450232 0.1129619857551553 0 -0.2771132388588915 0.1177953923717549 0 -0.27566715936015812 0.1066560388907969 0 -0.27471821157450232 0.1129619857551553 0 -0.28135382032949507 0.11227964415039771 0 -0.27082488729726878 0.1090959766809227 0 -0.27566715936015812 0.1066560388907969 0 -0.27471821157450232 0.1129619857551553 0 -0.2771132388588915 0.1177953923717549 0 -0.2813642444565968 0.1187179975601852 0 -0.28135382032949507 0.11227964415039771 0 -0.27471821157450232 0.1129619857551553 0 -0.2771132388588915 0.1177953923717549 0 -0.28135382032949507 0.11227964415039771 0 -0.27864881912193479 0.1206157030193697 0 -0.27366981837973858 0.1215369207226151 0 -0.28211707011644038 0.1240764000657079 0 -0.27864881912193479 0.1206157030193697 0 -0.2771132388588915 0.1177953923717549 0 -0.2813642444565968 0.1187179975601852 0 -0.27864881912193479 0.1206157030193697 0 -0.2771132388588915 0.1177953923717549 0 -0.27366981837973858 0.1215369207226151 0 -0.27390886426498151 0.1166438049668458 0 -0.2771132388588915 0.1177953923717549 0 -0.27366981837973858 0.1215369207226151 0 -0.2771132388588915 0.1177953923717549 0 -0.27366981837973858 0.1215369207226151 0 -0.27864881912193479 0.1206157030193697 0 -0.28211707011644038 0.1240764000657079 0 -0.2813642444565968 0.1187179975601852 0 -0.28211707011644038 0.1240764000657079 0 -0.28599993141107571 0.1172095616790599 0 -0.29336068829918638 0.12106823902018619 0 -0.28211707011644038 0.1240764000657079 0 -0.2813642444565968 0.1187179975601852 0 -0.28599993141107571 0.1172095616790599 0 -0.28599993141107571 0.1172095616790599 0 -0.29336068829918638 0.12106823902018619 0 -0.29175629172775069 0.1102309327609016 0 -0.28599993141107571 0.1172095616790599 0 -0.29175629172775069 0.1102309327609016 0 -0.28135382032949507 0.11227964415039771 0 -0.2813642444565968 0.1187179975601852 0 -0.28599993141107571 0.1172095616790599 0 -0.28135382032949507 0.11227964415039771 0 -0.29175629172775069 0.1102309327609016 0 -0.28135382032949507 0.11227964415039771 0 -0.28267013093392612 0.1044533184395328 0 -0.28267013093392612 0.1044533184395328 0 -0.28160826529532601 0.094657105446939643 0 -0.29669539822419089 0.098858159176072935 0 -0.29175629172775069 0.1102309327609016 0 -0.28267013093392612 0.1044533184395328 0 -0.29669539822419089 0.098858159176072935 0 -0.29175629172775069 0.1102309327609016 0 -0.29669539822419089 0.098858159176072935 0 -0.30883371973111939 0.1165136267616633 0 -0.29669539822419089 0.098858159176072935 0 -0.30883371973111939 0.1165136267616633 0 -0.31957391318318978 0.095555600012975028 0 -0.29336068829918638 0.12106823902018619 0 -0.29175629172775069 0.1102309327609016 0 -0.30883371973111939 0.1165136267616633 0 -0.30854958912112201 0.071068293349567949 0 -0.30427551132657549 0.083804892254008681 0 -0.29552041768859832 0.069822192707915495 0 -0.30854958912112201 0.071068293349567949 0 -0.29552041768859832 0.069822192707915495 0 -0.30551316177856908 0.059237953287580893 0 -0.30854958912112201 0.071068293349567949 0 -0.30551316177856908 0.059237953287580893 0 -0.31926891213487257 0.06554120859545555 0 -0.30854958912112201 0.071068293349567949 0 -0.30427551132657549 0.083804892254008681 0 -0.31816994267699428 0.076935219902879187 0 -0.29669539822419089 0.098858159176072935 0 -0.30427551132657549 0.083804892254008681 0 -0.31957391318318978 0.095555600012975028 0 -0.30427551132657549 0.083804892254008681 0 -0.28914494326432122 0.084207413565497075 0 -0.29552041768859832 0.069822192707915495 0 -0.28160826529532601 0.094657105446939643 0 -0.29669539822419089 0.098858159176072935 0 -0.28914494326432122 0.084207413565497075 0 -0.29669539822419089 0.098858159176072935 0 -0.30427551132657549 0.083804892254008681 0 -0.28914494326432122 0.084207413565497075 0 -0.28160826529532601 0.094657105446939643 0 -0.28914494326432122 0.084207413565497075 0 -0.2760883309312504 0.08514698785226521 0 -0.28914494326432122 0.084207413565497075 0 -0.28068173611998659 0.072955143955780594 0 -0.2760883309312504 0.08514698785226521 0 -0.29552041768859832 0.069822192707915495 0 -0.28068173611998659 0.072955143955780594 0 -0.28857975710105982 0.053851411808675823 0 -0.28914494326432122 0.084207413565497075 0 -0.29552041768859832 0.069822192707915495 0 -0.28068173611998659 0.072955143955780594 0 -0.28068173611998659 0.072955143955780594 0 -0.26778925883045113 0.074144500244708714 0 -0.27292346205668011 0.058126945311303399 0 -0.28068173611998659 0.072955143955780594 0 -0.26778925883045113 0.074144500244708714 0 -0.2760883309312504 0.08514698785226521 0 -0.27295632718692092 0.094046172841933853 0 -0.28160826529532601 0.094657105446939643 0 -0.2760883309312504 0.08514698785226521 0 -0.26778925883045113 0.074144500244708714 0 -0.2760883309312504 0.08514698785226521 0 -0.26583414078984963 0.086555606315837752 0 -0.26505512416828148 0.095065426452622614 0 -0.27295632718692092 0.094046172841933853 0 -0.26583414078984963 0.086555606315837752 0 -0.27295632718692092 0.094046172841933853 0 -0.2760883309312504 0.08514698785226521 0 -0.26583414078984963 0.086555606315837752 0 -0.26505512416828148 0.095065426452622614 0 -0.26583414078984963 0.086555606315837752 0 -0.25704971966588719 0.09142976905552154 0 -0.26583414078984963 0.086555606315837752 0 -0.25575636728774542 0.079115484991206964 0 -0.25704971966588719 0.09142976905552154 0 -0.26778925883045113 0.074144500244708714 0 -0.26583414078984963 0.086555606315837752 0 -0.25575636728774542 0.079115484991206964 0 -0.25575636728774542 0.079115484991206964 0 -0.25704971966588719 0.09142976905552154 0 -0.2453305616145752 0.090555806388597324 0 -0.25117752100816348 0.097584187418704199 0 -0.25704971966588719 0.09142976905552154 0 -0.2453305616145752 0.090555806388597324 0 -0.26778925883045113 0.074144500244708714 0 -0.25592661339345901 0.062396704574867443 0 -0.27292346205668011 0.058126945311303399 0 -0.25575636728774542 0.079115484991206964 0 -0.25592661339345901 0.062396704574867443 0 -0.24370472515519279 0.073126728262141005 0 -0.26778925883045113 0.074144500244708714 0 -0.25575636728774542 0.079115484991206964 0 -0.25592661339345901 0.062396704574867443 0 -0.25592661339345901 0.062396704574867443 0 -0.26124958229098821 0.044027292205806097 0 -0.27292346205668011 0.058126945311303399 0 -0.25592661339345901 0.062396704574867443 0 -0.26124958229098821 0.044027292205806097 0 -0.242602603959445 0.044785963142970918 0 -0.26124958229098821 0.044027292205806097 0 -0.25150930774064451 0.031920585626659392 0 -0.26469673370801122 0.028226865783964741 0 -0.26124958229098821 0.044027292205806097 0 -0.25150930774064451 0.031920585626659392 0 -0.242602603959445 0.044785963142970918 0 -0.26124958229098821 0.044027292205806097 0 -0.27982886900830312 0.036453922798635241 0 -0.26469673370801122 0.028226865783964741 0 -0.26124958229098821 0.044027292205806097 0 -0.27982886900830312 0.036453922798635241 0 -0.27292346205668011 0.058126945311303399 0 -0.27982886900830312 0.036453922798635241 0 -0.27292346205668011 0.058126945311303399 0 -0.28857975710105982 0.053851411808675823 0 -0.28068173611998659 0.072955143955780594 0 -0.27292346205668011 0.058126945311303399 0 -0.28857975710105982 0.053851411808675823 0 -0.25976749961366202 -0.0010753608270254731 0 -0.2517249179826993 0.017253337104544519 0 -0.27451879381727817 0.0142177016775887 0 -0.2517249179826993 0.017253337104544519 0 -0.26469673370801122 0.028226865783964741 0 -0.27451879381727817 0.0142177016775887 0 -0.25150930774064451 0.031920585626659392 0 -0.2517249179826993 0.017253337104544519 0 -0.26469673370801122 0.028226865783964741 0 -0.27982886900830312 0.036453922798635241 0 -0.26469673370801122 0.028226865783964741 0 -0.27451879381727817 0.0142177016775887 0 -0.25976749961366202 -0.0010753608270254731 0 -0.286468818953594 -0.0051721761543546442 0 -0.27451879381727817 0.0142177016775887 0 -0.286468818953594 -0.0051721761543546442 0 -0.29334899475142179 0.017869861329843261 0 -0.30622626610694459 0.00024583799610343368 0 -0.286468818953594 -0.0051721761543546442 0 -0.27451879381727817 0.0142177016775887 0 -0.29334899475142179 0.017869861329843261 0 -0.27982886900830312 0.036453922798635241 0 -0.27451879381727817 0.0142177016775887 0 -0.29334899475142179 0.017869861329843261 0 -0.29334899475142179 0.017869861329843261 0 -0.30277676134417619 0.04000258705291216 0 -0.31251632593707779 0.014555129536796911 0 -0.29334899475142179 0.017869861329843261 0 -0.30622626610694459 0.00024583799610343368 0 -0.31251632593707779 0.014555129536796911 0 -0.29552041768859832 0.069822192707915495 0 -0.28857975710105982 0.053851411808675823 0 -0.30551316177856908 0.059237953287580893 0 -0.27982886900830312 0.036453922798635241 0 -0.28857975710105982 0.053851411808675823 0 -0.30277676134417619 0.04000258705291216 0 -0.27982886900830312 0.036453922798635241 0 -0.29334899475142179 0.017869861329843261 0 -0.30277676134417619 0.04000258705291216 0 -0.30277676134417619 0.04000258705291216 0 -0.30551316177856908 0.059237953287580893 0 -0.31588376610906049 0.05224899372123995 0 -0.28857975710105982 0.053851411808675823 0 -0.30277676134417619 0.04000258705291216 0 -0.30551316177856908 0.059237953287580893 0 -0.30551316177856908 0.059237953287580893 0 -0.31588376610906049 0.05224899372123995 0 -0.31926891213487257 0.06554120859545555 0 -0.31588376610906049 0.05224899372123995 0 -0.32273207080306399 0.03957640545699595 0 -0.32912792448462042 0.056886814213255213 0 -0.31588376610906049 0.05224899372123995 0 -0.32912792448462042 0.056886814213255213 0 -0.31926891213487257 0.06554120859545555 0 -0.32912792448462042 0.056886814213255213 0 -0.31926891213487257 0.06554120859545555 0 -0.32926322043717871 0.064776852208998953 0 -0.30277676134417619 0.04000258705291216 0 -0.32273207080306399 0.03957640545699595 0 -0.31251632593707779 0.014555129536796911 0 -0.30277676134417619 0.04000258705291216 0 -0.31588376610906049 0.05224899372123995 0 -0.32273207080306399 0.03957640545699595 0 -0.32273207080306399 0.03957640545699595 0 -0.3421499408321651 0.052916450268518912 0 -0.34958542845812141 0.036313570661779621 0 -0.32273207080306399 0.03957640545699595 0 -0.33558484642367598 0.02082429776176772 0 -0.34958542845812141 0.036313570661779621 0 -0.32273207080306399 0.03957640545699595 0 -0.34958542845812141 0.036313570661779621 0 -0.32273207080306399 0.03957640545699595 0 -0.3421499408321651 0.052916450268518912 0 -0.32912792448462042 0.056886814213255213 0 -0.3421499408321651 0.052916450268518912 0 -0.32912792448462042 0.056886814213255213 0 -0.33912760102122358 0.063643532877121461 0 -0.32912792448462042 0.056886814213255213 0 -0.32926322043717871 0.064776852208998953 0 -0.33912760102122358 0.063643532877121461 0 -0.32385765207493478 -0.0078489795256403549 0 -0.31251632593707779 0.014555129536796911 0 -0.32977592091503111 0.0063646395929695329 0 -0.32385765207493478 -0.0078489795256403549 0 -0.31251632593707779 0.014555129536796911 0 -0.32385765207493478 -0.0078489795256403549 0 -0.30622626610694459 0.00024583799610343368 0 -0.31251632593707779 0.014555129536796911 0 -0.31251632593707779 0.014555129536796911 0 -0.33558484642367598 0.02082429776176772 0 -0.32977592091503111 0.0063646395929695329 0 -0.32273207080306399 0.03957640545699595 0 -0.31251632593707779 0.014555129536796911 0 -0.33558484642367598 0.02082429776176772 0 -0.33558484642367598 0.02082429776176772 0 -0.3413382638878204 0.0063593465364551686 0 -0.32977592091503111 0.0063646395929695329 0 -0.33558484642367598 0.02082429776176772 0 -0.3413382638878204 0.0063593465364551686 0 -0.34912838349469849 0.014501017268910911 0 -0.33548568050220218 -0.0024615781636486839 0 -0.3413382638878204 0.0063593465364551686 0 -0.32977592091503111 0.0063646395929695329 0 -0.3556439998422094 -0.00520968311981758 0 -0.3591266599220081 0.002314006955012288 0 -0.3515305953768067 0.0043846640713042723 0 -0.3591266599220081 0.002314006955012288 0 -0.3515305953768067 0.0043846640713042723 0 -0.35902522480120191 0.010023194999438351 0 -0.3457554037342303 -0.0046582507321048317 0 -0.3413382638878204 0.0063593465364551686 0 -0.3515305953768067 0.0043846640713042723 0 -0.3413382638878204 0.0063593465364551686 0 -0.3515305953768067 0.0043846640713042723 0 -0.34912838349469849 0.014501017268910911 0 -0.34912838349469849 0.014501017268910911 0 -0.35902522480120191 0.010023194999438351 0 -0.3581246372366077 0.01928944322311453 0 -0.3515305953768067 0.0043846640713042723 0 -0.34912838349469849 0.014501017268910911 0 -0.35902522480120191 0.010023194999438351 0 -0.34912838349469849 0.014501017268910911 0 -0.3581246372366077 0.01928944322311453 0 -0.35046313381200428 0.024093099865263961 0 -0.33558484642367598 0.02082429776176772 0 -0.34912838349469849 0.014501017268910911 0 -0.35046313381200428 0.024093099865263961 0 -0.33558484642367598 0.02082429776176772 0 -0.35046313381200428 0.024093099865263961 0 -0.34958542845812141 0.036313570661779621 0 -0.35046313381200428 0.024093099865263961 0 -0.3598923734469181 0.02953717041074699 0 -0.34958542845812141 0.036313570661779621 0 -0.3581246372366077 0.01928944322311453 0 -0.35046313381200428 0.024093099865263961 0 -0.3598923734469181 0.02953717041074699 0 -0.37643878611317899 0.033050735866564353 0 -0.3598923734469181 0.02953717041074699 0 -0.37023429143275538 0.028851118597499621 0 -0.3598923734469181 0.02953717041074699 0 -0.37023429143275538 0.028851118597499621 0 -0.36677231548532357 0.021062989944186591 0 -0.37529474423918152 0.021738631409773449 0 -0.37023429143275538 0.028851118597499621 0 -0.36677231548532357 0.021062989944186591 0 -0.37643878611317899 0.033050735866564353 0 -0.37023429143275538 0.028851118597499621 0 -0.37643878611317899 0.033050735866564353 0 -0.37756954655671388 0.028023453724104131 0 -0.37023429143275538 0.028851118597499621 0 -0.37756954655671388 0.028023453724104131 0 -0.37529474423918152 0.021738631409773449 0 -0.37023429143275538 0.028851118597499621 0 -0.36677231548532357 0.021062989944186591 0 -0.36457120957828371 0.014109770601456699 0 -0.37168742558907247 0.01236927880737582 0 -0.37529474423918152 0.021738631409773449 0 -0.36677231548532357 0.021062989944186591 0 -0.37168742558907247 0.01236927880737582 0 -0.3581246372366077 0.01928944322311453 0 -0.3598923734469181 0.02953717041074699 0 -0.36677231548532357 0.021062989944186591 0 -0.3581246372366077 0.01928944322311453 0 -0.36677231548532357 0.021062989944186591 0 -0.36457120957828371 0.014109770601456699 0 -0.36557867523590631 -0.0021662686662354169 0 -0.38130901083635682 -0.0010913206990655409 0 -0.37307081250001728 0.0043801736117486277 0 -0.35902522480120191 0.010023194999438351 0 -0.3581246372366077 0.01928944322311453 0 -0.36457120957828371 0.014109770601456699 0 -0.35902522480120191 0.010023194999438351 0 -0.36457120957828371 0.014109770601456699 0 -0.36558802200096818 0.0068388928028632933 0 -0.37168742558907247 0.01236927880737582 0 -0.37307081250001728 0.0043801736117486277 0 -0.36558802200096818 0.0068388928028632933 0 -0.36457120957828371 0.014109770601456699 0 -0.37168742558907247 0.01236927880737582 0 -0.36558802200096818 0.0068388928028632933 0 -0.37895847283665818 0.0063753901861656158 0 -0.37168742558907247 0.01236927880737582 0 -0.37307081250001728 0.0043801736117486277 0 -0.36557867523590631 -0.0021662686662354169 0 -0.37307081250001728 0.0043801736117486277 0 -0.36558802200096818 0.0068388928028632933 0 -0.36557867523590631 -0.0021662686662354169 0 -0.3591266599220081 0.002314006955012288 0 -0.36558802200096818 0.0068388928028632933 0 -0.3591266599220081 0.002314006955012288 0 -0.35902522480120191 0.010023194999438351 0 -0.36558802200096818 0.0068388928028632933 0 -0.3421499408321651 0.052916450268518912 0 -0.35782058306272557 0.052117869278103413 0 -0.35654562088485842 0.061070602885465751 0 -0.3421499408321651 0.052916450268518912 0 -0.35782058306272557 0.052117869278103413 0 -0.34958542845812141 0.036313570661779621 0 -0.3421499408321651 0.052916450268518912 0 -0.35654562088485842 0.061070602885465751 0 -0.35090312091158848 0.06774050947552282 0 -0.3421499408321651 0.052916450268518912 0 -0.35090312091158848 0.06774050947552282 0 -0.3421499408321651 0.052916450268518912 0 -0.35090312091158848 0.06774050947552282 0 -0.33912760102122358 0.063643532877121461 0 -0.35782058306272557 0.052117869278103413 0 -0.34958542845812141 0.036313570661779621 0 -0.36589107232026552 0.042749285583883738 0 -0.37643878611317899 0.033050735866564353 0 -0.34958542845812141 0.036313570661779621 0 -0.36589107232026552 0.042749285583883738 0 -0.37643878611317899 0.033050735866564353 0 -0.3598923734469181 0.02953717041074699 0 -0.34958542845812141 0.036313570661779621 0 -0.37643878611317899 0.033050735866564353 0 -0.34958542845812141 0.036313570661779621 0 -0.37643878611317899 0.033050735866564353 0 -0.36589107232026552 0.042749285583883738 0 -0.37339704843748373 0.041375637354966938 0 -0.36589107232026552 0.042749285583883738 0 -0.37339704843748373 0.041375637354966938 0 -0.37221351552981768 0.050888614758005497 0 -0.35782058306272557 0.052117869278103413 0 -0.36589107232026552 0.042749285583883738 0 -0.37221351552981768 0.050888614758005497 0 -0.35782058306272557 0.052117869278103413 0 -0.37221351552981768 0.050888614758005497 0 -0.3638217091689806 0.065906303367307656 0 -0.35782058306272557 0.052117869278103413 0 -0.35654562088485842 0.061070602885465751 0 -0.3638217091689806 0.065906303367307656 0 -0.37221351552981768 0.050888614758005497 0 -0.37136538221014131 0.060053387542604843 0 -0.3638217091689806 0.065906303367307656 0 -0.37221351552981768 0.050888614758005497 0 -0.3638217091689806 0.065906303367307656 0 -0.37136538221014131 0.060053387542604843 0 -0.35965630099101209 0.082564568682526554 0 -0.37136538221014131 0.060053387542604843 0 -0.3638217091689806 0.065906303367307656 0 -0.35965630099101209 0.082564568682526554 0 -0.37605207241779792 0.078417952266938012 0 -0.37136538221014131 0.060053387542604843 0 -0.36753462105050028 0.083821172636848601 0 -0.37136538221014131 0.060053387542604843 0 -0.35965630099101209 0.082564568682526554 0 -0.36753462105050028 0.083821172636848601 0 -0.3638217091689806 0.065906303367307656 0 -0.35090312091158848 0.06774050947552282 0 -0.35965630099101209 0.082564568682526554 0 -0.35090312091158848 0.06774050947552282 0 -0.35965630099101209 0.082564568682526554 0 -0.34276747925966422 0.07739581824142823 0 -0.35654562088485842 0.061070602885465751 0 -0.3638217091689806 0.065906303367307656 0 -0.35090312091158848 0.06774050947552282 0 -0.35090312091158848 0.06774050947552282 0 -0.35965630099101209 0.082564568682526554 0 -0.35090312091158848 0.06774050947552282 0 -0.34276747925966422 0.07739581824142823 0 -0.34031219762363563 0.070381990476198586 0 -0.34661297485088932 0.093471324567792391 0 -0.35965630099101209 0.082564568682526554 0 -0.34276747925966422 0.07739581824142823 0 -0.37565769277846039 0.088083777040234679 0 -0.36753462105050028 0.083821172636848601 0 -0.3703216663127199 0.1006270334734672 0 -0.35965630099101209 0.082564568682526554 0 -0.36753462105050028 0.083821172636848601 0 -0.3703216663127199 0.1006270334734672 0 -0.36753462105050028 0.083821172636848601 0 -0.3703216663127199 0.1006270334734672 0 -0.35965630099101209 0.082564568682526554 0 -0.3703216663127199 0.1006270334734672 0 -0.37565769277846039 0.088083777040234679 0 -0.37605207241779792 0.078417952266938012 0 -0.36753462105050028 0.083821172636848601 0 -0.3703216663127199 0.1006270334734672 0 -0.36349498517655371 0.1134441490521767 0 -0.34587266916127363 0.1090641570856144 0 -0.3703216663127199 0.1006270334734672 0 -0.37390022369158532 0.1222057060986861 0 -0.36349498517655371 0.1134441490521767 0 -0.38056257019442291 0.11797064620599371 0 -0.3703216663127199 0.1006270334734672 0 -0.37390022369158532 0.1222057060986861 0 -0.3703216663127199 0.1006270334734672 0 -0.37390022369158532 0.1222057060986861 0 -0.3616757251158621 0.12642426790475991 0 -0.37390022369158532 0.1222057060986861 0 -0.36349498517655371 0.1134441490521767 0 -0.3616757251158621 0.12642426790475991 0 -0.36349498517655371 0.1134441490521767 0 -0.34587266916127363 0.1090641570856144 0 -0.3616757251158621 0.12642426790475991 0 -0.35200747485442851 0.1274103739483739 0 -0.34587266916127363 0.1090641570856144 0 -0.35200747485442851 0.1274103739483739 0 -0.334658394929638 0.13062405182515091 0 -0.34587266916127363 0.1090641570856144 0 -0.3616757251158621 0.12642426790475991 0 -0.34587266916127363 0.1090641570856144 0 -0.35200747485442851 0.1274103739483739 0 -0.34587266916127363 0.1090641570856144 0 -0.35965630099101209 0.082564568682526554 0 -0.34587266916127363 0.1090641570856144 0 -0.34661297485088932 0.093471324567792391 0 -0.34587266916127363 0.1090641570856144 0 -0.33908117824447781 0.089471613754723706 0 -0.35965630099101209 0.082564568682526554 0 -0.3703216663127199 0.1006270334734672 0 -0.34587266916127363 0.1090641570856144 0 -0.34661297485088932 0.093471324567792391 0 -0.35965630099101209 0.082564568682526554 0 -0.34587266916127363 0.1090641570856144 0 -0.33739571323153411 0.1062623085863746 0 -0.33093071681072661 0.100494509730697 0 -0.33908117824447781 0.089471613754723706 0 -0.34587266916127363 0.1090641570856144 0 -0.33739571323153411 0.1062623085863746 0 -0.33908117824447781 0.089471613754723706 0 -0.34587266916127363 0.1090641570856144 0 -0.33908117824447781 0.089471613754723706 0 -0.33093071681072661 0.100494509730697 0 -0.31957391318318978 0.095555600012975028 0 -0.33908117824447781 0.089471613754723706 0 -0.34587266916127363 0.1090641570856144 0 -0.34138074798469392 0.10923830856123221 0 -0.33739571323153411 0.1062623085863746 0 -0.33739571323153411 0.1062623085863746 0 -0.33093071681072661 0.100494509730697 0 -0.32530680396109268 0.10936475487434109 0 -0.334658394929638 0.13062405182515091 0 -0.34587266916127363 0.1090641570856144 0 -0.33986678794103931 0.1127050068506311 0 -0.334658394929638 0.13062405182515091 0 -0.34587266916127363 0.1090641570856144 0 -0.334658394929638 0.13062405182515091 0 -0.33986678794103931 0.1127050068506311 0 -0.33169784574960509 0.1160637780193805 0 -0.33739571323153411 0.1062623085863746 0 -0.33986678794103931 0.1127050068506311 0 -0.33169784574960509 0.1160637780193805 0 -0.34587266916127363 0.1090641570856144 0 -0.33986678794103931 0.1127050068506311 0 -0.34340060165756792 0.11003432969648851 0 -0.34587266916127363 0.1090641570856144 0 -0.34138074798469392 0.10923830856123221 0 -0.34340060165756792 0.11003432969648851 0 -0.34138074798469392 0.10923830856123221 0 -0.33986678794103931 0.1127050068506311 0 -0.34340060165756792 0.11003432969648851 0 -0.34138074798469392 0.10923830856123221 0 -0.33739571323153411 0.1062623085863746 0 -0.33986678794103931 0.1127050068506311 0 -0.33739571323153411 0.1062623085863746 0 -0.33169784574960509 0.1160637780193805 0 -0.32530680396109268 0.10936475487434109 0 -0.334658394929638 0.13062405182515091 0 -0.33169784574960509 0.1160637780193805 0 -0.32353886662367859 0.1209842734201287 0 -0.30883371973111939 0.1165136267616633 0 -0.32353886662367859 0.1209842734201287 0 -0.32530680396109268 0.10936475487434109 0 -0.33169784574960509 0.1160637780193805 0 -0.32353886662367859 0.1209842734201287 0 -0.32530680396109268 0.10936475487434109 0 -0.31833074637889308 0.1296133023468129 0 -0.30883371973111939 0.1165136267616633 0 -0.32353886662367859 0.1209842734201287 0 -0.30883371973111939 0.1165136267616633 0 -0.31957391318318978 0.095555600012975028 0 -0.30883371973111939 0.1165136267616633 0 -0.32530680396109268 0.10936475487434109 0 -0.31957391318318978 0.095555600012975028 0 -0.33093071681072661 0.100494509730697 0 -0.32530680396109268 0.10936475487434109 0 -0.31957391318318978 0.095555600012975028 0 -0.31957391318318978 0.095555600012975028 0 -0.33031410663526017 0.074597573264286815 0 -0.31957391318318978 0.095555600012975028 0 -0.31816994267699428 0.076935219902879187 0 -0.33031410663526017 0.074597573264286815 0 -0.30427551132657549 0.083804892254008681 0 -0.31957391318318978 0.095555600012975028 0 -0.31816994267699428 0.076935219902879187 0 -0.30854958912112201 0.071068293349567949 0 -0.31816994267699428 0.076935219902879187 0 -0.31926891213487257 0.06554120859545555 0 -0.31926891213487257 0.06554120859545555 0 -0.32580326128728859 0.069663883177897873 0 -0.32926322043717871 0.064776852208998953 0 -0.31816994267699428 0.076935219902879187 0 -0.32580326128728859 0.069663883177897873 0 -0.33031410663526017 0.074597573264286815 0 -0.31816994267699428 0.076935219902879187 0 -0.31926891213487257 0.06554120859545555 0 -0.32580326128728859 0.069663883177897873 0 -0.33031410663526017 0.074597573264286815 0 -0.33247510989093698 0.070082762434778373 0 -0.33908117824447781 0.089471613754723706 0 -0.32580326128728859 0.069663883177897873 0 -0.33031410663526017 0.074597573264286815 0 -0.33247510989093698 0.070082762434778373 0 -0.32926322043717871 0.064776852208998953 0 -0.33247510989093698 0.070082762434778373 0 -0.33912760102122358 0.063643532877121461 0 -0.32580326128728859 0.069663883177897873 0 -0.32926322043717871 0.064776852208998953 0 -0.33247510989093698 0.070082762434778373 0 -0.35090312091158848 0.06774050947552282 0 -0.33912760102122358 0.063643532877121461 0 -0.34031219762363563 0.070381990476198586 0 -0.33247510989093698 0.070082762434778373 0 -0.33912760102122358 0.063643532877121461 0 -0.34031219762363563 0.070381990476198586 0 -0.33247510989093698 0.070082762434778373 0 -0.34276747925966422 0.07739581824142823 0 -0.34031219762363563 0.070381990476198586 0 -0.34661297485088932 0.093471324567792391 0 -0.34276747925966422 0.07739581824142823 0 -0.33908117824447781 0.089471613754723706 0 -0.33247510989093698 0.070082762434778373 0 -0.34276747925966422 0.07739581824142823 0 -0.33908117824447781 0.089471613754723706 0 -0.33247510989093698 0.070082762434778373 0 -0.33908117824447781 0.089471613754723706 0 -0.31957391318318978 0.095555600012975028 0 -0.33031410663526017 0.074597573264286815 0 -0.33908117824447781 0.089471613754723706 0 -0.38994456060692972 0.47859320478212042 0 -0.39897640288933578 0.45225685944611949 0 -0.41221418913678948 0.47612842972305891 0 -0.40286913177459588 0.5 0 -0.38028628816494942 0.5 0 -0.38994456060692972 0.47859320478212042 0 -0.40286913177459588 0.5 0 -0.38994456060692972 0.47859320478212042 0 -0.41221418913678948 0.47612842972305891 0 -0.38028628816494942 0.5 0 -0.38994456060692972 0.47859320478212042 0 -0.36895250336195812 0.48018069852897333 0 -0.38994456060692972 0.47859320478212042 0 -0.37672577201781232 0.46165919154240009 0 -0.36895250336195812 0.48018069852897333 0 -0.38994456060692972 0.47859320478212042 0 -0.37672577201781232 0.46165919154240009 0 -0.39897640288933578 0.45225685944611949 0 -0.37801150627797953 0.43762868522352921 0 -0.39897640288933578 0.45225685944611949 0 -0.38573861664188208 0.42838528916918012 0 -0.37672577201781232 0.46165919154240009 0 -0.37801150627797953 0.43762868522352921 0 -0.39897640288933578 0.45225685944611949 0 -0.37672577201781232 0.46165919154240009 0 -0.37801150627797953 0.43762868522352921 0 -0.39897640288933578 0.45225685944611949 0 -0.39897211659538329 0.4366529975825888 0 -0.38573861664188208 0.42838528916918012 0 -0.39897640288933578 0.45225685944611949 0 -0.41186748155673208 0.43091961563800762 0 -0.39897211659538329 0.4366529975825888 0 -0.39897640288933578 0.45225685944611949 0 -0.38573861664188208 0.42838528916918012 0 -0.39897640288933578 0.45225685944611949 0 -0.41221418913678948 0.47612842972305891 0 -0.39897640288933578 0.45225685944611949 0 -0.42148397523504039 0.45087351955631227 0 -0.41221418913678948 0.47612842972305891 0 -0.39897640288933578 0.45225685944611949 0 -0.42148397523504039 0.45087351955631227 0 -0.41186748155673208 0.43091961563800762 0 -0.42148397523504039 0.45087351955631227 0 -0.43688458905191391 0.4478551281267058 0 -0.42937546736499799 0.42773344441368721 0 -0.42148397523504039 0.45087351955631227 0 -0.43688458905191391 0.4478551281267058 0 -0.43909861520635962 0.47152489321054109 0 -0.42148397523504039 0.45087351955631227 0 -0.41221418913678948 0.47612842972305891 0 -0.43909861520635962 0.47152489321054109 0 -0.41221418913678948 0.47612842972305891 0 -0.42545197538424251 0.49999999999999872 0 -0.43909861520635962 0.47152489321054109 0 -0.41221418913678948 0.47612842972305891 0 -0.42545197538424251 0.49999999999999872 0 -0.40286913177459588 0.5 0 -0.41221418913678948 0.47612842972305891 0 -0.42545197538424251 0.49999999999999872 0 -0.42545197538424251 0.49999999999999872 0 -0.44876491947482011 0.5 0 -0.43909861520635962 0.47152489321054109 0 -0.44876491947482011 0.5 0 -0.43909861520635962 0.47152489321054109 0 -0.46123491467253008 0.47598529044449023 0 -0.46123491467253008 0.47598529044449023 0 -0.47207786356539772 0.4999999999999995 0 -0.44876491947482011 0.5 0 -0.46123491467253008 0.47598529044449023 0 -0.47207786356539772 0.4999999999999995 0 -0.5 0.5 0 -0.48459691475750633 0.48643413252197659 0 -0.50000000000000733 0.44402395292296998 0 -0.46123491467253008 0.47598529044449023 0 -0.47207786356539772 0.4999999999999995 0 -0.48459691475750633 0.48643413252197659 0 -0.48459691475750633 0.48643413252197659 0 -0.48031664886418368 0.4591434744442846 0 -0.46123491467253008 0.47598529044449023 0 -0.48459691475750633 0.48643413252197659 0 -0.48031664886418368 0.4591434744442846 0 -0.47207786356539772 0.4999999999999995 0 -0.5 0.5 0 -0.48459691475750633 0.48643413252197659 0 -0.48459691475750633 0.48643413252197659 0 -0.50000000000000733 0.44402395292296998 0 -0.48031664886418368 0.4591434744442846 0 -0.50000000000000733 0.44402395292296998 0 -0.47603638297085632 0.43185281636659317 0 -0.50000000000000733 0.44402395292296998 0 -0.48031664886418368 0.4591434744442846 0 -0.47603638297085632 0.43185281636659317 0 -0.46123491467253008 0.47598529044449023 0 -0.48031664886418368 0.4591434744442846 0 -0.46735871639919557 0.44719480871738099 0 -0.48031664886418368 0.4591434744442846 0 -0.46735871639919557 0.44719480871738099 0 -0.47603638297085632 0.43185281636659317 0 -0.48031664886418368 0.4591434744442846 0 -0.47603638297085632 0.43185281636659317 0 -0.45037156299481518 0.45197979300761443 0 -0.46516635124536793 0.42633192023717831 0 -0.46735871639919557 0.44719480871738099 0 -0.45037156299481518 0.45197979300761443 0 -0.46516635124536793 0.42633192023717831 0 -0.46123491467253008 0.47598529044449023 0 -0.46735871639919557 0.44719480871738099 0 -0.45037156299481518 0.45197979300761443 0 -0.46123491467253008 0.47598529044449023 0 -0.45037156299481518 0.45197979300761443 0 -0.43909861520635962 0.47152489321054109 0 -0.46123491467253008 0.47598529044449023 0 -0.45037156299481518 0.45197979300761443 0 -0.43688458905191391 0.4478551281267058 0 -0.43909861520635962 0.47152489321054109 0 -0.45037156299481518 0.45197979300761443 0 -0.43688458905191391 0.4478551281267058 0 -0.45037156299481518 0.45197979300761443 0 -0.44325115800821518 0.43615528688387672 0 -0.45037156299481518 0.45197979300761443 0 -0.44325115800821518 0.43615528688387672 0 -0.46516635124536793 0.42633192023717831 0 -0.45037156299481518 0.45197979300761443 0 -0.44325115800821518 0.43615528688387672 0 -0.44325115800821518 0.43615528688387672 0 -0.44224115264259339 0.41468819706981408 0 -0.46516635124536793 0.42633192023717831 0 -0.44325115800821518 0.43615528688387672 0 -0.44224115264259339 0.41468819706981408 0 -0.42937546736499799 0.42773344441368721 0 -0.46516635124536793 0.42633192023717831 0 -0.47303189347952362 0.41269641406596919 0 -0.45708357873601207 0.4051444038251299 0 -0.44224115264259339 0.41468819706981408 0 -0.46516635124536793 0.42633192023717831 0 -0.44224115264259339 0.41468819706981408 0 -0.46516635124536793 0.42633192023717831 0 -0.45708357873601207 0.4051444038251299 0 -0.47603638297085632 0.43185281636659317 0 -0.47303189347952362 0.41269641406596919 0 -0.47603638297085632 0.43185281636659317 0 -0.47303189347952362 0.41269641406596919 0 -0.48639588919525423 0.42211934553995539 0 -0.46516635124536793 0.42633192023717831 0 -0.47603638297085632 0.43185281636659317 0 -0.47303189347952362 0.41269641406596919 0 -0.46735871639919557 0.44719480871738099 0 -0.46516635124536793 0.42633192023717831 0 -0.47603638297085632 0.43185281636659317 0 -0.46516635124536793 0.42633192023717831 0 -0.47603638297085632 0.43185281636659317 0 -0.46516635124536793 0.42633192023717831 0 -0.47303189347952362 0.41269641406596919 0 -0.47303189347952362 0.41269641406596919 0 -0.48429043368729968 0.40806136273122878 0 -0.48639588919525423 0.42211934553995539 0 -0.48429043368729968 0.40806136273122878 0 -0.5 0.4179976962634363 0 -0.49102130201272731 0.3979157311554446 0 -0.48429043368729968 0.40806136273122878 0 -0.5 0.4179976962634363 0 -0.48639588919525423 0.42211934553995539 0 -0.50000000000000733 0.44402395292296998 0 -0.47603638297085632 0.43185281636659317 0 -0.48639588919525423 0.42211934553995539 0 -0.50000000000000733 0.44402395292296998 0 -0.5 0.4179976962634363 0 -0.48639588919525423 0.42211934553995539 0 -0.4913330232466902 0.38097003583909678 0 -0.5 0.39197143960390268 0 -0.49102130201272731 0.3979157311554446 0 -0.4913330232466902 0.38097003583909678 0 -0.5 0.39197143960390268 0 -0.49999999999999961 0.36594518294436901 0 -0.4913330232466902 0.38097003583909678 0 -0.48266604649338279 0.39599488873382571 0 -0.5 0.4179976962634363 0 -0.5 0.39197143960390268 0 -0.49102130201272731 0.3979157311554446 0 -0.4913330232466902 0.38097003583909678 0 -0.49102130201272731 0.3979157311554446 0 -0.48266604649338279 0.39599488873382571 0 -0.48429043368729968 0.40806136273122878 0 -0.49102130201272731 0.3979157311554446 0 -0.48266604649338279 0.39599488873382571 0 -0.49102130201272731 0.3979157311554446 0 -0.48266604649338279 0.39599488873382571 0 -0.47303189347952362 0.41269641406596919 0 -0.46995407204031048 0.39307245270114521 0 -0.47303189347952362 0.41269641406596919 0 -0.48266604649338279 0.39599488873382571 0 -0.46995407204031048 0.39307245270114521 0 -0.47303189347952362 0.41269641406596919 0 -0.48266604649338279 0.39599488873382571 0 -0.47303189347952362 0.41269641406596919 0 -0.48429043368729968 0.40806136273122878 0 -0.48266604649338279 0.39599488873382571 0 -0.48266604649338279 0.39599488873382571 0 -0.46995407204031048 0.39307245270114521 0 -0.47789728247798469 0.3876295877245024 0 -0.48266604649338279 0.39599488873382571 0 -0.46995407204031048 0.39307245270114521 0 -0.46995407204031048 0.39307245270114521 0 -0.47059236627121892 0.38135602650114031 0 -0.46606562761397258 0.36828001925469922 0 -0.47789728247798469 0.3876295877245024 0 -0.47946399107746002 0.37998519070201497 0 -0.47059236627121892 0.38135602650114031 0 -0.46995407204031048 0.39307245270114521 0 -0.47789728247798469 0.3876295877245024 0 -0.47059236627121892 0.38135602650114031 0 -0.4913330232466902 0.38097003583909678 0 -0.48266604649338279 0.39599488873382571 0 -0.47789728247798469 0.3876295877245024 0 -0.4913330232466902 0.38097003583909678 0 -0.47789728247798469 0.3876295877245024 0 -0.47946399107746002 0.37998519070201497 0 -0.47946399107746002 0.37998519070201497 0 -0.47059236627121892 0.38135602650114031 0 -0.48106516323304233 0.37248194431931858 0 -0.4913330232466902 0.38097003583909678 0 -0.47946399107746002 0.37998519070201497 0 -0.48106516323304233 0.37248194431931858 0 -0.46995407204031048 0.39307245270114521 0 -0.45409912555785931 0.37251609701658178 0 -0.46606562761397258 0.36828001925469922 0 -0.46995407204031048 0.39307245270114521 0 -0.44180807139670919 0.38660179098290642 0 -0.45409912555785931 0.37251609701658178 0 -0.46995407204031048 0.39307245270114521 0 -0.44180807139670919 0.38660179098290642 0 -0.46995407204031048 0.39307245270114521 0 -0.46606562761397258 0.36828001925469922 0 -0.47303189347952362 0.41269641406596919 0 -0.46995407204031048 0.39307245270114521 0 -0.45708357873601207 0.4051444038251299 0 -0.46995407204031048 0.39307245270114521 0 -0.45708357873601207 0.4051444038251299 0 -0.44180807139670919 0.38660179098290642 0 -0.44224115264259339 0.41468819706981408 0 -0.45708357873601207 0.4051444038251299 0 -0.44180807139670919 0.38660179098290642 0 -0.44180807139670919 0.38660179098290642 0 -0.44161403625861628 0.36935028640995959 0 -0.45409912555785931 0.37251609701658178 0 -0.44180807139670919 0.38660179098290642 0 -0.41366207075310801 0.38013112926466752 0 -0.41931595403982058 0.40304447390244652 0 -0.44180807139670919 0.38660179098290642 0 -0.41366207075310801 0.38013112926466752 0 -0.44180807139670919 0.38660179098290642 0 -0.42657611411825919 0.37047806135317107 0 -0.44161403625861628 0.36935028640995959 0 -0.44180807139670919 0.38660179098290642 0 -0.41366207075310801 0.38013112926466752 0 -0.42657611411825919 0.37047806135317107 0 -0.41366207075310801 0.38013112926466752 0 -0.41931595403982058 0.40304447390244652 0 -0.4011969300199093 0.38515951154556732 0 -0.41931595403982058 0.40304447390244652 0 -0.39639075543704771 0.39140075073507918 0 -0.44224115264259339 0.41468819706981408 0 -0.44180807139670919 0.38660179098290642 0 -0.41931595403982058 0.40304447390244652 0 -0.44224115264259339 0.41468819706981408 0 -0.41931595403982058 0.40304447390244652 0 -0.42937546736499799 0.42773344441368721 0 -0.44224115264259339 0.41468819706981408 0 -0.41931595403982058 0.40304447390244652 0 -0.43688458905191391 0.4478551281267058 0 -0.44325115800821518 0.43615528688387672 0 -0.42937546736499799 0.42773344441368721 0 -0.42148397523504039 0.45087351955631227 0 -0.42937546736499799 0.42773344441368721 0 -0.41186748155673208 0.43091961563800762 0 -0.41931595403982058 0.40304447390244652 0 -0.42937546736499799 0.42773344441368721 0 -0.41186748155673208 0.43091961563800762 0 -0.41931595403982058 0.40304447390244652 0 -0.41186748155673208 0.43091961563800762 0 -0.39887609785539391 0.4162559878404537 0 -0.39887609785539391 0.4162559878404537 0 -0.37929724053814667 0.41359817890465828 0 -0.39639075543704771 0.39140075073507918 0 -0.39887609785539391 0.4162559878404537 0 -0.39897211659538329 0.4366529975825888 0 -0.38573861664188208 0.42838528916918012 0 -0.41186748155673208 0.43091961563800762 0 -0.39887609785539391 0.4162559878404537 0 -0.39897211659538329 0.4366529975825888 0 -0.37801150627797953 0.43762868522352921 0 -0.37929724053814667 0.41359817890465828 0 -0.37801150627797953 0.43762868522352921 0 -0.38573861664188208 0.42838528916918012 0 -0.37929724053814667 0.41359817890465828 0 -0.39887609785539391 0.4162559878404537 0 -0.38573861664188208 0.42838528916918012 0 -0.37929724053814667 0.41359817890465828 0 -0.37929724053814667 0.41359817890465828 0 -0.38090570125532941 0.38353588172139069 0 -0.39639075543704771 0.39140075073507918 0 -0.37929724053814667 0.41359817890465828 0 -0.38090570125532941 0.38353588172139069 0 -0.36970578379049829 0.39768042913919738 0 -0.37929724053814667 0.41359817890465828 0 -0.39639075543704771 0.39140075073507918 0 -0.37929724053814667 0.41359817890465828 0 -0.38090570125532941 0.38353588172139069 0 -0.38090570125532941 0.38353588172139069 0 -0.38104664642588693 0.38090160190425959 0 -0.38554514415946101 0.37855162830390621 0 -0.38090570125532941 0.38353588172139069 0 -0.37753484361741813 0.377041935452195 0 -0.38104664642588693 0.38090160190425959 0 -0.38090570125532941 0.38353588172139069 0 -0.38104664642588693 0.38090160190425959 0 -0.37753484361741813 0.377041935452195 0 -0.38104664642588693 0.38090160190425959 0 -0.38209402797395742 0.37453103974075469 0 -0.38554514415946101 0.37855162830390621 0 -0.39181527510122321 0.38152966310586017 0 -0.38798254534652649 0.37142630971721852 0 -0.38090570125532941 0.38353588172139069 0 -0.38554514415946101 0.37855162830390621 0 -0.39181527510122321 0.38152966310586017 0 -0.38104664642588693 0.38090160190425959 0 -0.38554514415946101 0.37855162830390621 0 -0.38209402797395742 0.37453103974075469 0 -0.38090570125532941 0.38353588172139069 0 -0.39639075543704771 0.39140075073507918 0 -0.38090570125532941 0.38353588172139069 0 -0.39181527510122321 0.38152966310586017 0 -0.39639075543704771 0.39140075073507918 0 -0.39181527510122321 0.38152966310586017 0 -0.4011969300199093 0.38515951154556732 0 -0.39639075543704771 0.39140075073507918 0 -0.39181527510122321 0.38152966310586017 0 -0.39806192341106922 0.37893022050157438 0 -0.38798254534652649 0.37142630971721852 0 -0.39181527510122321 0.38152966310586017 0 -0.39806192341106922 0.37893022050157438 0 -0.4011969300199093 0.38515951154556732 0 -0.41366207075310801 0.38013112926466752 0 -0.39806192341106922 0.37893022050157438 0 -0.4011969300199093 0.38515951154556732 0 -0.41366207075310801 0.38013112926466752 0 -0.39806192341106922 0.37893022050157438 0 -0.40065516451802152 0.37245662537139618 0 -0.4011969300199093 0.38515951154556732 0 -0.39639075543704771 0.39140075073507918 0 -0.41931595403982058 0.40304447390244652 0 -0.4011969300199093 0.38515951154556732 0 -0.39639075543704771 0.39140075073507918 0 -0.41931595403982058 0.40304447390244652 0 -0.39887609785539391 0.4162559878404537 0 -0.39639075543704771 0.39140075073507918 0 -0.40222098893500752 0.35093595816721701 0 -0.38777829799555058 0.3571586746182196 0 -0.39043405663679231 0.34868666895968597 0 -0.38746136325204888 0.34545698678576298 0 -0.39043405663679231 0.34868666895968597 0 -0.39581306140456363 0.34160685965576121 0 -0.40222098893500752 0.35093595816721701 0 -0.39043405663679231 0.34868666895968597 0 -0.39581306140456363 0.34160685965576121 0 -0.40222098893500752 0.35093595816721701 0 -0.40065516451802152 0.37245662537139618 0 -0.38798254534652649 0.37142630971721852 0 -0.40222098893500752 0.35093595816721701 0 -0.38798254534652649 0.37142630971721852 0 -0.38777829799555058 0.3571586746182196 0 -0.40222098893500752 0.35093595816721701 0 -0.40065516451802152 0.37245662537139618 0 -0.4111625370348147 0.36922883567794063 0 -0.40222098893500752 0.35093595816721701 0 -0.38798254534652649 0.37142630971721852 0 -0.39806192341106922 0.37893022050157438 0 -0.40065516451802152 0.37245662537139618 0 -0.38798254534652649 0.37142630971721852 0 -0.38798254534652649 0.37142630971721852 0 -0.38195022053672101 0.36369850436434781 0 -0.38777829799555058 0.3571586746182196 0 -0.38798254534652649 0.37142630971721852 0 -0.38233532934160142 0.36994315160021501 0 -0.38195022053672101 0.36369850436434781 0 -0.38554514415946101 0.37855162830390621 0 -0.38798254534652649 0.37142630971721852 0 -0.38209402797395742 0.37453103974075469 0 -0.38798254534652649 0.37142630971721852 0 -0.38209402797395742 0.37453103974075469 0 -0.38233532934160142 0.36994315160021501 0 -0.38209402797395742 0.37453103974075469 0 -0.38233532934160142 0.36994315160021501 0 -0.37731452350920092 0.37011675257853899 0 -0.37753484361741813 0.377041935452195 0 -0.38209402797395742 0.37453103974075469 0 -0.37731452350920092 0.37011675257853899 0 -0.38233532934160142 0.36994315160021501 0 -0.37731452350920092 0.37011675257853899 0 -0.38195022053672101 0.36369850436434781 0 -0.38195022053672101 0.36369850436434781 0 -0.38217728412184571 0.35533149627705668 0 -0.37405279921090617 0.36042118382240212 0 -0.37731452350920092 0.37011675257853899 0 -0.38195022053672101 0.36369850436434781 0 -0.37405279921090617 0.36042118382240212 0 -0.38217728412184571 0.35533149627705668 0 -0.381792279499097 0.34471796632877222 0 -0.37405279921090617 0.36042118382240212 0 -0.381792279499097 0.34471796632877222 0 -0.3735027008302661 0.35039121556722208 0 -0.37405279921090617 0.36042118382240212 0 -0.381792279499097 0.34471796632877222 0 -0.37405279921090617 0.36042118382240212 0 -0.38195022053672101 0.36369850436434781 0 -0.38217728412184571 0.35533149627705668 0 -0.38777829799555058 0.3571586746182196 0 -0.38777829799555058 0.3571586746182196 0 -0.39043405663679231 0.34868666895968597 0 -0.38531282336695383 0.35066115225154182 0 -0.38217728412184571 0.35533149627705668 0 -0.38777829799555058 0.3571586746182196 0 -0.38531282336695383 0.35066115225154182 0 -0.38217728412184571 0.35533149627705668 0 -0.38531282336695383 0.35066115225154182 0 -0.381792279499097 0.34471796632877222 0 -0.38746136325204888 0.34545698678576298 0 -0.39043405663679231 0.34868666895968597 0 -0.38531282336695383 0.35066115225154182 0 -0.38746136325204888 0.34545698678576298 0 -0.38531282336695383 0.35066115225154182 0 -0.381792279499097 0.34471796632877222 0 -0.38746136325204888 0.34545698678576298 0 -0.381792279499097 0.34471796632877222 0 -0.38395459535283782 0.34161228673305361 0 -0.381792279499097 0.34471796632877222 0 -0.38395459535283782 0.34161228673305361 0 -0.3735027008302661 0.35039121556722208 0 -0.38130693483014549 0.33178041827072358 0 -0.38395459535283782 0.34161228673305361 0 -0.37258292089269951 0.336967954967481 0 -0.38130693483014549 0.33178041827072358 0 -0.37476590451375608 0.32701692364975959 0 -0.37258292089269951 0.336967954967481 0 -0.38130693483014549 0.33178041827072358 0 -0.38395459535283782 0.34161228673305361 0 -0.39121805430475592 0.3279919490529537 0 -0.38746136325204888 0.34545698678576298 0 -0.38395459535283782 0.34161228673305361 0 -0.39581306140456363 0.34160685965576121 0 -0.38130693483014549 0.33178041827072358 0 -0.3836038676988755 0.32400273701045479 0 -0.37476590451375608 0.32701692364975959 0 -0.38000983554838652 0.31397780595800662 0 -0.3836038676988755 0.32400273701045479 0 -0.37476590451375608 0.32701692364975959 0 -0.3836038676988755 0.32400273701045479 0 -0.39032567531542772 0.31757319206978252 0 -0.39121805430475592 0.3279919490529537 0 -0.38130693483014549 0.33178041827072358 0 -0.3836038676988755 0.32400273701045479 0 -0.39121805430475592 0.3279919490529537 0 -0.38000983554838652 0.31397780595800662 0 -0.3836038676988755 0.32400273701045479 0 -0.39032567531542772 0.31757319206978252 0 -0.39121805430475592 0.3279919490529537 0 -0.39881520831017608 0.31983507775678699 0 -0.40732623573240312 0.32578377090013338 0 -0.39032567531542772 0.31757319206978252 0 -0.39881520831017608 0.31983507775678699 0 -0.39843420718447609 0.31183591161758489 0 -0.39032567531542772 0.31757319206978252 0 -0.39121805430475592 0.3279919490529537 0 -0.39881520831017608 0.31983507775678699 0 -0.39881520831017608 0.31983507775678699 0 -0.40637893503191191 0.31431716909243218 0 -0.40732623573240312 0.32578377090013338 0 -0.39881520831017608 0.31983507775678699 0 -0.40637893503191191 0.31431716909243218 0 -0.39843420718447609 0.31183591161758489 0 -0.38395459535283782 0.34161228673305361 0 -0.39581306140456363 0.34160685965576121 0 -0.40732623573240312 0.32578377090013338 0 -0.39581306140456363 0.34160685965576121 0 -0.40445806231370701 0.33694320921406062 0 -0.40732623573240312 0.32578377090013338 0 -0.38395459535283782 0.34161228673305361 0 -0.39121805430475592 0.3279919490529537 0 -0.40732623573240312 0.32578377090013338 0 -0.38395459535283782 0.34161228673305361 0 -0.40732623573240312 0.32578377090013338 0 -0.40222098893500752 0.35093595816721701 0 -0.39581306140456363 0.34160685965576121 0 -0.40445806231370701 0.33694320921406062 0 -0.40222098893500752 0.35093595816721701 0 -0.41645943252348833 0.33044560661721539 0 -0.41856471717383248 0.3405458803283114 0 -0.40222098893500752 0.35093595816721701 0 -0.40445806231370701 0.33694320921406062 0 -0.41645943252348833 0.33044560661721539 0 -0.40222098893500752 0.35093595816721701 0 -0.41645943252348833 0.33044560661721539 0 -0.40445806231370701 0.33694320921406062 0 -0.41645943252348833 0.33044560661721539 0 -0.40732623573240312 0.32578377090013338 0 -0.41645943252348833 0.33044560661721539 0 -0.41856471717383248 0.3405458803283114 0 -0.42607362565205209 0.33048084803899219 0 -0.40732623573240312 0.32578377090013338 0 -0.43069787611196869 0.30995525506721361 0 -0.41492688735176259 0.30989202038942032 0 -0.40637893503191191 0.31431716909243218 0 -0.40732623573240312 0.32578377090013338 0 -0.41492688735176259 0.30989202038942032 0 -0.41645943252348833 0.33044560661721539 0 -0.40732623573240312 0.32578377090013338 0 -0.43069787611196869 0.30995525506721361 0 -0.40732623573240312 0.32578377090013338 0 -0.43069787611196869 0.30995525506721361 0 -0.41645943252348833 0.33044560661721539 0 -0.42607362565205209 0.33048084803899219 0 -0.43069787611196869 0.30995525506721361 0 -0.41645943252348833 0.33044560661721539 0 -0.43069787611196869 0.30995525506721361 0 -0.43547453970888328 0.32846670644337522 0 -0.43998746187175541 0.31678352185396302 0 -0.43069787611196869 0.30995525506721361 0 -0.42607362565205209 0.33048084803899219 0 -0.43547453970888328 0.32846670644337522 0 -0.43069787611196869 0.30995525506721361 0 -0.41856471717383248 0.3405458803283114 0 -0.42789986840770111 0.3404890790519246 0 -0.42607362565205209 0.33048084803899219 0 -0.42789986840770111 0.3404890790519246 0 -0.42607362565205209 0.33048084803899219 0 -0.43547453970888328 0.32846670644337522 0 -0.42789986840770111 0.3404890790519246 0 -0.43547453970888328 0.32846670644337522 0 -0.44081671892432239 0.33926770337685702 0 -0.42789986840770111 0.3404890790519246 0 -0.43401938087355751 0.35518224855447439 0 -0.44081671892432239 0.33926770337685702 0 -0.43401938087355751 0.35518224855447439 0 -0.42016967035091313 0.35037790976620781 0 -0.4177724849656872 0.36110874989693159 0 -0.41856471717383248 0.3405458803283114 0 -0.42789986840770111 0.3404890790519246 0 -0.42016967035091313 0.35037790976620781 0 -0.42789986840770111 0.3404890790519246 0 -0.43401938087355751 0.35518224855447439 0 -0.42016967035091313 0.35037790976620781 0 -0.40222098893500752 0.35093595816721701 0 -0.41856471717383248 0.3405458803283114 0 -0.42016967035091313 0.35037790976620781 0 -0.40222098893500752 0.35093595816721701 0 -0.42016967035091313 0.35037790976620781 0 -0.4177724849656872 0.36110874989693159 0 -0.40222098893500752 0.35093595816721701 0 -0.4111625370348147 0.36922883567794063 0 -0.4177724849656872 0.36110874989693159 0 -0.41366207075310801 0.38013112926466752 0 -0.40065516451802152 0.37245662537139618 0 -0.4111625370348147 0.36922883567794063 0 -0.4111625370348147 0.36922883567794063 0 -0.4177724849656872 0.36110874989693159 0 -0.42657611411825919 0.37047806135317107 0 -0.41366207075310801 0.38013112926466752 0 -0.4111625370348147 0.36922883567794063 0 -0.42657611411825919 0.37047806135317107 0 -0.43401938087355751 0.35518224855447439 0 -0.4177724849656872 0.36110874989693159 0 -0.42657611411825919 0.37047806135317107 0 -0.43401938087355751 0.35518224855447439 0 -0.42657611411825919 0.37047806135317107 0 -0.44161403625861628 0.36935028640995959 0 -0.43401938087355751 0.35518224855447439 0 -0.44161403625861628 0.36935028640995959 0 -0.44846050410924088 0.36041896343866747 0 -0.44161403625861628 0.36935028640995959 0 -0.44846050410924088 0.36041896343866747 0 -0.45409912555785931 0.37251609701658178 0 -0.43401938087355751 0.35518224855447439 0 -0.44762160784828681 0.34995429827918512 0 -0.44081671892432239 0.33926770337685702 0 -0.43401938087355751 0.35518224855447439 0 -0.44846050410924088 0.36041896343866747 0 -0.44762160784828681 0.34995429827918512 0 -0.44846050410924088 0.36041896343866747 0 -0.44762160784828681 0.34995429827918512 0 -0.45905047884334582 0.36082740047222778 0 -0.46606562761397258 0.36828001925469922 0 -0.46217718318763468 0.34348758580825323 0 -0.44762160784828681 0.34995429827918512 0 -0.45905047884334582 0.36082740047222778 0 -0.45334655622331838 0.33525503266401668 0 -0.45905047884334582 0.36082740047222778 0 -0.46217718318763468 0.34348758580825323 0 -0.45334655622331838 0.33525503266401668 0 -0.45905047884334582 0.36082740047222778 0 -0.46606562761397258 0.36828001925469922 0 -0.46217718318763468 0.34348758580825323 0 -0.46606562761397258 0.36828001925469922 0 -0.46955867942752888 0.35807080140649861 0 -0.46217718318763468 0.34348758580825323 0 -0.45905047884334582 0.36082740047222778 0 -0.45334655622331838 0.33525503266401668 0 -0.46955867942752888 0.35807080140649861 0 -0.47154934940696791 0.35112753287731258 0 -0.46217718318763468 0.34348758580825323 0 -0.47054607860932818 0.34604069273931481 0 -0.47154934940696791 0.35112753287731258 0 -0.46217718318763468 0.34348758580825323 0 -0.45409912555785931 0.37251609701658178 0 -0.45905047884334582 0.36082740047222778 0 -0.46606562761397258 0.36828001925469922 0 -0.44846050410924088 0.36041896343866747 0 -0.45409912555785931 0.37251609701658178 0 -0.45905047884334582 0.36082740047222778 0 -0.47059236627121892 0.38135602650114031 0 -0.47969588324503271 0.35698316301528199 0 -0.47059236627121892 0.38135602650114031 0 -0.48106516323304233 0.37248194431931858 0 -0.47969588324503271 0.35698316301528199 0 -0.47059236627121892 0.38135602650114031 0 -0.46606562761397258 0.36828001925469922 0 -0.47969588324503271 0.35698316301528199 0 -0.48106516323304233 0.37248194431931858 0 -0.47969588324503271 0.35698316301528199 0 -0.48580393535945032 0.36412640442904232 0 -0.47969588324503271 0.35698316301528199 0 -0.48514744697345852 0.35824158229594022 0 -0.48580393535945032 0.36412640442904232 0 -0.46606562761397258 0.36828001925469922 0 -0.46955867942752888 0.35807080140649861 0 -0.47382102524886782 0.35710366354199369 0 -0.46606562761397258 0.36828001925469922 0 -0.47382102524886782 0.35710366354199369 0 -0.47969588324503271 0.35698316301528199 0 -0.47969588324503271 0.35698316301528199 0 -0.47773955903022519 0.35279734632378662 0 -0.48879940021884632 0.33261029952942373 0 -0.47969588324503271 0.35698316301528199 0 -0.48879940021884632 0.33261029952942373 0 -0.46955867942752888 0.35807080140649861 0 -0.47382102524886782 0.35710366354199369 0 -0.47154934940696791 0.35112753287731258 0 -0.47382102524886782 0.35710366354199369 0 -0.47154934940696791 0.35112753287731258 0 -0.47773955903022519 0.35279734632378662 0 -0.47054607860932818 0.34604069273931481 0 -0.47154934940696791 0.35112753287731258 0 -0.47436704650926192 0.34793618847874908 0 -0.47154934940696791 0.35112753287731258 0 -0.47436704650926192 0.34793618847874908 0 -0.47773955903022519 0.35279734632378662 0 -0.47436704650926192 0.34793618847874908 0 -0.47763295029998443 0.3430582999408015 0 -0.47358143269210051 0.34355099194518868 0 -0.47054607860932818 0.34604069273931481 0 -0.47436704650926192 0.34793618847874908 0 -0.47358143269210051 0.34355099194518868 0 -0.47436704650926192 0.34793618847874908 0 -0.47773955903022519 0.35279734632378662 0 -0.47763295029998443 0.3430582999408015 0 -0.47382102524886782 0.35710366354199369 0 -0.47969588324503271 0.35698316301528199 0 -0.47773955903022519 0.35279734632378662 0 -0.47969588324503271 0.35698316301528199 0 -0.48514744697345852 0.35824158229594022 0 -0.48610305414219962 0.35450218077745421 0 -0.47969588324503271 0.35698316301528199 0 -0.48610305414219962 0.35450218077745421 0 -0.48879324238520672 0.34649456020112002 0 -0.49107496270973727 0.35611117740930431 0 -0.49999999999999961 0.36594518294436901 0 -0.5 0.33829813926989621 0 -0.48610305414219962 0.35450218077745421 0 -0.49107496270973727 0.35611117740930431 0 -0.48879324238520672 0.34649456020112002 0 -0.48514744697345852 0.35824158229594022 0 -0.48610305414219962 0.35450218077745421 0 -0.49107496270973727 0.35611117740930431 0 -0.47969588324503271 0.35698316301528199 0 -0.48879324238520672 0.34649456020112002 0 -0.48879940021884632 0.33261029952942373 0 -0.49107496270973727 0.35611117740930431 0 -0.48879324238520672 0.34649456020112002 0 -0.5 0.33829813926989621 0 -0.49107496270973727 0.35611117740930431 0 -0.49999999999999961 0.36594518294436901 0 -0.48580393535945032 0.36412640442904232 0 -0.4913330232466902 0.38097003583909678 0 -0.48106516323304233 0.37248194431931858 0 -0.48580393535945032 0.36412640442904232 0 -0.4913330232466902 0.38097003583909678 0 -0.49999999999999961 0.36594518294436901 0 -0.48580393535945032 0.36412640442904232 0 -0.4913330232466902 0.38097003583909678 0 -0.49999999999999961 0.36594518294436901 0 -0.48514744697345852 0.35824158229594022 0 -0.49107496270973727 0.35611117740930431 0 -0.48580393535945032 0.36412640442904232 0 -0.48879940021884632 0.33261029952942373 0 -0.49790291719266 0.30823743604356552 0 -0.48879940021884632 0.33261029952942373 0 -0.5 0.31065109559542331 0 -0.49790291719266 0.30823743604356552 0 -0.49109208568352247 0.31900015707523971 0 -0.48515970602014979 0.32953291485617459 0 -0.49257985301007451 0.3062684833885625 0 -0.49109208568352247 0.31900015707523971 0 -0.48879940021884632 0.33261029952942373 0 -0.49790291719266 0.30823743604356552 0 -0.5 0.33829813926989621 0 -0.48879940021884632 0.33261029952942373 0 -0.5 0.31065109559542331 0 -0.48676251807563797 0.31563160876692892 0 -0.48515970602014979 0.32953291485617459 0 -0.49257985301007451 0.3062684833885625 0 -0.48515970602014979 0.32953291485617459 0 -0.49257985301007451 0.3062684833885625 0 -0.49109208568352247 0.31900015707523971 0 -0.48879940021884632 0.33261029952942373 0 -0.48515970602014979 0.32953291485617459 0 -0.48676251807563797 0.31563160876692892 0 -0.48515970602014979 0.32953291485617459 0 -0.48412689795032321 0.32286082952929968 0 -0.48676251807563797 0.31563160876692892 0 -0.48412689795032321 0.32286082952929968 0 -0.48282315951638538 0.31953226957214859 0 -0.48879324238520672 0.34649456020112002 0 -0.5 0.33829813926989621 0 -0.48879940021884632 0.33261029952942373 0 -0.48515970602014979 0.32953291485617459 0 -0.47831719045196119 0.33519345876878037 0 -0.47763295029998443 0.3430582999408015 0 -0.48515970602014979 0.32953291485617459 0 -0.48044371774050909 0.33091578698083612 0 -0.48049360330601709 0.32718544195459831 0 -0.48515970602014979 0.32953291485617459 0 -0.47831719045196119 0.33519345876878037 0 -0.48044371774050909 0.33091578698083612 0 -0.47773955903022519 0.35279734632378662 0 -0.48515970602014979 0.32953291485617459 0 -0.47773955903022519 0.35279734632378662 0 -0.48879940021884632 0.33261029952942373 0 -0.48515970602014979 0.32953291485617459 0 -0.47773955903022519 0.35279734632378662 0 -0.48515970602014979 0.32953291485617459 0 -0.47763295029998443 0.3430582999408015 0 -0.47831719045196119 0.33519345876878037 0 -0.47660053861770152 0.33106808898669171 0 -0.48044371774050909 0.33091578698083612 0 -0.47660053861770152 0.33106808898669171 0 -0.48044371774050909 0.33091578698083612 0 -0.48049360330601709 0.32718544195459831 0 -0.47831719045196119 0.33519345876878037 0 -0.47763295029998443 0.3430582999408015 0 -0.47539379537150761 0.33986417069114089 0 -0.47358143269210051 0.34355099194518868 0 -0.47539379537150761 0.33986417069114089 0 -0.46996729267042009 0.34085560787593711 0 -0.47763295029998443 0.3430582999408015 0 -0.47358143269210051 0.34355099194518868 0 -0.47539379537150761 0.33986417069114089 0 -0.47831719045196119 0.33519345876878037 0 -0.47539379537150761 0.33986417069114089 0 -0.47178323650301851 0.33508170710000018 0 -0.47539379537150761 0.33986417069114089 0 -0.46996729267042009 0.34085560787593711 0 -0.47178323650301851 0.33508170710000018 0 -0.46996729267042009 0.34085560787593711 0 -0.47178323650301851 0.33508170710000018 0 -0.46720901425667172 0.33775757296591752 0 -0.47054607860932818 0.34604069273931481 0 -0.47358143269210051 0.34355099194518868 0 -0.46996729267042009 0.34085560787593711 0 -0.47660053861770152 0.33106808898669171 0 -0.47023593538107511 0.32876043830011131 0 -0.4751970802791543 0.32571336865676942 0 -0.47660053861770152 0.33106808898669171 0 -0.47178323650301851 0.33508170710000018 0 -0.47023593538107511 0.32876043830011131 0 -0.47831719045196119 0.33519345876878037 0 -0.47660053861770152 0.33106808898669171 0 -0.47178323650301851 0.33508170710000018 0 -0.47178323650301851 0.33508170710000018 0 -0.47023593538107511 0.32876043830011131 0 -0.46490834466561359 0.33160539107947951 0 -0.47023593538107511 0.32876043830011131 0 -0.47046205128952812 0.32317656997204608 0 -0.46600122320645881 0.32407112442960989 0 -0.47023593538107511 0.32876043830011131 0 -0.47046205128952812 0.32317656997204608 0 -0.4751970802791543 0.32571336865676942 0 -0.47046205128952812 0.32317656997204608 0 -0.4751970802791543 0.32571336865676942 0 -0.47405805432090742 0.31901812329562912 0 -0.4751970802791543 0.32571336865676942 0 -0.4795160637198862 0.32235969688619093 0 -0.47405805432090742 0.31901812329562912 0 -0.4751970802791543 0.32571336865676942 0 -0.4795160637198862 0.32235969688619093 0 -0.48049360330601709 0.32718544195459831 0 -0.47660053861770152 0.33106808898669171 0 -0.4751970802791543 0.32571336865676942 0 -0.48049360330601709 0.32718544195459831 0 -0.4795160637198862 0.32235969688619093 0 -0.48412689795032321 0.32286082952929968 0 -0.48282315951638538 0.31953226957214859 0 -0.4795160637198862 0.32235969688619093 0 -0.48412689795032321 0.32286082952929968 0 -0.48049360330601709 0.32718544195459831 0 -0.48515970602014979 0.32953291485617459 0 -0.48412689795032321 0.32286082952929968 0 -0.48049360330601709 0.32718544195459831 0 -0.48676251807563797 0.31563160876692892 0 -0.48088715831969447 0.31727694310617532 0 -0.48157427746908471 0.31123273865840539 0 -0.48676251807563797 0.31563160876692892 0 -0.48282315951638538 0.31953226957214859 0 -0.48088715831969447 0.31727694310617532 0 -0.4795160637198862 0.32235969688619093 0 -0.48282315951638538 0.31953226957214859 0 -0.48088715831969447 0.31727694310617532 0 -0.48088715831969447 0.31727694310617532 0 -0.47608579824138891 0.31330512602762528 0 -0.47405805432090742 0.31901812329562912 0 -0.4795160637198862 0.32235969688619093 0 -0.48088715831969447 0.31727694310617532 0 -0.47405805432090742 0.31901812329562912 0 -0.48088715831969447 0.31727694310617532 0 -0.47608579824138891 0.31330512602762528 0 -0.48157427746908471 0.31123273865840539 0 -0.47608579824138891 0.31330512602762528 0 -0.47405805432090742 0.31901812329562912 0 -0.46955767687213418 0.31221518581994828 0 -0.47405805432090742 0.31901812329562912 0 -0.46681796326004438 0.3183197951781106 0 -0.46955767687213418 0.31221518581994828 0 -0.47046205128952812 0.32317656997204608 0 -0.47405805432090742 0.31901812329562912 0 -0.46681796326004438 0.3183197951781106 0 -0.46681796326004438 0.3183197951781106 0 -0.45828873876129678 0.31869515236180729 0 -0.46235444846455381 0.31023031803401291 0 -0.45828873876129678 0.31869515236180729 0 -0.45334655622331838 0.33525503266401668 0 -0.45155487699519858 0.31543543985732619 0 -0.46681796326004438 0.3183197951781106 0 -0.46235444846455381 0.31023031803401291 0 -0.46955767687213418 0.31221518581994828 0 -0.46600122320645881 0.32407112442960989 0 -0.45828873876129678 0.31869515236180729 0 -0.46490834466561359 0.33160539107947951 0 -0.47046205128952812 0.32317656997204608 0 -0.46681796326004438 0.3183197951781106 0 -0.46600122320645881 0.32407112442960989 0 -0.46681796326004438 0.3183197951781106 0 -0.46600122320645881 0.32407112442960989 0 -0.45828873876129678 0.31869515236180729 0 -0.45828873876129678 0.31869515236180729 0 -0.46217718318763468 0.34348758580825323 0 -0.46490834466561359 0.33160539107947951 0 -0.45828873876129678 0.31869515236180729 0 -0.46217718318763468 0.34348758580825323 0 -0.45334655622331838 0.33525503266401668 0 -0.45828873876129678 0.31869515236180729 0 -0.46217718318763468 0.34348758580825323 0 -0.46217718318763468 0.34348758580825323 0 -0.46720901425667172 0.33775757296591752 0 -0.46490834466561359 0.33160539107947951 0 -0.47054607860932818 0.34604069273931481 0 -0.46996729267042009 0.34085560787593711 0 -0.46217718318763468 0.34348758580825323 0 -0.46996729267042009 0.34085560787593711 0 -0.46217718318763468 0.34348758580825323 0 -0.46720901425667172 0.33775757296591752 0 -0.47178323650301851 0.33508170710000018 0 -0.46720901425667172 0.33775757296591752 0 -0.46490834466561359 0.33160539107947951 0 -0.47023593538107511 0.32876043830011131 0 -0.46600122320645881 0.32407112442960989 0 -0.46490834466561359 0.33160539107947951 0 -0.44762160784828681 0.34995429827918512 0 -0.45334655622331838 0.33525503266401668 0 -0.44081671892432239 0.33926770337685702 0 -0.45334655622331838 0.33525503266401668 0 -0.44081671892432239 0.33926770337685702 0 -0.44345358206631441 0.32589112583880342 0 -0.43547453970888328 0.32846670644337522 0 -0.44081671892432239 0.33926770337685702 0 -0.44345358206631441 0.32589112583880342 0 -0.45334655622331838 0.33525503266401668 0 -0.45155487699519858 0.31543543985732619 0 -0.44764263360329171 0.30968266485580542 0 -0.45334655622331838 0.33525503266401668 0 -0.44764263360329171 0.30968266485580542 0 -0.45334655622331838 0.33525503266401668 0 -0.44345358206631441 0.32589112583880342 0 -0.44764263360329171 0.30968266485580542 0 -0.44345358206631441 0.32589112583880342 0 -0.43998746187175541 0.31678352185396302 0 -0.44764263360329171 0.30968266485580542 0 -0.45155487699519858 0.31543543985732619 0 -0.44764263360329171 0.30968266485580542 0 -0.43547453970888328 0.32846670644337522 0 -0.44345358206631441 0.32589112583880342 0 -0.43998746187175541 0.31678352185396302 0 -0.44547168217486238 0.29994964915418137 0 -0.44764263360329171 0.30968266485580542 0 -0.45440029433495671 0.29390271891536179 0 -0.44018855146410202 0.30960840748935092 0 -0.44242623426939098 0.30201218818042158 0 -0.43069787611196869 0.30995525506721361 0 -0.45155487699519858 0.31543543985732619 0 -0.44764263360329171 0.30968266485580542 0 -0.45440029433495671 0.29390271891536179 0 -0.43998746187175541 0.31678352185396302 0 -0.44018855146410202 0.30960840748935092 0 -0.44764263360329171 0.30968266485580542 0 -0.44018855146410202 0.30960840748935092 0 -0.44242623426939098 0.30201218818042158 0 -0.44764263360329171 0.30968266485580542 0 -0.44242623426939098 0.30201218818042158 0 -0.44764263360329171 0.30968266485580542 0 -0.44242623426939098 0.30201218818042158 0 -0.44547168217486238 0.29994964915418137 0 -0.44764263360329171 0.30968266485580542 0 -0.43935528408589519 0.29749649636966591 0 -0.44242623426939098 0.30201218818042158 0 -0.43935528408589519 0.29749649636966591 0 -0.44242623426939098 0.30201218818042158 0 -0.44547168217486238 0.29994964915418137 0 -0.44242623426939098 0.30201218818042158 0 -0.44547168217486238 0.29994964915418137 0 -0.44547168217486238 0.29994964915418137 0 -0.45440029433495671 0.29390271891536179 0 -0.44547168217486238 0.29994964915418137 0 -0.44764263360329171 0.30968266485580542 0 -0.44547168217486238 0.29994964915418137 0 -0.45440029433495671 0.29390271891536179 0 -0.44072389731181633 0.27866392897878178 0 -0.44547168217486238 0.29994964915418137 0 -0.44072389731181633 0.27866392897878178 0 -0.43935528408589519 0.29749649636966591 0 -0.44547168217486238 0.29994964915418137 0 -0.44072389731181633 0.27866392897878178 0 -0.45440029433495671 0.29390271891536179 0 -0.45062702605342192 0.26984464003117969 0 -0.45440029433495671 0.29390271891536179 0 -0.47507785254627721 0.27989877857490503 0 -0.45440029433495671 0.29390271891536179 0 -0.46504914140317499 0.29476575470598643 0 -0.47507785254627721 0.27989877857490503 0 -0.45828873876129678 0.31869515236180729 0 -0.45440029433495671 0.29390271891536179 0 -0.45828873876129678 0.31869515236180729 0 -0.45440029433495671 0.29390271891536179 0 -0.46235444846455381 0.31023031803401291 0 -0.45440029433495671 0.29390271891536179 0 -0.46443347989492711 0.30438253781571079 0 -0.46235444846455381 0.31023031803401291 0 -0.45828873876129678 0.31869515236180729 0 -0.45155487699519858 0.31543543985732619 0 -0.45440029433495671 0.29390271891536179 0 -0.45440029433495671 0.29390271891536179 0 -0.46504914140317499 0.29476575470598643 0 -0.46443347989492711 0.30438253781571079 0 -0.46504914140317499 0.29476575470598643 0 -0.46443347989492711 0.30438253781571079 0 -0.47133267816251839 0.2970023550909156 0 -0.46443347989492711 0.30438253781571079 0 -0.46235444846455381 0.31023031803401291 0 -0.46955767687213418 0.31221518581994828 0 -0.46443347989492711 0.30438253781571079 0 -0.46955767687213418 0.31221518581994828 0 -0.47506191556510757 0.30616406616927799 0 -0.47608579824138891 0.31330512602762528 0 -0.46955767687213418 0.31221518581994828 0 -0.47506191556510757 0.30616406616927799 0 -0.47608579824138891 0.31330512602762528 0 -0.47506191556510757 0.30616406616927799 0 -0.48157427746908471 0.31123273865840539 0 -0.47506191556510757 0.30616406616927799 0 -0.48261911622184278 0.30508883768052258 0 -0.48157427746908471 0.31123273865840539 0 -0.48261911622184278 0.30508883768052258 0 -0.48157427746908471 0.31123273865840539 0 -0.48603099200225103 0.30811587435781013 0 -0.47506191556510757 0.30616406616927799 0 -0.48261911622184278 0.30508883768052258 0 -0.48019583848184172 0.29737774542178957 0 -0.48261911622184278 0.30508883768052258 0 -0.48019583848184172 0.29737774542178957 0 -0.48661919523461489 0.30235770329463091 0 -0.47506191556510757 0.30616406616927799 0 -0.48019583848184172 0.29737774542178957 0 -0.47133267816251839 0.2970023550909156 0 -0.46443347989492711 0.30438253781571079 0 -0.47506191556510757 0.30616406616927799 0 -0.47133267816251839 0.2970023550909156 0 -0.48019583848184172 0.29737774542178957 0 -0.47133267816251839 0.2970023550909156 0 -0.47507785254627721 0.27989877857490503 0 -0.46504914140317499 0.29476575470598643 0 -0.47133267816251839 0.2970023550909156 0 -0.47507785254627721 0.27989877857490503 0 -0.48019583848184172 0.29737774542178957 0 -0.48967201006847938 0.29312359978237729 0 -0.47507785254627721 0.27989877857490503 0 -0.49999999999999961 0.28300405192095052 0 -0.49257985301007451 0.3062684833885625 0 -0.49999999999999961 0.28300405192095052 0 -0.48967201006847938 0.29312359978237729 0 -0.47507785254627721 0.27989877857490503 0 -0.49999999999999961 0.28300405192095052 0 -0.48967201006847938 0.29312359978237729 0 -0.49257985301007451 0.3062684833885625 0 -0.49999999999999961 0.28300405192095052 0 -0.5 0.31065109559542331 0 -0.49790291719266 0.30823743604356552 0 -0.49999999999999961 0.28300405192095052 0 -0.49790291719266 0.30823743604356552 0 -0.49257985301007451 0.3062684833885625 0 -0.49109208568352247 0.31900015707523971 0 -0.49790291719266 0.30823743604356552 0 -0.49257985301007451 0.3062684833885625 0 -0.48676251807563797 0.31563160876692892 0 -0.49257985301007451 0.3062684833885625 0 -0.48603099200225103 0.30811587435781013 0 -0.49257985301007451 0.3062684833885625 0 -0.48603099200225103 0.30811587435781013 0 -0.48661919523461489 0.30235770329463091 0 -0.48676251807563797 0.31563160876692892 0 -0.48157427746908471 0.31123273865840539 0 -0.48603099200225103 0.30811587435781013 0 -0.48261911622184278 0.30508883768052258 0 -0.48603099200225103 0.30811587435781013 0 -0.48661919523461489 0.30235770329463091 0 -0.48967201006847938 0.29312359978237729 0 -0.49257985301007451 0.3062684833885625 0 -0.48661919523461489 0.30235770329463091 0 -0.48019583848184172 0.29737774542178957 0 -0.48967201006847938 0.29312359978237729 0 -0.48661919523461489 0.30235770329463091 0 -0.48477689619124198 0.25401214588668991 0 -0.49575541075759832 0.26589483823444882 0 -0.47466101018679729 0.2633901154225306 0 -0.48477689619124198 0.25401214588668991 0 -0.5 0.25420366096937652 0 -0.49575541075759832 0.26589483823444882 0 -0.49575541075759832 0.26589483823444882 0 -0.47507785254627721 0.27989877857490503 0 -0.49999999999999961 0.28300405192095052 0 -0.5 0.25420366096937652 0 -0.49575541075759832 0.26589483823444882 0 -0.49999999999999961 0.28300405192095052 0 -0.49575541075759832 0.26589483823444882 0 -0.47507785254627721 0.27989877857490503 0 -0.49575541075759832 0.26589483823444882 0 -0.47507785254627721 0.27989877857490503 0 -0.47466101018679729 0.2633901154225306 0 -0.46706786538544731 0.24730017438542959 0 -0.48477689619124198 0.25401214588668991 0 -0.47466101018679729 0.2633901154225306 0 -0.4468537577718848 0.24578656114699779 0 -0.46706786538544731 0.24730017438542959 0 -0.45062702605342192 0.26984464003117969 0 -0.46706786538544731 0.24730017438542959 0 -0.47466101018679729 0.2633901154225306 0 -0.45062702605342192 0.26984464003117969 0 -0.45440029433495671 0.29390271891536179 0 -0.47507785254627721 0.27989877857490503 0 -0.45062702605342192 0.26984464003117969 0 -0.47507785254627721 0.27989877857490503 0 -0.47466101018679729 0.2633901154225306 0 -0.45062702605342192 0.26984464003117969 0 -0.45440029433495671 0.29390271891536179 0 -0.45062702605342192 0.26984464003117969 0 -0.44072389731181633 0.27866392897878178 0 -0.45062702605342192 0.26984464003117969 0 -0.44072389731181633 0.27866392897878178 0 -0.4359761124487716 0.25737820880338202 0 -0.44072389731181633 0.27866392897878178 0 -0.4359761124487716 0.25737820880338202 0 -0.4468537577718848 0.24578656114699779 0 -0.45062702605342192 0.26984464003117969 0 -0.4468537577718848 0.24578656114699779 0 -0.45062702605342192 0.26984464003117969 0 -0.4359761124487716 0.25737820880338202 0 -0.4359761124487716 0.25737820880338202 0 -0.41279186945260171 0.25843620989219313 0 -0.42607357676924712 0.27796635313093038 0 -0.43122832758572438 0.2360924886279826 0 -0.4359761124487716 0.25737820880338202 0 -0.41279186945260171 0.25843620989219313 0 -0.40201382394766128 0.2425875868555146 0 -0.41279186945260171 0.25843620989219313 0 -0.41279186945260171 0.25843620989219313 0 -0.40940585731017087 0.26253982409842791 0 -0.41279186945260171 0.25843620989219313 0 -0.40940585731017087 0.26253982409842791 0 -0.40590008595623472 0.25965527838812952 0 -0.41279186945260171 0.25843620989219313 0 -0.4010632208850578 0.25428521508771351 0 -0.40590008595623472 0.25965527838812952 0 -0.41279186945260171 0.25843620989219313 0 -0.42607357676924712 0.27796635313093038 0 -0.41279186945260171 0.25843620989219313 0 -0.40940585731017087 0.26253982409842791 0 -0.42607357676924712 0.27796635313093038 0 -0.410379294460471 0.27541382395923703 0 -0.42607357676924712 0.27796635313093038 0 -0.41146689013019622 0.28762687211163079 0 -0.40940585731017087 0.26253982409842791 0 -0.410379294460471 0.27541382395923703 0 -0.42607357676924712 0.27796635313093038 0 -0.410379294460471 0.27541382395923703 0 -0.41146689013019622 0.28762687211163079 0 -0.40205150620777308 0.2803460247235674 0 -0.40940585731017087 0.26253982409842791 0 -0.410379294460471 0.27541382395923703 0 -0.40398882774078099 0.27073504605987903 0 -0.44072389731181633 0.27866392897878178 0 -0.4359761124487716 0.25737820880338202 0 -0.42607357676924712 0.27796635313093038 0 -0.43935528408589519 0.29749649636966591 0 -0.44072389731181633 0.27866392897878178 0 -0.42607357676924712 0.27796635313093038 0 -0.43935528408589519 0.29749649636966591 0 -0.42607357676924712 0.27796635313093038 0 -0.42217567653732341 0.29741658993259429 0 -0.43935528408589519 0.29749649636966591 0 -0.42607357676924712 0.27796635313093038 0 -0.43069787611196869 0.30995525506721361 0 -0.42217567653732341 0.29741658993259429 0 -0.41492688735176259 0.30989202038942032 0 -0.43935528408589519 0.29749649636966591 0 -0.43069787611196869 0.30995525506721361 0 -0.42217567653732341 0.29741658993259429 0 -0.44242623426939098 0.30201218818042158 0 -0.43069787611196869 0.30995525506721361 0 -0.43998746187175541 0.31678352185396302 0 -0.44018855146410202 0.30960840748935092 0 -0.43069787611196869 0.30995525506721361 0 -0.43935528408589519 0.29749649636966591 0 -0.44242623426939098 0.30201218818042158 0 -0.43069787611196869 0.30995525506721361 0 -0.43935528408589519 0.29749649636966591 0 -0.43069787611196869 0.30995525506721361 0 -0.42217567653732341 0.29741658993259429 0 -0.41492688735176259 0.30989202038942032 0 -0.40805571334520568 0.30198731695472752 0 -0.40637893503191191 0.31431716909243218 0 -0.41492688735176259 0.30989202038942032 0 -0.40805571334520568 0.30198731695472752 0 -0.42607357676924712 0.27796635313093038 0 -0.42217567653732341 0.29741658993259429 0 -0.41146689013019622 0.28762687211163079 0 -0.42217567653732341 0.29741658993259429 0 -0.40805571334520568 0.30198731695472752 0 -0.41146689013019622 0.28762687211163079 0 -0.40805571334520568 0.30198731695472752 0 -0.41146689013019622 0.28762687211163079 0 -0.40122786332483212 0.29243841761458977 0 -0.40122786332483212 0.29243841761458977 0 -0.39401444806115971 0.28693240703912198 0 -0.40205150620777308 0.2803460247235674 0 -0.41146689013019622 0.28762687211163079 0 -0.40122786332483212 0.29243841761458977 0 -0.40205150620777308 0.2803460247235674 0 -0.40122786332483212 0.29243841761458977 0 -0.39641884540067629 0.30066457186373158 0 -0.38874607019068852 0.2945882955123022 0 -0.40122786332483212 0.29243841761458977 0 -0.39401444806115971 0.28693240703912198 0 -0.38874607019068852 0.2945882955123022 0 -0.39401444806115971 0.28693240703912198 0 -0.3841882631730888 0.28101888772512179 0 -0.39371104488885722 0.27901329122678969 0 -0.39401444806115971 0.28693240703912198 0 -0.40205150620777308 0.2803460247235674 0 -0.39371104488885722 0.27901329122678969 0 -0.40637893503191191 0.31431716909243218 0 -0.40805571334520568 0.30198731695472752 0 -0.39843420718447609 0.31183591161758489 0 -0.40805571334520568 0.30198731695472752 0 -0.39641884540067629 0.30066457186373158 0 -0.39843420718447609 0.31183591161758489 0 -0.40805571334520568 0.30198731695472752 0 -0.40122786332483212 0.29243841761458977 0 -0.39641884540067629 0.30066457186373158 0 -0.39641884540067629 0.30066457186373158 0 -0.38860362560423323 0.30570886943674369 0 -0.38874607019068852 0.2945882955123022 0 -0.39641884540067629 0.30066457186373158 0 -0.39843420718447609 0.31183591161758489 0 -0.38860362560423323 0.30570886943674369 0 -0.39032567531542772 0.31757319206978252 0 -0.39843420718447609 0.31183591161758489 0 -0.38860362560423323 0.30570886943674369 0 -0.38000983554838652 0.31397780595800662 0 -0.38860362560423323 0.30570886943674369 0 -0.37768711998574511 0.29561343959905451 0 -0.38000983554838652 0.31397780595800662 0 -0.37768711998574511 0.29561343959905451 0 -0.36807777967912431 0.30722481019911768 0 -0.38000983554838652 0.31397780595800662 0 -0.39032567531542772 0.31757319206978252 0 -0.38860362560423323 0.30570886943674369 0 -0.38860362560423323 0.30570886943674369 0 -0.38874607019068852 0.2945882955123022 0 -0.37768711998574511 0.29561343959905451 0 -0.37768711998574511 0.29561343959905451 0 -0.3841882631730888 0.28101888772512179 0 -0.36736386995692522 0.27246305202664078 0 -0.39401444806115971 0.28693240703912198 0 -0.38874607019068852 0.2945882955123022 0 -0.3841882631730888 0.28101888772512179 0 -0.38874607019068852 0.2945882955123022 0 -0.37768711998574511 0.29561343959905451 0 -0.3841882631730888 0.28101888772512179 0 -0.38864882391967892 0.27107703769164521 0 -0.3885222847737122 0.25859143765315629 0 -0.36736386995692522 0.27246305202664078 0 -0.3841882631730888 0.28101888772512179 0 -0.38864882391967892 0.27107703769164521 0 -0.36736386995692522 0.27246305202664078 0 -0.3841882631730888 0.28101888772512179 0 -0.38864882391967892 0.27107703769164521 0 -0.39371104488885722 0.27901329122678969 0 -0.38029180335294221 0.24586642203902559 0 -0.3885222847737122 0.25859143765315629 0 -0.36736386995692522 0.27246305202664078 0 -0.38029180335294221 0.24586642203902559 0 -0.39294454383724442 0.2479356906039622 0 -0.3885222847737122 0.25859143765315629 0 -0.40201382394766128 0.2425875868555146 0 -0.41279186945260171 0.25843620989219313 0 -0.4010632208850578 0.25428521508771351 0 -0.3885222847737122 0.25859143765315629 0 -0.4010632208850578 0.25428521508771351 0 -0.40033939617710812 0.26335986447418319 0 -0.38864882391967892 0.27107703769164521 0 -0.3885222847737122 0.25859143765315629 0 -0.40033939617710812 0.26335986447418319 0 -0.39294454383724442 0.2479356906039622 0 -0.3885222847737122 0.25859143765315629 0 -0.4010632208850578 0.25428521508771351 0 -0.40940585731017087 0.26253982409842791 0 -0.40033939617710812 0.26335986447418319 0 -0.40590008595623472 0.25965527838812952 0 -0.4010632208850578 0.25428521508771351 0 -0.40033939617710812 0.26335986447418319 0 -0.40590008595623472 0.25965527838812952 0 -0.40940585731017087 0.26253982409842791 0 -0.40033939617710812 0.26335986447418319 0 -0.40398882774078099 0.27073504605987903 0 -0.40033939617710812 0.26335986447418319 0 -0.40398882774078099 0.27073504605987903 0 -0.39776808454838192 0.2720156930439796 0 -0.410379294460471 0.27541382395923703 0 -0.40398882774078099 0.27073504605987903 0 -0.40205150620777308 0.2803460247235674 0 -0.40398882774078099 0.27073504605987903 0 -0.40205150620777308 0.2803460247235674 0 -0.39776808454838192 0.2720156930439796 0 -0.40205150620777308 0.2803460247235674 0 -0.39371104488885722 0.27901329122678969 0 -0.39776808454838192 0.2720156930439796 0 -0.38864882391967892 0.27107703769164521 0 -0.39371104488885722 0.27901329122678969 0 -0.39776808454838192 0.2720156930439796 0 -0.38864882391967892 0.27107703769164521 0 -0.40033939617710812 0.26335986447418319 0 -0.39776808454838192 0.2720156930439796 0 -0.34931857204819211 0.28077777402051401 0 -0.34884269561760822 0.25954676056681569 0 -0.3338480683394196 0.27243977245121498 0 -0.34931857204819211 0.28077777402051401 0 -0.34884269561760822 0.25954676056681569 0 -0.36736386995692522 0.27246305202664078 0 -0.36502312147435351 0.24619534276921981 0 -0.36736386995692522 0.27246305202664078 0 -0.38029180335294221 0.24586642203902559 0 -0.36502312147435351 0.24619534276921981 0 -0.36736386995692522 0.27246305202664078 0 -0.36502312147435351 0.24619534276921981 0 -0.34884269561760822 0.25954676056681569 0 -0.36736386995692522 0.27246305202664078 0 -0.37768711998574511 0.29561343959905451 0 -0.36736386995692522 0.27246305202664078 0 -0.35774753283300142 0.29729499185912578 0 -0.37768711998574511 0.29561343959905451 0 -0.36807777967912431 0.30722481019911768 0 -0.35774753283300142 0.29729499185912578 0 -0.36807777967912431 0.30722481019911768 0 -0.35811079941862262 0.31118637516556608 0 -0.36683361060986602 0.31805143841383549 0 -0.36807777967912431 0.30722481019911768 0 -0.35811079941862262 0.31118637516556608 0 -0.35774753283300142 0.29729499185912578 0 -0.35811079941862262 0.31118637516556608 0 -0.35774753283300142 0.29729499185912578 0 -0.33986075297096008 0.31269084051936707 0 -0.34931857204819211 0.28077777402051401 0 -0.35774753283300142 0.29729499185912578 0 -0.32761800087276038 0.29785520883101968 0 -0.34931857204819211 0.28077777402051401 0 -0.36736386995692522 0.27246305202664078 0 -0.35774753283300142 0.29729499185912578 0 -0.32761800087276038 0.29785520883101968 0 -0.3338480683394196 0.27243977245121498 0 -0.34931857204819211 0.28077777402051401 0 -0.32761800087276038 0.29785520883101968 0 -0.3338480683394196 0.27243977245121498 0 -0.32761800087276038 0.29785520883101968 0 -0.32138793340610128 0.32327064521082433 0 -0.33986075297096008 0.31269084051936707 0 -0.35774753283300142 0.29729499185912578 0 -0.32761800087276038 0.29785520883101968 0 -0.33986075297096008 0.31269084051936707 0 -0.32761800087276038 0.29785520883101968 0 -0.32138793340610128 0.32327064521082433 0 -0.32761800087276038 0.29785520883101968 0 -0.30367480185376622 0.29039850083883129 0 -0.30867142476971993 0.3086490850675685 0 -0.32761800087276038 0.29785520883101968 0 -0.30867142476971993 0.3086490850675685 0 -0.32138793340610128 0.32327064521082433 0 -0.32761800087276038 0.29785520883101968 0 -0.31604946208254181 0.27722995520626192 0 -0.3338480683394196 0.27243977245121498 0 -0.32761800087276038 0.29785520883101968 0 -0.31604946208254181 0.27722995520626192 0 -0.30367480185376622 0.29039850083883129 0 -0.31604946208254181 0.27722995520626192 0 -0.3338480683394196 0.27243977245121498 0 -0.31486817053965671 0.259311730800519 0 -0.33117357873461722 0.2499228471262179 0 -0.34884269561760822 0.25954676056681569 0 -0.3338480683394196 0.27243977245121498 0 -0.33117357873461722 0.2499228471262179 0 -0.3338480683394196 0.27243977245121498 0 -0.31486817053965671 0.259311730800519 0 -0.29608417921845082 0.24557422084738381 0 -0.31486817053965671 0.259311730800519 0 -0.29607781357945739 0.26642128740226201 0 -0.31604946208254181 0.27722995520626192 0 -0.29607781357945739 0.26642128740226201 0 -0.30367480185376622 0.29039850083883129 0 -0.31604946208254181 0.27722995520626192 0 -0.31486817053965671 0.259311730800519 0 -0.29607781357945739 0.26642128740226201 0 -0.29607781357945739 0.26642128740226201 0 -0.27767608640152408 0.27172981114115341 0 -0.28388312348519018 0.28896752958644639 0 -0.29607781357945739 0.26642128740226201 0 -0.27420087427913759 0.25212895866241708 0 -0.27767608640152408 0.27172981114115341 0 -0.29608417921845082 0.24557422084738381 0 -0.29607781357945739 0.26642128740226201 0 -0.27420087427913759 0.25212895866241708 0 -0.27420087427913759 0.25212895866241708 0 -0.27767608640152408 0.27172981114115341 0 -0.26082075272945171 0.26696602463187541 0 -0.27767608640152408 0.27172981114115341 0 -0.26082075272945171 0.26696602463187541 0 -0.26502408822317519 0.28694872128125593 0 -0.26082075272945171 0.26696602463187541 0 -0.26502408822317519 0.28694872128125593 0 -0.24960952125621569 0.27943640906458961 0 -0.26082075272945171 0.26696602463187541 0 -0.24190654726470731 0.26223585525212378 0 -0.24960952125621569 0.27943640906458961 0 -0.2531312179692447 0.24693268900981011 0 -0.26082075272945171 0.26696602463187541 0 -0.24190654726470731 0.26223585525212378 0 -0.2531312179692447 0.24693268900981011 0 -0.27420087427913759 0.25212895866241708 0 -0.26082075272945171 0.26696602463187541 0 -0.25106380979670567 0.30125546960525051 0 -0.27042162876619152 0.30569306745762659 0 -0.2574293782486276 0.32176370381274449 0 -0.25106380979670567 0.30125546960525051 0 -0.26502408822317519 0.28694872128125593 0 -0.27042162876619152 0.30569306745762659 0 -0.25106380979670567 0.30125546960525051 0 -0.26502408822317519 0.28694872128125593 0 -0.24960952125621569 0.27943640906458961 0 -0.27767608640152408 0.27172981114115341 0 -0.26502408822317519 0.28694872128125593 0 -0.28388312348519018 0.28896752958644639 0 -0.26502408822317519 0.28694872128125593 0 -0.27042162876619152 0.30569306745762659 0 -0.28388312348519018 0.28896752958644639 0 -0.27042162876619152 0.30569306745762659 0 -0.28967326919033942 0.31009131037354959 0 -0.28388312348519018 0.28896752958644639 0 -0.29607781357945739 0.26642128740226201 0 -0.28388312348519018 0.28896752958644639 0 -0.30367480185376622 0.29039850083883129 0 -0.28967326919033942 0.31009131037354959 0 -0.28388312348519018 0.28896752958644639 0 -0.30367480185376622 0.29039850083883129 0 -0.28967326919033942 0.31009131037354959 0 -0.30367480185376622 0.29039850083883129 0 -0.30867142476971993 0.3086490850675685 0 -0.30867142476971993 0.3086490850675685 0 -0.30141717587858141 0.32639476749506402 0 -0.32138793340610128 0.32327064521082433 0 -0.28967326919033942 0.31009131037354959 0 -0.30867142476971993 0.3086490850675685 0 -0.30141717587858141 0.32639476749506402 0 -0.30141717587858141 0.32639476749506402 0 -0.29396395639409179 0.34460140573434261 0 -0.31515786593944378 0.34868608159062953 0 -0.27277004684873968 0.34051672987805581 0 -0.29396395639409179 0.34460140573434261 0 -0.30141717587858141 0.32639476749506402 0 -0.27760631134672259 0.32365313592770578 0 -0.29396395639409179 0.34460140573434261 0 -0.27760631134672259 0.32365313592770578 0 -0.27277004684873968 0.34051672987805581 0 -0.29396395639409179 0.34460140573434261 0 -0.28967326919033942 0.31009131037354959 0 -0.30141717587858141 0.32639476749506402 0 -0.27760631134672259 0.32365313592770578 0 -0.27042162876619152 0.30569306745762659 0 -0.28967326919033942 0.31009131037354959 0 -0.27760631134672259 0.32365313592770578 0 -0.27042162876619152 0.30569306745762659 0 -0.27760631134672259 0.32365313592770578 0 -0.2574293782486276 0.32176370381274449 0 -0.27760631134672259 0.32365313592770578 0 -0.27277004684873968 0.34051672987805581 0 -0.2574293782486276 0.32176370381274449 0 -0.27277004684873968 0.34051672987805581 0 -0.25157613730338768 0.3364320540217689 0 -0.27277004684873968 0.34051672987805581 0 -0.25157613730338768 0.3364320540217689 0 -0.2574293782486276 0.32176370381274449 0 -0.26662436826969332 0.35779387230755128 0 -0.27585863340831501 0.37363676860449357 0 -0.25380087848459781 0.38063160829692472 0 -0.26662436826969332 0.35779387230755128 0 -0.25380087848459781 0.38063160829692472 0 -0.249114704749196 0.3569469431542493 0 -0.25157613730338768 0.3364320540217689 0 -0.26662436826969332 0.35779387230755128 0 -0.249114704749196 0.3569469431542493 0 -0.27277004684873968 0.34051672987805581 0 -0.25157613730338768 0.3364320540217689 0 -0.26662436826969332 0.35779387230755128 0 -0.27277004684873968 0.34051672987805581 0 -0.26662436826969332 0.35779387230755128 0 -0.28134100215347352 0.35336707181013899 0 -0.26662436826969332 0.35779387230755128 0 -0.27585863340831501 0.37363676860449357 0 -0.28134100215347352 0.35336707181013899 0 -0.27585863340831501 0.37363676860449357 0 -0.29435599599358753 0.36245032372330072 0 -0.2918860081143686 0.37997608933648452 0 -0.27585863340831501 0.37363676860449357 0 -0.29435599599358753 0.36245032372330072 0 -0.28134100215347352 0.35336707181013899 0 -0.29435599599358753 0.36245032372330072 0 -0.28134100215347352 0.35336707181013899 0 -0.29396395639409179 0.34460140573434261 0 -0.27277004684873968 0.34051672987805581 0 -0.28134100215347352 0.35336707181013899 0 -0.29396395639409179 0.34460140573434261 0 -0.29396395639409179 0.34460140573434261 0 -0.31515786593944378 0.34868608159062953 0 -0.29435599599358753 0.36245032372330072 0 -0.29396395639409179 0.34460140573434261 0 -0.31515786593944378 0.34868608159062953 0 -0.30890779001438418 0.37418314207871411 0 -0.31515786593944378 0.34868608159062953 0 -0.29435599599358753 0.36245032372330072 0 -0.30890779001438418 0.37418314207871411 0 -0.2918860081143686 0.37997608933648452 0 -0.29435599599358753 0.36245032372330072 0 -0.30890779001438418 0.37418314207871411 0 -0.31515786593944378 0.34868608159062953 0 -0.30890779001438418 0.37418314207871411 0 -0.331537207553941 0.36591090863466191 0 -0.33296821774916502 0.38126200566806601 0 -0.30890779001438418 0.37418314207871411 0 -0.331537207553941 0.36591090863466191 0 -0.31515786593944378 0.34868608159062953 0 -0.331537207553941 0.36591090863466191 0 -0.3463344936097662 0.37147410460121433 0 -0.34650500258920258 0.3600319169217801 0 -0.331537207553941 0.36591090863466191 0 -0.33787041045635791 0.35306344207829982 0 -0.34650500258920258 0.3600319169217801 0 -0.331537207553941 0.36591090863466191 0 -0.3463344936097662 0.37147410460121433 0 -0.33296821774916502 0.38126200566806601 0 -0.33787041045635791 0.35306344207829982 0 -0.33944512692308049 0.33421651780484563 0 -0.35140148370920787 0.34496101913459443 0 -0.331537207553941 0.36591090863466191 0 -0.33787041045635791 0.35306344207829982 0 -0.31515786593944378 0.34868608159062953 0 -0.33787041045635791 0.35306344207829982 0 -0.31515786593944378 0.34868608159062953 0 -0.33944512692308049 0.33421651780484563 0 -0.33787041045635791 0.35306344207829982 0 -0.31515786593944378 0.34868608159062953 0 -0.31515786593944378 0.34868608159062953 0 -0.32138793340610128 0.32327064521082433 0 -0.33944512692308049 0.33421651780484563 0 -0.30141717587858141 0.32639476749506402 0 -0.31515786593944378 0.34868608159062953 0 -0.32138793340610128 0.32327064521082433 0 -0.31515786593944378 0.34868608159062953 0 -0.32138793340610128 0.32327064521082433 0 -0.32138793340610128 0.32327064521082433 0 -0.33986075297096008 0.31269084051936707 0 -0.33944512692308049 0.33421651780484563 0 -0.33944512692308049 0.33421651780484563 0 -0.35545214486597748 0.33490513799591132 0 -0.35368377003694812 0.32242246919647111 0 -0.33944512692308049 0.33421651780484563 0 -0.35545214486597748 0.33490513799591132 0 -0.35140148370920787 0.34496101913459443 0 -0.35545214486597748 0.33490513799591132 0 -0.35368377003694812 0.32242246919647111 0 -0.3647709351345032 0.32883458068130972 0 -0.3588558516928434 0.34060146980375949 0 -0.36392998719954911 0.34460684724513141 0 -0.35140148370920787 0.34496101913459443 0 -0.35545214486597748 0.33490513799591132 0 -0.3588558516928434 0.34060146980375949 0 -0.35140148370920787 0.34496101913459443 0 -0.33986075297096008 0.31269084051936707 0 -0.33944512692308049 0.33421651780484563 0 -0.35368377003694812 0.32242246919647111 0 -0.35811079941862262 0.31118637516556608 0 -0.33986075297096008 0.31269084051936707 0 -0.35368377003694812 0.32242246919647111 0 -0.35811079941862262 0.31118637516556608 0 -0.35368377003694812 0.32242246919647111 0 -0.36683361060986602 0.31805143841383549 0 -0.35368377003694812 0.32242246919647111 0 -0.36683361060986602 0.31805143841383549 0 -0.3647709351345032 0.32883458068130972 0 -0.36683361060986602 0.31805143841383549 0 -0.37476590451375608 0.32701692364975959 0 -0.3647709351345032 0.32883458068130972 0 -0.38000983554838652 0.31397780595800662 0 -0.36807777967912431 0.30722481019911768 0 -0.36683361060986602 0.31805143841383549 0 -0.38000983554838652 0.31397780595800662 0 -0.36683361060986602 0.31805143841383549 0 -0.37476590451375608 0.32701692364975959 0 -0.38395459535283782 0.34161228673305361 0 -0.37258292089269951 0.336967954967481 0 -0.36392998719954911 0.34460684724513141 0 -0.35545214486597748 0.33490513799591132 0 -0.3588558516928434 0.34060146980375949 0 -0.36463979099663918 0.33793287483940099 0 -0.36463979099663918 0.33793287483940099 0 -0.37258292089269951 0.336967954967481 0 -0.36392998719954911 0.34460684724513141 0 -0.3588558516928434 0.34060146980375949 0 -0.36463979099663918 0.33793287483940099 0 -0.36392998719954911 0.34460684724513141 0 -0.36463979099663918 0.33793287483940099 0 -0.3647709351345032 0.32883458068130972 0 -0.36918988788439949 0.33268808353448781 0 -0.35545214486597748 0.33490513799591132 0 -0.36463979099663918 0.33793287483940099 0 -0.3647709351345032 0.32883458068130972 0 -0.37476590451375608 0.32701692364975959 0 -0.3647709351345032 0.32883458068130972 0 -0.36918988788439949 0.33268808353448781 0 -0.36463979099663918 0.33793287483940099 0 -0.36918988788439949 0.33268808353448781 0 -0.37258292089269951 0.336967954967481 0 -0.37476590451375608 0.32701692364975959 0 -0.36918988788439949 0.33268808353448781 0 -0.37258292089269951 0.336967954967481 0 -0.38395459535283782 0.34161228673305361 0 -0.36058295497327147 0.35744080256597238 0 -0.38395459535283782 0.34161228673305361 0 -0.36392998719954911 0.34460684724513141 0 -0.36058295497327147 0.35744080256597238 0 -0.38395459535283782 0.34161228673305361 0 -0.3735027008302661 0.35039121556722208 0 -0.36058295497327147 0.35744080256597238 0 -0.3735027008302661 0.35039121556722208 0 -0.36058295497327147 0.35744080256597238 0 -0.36360498659759932 0.35802323496648619 0 -0.36058295497327147 0.35744080256597238 0 -0.36360498659759932 0.35802323496648619 0 -0.36140639251279061 0.35970352684053603 0 -0.36058295497327147 0.35744080256597238 0 -0.36360498659759932 0.35802323496648619 0 -0.36058295497327147 0.35744080256597238 0 -0.36140639251279061 0.35970352684053603 0 -0.35758652915458661 0.35947014123210841 0 -0.36360498659759932 0.35802323496648619 0 -0.37042407261040122 0.35672863843346497 0 -0.36795867484321182 0.36004187077055538 0 -0.3735027008302661 0.35039121556722208 0 -0.36360498659759932 0.35802323496648619 0 -0.37042407261040122 0.35672863843346497 0 -0.3735027008302661 0.35039121556722208 0 -0.37042407261040122 0.35672863843346497 0 -0.37405279921090617 0.36042118382240212 0 -0.37042407261040122 0.35672863843346497 0 -0.37405279921090617 0.36042118382240212 0 -0.36795867484321182 0.36004187077055538 0 -0.37731452350920092 0.37011675257853899 0 -0.37405279921090617 0.36042118382240212 0 -0.3663133189227154 0.37612440131603192 0 -0.37405279921090617 0.36042118382240212 0 -0.3663133189227154 0.37612440131603192 0 -0.37405279921090617 0.36042118382240212 0 -0.36795867484321182 0.36004187077055538 0 -0.36585684404547869 0.36516271165491943 0 -0.37405279921090617 0.36042118382240212 0 -0.36585684404547869 0.36516271165491943 0 -0.3663133189227154 0.37612440131603192 0 -0.37753484361741813 0.377041935452195 0 -0.37731452350920092 0.37011675257853899 0 -0.3663133189227154 0.37612440131603192 0 -0.36292520330862221 0.37056201011002382 0 -0.36585684404547869 0.36516271165491943 0 -0.3663133189227154 0.37612440131603192 0 -0.36292520330862221 0.37056201011002382 0 -0.36277348992759573 0.37432651988463761 0 -0.3663133189227154 0.37612440131603192 0 -0.36292520330862221 0.37056201011002382 0 -0.36585684404547869 0.36516271165491943 0 -0.36237155390377568 0.36613317406179852 0 -0.36292520330862221 0.37056201011002382 0 -0.36237155390377568 0.36613317406179852 0 -0.35731080974354568 0.37106324363273141 0 -0.36292520330862221 0.37056201011002382 0 -0.36277348992759573 0.37432651988463761 0 -0.35731080974354568 0.37106324363273141 0 -0.36360498659759932 0.35802323496648619 0 -0.36795867484321182 0.36004187077055538 0 -0.36424396615190952 0.36110042959600808 0 -0.36795867484321182 0.36004187077055538 0 -0.36424396615190952 0.36110042959600808 0 -0.36585684404547869 0.36516271165491943 0 -0.36424396615190952 0.36110042959600808 0 -0.36585684404547869 0.36516271165491943 0 -0.36337147244693752 0.36371983528870783 0 -0.36585684404547869 0.36516271165491943 0 -0.36337147244693752 0.36371983528870783 0 -0.36237155390377568 0.36613317406179852 0 -0.36337147244693752 0.36371983528870783 0 -0.36237155390377568 0.36613317406179852 0 -0.36101352568658612 0.36248302584210512 0 -0.36237155390377568 0.36613317406179852 0 -0.36101352568658612 0.36248302584210512 0 -0.35542334710006029 0.36500179334408839 0 -0.36424396615190952 0.36110042959600808 0 -0.36337147244693752 0.36371983528870783 0 -0.36101352568658612 0.36248302584210512 0 -0.36424396615190952 0.36110042959600808 0 -0.36101352568658612 0.36248302584210512 0 -0.36140639251279061 0.35970352684053603 0 -0.36360498659759932 0.35802323496648619 0 -0.36424396615190952 0.36110042959600808 0 -0.36140639251279061 0.35970352684053603 0 -0.36101352568658612 0.36248302584210512 0 -0.36140639251279061 0.35970352684053603 0 -0.35758652915458661 0.35947014123210841 0 -0.36101352568658612 0.36248302584210512 0 -0.35758652915458661 0.35947014123210841 0 -0.35542334710006029 0.36500179334408839 0 -0.35758652915458661 0.35947014123210841 0 -0.35542334710006029 0.36500179334408839 0 -0.34650500258920258 0.3600319169217801 0 -0.35731080974354568 0.37106324363273141 0 -0.3463344936097662 0.37147410460121433 0 -0.35412798806189061 0.37922684941034412 0 -0.36277348992759573 0.37432651988463761 0 -0.35731080974354568 0.37106324363273141 0 -0.35412798806189061 0.37922684941034412 0 -0.35542334710006029 0.36500179334408839 0 -0.35731080974354568 0.37106324363273141 0 -0.3463344936097662 0.37147410460121433 0 -0.36237155390377568 0.36613317406179852 0 -0.35542334710006029 0.36500179334408839 0 -0.35731080974354568 0.37106324363273141 0 -0.35542334710006029 0.36500179334408839 0 -0.3463344936097662 0.37147410460121433 0 -0.34650500258920258 0.3600319169217801 0 -0.33787041045635791 0.35306344207829982 0 -0.36058295497327147 0.35744080256597238 0 -0.33787041045635791 0.35306344207829982 0 -0.36058295497327147 0.35744080256597238 0 -0.35140148370920787 0.34496101913459443 0 -0.33787041045635791 0.35306344207829982 0 -0.36058295497327147 0.35744080256597238 0 -0.34650500258920258 0.3600319169217801 0 -0.36392998719954911 0.34460684724513141 0 -0.36058295497327147 0.35744080256597238 0 -0.35140148370920787 0.34496101913459443 0 -0.36058295497327147 0.35744080256597238 0 -0.35758652915458661 0.35947014123210841 0 -0.34650500258920258 0.3600319169217801 0 -0.36058295497327147 0.35744080256597238 0 -0.35758652915458661 0.35947014123210841 0 -0.35526669057772509 0.39853774187810609 0 -0.34422006223273471 0.42095108244018042 0 -0.33877455646616789 0.39912092951273231 0 -0.35526669057772509 0.39853774187810609 0 -0.35412798806189061 0.37922684941034412 0 -0.33877455646616789 0.39912092951273231 0 -0.35526669057772509 0.39853774187810609 0 -0.35412798806189061 0.37922684941034412 0 -0.3663133189227154 0.37612440131603192 0 -0.3463344936097662 0.37147410460121433 0 -0.35412798806189061 0.37922684941034412 0 -0.33296821774916502 0.38126200566806601 0 -0.35526669057772509 0.39853774187810609 0 -0.3663133189227154 0.37612440131603192 0 -0.38090570125532941 0.38353588172139069 0 -0.3663133189227154 0.37612440131603192 0 -0.36970578379049829 0.39768042913919738 0 -0.36277348992759573 0.37432651988463761 0 -0.35412798806189061 0.37922684941034412 0 -0.3663133189227154 0.37612440131603192 0 -0.36277348992759573 0.37432651988463761 0 -0.3663133189227154 0.37612440131603192 0 -0.38090570125532941 0.38353588172139069 0 -0.3663133189227154 0.37612440131603192 0 -0.38090570125532941 0.38353588172139069 0 -0.37753484361741813 0.377041935452195 0 -0.3663133189227154 0.37612440131603192 0 -0.35526669057772509 0.39853774187810609 0 -0.3663133189227154 0.37612440131603192 0 -0.36970578379049829 0.39768042913919738 0 -0.35526669057772509 0.39853774187810609 0 -0.36970578379049829 0.39768042913919738 0 -0.3616648325953653 0.41567330411890779 0 -0.37929724053814667 0.41359817890465828 0 -0.3616648325953653 0.41567330411890779 0 -0.3665098065971315 0.43020378331415138 0 -0.37929724053814667 0.41359817890465828 0 -0.36970578379049829 0.39768042913919738 0 -0.3616648325953653 0.41567330411890779 0 -0.3616648325953653 0.41567330411890779 0 -0.3665098065971315 0.43020378331415138 0 -0.35244884430435058 0.43260229015870671 0 -0.37801150627797953 0.43762868522352921 0 -0.37929724053814667 0.41359817890465828 0 -0.3665098065971315 0.43020378331415138 0 -0.37929724053814667 0.41359817890465828 0 -0.3665098065971315 0.43020378331415138 0 -0.3665098065971315 0.43020378331415138 0 -0.35244884430435058 0.43260229015870671 0 -0.35372237265611622 0.44680938772364448 0 -0.3616648325953653 0.41567330411890779 0 -0.35244884430435058 0.43260229015870671 0 -0.34422006223273471 0.42095108244018042 0 -0.35526669057772509 0.39853774187810609 0 -0.3616648325953653 0.41567330411890779 0 -0.34422006223273471 0.42095108244018042 0 -0.35526669057772509 0.39853774187810609 0 -0.34422006223273471 0.42095108244018042 0 -0.34422006223273471 0.42095108244018042 0 -0.32516616431115258 0.40845593129774099 0 -0.33877455646616789 0.39912092951273231 0 -0.34422006223273471 0.42095108244018042 0 -0.3262311683023511 0.42567797593164991 0 -0.32516616431115258 0.40845593129774099 0 -0.34422006223273471 0.42095108244018042 0 -0.3262311683023511 0.42567797593164991 0 -0.33317343388774429 0.44336442300225481 0 -0.34422006223273471 0.42095108244018042 0 -0.33317343388774429 0.44336442300225481 0 -0.35244884430435058 0.43260229015870671 0 -0.34422006223273471 0.42095108244018042 0 -0.33317343388774429 0.44336442300225481 0 -0.31581321982707461 0.43662351433797453 0 -0.3262311683023511 0.42567797593164991 0 -0.31278296125304961 0.41899492858009851 0 -0.31581321982707461 0.43662351433797453 0 -0.3262311683023511 0.42567797593164991 0 -0.33317343388774429 0.44336442300225481 0 -0.32516616431115258 0.40845593129774099 0 -0.31278296125304961 0.41899492858009851 0 -0.30265771408932612 0.39968020256679898 0 -0.3262311683023511 0.42567797593164991 0 -0.32516616431115258 0.40845593129774099 0 -0.31278296125304961 0.41899492858009851 0 -0.32516616431115258 0.40845593129774099 0 -0.32049944239096723 0.39319673022968399 0 -0.30265771408932612 0.39968020256679898 0 -0.32516616431115258 0.40845593129774099 0 -0.30265771408932612 0.39968020256679898 0 -0.32049944239096723 0.39319673022968399 0 -0.33877455646616789 0.39912092951273231 0 -0.33296821774916502 0.38126200566806601 0 -0.32516616431115258 0.40845593129774099 0 -0.32049944239096723 0.39319673022968399 0 -0.33877455646616789 0.39912092951273231 0 -0.35412798806189061 0.37922684941034412 0 -0.33877455646616789 0.39912092951273231 0 -0.33296821774916502 0.38126200566806601 0 -0.30890779001438418 0.37418314207871411 0 -0.32049944239096723 0.39319673022968399 0 -0.33296821774916502 0.38126200566806601 0 -0.30890779001438418 0.37418314207871411 0 -0.30265771408932612 0.39968020256679898 0 -0.30890779001438418 0.37418314207871411 0 -0.30265771408932612 0.39968020256679898 0 -0.2918860081143686 0.37997608933648452 0 -0.30890779001438418 0.37418314207871411 0 -0.32049944239096723 0.39319673022968399 0 -0.30265771408932612 0.39968020256679898 0 -0.30265771408932612 0.39968020256679898 0 -0.27764990706623038 0.38993000970911479 0 -0.28975766940601633 0.40714857089892759 0 -0.27764990706623038 0.38993000970911479 0 -0.28090671389302529 0.41955358990616931 0 -0.28975766940601633 0.40714857089892759 0 -0.30265771408932612 0.39968020256679898 0 -0.27764990706623038 0.38993000970911479 0 -0.27585863340831501 0.37363676860449357 0 -0.2918860081143686 0.37997608933648452 0 -0.27764990706623038 0.38993000970911479 0 -0.30265771408932612 0.39968020256679898 0 -0.2918860081143686 0.37997608933648452 0 -0.27764990706623038 0.38993000970911479 0 -0.27585863340831501 0.37363676860449357 0 -0.27764990706623038 0.38993000970911479 0 -0.27585863340831501 0.37363676860449357 0 -0.27764990706623038 0.38993000970911479 0 -0.25380087848459781 0.38063160829692472 0 -0.27764990706623038 0.38993000970911479 0 -0.25380087848459781 0.38063160829692472 0 -0.27764990706623038 0.38993000970911479 0 -0.28090671389302529 0.41955358990616931 0 -0.27764990706623038 0.38993000970911479 0 -0.25873736150193488 0.40700006509544262 0 -0.28090671389302529 0.41955358990616931 0 -0.25380087848459781 0.38063160829692472 0 -0.25873736150193488 0.40700006509544262 0 -0.24556990850205021 0.39657954597392908 0 -0.27764990706623038 0.38993000970911479 0 -0.25380087848459781 0.38063160829692472 0 -0.25873736150193488 0.40700006509544262 0 -0.26359883702550041 0.4250495928908361 0 -0.27134104319856189 0.43665102019146329 0 -0.2569592489759962 0.43872134694419129 0 -0.26359883702550041 0.4250495928908361 0 -0.25004981755798378 0.42332194231691411 0 -0.2569592489759962 0.43872134694419129 0 -0.26359883702550041 0.4250495928908361 0 -0.25004981755798378 0.42332194231691411 0 -0.25873736150193488 0.40700006509544262 0 -0.26359883702550041 0.4250495928908361 0 -0.25873736150193488 0.40700006509544262 0 -0.28090671389302529 0.41955358990616931 0 -0.26359883702550041 0.4250495928908361 0 -0.28090671389302529 0.41955358990616931 0 -0.27134104319856189 0.43665102019146329 0 -0.28090671389302529 0.41955358990616931 0 -0.27134104319856189 0.43665102019146329 0 -0.28416352071981987 0.44917717010322389 0 -0.28090671389302529 0.41955358990616931 0 -0.28896538706249231 0.43183550042086888 0 -0.28416352071981987 0.44917717010322389 0 -0.28896538706249231 0.43183550042086888 0 -0.29781634257548351 0.41943048141362721 0 -0.29297497106164061 0.43918076026045538 0 -0.28090671389302529 0.41955358990616931 0 -0.28896538706249231 0.43183550042086888 0 -0.29781634257548351 0.41943048141362721 0 -0.28090671389302529 0.41955358990616931 0 -0.28416352071981987 0.44917717010322389 0 -0.29781634257548351 0.41943048141362721 0 -0.29297497106164061 0.43918076026045538 0 -0.28090671389302529 0.41955358990616931 0 -0.28975766940601633 0.40714857089892759 0 -0.29781634257548351 0.41943048141362721 0 -0.30265771408932612 0.39968020256679898 0 -0.28975766940601633 0.40714857089892759 0 -0.29781634257548351 0.41943048141362721 0 -0.31278296125304961 0.41899492858009851 0 -0.30265771408932612 0.39968020256679898 0 -0.29781634257548351 0.41943048141362721 0 -0.30265771408932612 0.39968020256679898 0 -0.29781634257548351 0.41943048141362721 0 -0.29781634257548351 0.41943048141362721 0 -0.30346237316451841 0.43252260376760399 0 -0.29297497106164061 0.43918076026045538 0 -0.31581321982707461 0.43662351433797453 0 -0.31278296125304961 0.41899492858009851 0 -0.30346237316451841 0.43252260376760399 0 -0.31278296125304961 0.41899492858009851 0 -0.29781634257548351 0.41943048141362721 0 -0.30346237316451841 0.43252260376760399 0 -0.30346237316451841 0.43252260376760399 0 -0.30088919269026709 0.45158928802752951 0 -0.29297497106164061 0.43918076026045538 0 -0.31581321982707461 0.43662351433797453 0 -0.30346237316451841 0.43252260376760399 0 -0.30088919269026709 0.45158928802752951 0 -0.31581321982707461 0.43662351433797453 0 -0.30088919269026709 0.45158928802752951 0 -0.31680117933123292 0.45064420026363222 0 -0.30088919269026709 0.45158928802752951 0 -0.30454513526728688 0.46537593593914628 0 -0.31680117933123292 0.45064420026363222 0 -0.30088919269026709 0.45158928802752951 0 -0.29711869130211888 0.46061491927310538 0 -0.30454513526728688 0.46537593593914628 0 -0.29711869130211888 0.46061491927310538 0 -0.30454513526728688 0.46537593593914628 0 -0.29471453791860053 0.46939665363099059 0 -0.28813359954779783 0.4589310391072835 0 -0.28416352071981987 0.44917717010322389 0 -0.2874203275466144 0.47880075030027808 0 -0.28416352071981987 0.44917717010322389 0 -0.2874203275466144 0.47880075030027808 0 -0.28416352071981987 0.44917717010322389 0 -0.2766768142058082 0.46420198288389558 0 -0.2874203275466144 0.47880075030027808 0 -0.29711869130211888 0.46061491927310538 0 -0.28813359954779783 0.4589310391072835 0 -0.29471453791860053 0.46939665363099059 0 -0.30088919269026709 0.45158928802752951 0 -0.29711869130211888 0.46061491927310538 0 -0.28813359954779783 0.4589310391072835 0 -0.30088919269026709 0.45158928802752951 0 -0.28813359954779783 0.4589310391072835 0 -0.29297497106164061 0.43918076026045538 0 -0.28896538706249231 0.43183550042086888 0 -0.29297497106164061 0.43918076026045538 0 -0.28416352071981987 0.44917717010322389 0 -0.28813359954779783 0.4589310391072835 0 -0.29297497106164061 0.43918076026045538 0 -0.28416352071981987 0.44917717010322389 0 -0.28813359954779783 0.4589310391072835 0 -0.29297497106164061 0.43918076026045538 0 -0.27134104319856189 0.43665102019146329 0 -0.28416352071981987 0.44917717010322389 0 -0.26771590574324722 0.45195170441935001 0 -0.28416352071981987 0.44917717010322389 0 -0.26771590574324722 0.45195170441935001 0 -0.2766768142058082 0.46420198288389558 0 -0.2766768142058082 0.46420198288389558 0 -0.2671528961386016 0.46555759053981999 0 -0.27437857100973351 0.475416736458181 0 -0.26771590574324722 0.45195170441935001 0 -0.2766768142058082 0.46420198288389558 0 -0.2671528961386016 0.46555759053981999 0 -0.26771590574324722 0.45195170441935001 0 -0.2671528961386016 0.46555759053981999 0 -0.24502346138557951 0.45900341231781822 0 -0.2671528961386016 0.46555759053981999 0 -0.26034436315537213 0.4762375013964314 0 -0.24502346138557951 0.45900341231781822 0 -0.26771590574324722 0.45195170441935001 0 -0.2569592489759962 0.43872134694419129 0 -0.24502346138557951 0.45900341231781822 0 -0.27134104319856189 0.43665102019146329 0 -0.26771590574324722 0.45195170441935001 0 -0.2569592489759962 0.43872134694419129 0 -0.25800633759813929 0.5 0 -0.26740663604594739 0.48624378741079483 0 -0.24884138707773029 0.48349773454732548 0 -0.26034436315537213 0.4762375013964314 0 -0.26740663604594739 0.48624378741079483 0 -0.24884138707773029 0.48349773454732548 0 -0.26034436315537213 0.4762375013964314 0 -0.24884138707773029 0.48349773454732548 0 -0.24502346138557951 0.45900341231781822 0 -0.26034436315537213 0.4762375013964314 0 -0.27437857100973351 0.475416736458181 0 -0.26740663604594739 0.48624378741079483 0 -0.2671528961386016 0.46555759053981999 0 -0.26034436315537213 0.4762375013964314 0 -0.27437857100973351 0.475416736458181 0 -0.2766768142058082 0.46420198288389558 0 -0.27437857100973351 0.475416736458181 0 -0.2874203275466144 0.47880075030027808 0 -0.27437857100973351 0.475416736458181 0 -0.27963354227640791 0.4853882665832146 0 -0.2874203275466144 0.47880075030027808 0 -0.27437857100973351 0.475416736458181 0 -0.27963354227640791 0.4853882665832146 0 -0.26740663604594739 0.48624378741079483 0 -0.25800633759813929 0.5 0 -0.26740663604594739 0.48624378741079483 0 -0.28163319400246661 0.5 0 -0.27963354227640791 0.4853882665832146 0 -0.26740663604594739 0.48624378741079483 0 -0.28163319400246661 0.5 0 -0.28163319400246661 0.5 0 -0.28876445196314082 0.4867903731984855 0 -0.29642539260374201 0.49230700772818758 0 -0.28163319400246661 0.5 0 -0.29642539260374201 0.49230700772818758 0 -0.30526005040679388 0.50000000000000644 0 -0.27963354227640791 0.4853882665832146 0 -0.28163319400246661 0.5 0 -0.28876445196314082 0.4867903731984855 0 -0.28876445196314082 0.4867903731984855 0 -0.29642539260374201 0.49230700772818758 0 -0.29725146563495608 0.48661716705021751 0 -0.28813359954779783 0.4589310391072835 0 -0.2874203275466144 0.47880075030027808 0 -0.29471453791860053 0.46939665363099059 0 -0.27963354227640791 0.4853882665832146 0 -0.28876445196314082 0.4867903731984855 0 -0.2874203275466144 0.47880075030027808 0 -0.28876445196314082 0.4867903731984855 0 -0.2874203275466144 0.47880075030027808 0 -0.29273584077517822 0.47918018314779331 0 -0.28876445196314082 0.4867903731984855 0 -0.29273584077517822 0.47918018314779331 0 -0.29725146563495608 0.48661716705021751 0 -0.29273584077517822 0.47918018314779331 0 -0.29471453791860053 0.46939665363099059 0 -0.29878948695329399 0.47342326524329242 0 -0.2874203275466144 0.47880075030027808 0 -0.29273584077517822 0.47918018314779331 0 -0.29471453791860053 0.46939665363099059 0 -0.29273584077517822 0.47918018314779331 0 -0.31108017719776232 0.48819110412640271 0 -0.30454513526728688 0.46537593593914628 0 -0.305105212538473 0.47670034614653828 0 -0.32212680554275391 0.46577776356432898 0 -0.29273584077517822 0.47918018314779331 0 -0.305105212538473 0.47670034614653828 0 -0.31108017719776232 0.48819110412640271 0 -0.30454513526728688 0.46537593593914628 0 -0.29471453791860053 0.46939665363099059 0 -0.29878948695329399 0.47342326524329242 0 -0.30454513526728688 0.46537593593914628 0 -0.29878948695329399 0.47342326524329242 0 -0.305105212538473 0.47670034614653828 0 -0.29273584077517822 0.47918018314779331 0 -0.29878948695329399 0.47342326524329242 0 -0.305105212538473 0.47670034614653828 0 -0.29273584077517822 0.47918018314779331 0 -0.29725146563495608 0.48661716705021751 0 -0.31108017719776232 0.48819110412640271 0 -0.29642539260374201 0.49230700772818758 0 -0.31108017719776232 0.48819110412640271 0 -0.30526005040679388 0.50000000000000644 0 -0.29642539260374201 0.49230700772818758 0 -0.29725146563495608 0.48661716705021751 0 -0.31108017719776232 0.48819110412640271 0 -0.31108017719776232 0.48819110412640271 0 -0.30526005040679388 0.50000000000000644 0 -0.31108017719776232 0.48819110412640271 0 -0.3351206009456561 0.50000000000000067 0 -0.33164833646059361 0.48174046282198257 0 -0.31108017719776232 0.48819110412640271 0 -0.30526005040679388 0.50000000000000644 0 -0.3351206009456561 0.50000000000000067 0 -0.31108017719776232 0.48819110412640271 0 -0.3351206009456561 0.50000000000000067 0 -0.3351206009456561 0.50000000000000067 0 -0.33164833646059361 0.48174046282198257 0 -0.34891227571351641 0.47872606670668238 0 -0.33164833646059361 0.48174046282198257 0 -0.34150169388295382 0.46176944009043741 0 -0.34891227571351641 0.47872606670668238 0 -0.33164833646059361 0.48174046282198257 0 -0.32212680554275391 0.46577776356432898 0 -0.34150169388295382 0.46176944009043741 0 -0.305105212538473 0.47670034614653828 0 -0.31108017719776232 0.48819110412640271 0 -0.32212680554275391 0.46577776356432898 0 -0.31108017719776232 0.48819110412640271 0 -0.33164833646059361 0.48174046282198257 0 -0.32212680554275391 0.46577776356432898 0 -0.31108017719776232 0.48819110412640271 0 -0.32212680554275391 0.46577776356432898 0 -0.32212680554275391 0.46577776356432898 0 -0.31680117933123292 0.45064420026363222 0 -0.33317343388774429 0.44336442300225481 0 -0.30454513526728688 0.46537593593914628 0 -0.32212680554275391 0.46577776356432898 0 -0.31680117933123292 0.45064420026363222 0 -0.32212680554275391 0.46577776356432898 0 -0.33317343388774429 0.44336442300225481 0 -0.31581321982707461 0.43662351433797453 0 -0.31680117933123292 0.45064420026363222 0 -0.33317343388774429 0.44336442300225481 0 -0.33317343388774429 0.44336442300225481 0 -0.34150169388295382 0.46176944009043741 0 -0.35372237265611622 0.44680938772364448 0 -0.32212680554275391 0.46577776356432898 0 -0.33317343388774429 0.44336442300225481 0 -0.34150169388295382 0.46176944009043741 0 -0.34150169388295382 0.46176944009043741 0 -0.36014267911323861 0.46210572814263717 0 -0.34891227571351641 0.47872606670668238 0 -0.34150169388295382 0.46176944009043741 0 -0.35372237265611622 0.44680938772364448 0 -0.36014267911323861 0.46210572814263717 0 -0.35244884430435058 0.43260229015870671 0 -0.33317343388774429 0.44336442300225481 0 -0.35372237265611622 0.44680938772364448 0 -0.3665098065971315 0.43020378331415138 0 -0.35372237265611622 0.44680938772364448 0 -0.37801150627797953 0.43762868522352921 0 -0.3665098065971315 0.43020378331415138 0 -0.3670224273324556 0.44768135518927238 0 -0.3665098065971315 0.43020378331415138 0 -0.35372237265611622 0.44680938772364448 0 -0.3670224273324556 0.44768135518927238 0 -0.37672577201781232 0.46165919154240009 0 -0.37801150627797953 0.43762868522352921 0 -0.3670224273324556 0.44768135518927238 0 -0.35372237265611622 0.44680938772364448 0 -0.3670224273324556 0.44768135518927238 0 -0.36014267911323861 0.46210572814263717 0 -0.37672577201781232 0.46165919154240009 0 -0.3670224273324556 0.44768135518927238 0 -0.36014267911323861 0.46210572814263717 0 -0.37672577201781232 0.46165919154240009 0 -0.36014267911323861 0.46210572814263717 0 -0.36895250336195812 0.48018069852897333 0 -0.38028628816494942 0.5 0 -0.36895250336195812 0.48018069852897333 0 -0.35770344455530267 0.5 0 -0.36895250336195812 0.48018069852897333 0 -0.35770344455530267 0.5 0 -0.34891227571351641 0.47872606670668238 0 -0.3351206009456561 0.50000000000000067 0 -0.35770344455530267 0.5 0 -0.34891227571351641 0.47872606670668238 0 -0.36014267911323861 0.46210572814263717 0 -0.36895250336195812 0.48018069852897333 0 -0.34891227571351641 0.47872606670668238 0 -0.14367823897321499 0.47650424227132437 0 -0.15258370833655141 0.4629887397467829 0 -0.16283502925658211 0.47883504704658358 0 -0.14367823897321499 0.47650424227132437 0 -0.15218743921689301 0.5 0 -0.16283502925658211 0.47883504704658358 0 -0.14367823897321499 0.47650424227132437 0 -0.15218743921689301 0.5 0 -0.13040624056921249 0.48649431507048269 0 -0.15218743921689301 0.5 0 -0.13040624056921249 0.48649431507048269 0 -0.12290484643059719 0.5 0 -0.14367823897321499 0.47650424227132437 0 -0.13970975914717021 0.45842441105845833 0 -0.1243472573128805 0.47228294070563881 0 -0.14367823897321499 0.47650424227132437 0 -0.13040624056921249 0.48649431507048269 0 -0.1243472573128805 0.47228294070563881 0 -0.13970975914717021 0.45842441105845833 0 -0.1243472573128805 0.47228294070563881 0 -0.13970975914717021 0.45842441105845833 0 -0.1309883998487279 0.45056556980610168 0 -0.1243472573128805 0.47228294070563881 0 -0.13970975914717021 0.45842441105845833 0 -0.1309883998487279 0.45056556980610168 0 -0.1464060991167295 0.45085738557633132 0 -0.1309883998487279 0.45056556980610168 0 -0.14813556475957829 0.43350236486043131 0 -0.1344079064153553 0.43015461968810442 0 -0.1309883998487279 0.45056556980610168 0 -0.14813556475957829 0.43350236486043131 0 -0.1309883998487279 0.45056556980610168 0 -0.1344079064153553 0.43015461968810442 0 -0.1241883904025063 0.43876471153149899 0 -0.1309883998487279 0.45056556980610168 0 -0.1215155981663168 0.44755177654886852 0 -0.1241883904025063 0.43876471153149899 0 -0.1309883998487279 0.45056556980610168 0 -0.1464060991167295 0.45085738557633132 0 -0.14813556475957829 0.43350236486043131 0 -0.1464060991167295 0.45085738557633132 0 -0.16061306349161991 0.4488058424098828 0 -0.14813556475957829 0.43350236486043131 0 -0.14367823897321499 0.47650424227132437 0 -0.13970975914717021 0.45842441105845833 0 -0.15258370833655141 0.4629887397467829 0 -0.13970975914717021 0.45842441105845833 0 -0.1464060991167295 0.45085738557633132 0 -0.15258370833655141 0.4629887397467829 0 -0.1464060991167295 0.45085738557633132 0 -0.15258370833655141 0.4629887397467829 0 -0.16061306349161991 0.4488058424098828 0 -0.15258370833655141 0.4629887397467829 0 -0.17781686124673879 0.46190871554290269 0 -0.16283502925658211 0.47883504704658358 0 -0.15258370833655141 0.4629887397467829 0 -0.16061306349161991 0.4488058424098828 0 -0.17781686124673879 0.46190871554290269 0 -0.16061306349161991 0.4488058424098828 0 -0.17467378570222741 0.44537957818808688 0 -0.17781686124673879 0.46190871554290269 0 -0.16061306349161991 0.4488058424098828 0 -0.1658824131824454 0.43393015979210531 0 -0.14813556475957829 0.43350236486043131 0 -0.16061306349161991 0.4488058424098828 0 -0.17467378570222741 0.44537957818808688 0 -0.1658824131824454 0.43393015979210531 0 -0.17467378570222741 0.44537957818808688 0 -0.17781686124673879 0.46190871554290269 0 -0.189291888028044 0.44312306488759901 0 -0.17781686124673879 0.46190871554290269 0 -0.16283502925658211 0.47883504704658358 0 -0.19133640587609521 0.48254259355922052 0 -0.15218743921689301 0.5 0 -0.16283502925658211 0.47883504704658358 0 -0.18147003200318881 0.5 0 -0.16283502925658211 0.47883504704658358 0 -0.18147003200318881 0.5 0 -0.19133640587609521 0.48254259355922052 0 -0.18147003200318881 0.5 0 -0.19133640587609521 0.48254259355922052 0 -0.21075262478948459 0.5 0 -0.17781686124673879 0.46190871554290269 0 -0.19133640587609521 0.48254259355922052 0 -0.20287105670753811 0.47065226071036947 0 -0.19133640587609521 0.48254259355922052 0 -0.20287105670753811 0.47065226071036947 0 -0.21131207961777329 0.4813156320482217 0 -0.20287105670753811 0.47065226071036947 0 -0.21131207961777329 0.4813156320482217 0 -0.2191006597789408 0.46167085097783273 0 -0.21131207961777329 0.4813156320482217 0 -0.21075262478948459 0.5 0 -0.22788804308753211 0.47950170615890908 0 -0.19133640587609521 0.48254259355922052 0 -0.21131207961777329 0.4813156320482217 0 -0.21075262478948459 0.5 0 -0.21075262478948459 0.5 0 -0.22788804308753211 0.47950170615890908 0 -0.23437948119381191 0.5 0 -0.21075262478948459 0.5 0 -0.22788804308753211 0.47950170615890908 0 -0.21131207961777329 0.4813156320482217 0 -0.22788804308753211 0.47950170615890908 0 -0.2191006597789408 0.46167085097783273 0 -0.22788804308753211 0.47950170615890908 0 -0.24502346138557951 0.45900341231781822 0 -0.22788804308753211 0.47950170615890908 0 -0.24884138707773029 0.48349773454732548 0 -0.24502346138557951 0.45900341231781822 0 -0.25800633759813929 0.5 0 -0.24884138707773029 0.48349773454732548 0 -0.23437948119381191 0.5 0 -0.22788804308753211 0.47950170615890908 0 -0.24884138707773029 0.48349773454732548 0 -0.23437948119381191 0.5 0 -0.2569592489759962 0.43872134694419129 0 -0.24502346138557951 0.45900341231781822 0 -0.23313413960374271 0.43904504670090749 0 -0.22788804308753211 0.47950170615890908 0 -0.24502346138557951 0.45900341231781822 0 -0.2191006597789408 0.46167085097783273 0 -0.24502346138557951 0.45900341231781822 0 -0.2191006597789408 0.46167085097783273 0 -0.23313413960374271 0.43904504670090749 0 -0.2191006597789408 0.46167085097783273 0 -0.23313413960374271 0.43904504670090749 0 -0.20750311120147791 0.44126073534834498 0 -0.2191006597789408 0.46167085097783273 0 -0.20750311120147791 0.44126073534834498 0 -0.19913426897889461 0.45559050301758142 0 -0.20287105670753811 0.47065226071036947 0 -0.2191006597789408 0.46167085097783273 0 -0.19913426897889461 0.45559050301758142 0 -0.17781686124673879 0.46190871554290269 0 -0.20287105670753811 0.47065226071036947 0 -0.19913426897889461 0.45559050301758142 0 -0.17781686124673879 0.46190871554290269 0 -0.19913426897889461 0.45559050301758142 0 -0.189291888028044 0.44312306488759901 0 -0.20750311120147791 0.44126073534834498 0 -0.19913426897889461 0.45559050301758142 0 -0.189291888028044 0.44312306488759901 0 -0.20750311120147791 0.44126073534834498 0 -0.189291888028044 0.44312306488759901 0 -0.19612553156276291 0.42854362276743352 0 -0.189291888028044 0.44312306488759901 0 -0.19612553156276291 0.42854362276743352 0 -0.1808289714756901 0.42376138535931152 0 -0.19612553156276291 0.42854362276743352 0 -0.19131967019754359 0.41397284193456912 0 -0.1808289714756901 0.42376138535931152 0 -0.19612553156276291 0.42854362276743352 0 -0.19131967019754359 0.41397284193456912 0 -0.21025127768028021 0.4205904850248563 0 -0.21025127768028021 0.4205904850248563 0 -0.23485729313458589 0.41587776217208339 0 -0.2090643975631222 0.39904239368436228 0 -0.19131967019754359 0.41397284193456912 0 -0.21025127768028021 0.4205904850248563 0 -0.2090643975631222 0.39904239368436228 0 -0.20750311120147791 0.44126073534834498 0 -0.19612553156276291 0.42854362276743352 0 -0.21025127768028021 0.4205904850248563 0 -0.23313413960374271 0.43904504670090749 0 -0.20750311120147791 0.44126073534834498 0 -0.21025127768028021 0.4205904850248563 0 -0.23313413960374271 0.43904504670090749 0 -0.21025127768028021 0.4205904850248563 0 -0.23485729313458589 0.41587776217208339 0 -0.25873736150193488 0.40700006509544262 0 -0.23485729313458589 0.41587776217208339 0 -0.24556990850205021 0.39657954597392908 0 -0.25004981755798378 0.42332194231691411 0 -0.25873736150193488 0.40700006509544262 0 -0.23485729313458589 0.41587776217208339 0 -0.25004981755798378 0.42332194231691411 0 -0.2569592489759962 0.43872134694419129 0 -0.23313413960374271 0.43904504670090749 0 -0.25004981755798378 0.42332194231691411 0 -0.23313413960374271 0.43904504670090749 0 -0.23485729313458589 0.41587776217208339 0 -0.25380087848459781 0.38063160829692472 0 -0.23070479020113879 0.38889775114942932 0 -0.22995184990296549 0.37133320688473392 0 -0.25380087848459781 0.38063160829692472 0 -0.22995184990296549 0.37133320688473392 0 -0.25380087848459781 0.38063160829692472 0 -0.24556990850205021 0.39657954597392908 0 -0.23070479020113879 0.38889775114942932 0 -0.23485729313458589 0.41587776217208339 0 -0.24556990850205021 0.39657954597392908 0 -0.23070479020113879 0.38889775114942932 0 -0.23485729313458589 0.41587776217208339 0 -0.23070479020113879 0.38889775114942932 0 -0.2090643975631222 0.39904239368436228 0 -0.23485729313458589 0.41587776217208339 0 -0.23070479020113879 0.38889775114942932 0 -0.23070479020113879 0.38889775114942932 0 -0.22655228726769169 0.36191774012677541 0 -0.23070479020113879 0.38889775114942932 0 -0.21205909639116349 0.37795795430473939 0 -0.22655228726769169 0.36191774012677541 0 -0.21205909639116349 0.37795795430473939 0 -0.2090643975631222 0.39904239368436228 0 -0.1963161059285079 0.38158800037194512 0 -0.23070479020113879 0.38889775114942932 0 -0.21205909639116349 0.37795795430473939 0 -0.2090643975631222 0.39904239368436228 0 -0.2090643975631222 0.39904239368436228 0 -0.1963161059285079 0.38158800037194512 0 -0.18636511323297861 0.39546000485669119 0 -0.19131967019754359 0.41397284193456912 0 -0.2090643975631222 0.39904239368436228 0 -0.18636511323297861 0.39546000485669119 0 -0.1963161059285079 0.38158800037194512 0 -0.17792190282453951 0.37990452673527292 0 -0.19490826227140129 0.36479778934928231 0 -0.1963161059285079 0.38158800037194512 0 -0.17792190282453951 0.37990452673527292 0 -0.18636511323297861 0.39546000485669119 0 -0.17792190282453951 0.37990452673527292 0 -0.1608320551619479 0.38379686412737452 0 -0.1661782171439741 0.3726025200677634 0 -0.17792190282453951 0.37990452673527292 0 -0.1608320551619479 0.38379686412737452 0 -0.16488596957553789 0.39758486130607379 0 -0.1608320551619479 0.38379686412737452 0 -0.15494604949072521 0.37545147114451571 0 -0.1661782171439741 0.3726025200677634 0 -0.1608320551619479 0.38379686412737452 0 -0.16488596957553789 0.39758486130607379 0 -0.14929335132984459 0.39123184809818401 0 -0.16488596957553789 0.39758486130607379 0 -0.18636511323297861 0.39546000485669119 0 -0.16528272967042801 0.41643915991475999 0 -0.18636511323297861 0.39546000485669119 0 -0.16528272967042801 0.41643915991475999 0 -0.17792190282453951 0.37990452673527292 0 -0.16488596957553789 0.39758486130607379 0 -0.18636511323297861 0.39546000485669119 0 -0.19131967019754359 0.41397284193456912 0 -0.1808289714756901 0.42376138535931152 0 -0.16528272967042801 0.41643915991475999 0 -0.19131967019754359 0.41397284193456912 0 -0.18636511323297861 0.39546000485669119 0 -0.16528272967042801 0.41643915991475999 0 -0.1808289714756901 0.42376138535931152 0 -0.16528272967042801 0.41643915991475999 0 -0.17467378570222741 0.44537957818808688 0 -0.189291888028044 0.44312306488759901 0 -0.1808289714756901 0.42376138535931152 0 -0.17467378570222741 0.44537957818808688 0 -0.1808289714756901 0.42376138535931152 0 -0.1658824131824454 0.43393015979210531 0 -0.1808289714756901 0.42376138535931152 0 -0.1658824131824454 0.43393015979210531 0 -0.16528272967042801 0.41643915991475999 0 -0.16528272967042801 0.41643915991475999 0 -0.14813556475957829 0.43350236486043131 0 -0.1658824131824454 0.43393015979210531 0 -0.16528272967042801 0.41643915991475999 0 -0.14813556475957829 0.43350236486043131 0 -0.16488596957553789 0.39758486130607379 0 -0.16528272967042801 0.41643915991475999 0 -0.14205241680653721 0.40549776391258818 0 -0.16528272967042801 0.41643915991475999 0 -0.1441725395297494 0.41997000804686269 0 -0.14205241680653721 0.40549776391258818 0 -0.16528272967042801 0.41643915991475999 0 -0.14205241680653721 0.40549776391258818 0 -0.16528272967042801 0.41643915991475999 0 -0.1441725395297494 0.41997000804686269 0 -0.14813556475957829 0.43350236486043131 0 -0.1441725395297494 0.41997000804686269 0 -0.14813556475957829 0.43350236486043131 0 -0.1344079064153553 0.43015461968810442 0 -0.1344079064153553 0.43015461968810442 0 -0.13098407999684841 0.4142561318584298 0 -0.1219826263572617 0.42544113180991988 0 -0.1344079064153553 0.43015461968810442 0 -0.1219826263572617 0.42544113180991988 0 -0.1241883904025063 0.43876471153149899 0 -0.1441725395297494 0.41997000804686269 0 -0.1344079064153553 0.43015461968810442 0 -0.13098407999684841 0.4142561318584298 0 -0.1441725395297494 0.41997000804686269 0 -0.13098407999684841 0.4142561318584298 0 -0.14205241680653721 0.40549776391258818 0 -0.13679524465885329 0.39258984570920391 0 -0.14205241680653721 0.40549776391258818 0 -0.118822103942645 0.39455636791041943 0 -0.13679524465885329 0.39258984570920391 0 -0.13069806257389191 0.38508591269685633 0 -0.118822103942645 0.39455636791041943 0 -0.14205241680653721 0.40549776391258818 0 -0.118822103942645 0.39455636791041943 0 -0.13098407999684841 0.4142561318584298 0 -0.14205241680653721 0.40549776391258818 0 -0.118822103942645 0.39455636791041943 0 -0.13069806257389191 0.38508591269685633 0 -0.13127260941300259 0.3746433260741861 0 -0.1205246004680459 0.38450984139923239 0 -0.13069806257389191 0.38508591269685633 0 -0.14257402120513729 0.37561545748329123 0 -0.13069806257389191 0.38508591269685633 0 -0.14257402120513729 0.37561545748329123 0 -0.13127260941300259 0.3746433260741861 0 -0.13069806257389191 0.38508591269685633 0 -0.14078325816156631 0.38293505761909358 0 -0.14257402120513729 0.37561545748329123 0 -0.13679524465885329 0.39258984570920391 0 -0.13069806257389191 0.38508591269685633 0 -0.14078325816156631 0.38293505761909358 0 -0.13679524465885329 0.39258984570920391 0 -0.14078325816156631 0.38293505761909358 0 -0.14929335132984459 0.39123184809818401 0 -0.14078325816156631 0.38293505761909358 0 -0.14887391641662731 0.38124402952331338 0 -0.14929335132984459 0.39123184809818401 0 -0.14078325816156631 0.38293505761909358 0 -0.14257402120513729 0.37561545748329123 0 -0.14887391641662731 0.38124402952331338 0 -0.14078325816156631 0.38293505761909358 0 -0.14257402120513729 0.37561545748329123 0 -0.1608320551619479 0.38379686412737452 0 -0.15494604949072521 0.37545147114451571 0 -0.14887391641662731 0.38124402952331338 0 -0.14257402120513729 0.37561545748329123 0 -0.15494604949072521 0.37545147114451571 0 -0.14887391641662731 0.38124402952331338 0 -0.1608320551619479 0.38379686412737452 0 -0.14887391641662731 0.38124402952331338 0 -0.14929335132984459 0.39123184809818401 0 -0.16488596957553789 0.39758486130607379 0 -0.14929335132984459 0.39123184809818401 0 -0.14205241680653721 0.40549776391258818 0 -0.13679524465885329 0.39258984570920391 0 -0.14929335132984459 0.39123184809818401 0 -0.14205241680653721 0.40549776391258818 0 -0.14537204291228131 0.36417876844666008 0 -0.15256259541108641 0.33478796253532961 0 -0.16348082019417701 0.34777703139765048 0 -0.14537204291228131 0.36417876844666008 0 -0.16348082019417701 0.34777703139765048 0 -0.15673753675370061 0.36432079539880502 0 -0.1410055389236719 0.36117741783832452 0 -0.13958554258740261 0.3448301523931655 0 -0.15256259541108641 0.33478796253532961 0 -0.14537204291228131 0.36417876844666008 0 -0.15256259541108641 0.33478796253532961 0 -0.14537204291228131 0.36417876844666008 0 -0.1410055389236719 0.36117741783832452 0 -0.15256259541108641 0.33478796253532961 0 -0.1410055389236719 0.36117741783832452 0 -0.15256259541108641 0.33478796253532961 0 -0.14537204291228131 0.36417876844666008 0 -0.15673753675370061 0.36432079539880502 0 -0.14257402120513729 0.37561545748329123 0 -0.15673753675370061 0.36432079539880502 0 -0.14257402120513729 0.37561545748329123 0 -0.15494604949072521 0.37545147114451571 0 -0.15673753675370061 0.36432079539880502 0 -0.14257402120513729 0.37561545748329123 0 -0.14537204291228131 0.36417876844666008 0 -0.14257402120513729 0.37561545748329123 0 -0.14537204291228131 0.36417876844666008 0 -0.15673753675370061 0.36432079539880502 0 -0.14537204291228131 0.36417876844666008 0 -0.13127260941300259 0.3746433260741861 0 -0.1171943199056569 0.3638266503448902 0 -0.14537204291228131 0.36417876844666008 0 -0.1171943199056569 0.3638266503448902 0 -0.14537204291228131 0.36417876844666008 0 -0.1410055389236719 0.36117741783832452 0 -0.1171943199056569 0.3638266503448902 0 -0.1410055389236719 0.36117741783832452 0 -0.12950843241589069 0.35583734230918612 0 -0.1171943199056569 0.3638266503448902 0 -0.14257402120513729 0.37561545748329123 0 -0.14537204291228131 0.36417876844666008 0 -0.13127260941300259 0.3746433260741861 0 -0.13544001290695051 0.35273598136354151 0 -0.13958554258740261 0.3448301523931655 0 -0.12317788072287331 0.34502536834736691 0 -0.1410055389236719 0.36117741783832452 0 -0.13544001290695051 0.35273598136354151 0 -0.13958554258740261 0.3448301523931655 0 -0.1410055389236719 0.36117741783832452 0 -0.12950843241589069 0.35583734230918612 0 -0.13544001290695051 0.35273598136354151 0 -0.12950843241589069 0.35583734230918612 0 -0.13544001290695051 0.35273598136354151 0 -0.12317788072287331 0.34502536834736691 0 -0.13958554258740261 0.3448301523931655 0 -0.13778411656299039 0.33419570611491589 0 -0.12317788072287331 0.34502536834736691 0 -0.13778411656299039 0.33419570611491589 0 -0.1291614415400914 0.32622408634984429 0 -0.12317788072287331 0.34502536834736691 0 -0.1291614415400914 0.32622408634984429 0 -0.12317788072287331 0.34502536834736691 0 -0.1291614415400914 0.32622408634984429 0 -0.1407527271454907 0.30914409934355541 0 -0.1291614415400914 0.32622408634984429 0 -0.1342709581019709 0.31016918782278619 0 -0.12355625625981111 0.3169603400801449 0 -0.1291614415400914 0.32622408634984429 0 -0.1407527271454907 0.30914409934355541 0 -0.1342709581019709 0.31016918782278619 0 -0.1291614415400914 0.32622408634984429 0 -0.14344603336977449 0.32344509445783731 0 -0.1407527271454907 0.30914409934355541 0 -0.1291614415400914 0.32622408634984429 0 -0.1342709581019709 0.31016918782278619 0 -0.13778411656299039 0.33419570611491589 0 -0.1291614415400914 0.32622408634984429 0 -0.14344603336977449 0.32344509445783731 0 -0.15256259541108641 0.33478796253532961 0 -0.15806037723821259 0.31231622080884119 0 -0.14344603336977449 0.32344509445783731 0 -0.15256259541108641 0.33478796253532961 0 -0.15806037723821259 0.31231622080884119 0 -0.14693437020000219 0.31389719961286239 0 -0.14344603336977449 0.32344509445783731 0 -0.1407527271454907 0.30914409934355541 0 -0.14693437020000219 0.31389719961286239 0 -0.14344603336977449 0.32344509445783731 0 -0.15806037723821259 0.31231622080884119 0 -0.13958554258740261 0.3448301523931655 0 -0.13778411656299039 0.33419570611491589 0 -0.15256259541108641 0.33478796253532961 0 -0.13778411656299039 0.33419570611491589 0 -0.14344603336977449 0.32344509445783731 0 -0.15256259541108641 0.33478796253532961 0 -0.1663713762410074 0.32931801842749298 0 -0.18148380629833449 0.33476056063008419 0 -0.16348082019417701 0.34777703139765048 0 -0.15256259541108641 0.33478796253532961 0 -0.1663713762410074 0.32931801842749298 0 -0.16348082019417701 0.34777703139765048 0 -0.15256259541108641 0.33478796253532961 0 -0.161048372693015 0.31541148544217879 0 -0.15256259541108641 0.33478796253532961 0 -0.161048372693015 0.31541148544217879 0 -0.15806037723821259 0.31231622080884119 0 -0.15256259541108641 0.33478796253532961 0 -0.1663713762410074 0.32931801842749298 0 -0.161048372693015 0.31541148544217879 0 -0.1663713762410074 0.32931801842749298 0 -0.161048372693015 0.31541148544217879 0 -0.1757058618268085 0.31642648538983997 0 -0.1757058618268085 0.31642648538983997 0 -0.18148380629833449 0.33476056063008419 0 -0.19131121813272839 0.31903128800167402 0 -0.1663713762410074 0.32931801842749298 0 -0.1757058618268085 0.31642648538983997 0 -0.18148380629833449 0.33476056063008419 0 -0.1757058618268085 0.31642648538983997 0 -0.19131121813272839 0.31903128800167402 0 -0.1849913674579855 0.30453868341725288 0 -0.18148380629833449 0.33476056063008419 0 -0.1772223988137718 0.34997390742283119 0 -0.19168488183034621 0.350416287515114 0 -0.18148380629833449 0.33476056063008419 0 -0.1772223988137718 0.34997390742283119 0 -0.16348082019417701 0.34777703139765048 0 -0.1772223988137718 0.34997390742283119 0 -0.17582289951255101 0.36455929237404378 0 -0.19168488183034621 0.350416287515114 0 -0.1772223988137718 0.34997390742283119 0 -0.16512110476622069 0.35763533885102361 0 -0.17582289951255101 0.36455929237404378 0 -0.16512110476622069 0.35763533885102361 0 -0.16348082019417701 0.34777703139765048 0 -0.15673753675370061 0.36432079539880502 0 -0.1772223988137718 0.34997390742283119 0 -0.16512110476622069 0.35763533885102361 0 -0.16348082019417701 0.34777703139765048 0 -0.16512110476622069 0.35763533885102361 0 -0.15673753675370061 0.36432079539880502 0 -0.17582289951255101 0.36455929237404378 0 -0.15673753675370061 0.36432079539880502 0 -0.17582289951255101 0.36455929237404378 0 -0.15673753675370061 0.36432079539880502 0 -0.1661782171439741 0.3726025200677634 0 -0.17582289951255101 0.36455929237404378 0 -0.15494604949072521 0.37545147114451571 0 -0.15673753675370061 0.36432079539880502 0 -0.1661782171439741 0.3726025200677634 0 -0.16512110476622069 0.35763533885102361 0 -0.15673753675370061 0.36432079539880502 0 -0.17582289951255101 0.36455929237404378 0 -0.19490826227140129 0.36479778934928231 0 -0.19168488183034621 0.350416287515114 0 -0.17792190282453951 0.37990452673527292 0 -0.1661782171439741 0.3726025200677634 0 -0.17582289951255101 0.36455929237404378 0 -0.17582289951255101 0.36455929237404378 0 -0.19490826227140129 0.36479778934928231 0 -0.17792190282453951 0.37990452673527292 0 -0.17582289951255101 0.36455929237404378 0 -0.19490826227140129 0.36479778934928231 0 -0.21205909639116349 0.37795795430473939 0 -0.1963161059285079 0.38158800037194512 0 -0.19490826227140129 0.36479778934928231 0 -0.19168488183034621 0.350416287515114 0 -0.20958009531857941 0.35072037402532991 0 -0.20232928751447399 0.33563802004795212 0 -0.19490826227140129 0.36479778934928231 0 -0.19168488183034621 0.350416287515114 0 -0.20958009531857941 0.35072037402532991 0 -0.20958009531857941 0.35072037402532991 0 -0.21077493531220901 0.36384846445153168 0 -0.22655228726769169 0.36191774012677541 0 -0.19490826227140129 0.36479778934928231 0 -0.20958009531857941 0.35072037402532991 0 -0.21077493531220901 0.36384846445153168 0 -0.21205909639116349 0.37795795430473939 0 -0.19490826227140129 0.36479778934928231 0 -0.21077493531220901 0.36384846445153168 0 -0.21205909639116349 0.37795795430473939 0 -0.21077493531220901 0.36384846445153168 0 -0.22655228726769169 0.36191774012677541 0 -0.23070479020113879 0.38889775114942932 0 -0.22995184990296549 0.37133320688473392 0 -0.22655228726769169 0.36191774012677541 0 -0.22995184990296549 0.37133320688473392 0 -0.22655228726769169 0.36191774012677541 0 -0.23904797934911051 0.36350225048793922 0 -0.22655228726769169 0.36191774012677541 0 -0.23582017634110139 0.34668175397701267 0 -0.2223997843342447 0.33493772910412151 0 -0.22655228726769169 0.36191774012677541 0 -0.23582017634110139 0.34668175397701267 0 -0.23904797934911051 0.36350225048793922 0 -0.20958009531857941 0.35072037402532991 0 -0.22655228726769169 0.36191774012677541 0 -0.2223997843342447 0.33493772910412151 0 -0.22655228726769169 0.36191774012677541 0 -0.2223997843342447 0.33493772910412151 0 -0.25157613730338768 0.3364320540217689 0 -0.249114704749196 0.3569469431542493 0 -0.23582017634110139 0.34668175397701267 0 -0.249114704749196 0.3569469431542493 0 -0.23582017634110139 0.34668175397701267 0 -0.23904797934911051 0.36350225048793922 0 -0.25380087848459781 0.38063160829692472 0 -0.249114704749196 0.3569469431542493 0 -0.23904797934911051 0.36350225048793922 0 -0.25380087848459781 0.38063160829692472 0 -0.22995184990296549 0.37133320688473392 0 -0.23904797934911051 0.36350225048793922 0 -0.25106380979670567 0.30125546960525051 0 -0.2574293782486276 0.32176370381274449 0 -0.24120355521739581 0.31483035875778959 0 -0.2574293782486276 0.32176370381274449 0 -0.24120355521739581 0.31483035875778959 0 -0.23736415846125031 0.32996511104101478 0 -0.24120355521739581 0.31483035875778959 0 -0.23736415846125031 0.32996511104101478 0 -0.230198923919955 0.31844453838426001 0 -0.24120355521739581 0.31483035875778959 0 -0.230198923919955 0.31844453838426001 0 -0.23177984018608661 0.30453177493690642 0 -0.25157613730338768 0.3364320540217689 0 -0.2574293782486276 0.32176370381274449 0 -0.23736415846125031 0.32996511104101478 0 -0.25157613730338768 0.3364320540217689 0 -0.23582017634110139 0.34668175397701267 0 -0.23736415846125031 0.32996511104101478 0 -0.23582017634110139 0.34668175397701267 0 -0.23736415846125031 0.32996511104101478 0 -0.2223997843342447 0.33493772910412151 0 -0.23736415846125031 0.32996511104101478 0 -0.2223997843342447 0.33493772910412151 0 -0.230198923919955 0.31844453838426001 0 -0.2223997843342447 0.33493772910412151 0 -0.2182472814007976 0.30795771808146771 0 -0.2223997843342447 0.33493772910412151 0 -0.230198923919955 0.31844453838426001 0 -0.2182472814007976 0.30795771808146771 0 -0.2223997843342447 0.33493772910412151 0 -0.20718588227434889 0.31962349218574698 0 -0.2182472814007976 0.30795771808146771 0 -0.20958009531857941 0.35072037402532991 0 -0.2223997843342447 0.33493772910412151 0 -0.20232928751447399 0.33563802004795212 0 -0.2223997843342447 0.33493772910412151 0 -0.20718588227434889 0.31962349218574698 0 -0.20232928751447399 0.33563802004795212 0 -0.18148380629833449 0.33476056063008419 0 -0.20232928751447399 0.33563802004795212 0 -0.19131121813272839 0.31903128800167402 0 -0.18148380629833449 0.33476056063008419 0 -0.19168488183034621 0.350416287515114 0 -0.20232928751447399 0.33563802004795212 0 -0.20718588227434889 0.31962349218574698 0 -0.20232928751447399 0.33563802004795212 0 -0.19131121813272839 0.31903128800167402 0 -0.20718588227434889 0.31962349218574698 0 -0.19131121813272839 0.31903128800167402 0 -0.19705388317610081 0.30835290169682761 0 -0.19131121813272839 0.31903128800167402 0 -0.19705388317610081 0.30835290169682761 0 -0.1849913674579855 0.30453868341725288 0 -0.19705388317610081 0.30835290169682761 0 -0.1928375881539964 0.29492741841960879 0 -0.20894335986144491 0.30364362645985521 0 -0.19705388317610081 0.30835290169682761 0 -0.1928375881539964 0.29492741841960879 0 -0.1849913674579855 0.30453868341725288 0 -0.18887913169546669 0.28375841140140451 0 -0.1928375881539964 0.29492741841960879 0 -0.19835773275794649 0.27697991937419658 0 -0.1928375881539964 0.29492741841960879 0 -0.20894335986144491 0.30364362645985521 0 -0.19835773275794649 0.27697991937419658 0 -0.18887913169546669 0.28375841140140451 0 -0.1928375881539964 0.29492741841960879 0 -0.18305981644880559 0.29240294515278342 0 -0.2182472814007976 0.30795771808146771 0 -0.2140947784673505 0.2809777070588137 0 -0.20894335986144491 0.30364362645985521 0 -0.2140947784673505 0.2809777070588137 0 -0.19835773275794649 0.27697991937419658 0 -0.20894335986144491 0.30364362645985521 0 -0.19835773275794649 0.27697991937419658 0 -0.20718588227434889 0.31962349218574698 0 -0.19705388317610081 0.30835290169682761 0 -0.20894335986144491 0.30364362645985521 0 -0.20894335986144491 0.30364362645985521 0 -0.2182472814007976 0.30795771808146771 0 -0.2140947784673505 0.2809777070588137 0 -0.20718588227434889 0.31962349218574698 0 -0.20894335986144491 0.30364362645985521 0 -0.2182472814007976 0.30795771808146771 0 -0.230198923919955 0.31844453838426001 0 -0.2182472814007976 0.30795771808146771 0 -0.23177984018608661 0.30453177493690642 0 -0.2182472814007976 0.30795771808146771 0 -0.23177984018608661 0.30453177493690642 0 -0.2269571986624758 0.29244977266371242 0 -0.2182472814007976 0.30795771808146771 0 -0.2269571986624758 0.29244977266371242 0 -0.2140947784673505 0.2809777070588137 0 -0.2269571986624758 0.29244977266371242 0 -0.23192906085716061 0.27778678418325348 0 -0.2140947784673505 0.2809777070588137 0 -0.2269571986624758 0.29244977266371242 0 -0.23873503240098351 0.2909948790581206 0 -0.23192906085716061 0.27778678418325348 0 -0.23177984018608661 0.30453177493690642 0 -0.2269571986624758 0.29244977266371242 0 -0.23873503240098351 0.2909948790581206 0 -0.23873503240098351 0.2909948790581206 0 -0.24960952125621569 0.27943640906458961 0 -0.23192906085716061 0.27778678418325348 0 -0.25106380979670567 0.30125546960525051 0 -0.23873503240098351 0.2909948790581206 0 -0.24960952125621569 0.27943640906458961 0 -0.25106380979670567 0.30125546960525051 0 -0.24120355521739581 0.31483035875778959 0 -0.23177984018608661 0.30453177493690642 0 -0.25106380979670567 0.30125546960525051 0 -0.23177984018608661 0.30453177493690642 0 -0.23873503240098351 0.2909948790581206 0 -0.2531312179692447 0.24693268900981011 0 -0.24190654726470731 0.26223585525212378 0 -0.23118763321222849 0.24810935190821529 0 -0.24190654726470731 0.26223585525212378 0 -0.24960952125621569 0.27943640906458961 0 -0.23192906085716061 0.27778678418325348 0 -0.24190654726470731 0.26223585525212378 0 -0.23192906085716061 0.27778678418325348 0 -0.22581205906707 0.2646214788877132 0 -0.23192906085716061 0.27778678418325348 0 -0.22581205906707 0.2646214788877132 0 -0.2140947784673505 0.2809777070588137 0 -0.24190654726470731 0.26223585525212378 0 -0.22581205906707 0.2646214788877132 0 -0.23118763321222849 0.24810935190821529 0 -0.22581205906707 0.2646214788877132 0 -0.20994227553390341 0.25399769603615968 0 -0.23118763321222849 0.24810935190821529 0 -0.22581205906707 0.2646214788877132 0 -0.20994227553390341 0.25399769603615968 0 -0.2140947784673505 0.2809777070588137 0 -0.20994227553390341 0.25399769603615968 0 -0.2140947784673505 0.2809777070588137 0 -0.20994227553390341 0.25399769603615968 0 -0.2140947784673505 0.2809777070588137 0 -0.19835773275794649 0.27697991937419658 0 -0.19835773275794649 0.27697991937419658 0 -0.18825019662349909 0.2738775722891254 0 -0.1877721056544481 0.25031621228853818 0 -0.18887913169546669 0.28375841140140451 0 -0.19835773275794649 0.27697991937419658 0 -0.18825019662349909 0.2738775722891254 0 -0.19835773275794649 0.27697991937419658 0 -0.1877721056544481 0.25031621228853818 0 -0.20994227553390341 0.25399769603615968 0 -0.19835773275794649 0.27697991937419658 0 -0.1877721056544481 0.25031621228853818 0 -0.1877721056544481 0.25031621228853818 0 -0.16905594089246581 0.26737273735586459 0 -0.18124760175955129 0.26928843904305372 0 -0.1877721056544481 0.25031621228853818 0 -0.16905594089246581 0.26737273735586459 0 -0.17614683834927691 0.23838926342601621 0 -0.16905594089246581 0.26737273735586459 0 -0.17614683834927691 0.23838926342601621 0 -0.18825019662349909 0.2738775722891254 0 -0.1877721056544481 0.25031621228853818 0 -0.18124760175955129 0.26928843904305372 0 -0.16905594089246581 0.26737273735586459 0 -0.1640617627792666 0.24981997117292951 0 -0.14848436726826189 0.24606264326291691 0 -0.16905594089246581 0.26737273735586459 0 -0.1640617627792666 0.24981997117292951 0 -0.17614683834927691 0.23838926342601621 0 -0.16905594089246581 0.26737273735586459 0 -0.15437227985194579 0.25891579609779358 0 -0.14848436726826189 0.24606264326291691 0 -0.16905594089246581 0.26737273735586459 0 -0.14848436726826189 0.24606264326291691 0 -0.15829975633299229 0.26567097790808858 0 -0.16905594089246581 0.26737273735586459 0 -0.15437227985194579 0.25891579609779358 0 -0.1579838256580732 0.27584161727201062 0 -0.16905594089246581 0.26737273735586459 0 -0.1635581590653386 0.28984447908235278 0 -0.16905594089246581 0.26737273735586459 0 -0.17801992725687241 0.27665853125587708 0 -0.1635581590653386 0.28984447908235278 0 -0.16905594089246581 0.26737273735586459 0 -0.1635581590653386 0.28984447908235278 0 -0.1579838256580732 0.27584161727201062 0 -0.15829975633299229 0.26567097790808858 0 -0.16905594089246581 0.26737273735586459 0 -0.17801992725687241 0.27665853125587708 0 -0.1810395725986724 0.27978658200865908 0 -0.16905594089246581 0.26737273735586459 0 -0.17801992725687241 0.27665853125587708 0 -0.18124760175955129 0.26928843904305372 0 -0.16905594089246581 0.26737273735586459 0 -0.17801992725687241 0.27665853125587708 0 -0.17801992725687241 0.27665853125587708 0 -0.18124760175955129 0.26928843904305372 0 -0.18825019662349909 0.2738775722891254 0 -0.18124760175955129 0.26928843904305372 0 -0.18287877222869409 0.27469782001096599 0 -0.18887913169546669 0.28375841140140451 0 -0.18825019662349909 0.2738775722891254 0 -0.1810395725986724 0.27978658200865908 0 -0.17801992725687241 0.27665853125587708 0 -0.18124760175955129 0.26928843904305372 0 -0.18287877222869409 0.27469782001096599 0 -0.17801992725687241 0.27665853125587708 0 -0.1810395725986724 0.27978658200865908 0 -0.18287877222869409 0.27469782001096599 0 -0.18825019662349909 0.2738775722891254 0 -0.1810395725986724 0.27978658200865908 0 -0.18287877222869409 0.27469782001096599 0 -0.17801992725687241 0.27665853125587708 0 -0.1810395725986724 0.27978658200865908 0 -0.16953414997494379 0.29603500834902802 0 -0.1810395725986724 0.27978658200865908 0 -0.18305981644880559 0.29240294515278342 0 -0.16953414997494379 0.29603500834902802 0 -0.17801992725687241 0.27665853125587708 0 -0.16953414997494379 0.29603500834902802 0 -0.18887913169546669 0.28375841140140451 0 -0.1810395725986724 0.27978658200865908 0 -0.18305981644880559 0.29240294515278342 0 -0.1757058618268085 0.31642648538983997 0 -0.1849913674579855 0.30453868341725288 0 -0.16953414997494379 0.29603500834902802 0 -0.1928375881539964 0.29492741841960879 0 -0.18305981644880559 0.29240294515278342 0 -0.1849913674579855 0.30453868341725288 0 -0.18305981644880559 0.29240294515278342 0 -0.1849913674579855 0.30453868341725288 0 -0.16953414997494379 0.29603500834902802 0 -0.15806037723821259 0.31231622080884119 0 -0.16953414997494379 0.29603500834902802 0 -0.1635581590653386 0.28984447908235278 0 -0.161048372693015 0.31541148544217879 0 -0.15806037723821259 0.31231622080884119 0 -0.16953414997494379 0.29603500834902802 0 -0.15806037723821259 0.31231622080884119 0 -0.1635581590653386 0.28984447908235278 0 -0.161048372693015 0.31541148544217879 0 -0.16953414997494379 0.29603500834902802 0 -0.161048372693015 0.31541148544217879 0 -0.1757058618268085 0.31642648538983997 0 -0.16953414997494379 0.29603500834902802 0 -0.15806037723821259 0.31231622080884119 0 -0.1635581590653386 0.28984447908235278 0 -0.14918512919115909 0.29707547504612658 0 -0.17801992725687241 0.27665853125587708 0 -0.16953414997494379 0.29603500834902802 0 -0.1635581590653386 0.28984447908235278 0 -0.1579838256580732 0.27584161727201062 0 -0.1635581590653386 0.28984447908235278 0 -0.14810108559139271 0.28249972723862932 0 -0.1635581590653386 0.28984447908235278 0 -0.14810108559139271 0.28249972723862932 0 -0.14918512919115909 0.29707547504612658 0 -0.14810108559139271 0.28249972723862932 0 -0.14918512919115909 0.29707547504612658 0 -0.14052456901460089 0.28844769651877428 0 -0.14918512919115909 0.29707547504612658 0 -0.14052456901460089 0.28844769651877428 0 -0.14041691136613349 0.2965737093711544 0 -0.14810108559139271 0.28249972723862932 0 -0.13903161377875259 0.28146188356033619 0 -0.14052456901460089 0.28844769651877428 0 -0.14693437020000219 0.31389719961286239 0 -0.15806037723821259 0.31231622080884119 0 -0.14793487929612009 0.30784182648963698 0 -0.15806037723821259 0.31231622080884119 0 -0.14918512919115909 0.29707547504612658 0 -0.14793487929612009 0.30784182648963698 0 -0.14918512919115909 0.29707547504612658 0 -0.14267554653478279 0.30281494544505633 0 -0.14041691136613349 0.2965737093711544 0 -0.14918512919115909 0.29707547504612658 0 -0.14267554653478279 0.30281494544505633 0 -0.14793487929612009 0.30784182648963698 0 -0.14267554653478279 0.30281494544505633 0 -0.14793487929612009 0.30784182648963698 0 -0.1407527271454907 0.30914409934355541 0 -0.14693437020000219 0.31389719961286239 0 -0.14793487929612009 0.30784182648963698 0 -0.1407527271454907 0.30914409934355541 0 -0.14267554653478279 0.30281494544505633 0 -0.1407527271454907 0.30914409934355541 0 -0.13713564105746631 0.30533370295836793 0 -0.1407527271454907 0.30914409934355541 0 -0.1342709581019709 0.31016918782278619 0 -0.13713564105746631 0.30533370295836793 0 -0.1342709581019709 0.31016918782278619 0 -0.13713564105746631 0.30533370295836793 0 -0.1315154784414336 0.30435090092822181 0 -0.13713564105746631 0.30533370295836793 0 -0.13646349506365379 0.30018938125221989 0 -0.1315154784414336 0.30435090092822181 0 -0.13646349506365379 0.30018938125221989 0 -0.13124568262362349 0.29810879325877482 0 -0.1315154784414336 0.30435090092822181 0 -0.14267554653478279 0.30281494544505633 0 -0.13713564105746631 0.30533370295836793 0 -0.13646349506365379 0.30018938125221989 0 -0.14267554653478279 0.30281494544505633 0 -0.13646349506365379 0.30018938125221989 0 -0.14041691136613349 0.2965737093711544 0 -0.13646349506365379 0.30018938125221989 0 -0.13124568262362349 0.29810879325877482 0 -0.13488163523065441 0.29302549690277341 0 -0.12583919224047299 0.29980414183655729 0 -0.1315154784414336 0.30435090092822181 0 -0.12547836412756011 0.30799183565117327 0 -0.13124568262362349 0.29810879325877482 0 -0.12583919224047299 0.29980414183655729 0 -0.1315154784414336 0.30435090092822181 0 -0.13124568262362349 0.29810879325877482 0 -0.12583919224047299 0.29980414183655729 0 -0.1269951488390868 0.29342772977261378 0 -0.1342709581019709 0.31016918782278619 0 -0.1315154784414336 0.30435090092822181 0 -0.12547836412756011 0.30799183565117327 0 -0.1342709581019709 0.31016918782278619 0 -0.12547836412756011 0.30799183565117327 0 -0.12355625625981111 0.3169603400801449 0 -0.14052456901460089 0.28844769651877428 0 -0.13488163523065441 0.29302549690277341 0 -0.13276030686740831 0.28467710004434288 0 -0.13903161377875259 0.28146188356033619 0 -0.14052456901460089 0.28844769651877428 0 -0.13276030686740831 0.28467710004434288 0 -0.14052456901460089 0.28844769651877428 0 -0.14041691136613349 0.2965737093711544 0 -0.13488163523065441 0.29302549690277341 0 -0.13646349506365379 0.30018938125221989 0 -0.14041691136613349 0.2965737093711544 0 -0.13488163523065441 0.29302549690277341 0 -0.13124568262362349 0.29810879325877482 0 -0.13488163523065441 0.29302549690277341 0 -0.1269951488390868 0.29342772977261378 0 -0.13488163523065441 0.29302549690277341 0 -0.13001739274239091 0.28938599029168249 0 -0.1269951488390868 0.29342772977261378 0 -0.13001739274239091 0.28938599029168249 0 -0.1269951488390868 0.29342772977261378 0 -0.12425235082338699 0.28602262896769293 0 -0.13001739274239091 0.28938599029168249 0 -0.13276030686740831 0.28467710004434288 0 -0.12425235082338699 0.28602262896769293 0 -0.13276030686740831 0.28467710004434288 0 -0.12779022017604499 0.28068006949833407 0 -0.12425235082338699 0.28602262896769293 0 -0.13488163523065441 0.29302549690277341 0 -0.13001739274239091 0.28938599029168249 0 -0.13276030686740831 0.28467710004434288 0 -0.13276030686740831 0.28467710004434288 0 -0.13221123025231349 0.27664448341830888 0 -0.12779022017604499 0.28068006949833407 0 -0.13221123025231349 0.27664448341830888 0 -0.12779022017604499 0.28068006949833407 0 -0.1220198225635593 0.27535550513988849 0 -0.13221123025231349 0.27664448341830888 0 -0.132420867840333 0.26964388443329251 0 -0.1220198225635593 0.27535550513988849 0 -0.13903161377875259 0.28146188356033619 0 -0.13221123025231349 0.27664448341830888 0 -0.14156087716804749 0.2750404105816257 0 -0.13221123025231349 0.27664448341830888 0 -0.132420867840333 0.26964388443329251 0 -0.14156087716804749 0.2750404105816257 0 -0.13903161377875259 0.28146188356033619 0 -0.13276030686740831 0.28467710004434288 0 -0.13221123025231349 0.27664448341830888 0 -0.1386321194639534 0.26670597400464591 0 -0.132420867840333 0.26964388443329251 0 -0.14156087716804749 0.2750404105816257 0 -0.1386321194639534 0.26670597400464591 0 -0.132420867840333 0.26964388443329251 0 -0.13164413697294061 0.26260827650644358 0 -0.132420867840333 0.26964388443329251 0 -0.1253042452672197 0.26668835557723941 0 -0.1220198225635593 0.27535550513988849 0 -0.132420867840333 0.26964388443329251 0 -0.1253042452672197 0.26668835557723941 0 -0.13164413697294061 0.26260827650644358 0 -0.1253042452672197 0.26668835557723941 0 -0.13164413697294061 0.26260827650644358 0 -0.12336751314444221 0.25825090494839492 0 -0.13164413697294061 0.26260827650644358 0 -0.13218935898252701 0.25468258074821709 0 -0.12336751314444221 0.25825090494839492 0 -0.13218935898252701 0.25468258074821709 0 -0.12336751314444221 0.25825090494839492 0 -0.1238558918948755 0.24585549267607229 0 -0.13218935898252701 0.25468258074821709 0 -0.13785633189360039 0.25378023758779628 0 -0.13574780703940201 0.2457674948930661 0 -0.13785633189360039 0.25378023758779628 0 -0.1425475155209586 0.25127379529260208 0 -0.13574780703940201 0.2457674948930661 0 -0.13218935898252701 0.25468258074821709 0 -0.13785633189360039 0.25378023758779628 0 -0.13795071713916851 0.25967795932687232 0 -0.13785633189360039 0.25378023758779628 0 -0.13795071713916851 0.25967795932687232 0 -0.14323377809304649 0.25660507356473072 0 -0.13164413697294061 0.26260827650644358 0 -0.13218935898252701 0.25468258074821709 0 -0.13795071713916851 0.25967795932687232 0 -0.1386321194639534 0.26670597400464591 0 -0.13164413697294061 0.26260827650644358 0 -0.13795071713916851 0.25967795932687232 0 -0.1386321194639534 0.26670597400464591 0 -0.13795071713916851 0.25967795932687232 0 -0.14355512993667399 0.26302978165050422 0 -0.13795071713916851 0.25967795932687232 0 -0.14355512993667399 0.26302978165050422 0 -0.14323377809304649 0.25660507356473072 0 -0.14355512993667399 0.26302978165050422 0 -0.14323377809304649 0.25660507356473072 0 -0.14859168024816299 0.26012002145200869 0 -0.14355512993667399 0.26302978165050422 0 -0.14859168024816299 0.26012002145200869 0 -0.14925312511148181 0.2659048980834664 0 -0.1425475155209586 0.25127379529260208 0 -0.1475833336614886 0.25409058486047659 0 -0.14848436726826189 0.24606264326291691 0 -0.13785633189360039 0.25378023758779628 0 -0.1425475155209586 0.25127379529260208 0 -0.14323377809304649 0.25660507356473072 0 -0.1425475155209586 0.25127379529260208 0 -0.14323377809304649 0.25660507356473072 0 -0.1475833336614886 0.25409058486047659 0 -0.14323377809304649 0.25660507356473072 0 -0.1475833336614886 0.25409058486047659 0 -0.14859168024816299 0.26012002145200869 0 -0.1475833336614886 0.25409058486047659 0 -0.15437227985194579 0.25891579609779358 0 -0.14848436726826189 0.24606264326291691 0 -0.1475833336614886 0.25409058486047659 0 -0.14859168024816299 0.26012002145200869 0 -0.15437227985194579 0.25891579609779358 0 -0.15829975633299229 0.26567097790808858 0 -0.152892988799916 0.26251608654812258 0 -0.14925312511148181 0.2659048980834664 0 -0.14859168024816299 0.26012002145200869 0 -0.152892988799916 0.26251608654812258 0 -0.14925312511148181 0.2659048980834664 0 -0.14859168024816299 0.26012002145200869 0 -0.15437227985194579 0.25891579609779358 0 -0.152892988799916 0.26251608654812258 0 -0.15829975633299229 0.26567097790808858 0 -0.15437227985194579 0.25891579609779358 0 -0.152892988799916 0.26251608654812258 0 -0.15829975633299229 0.26567097790808858 0 -0.14925312511148181 0.2659048980834664 0 -0.14992221336027339 0.27379210197692999 0 -0.1579838256580732 0.27584161727201062 0 -0.15829975633299229 0.26567097790808858 0 -0.14992221336027339 0.27379210197692999 0 -0.1579838256580732 0.27584161727201062 0 -0.14810108559139271 0.28249972723862932 0 -0.14992221336027339 0.27379210197692999 0 -0.14810108559139271 0.28249972723862932 0 -0.13903161377875259 0.28146188356033619 0 -0.14156087716804749 0.2750404105816257 0 -0.14810108559139271 0.28249972723862932 0 -0.14992221336027339 0.27379210197692999 0 -0.14156087716804749 0.2750404105816257 0 -0.14925312511148181 0.2659048980834664 0 -0.14992221336027339 0.27379210197692999 0 -0.14441338452102909 0.26900342432385949 0 -0.1386321194639534 0.26670597400464591 0 -0.14156087716804749 0.2750404105816257 0 -0.14441338452102909 0.26900342432385949 0 -0.14992221336027339 0.27379210197692999 0 -0.14156087716804749 0.2750404105816257 0 -0.14441338452102909 0.26900342432385949 0 -0.1386321194639534 0.26670597400464591 0 -0.14355512993667399 0.26302978165050422 0 -0.14441338452102909 0.26900342432385949 0 -0.14355512993667399 0.26302978165050422 0 -0.14925312511148181 0.2659048980834664 0 -0.14441338452102909 0.26900342432385949 0 -0.10716394924904819 0.27037474842915882 0 -0.098817059091883361 0.28416065039349242 0 -0.091066688689262293 0.27147469666935631 0 -0.10716394924904819 0.27037474842915882 0 -0.113204298239145 0.28471341185216709 0 -0.098817059091883361 0.28416065039349242 0 -0.10716394924904819 0.27037474842915882 0 -0.094419367083935696 0.2541287094804705 0 -0.11332233907812909 0.25480978493684808 0 -0.10716394924904819 0.27037474842915882 0 -0.094419367083935696 0.2541287094804705 0 -0.091066688689262293 0.27147469666935631 0 -0.10716394924904819 0.27037474842915882 0 -0.11332233907812909 0.25480978493684808 0 -0.1180650216329872 0.26569872394263788 0 -0.11332233907812909 0.25480978493684808 0 -0.12336751314444221 0.25825090494839492 0 -0.1238558918948755 0.24585549267607229 0 -0.11332233907812909 0.25480978493684808 0 -0.12336751314444221 0.25825090494839492 0 -0.1180650216329872 0.26569872394263788 0 -0.1253042452672197 0.26668835557723941 0 -0.12336751314444221 0.25825090494839492 0 -0.1180650216329872 0.26569872394263788 0 -0.1253042452672197 0.26668835557723941 0 -0.1180650216329872 0.26569872394263788 0 -0.1220198225635593 0.27535550513988849 0 -0.10716394924904819 0.27037474842915882 0 -0.1180650216329872 0.26569872394263788 0 -0.1220198225635593 0.27535550513988849 0 -0.10716394924904819 0.27037474842915882 0 -0.1220198225635593 0.27535550513988849 0 -0.113204298239145 0.28471341185216709 0 -0.12779022017604499 0.28068006949833407 0 -0.1220198225635593 0.27535550513988849 0 -0.12425235082338699 0.28602262896769293 0 -0.1220198225635593 0.27535550513988849 0 -0.12425235082338699 0.28602262896769293 0 -0.113204298239145 0.28471341185216709 0 -0.12425235082338699 0.28602262896769293 0 -0.1205333948038937 0.29247326646001648 0 -0.113204298239145 0.28471341185216709 0 -0.1205333948038937 0.29247326646001648 0 -0.1138018966502696 0.29465765332604832 0 -0.11860744316831549 0.3013681359703525 0 -0.1269951488390868 0.29342772977261378 0 -0.12425235082338699 0.28602262896769293 0 -0.1205333948038937 0.29247326646001648 0 -0.12583919224047299 0.29980414183655729 0 -0.1269951488390868 0.29342772977261378 0 -0.1205333948038937 0.29247326646001648 0 -0.1138018966502696 0.29465765332604832 0 -0.113204298239145 0.28471341185216709 0 -0.1038155686354082 0.29480423810837481 0 -0.1205333948038937 0.29247326646001648 0 -0.1138018966502696 0.29465765332604832 0 -0.113204298239145 0.28471341185216709 0 -0.12547836412756011 0.30799183565117327 0 -0.1183311714902613 0.30974970176368699 0 -0.12355625625981111 0.3169603400801449 0 -0.12547836412756011 0.30799183565117327 0 -0.1183311714902613 0.30974970176368699 0 -0.11860744316831549 0.3013681359703525 0 -0.12583919224047299 0.29980414183655729 0 -0.1205333948038937 0.29247326646001648 0 -0.11860744316831549 0.3013681359703525 0 -0.12583919224047299 0.29980414183655729 0 -0.12547836412756011 0.30799183565117327 0 -0.11860744316831549 0.3013681359703525 0 -0.1138018966502696 0.29465765332604832 0 -0.11860744316831549 0.3013681359703525 0 -0.10824877250803 0.30400512120617917 0 -0.1183311714902613 0.30974970176368699 0 -0.11860744316831549 0.3013681359703525 0 -0.10824877250803 0.30400512120617917 0 -0.1183311714902613 0.30974970176368699 0 -0.10824877250803 0.30400512120617917 0 -0.1108931470430706 0.31281979500966178 0 -0.10824877250803 0.30400512120617917 0 -0.096668035530094398 0.30472069478242048 0 -0.1029386232365047 0.31444739547408562 0 -0.10824877250803 0.30400512120617917 0 -0.1029386232365047 0.31444739547408562 0 -0.1108931470430706 0.31281979500966178 0 -0.1138018966502696 0.29465765332604832 0 -0.10824877250803 0.30400512120617917 0 -0.1038155686354082 0.29480423810837481 0 -0.10824877250803 0.30400512120617917 0 -0.096668035530094398 0.30472069478242048 0 -0.1038155686354082 0.29480423810837481 0 -0.096668035530094398 0.30472069478242048 0 -0.1038155686354082 0.29480423810837481 0 -0.090211371145505467 0.29668850382203432 0 -0.096668035530094398 0.30472069478242048 0 -0.094809734038222737 0.3131835930475928 0 -0.1029386232365047 0.31444739547408562 0 -0.113204298239145 0.28471341185216709 0 -0.1038155686354082 0.29480423810837481 0 -0.098817059091883361 0.28416065039349242 0 -0.1038155686354082 0.29480423810837481 0 -0.098817059091883361 0.28416065039349242 0 -0.090211371145505467 0.29668850382203432 0 -0.098817059091883361 0.28416065039349242 0 -0.090211371145505467 0.29668850382203432 0 -0.080353872350309094 0.28604508022736258 0 -0.090211371145505467 0.29668850382203432 0 -0.080353872350309094 0.28604508022736258 0 -0.07794177399220617 0.30235150546648559 0 -0.096668035530094398 0.30472069478242048 0 -0.085891585627181369 0.31223470127304659 0 -0.094809734038222737 0.3131835930475928 0 -0.096668035530094398 0.30472069478242048 0 -0.090211371145505467 0.29668850382203432 0 -0.085891585627181369 0.31223470127304659 0 -0.090211371145505467 0.29668850382203432 0 -0.085891585627181369 0.31223470127304659 0 -0.07794177399220617 0.30235150546648559 0 -0.085891585627181369 0.31223470127304659 0 -0.07794177399220617 0.30235150546648559 0 -0.067972896282845849 0.31081295939180809 0 -0.07794177399220617 0.30235150546648559 0 -0.066128695557605588 0.29853705798344071 0 -0.067972896282845849 0.31081295939180809 0 -0.066128695557605588 0.29853705798344071 0 -0.067972896282845849 0.31081295939180809 0 -0.05386991897658374 0.29838181044739681 0 -0.080353872350309094 0.28604508022736258 0 -0.07794177399220617 0.30235150546648559 0 -0.066128695557605588 0.29853705798344071 0 -0.080353872350309094 0.28604508022736258 0 -0.066128695557605588 0.29853705798344071 0 -0.065028856886007846 0.28442668971961549 0 -0.080353872350309094 0.28604508022736258 0 -0.065028856886007846 0.28442668971961549 0 -0.073282661089692933 0.26467645753711389 0 -0.065028856886007846 0.28442668971961549 0 -0.073282661089692933 0.26467645753711389 0 -0.053145207950017953 0.26531266504736661 0 -0.080353872350309094 0.28604508022736258 0 -0.091066688689262293 0.27147469666935631 0 -0.073282661089692933 0.26467645753711389 0 -0.098817059091883361 0.28416065039349242 0 -0.080353872350309094 0.28604508022736258 0 -0.091066688689262293 0.27147469666935631 0 -0.094419367083935696 0.2541287094804705 0 -0.091066688689262293 0.27147469666935631 0 -0.073282661089692933 0.26467645753711389 0 -0.094419367083935696 0.2541287094804705 0 -0.073282661089692933 0.26467645753711389 0 -0.073834855934457877 0.24141335820277049 0 -0.073282661089692933 0.26467645753711389 0 -0.073834855934457877 0.24141335820277049 0 -0.060366595154730002 0.24980608077318411 0 -0.073282661089692933 0.26467645753711389 0 -0.053145207950017953 0.26531266504736661 0 -0.060366595154730002 0.24980608077318411 0 -0.053145207950017953 0.26531266504736661 0 -0.042397229216644967 0.24303424827545961 0 -0.060366595154730002 0.24980608077318411 0 -0.053145207950017953 0.26531266504736661 0 -0.035765825532670298 0.28688901229735669 0 -0.051952452336319961 0.2837525443779339 0 -0.065028856886007846 0.28442668971961549 0 -0.053145207950017953 0.26531266504736661 0 -0.051952452336319961 0.2837525443779339 0 -0.053145207950017953 0.26531266504736661 0 -0.035765825532670298 0.28688901229735669 0 -0.030631552918914 0.2658705267268428 0 -0.035765825532670298 0.28688901229735669 0 -0.053145207950017953 0.26531266504736661 0 -0.030631552918914 0.2658705267268428 0 -0.035765825532670298 0.28688901229735669 0 -0.053145207950017953 0.26531266504736661 0 -0.030631552918914 0.2658705267268428 0 -0.042397229216644967 0.24303424827545961 0 -0.030631552918914 0.2658705267268428 0 -0.042397229216644967 0.24303424827545961 0 -0.026607954193611769 0.2493988747302498 0 -0.030631552918914 0.2658705267268428 0 -0.042397229216644967 0.24303424827545961 0 -0.022258721015688519 0.25704338766156842 0 -0.030631552918914 0.2658705267268428 0 -0.026607954193611769 0.2493988747302498 0 -0.030631552918914 0.2658705267268428 0 -0.026607954193611769 0.2493988747302498 0 -0.022258721015688519 0.25704338766156842 0 -0.01399701172863455 0.25013081978710272 0 -0.026607954193611769 0.2493988747302498 0 -0.022258721015688519 0.25704338766156842 0 -0.017798365221593761 0.26277332940207809 0 -0.01399701172863455 0.25013081978710272 0 -0.022258721015688519 0.25704338766156842 0 -0.017798365221593761 0.26277332940207809 0 -0.030631552918914 0.2658705267268428 0 -0.030631552918914 0.2658705267268428 0 -0.02253154678259436 0.28159201955954549 0 -0.030631552918914 0.2658705267268428 0 -0.01473170701791361 0.27354921772548307 0 -0.02253154678259436 0.28159201955954549 0 -0.017798365221593761 0.26277332940207809 0 -0.030631552918914 0.2658705267268428 0 -0.01473170701791361 0.27354921772548307 0 -0.030631552918914 0.2658705267268428 0 -0.02253154678259436 0.28159201955954549 0 -0.035765825532670298 0.28688901229735669 0 -0.01473170701791361 0.27354921772548307 0 -0.0044384574811734646 0.28591032600112909 0 -0.02253154678259436 0.28159201955954549 0 -0.01473170701791361 0.27354921772548307 0 -0.0054096679889618672 0.2673344168405476 0 -0.0044384574811734646 0.28591032600112909 0 -0.017798365221593761 0.26277332940207809 0 -0.01473170701791361 0.27354921772548307 0 -0.0054096679889618672 0.2673344168405476 0 -0.0054096679889618672 0.2673344168405476 0 -0.0044384574811734646 0.28591032600112909 0 0.0092827741316595554 0.27736587233164778 0 -0.01129333948663643 0.24599948298869609 0 0.0076893730913138083 0.25651749406871249 0 -0.017798365221593761 0.26277332940207809 0 -0.0054096679889618672 0.2673344168405476 0 -0.01399701172863455 0.25013081978710272 0 -0.0054096679889618672 0.2673344168405476 0 -0.0043766345004221958 0.25561428549538678 0 -0.01399701172863455 0.25013081978710272 0 -0.0054096679889618672 0.2673344168405476 0 -0.0043766345004221958 0.25561428549538678 0 0.0076893730913138083 0.25651749406871249 0 -0.0043766345004221958 0.25561428549538678 0 -0.01129333948663643 0.24599948298869609 0 0.0076893730913138083 0.25651749406871249 0 -0.0054096679889618672 0.2673344168405476 0 -0.01399701172863455 0.25013081978710272 0 -0.0043766345004221958 0.25561428549538678 0 -0.01399701172863455 0.25013081978710272 0 -0.01129333948663643 0.24599948298869609 0 -0.0037735911627670279 0.30794855218137251 0 -0.01579212794518961 0.29341770153054048 0 -0.020109607236189712 0.3063260667607649 0 -0.0044384574811734646 0.28591032600112909 0 -0.01579212794518961 0.29341770153054048 0 -0.02253154678259436 0.28159201955954549 0 -0.0037735911627670279 0.30794855218137251 0 -0.0044384574811734646 0.28591032600112909 0 -0.01579212794518961 0.29341770153054048 0 -0.01579212794518961 0.29341770153054048 0 -0.02253154678259436 0.28159201955954549 0 -0.035765825532670298 0.28688901229735669 0 -0.01579212794518961 0.29341770153054048 0 -0.020109607236189712 0.3063260667607649 0 -0.035765825532670298 0.28688901229735669 0 -0.020109607236189712 0.3063260667607649 0 -0.035765825532670298 0.28688901229735669 0 -0.041966524319020482 0.31227319186328878 0 -0.035765825532670298 0.28688901229735669 0 -0.041966524319020482 0.31227319186328878 0 -0.035765825532670298 0.28688901229735669 0 -0.05386991897658374 0.29838181044739681 0 -0.020109607236189712 0.3063260667607649 0 -0.041966524319020482 0.31227319186328878 0 -0.035765825532670298 0.28688901229735669 0 -0.035765825532670298 0.28688901229735669 0 -0.051952452336319961 0.2837525443779339 0 -0.05386991897658374 0.29838181044739681 0 -0.066128695557605588 0.29853705798344071 0 -0.065028856886007846 0.28442668971961549 0 -0.05386991897658374 0.29838181044739681 0 -0.065028856886007846 0.28442668971961549 0 -0.051952452336319961 0.2837525443779339 0 -0.05386991897658374 0.29838181044739681 0 -0.041966524319020482 0.31227319186328878 0 -0.05386991897658374 0.29838181044739681 0 -0.056901946612511953 0.32042735527956728 0 -0.067972896282845849 0.31081295939180809 0 -0.05386991897658374 0.29838181044739681 0 -0.056901946612511953 0.32042735527956728 0 -0.041966524319020482 0.31227319186328878 0 -0.056901946612511953 0.32042735527956728 0 -0.048167223105369202 0.3376573714292212 0 -0.056901946612511953 0.32042735527956728 0 -0.048167223105369202 0.3376573714292212 0 -0.063727370394189131 0.33613992718031832 0 -0.048167223105369202 0.3376573714292212 0 -0.060894852719834948 0.34558576733838969 0 -0.063727370394189131 0.33613992718031832 0 -0.048167223105369202 0.3376573714292212 0 -0.027576849199283129 0.33262253713955708 0 -0.029541092916119591 0.34772261642365643 0 -0.041966524319020482 0.31227319186328878 0 -0.048167223105369202 0.3376573714292212 0 -0.027576849199283129 0.33262253713955708 0 -0.041966524319020482 0.31227319186328878 0 -0.048167223105369202 0.3376573714292212 0 -0.041966524319020482 0.31227319186328878 0 -0.019063868983659919 0.32113800430564449 0 -0.027576849199283129 0.33262253713955708 0 -0.020109607236189712 0.3063260667607649 0 -0.041966524319020482 0.31227319186328878 0 -0.019063868983659919 0.32113800430564449 0 -0.027576849199283129 0.33262253713955708 0 -0.016482755268957448 0.34461896909190348 0 -0.029541092916119591 0.34772261642365643 0 -0.027576849199283129 0.33262253713955708 0 -0.01427806482802201 0.33260017619442422 0 -0.016482755268957448 0.34461896909190348 0 -0.019063868983659919 0.32113800430564449 0 -0.027576849199283129 0.33262253713955708 0 -0.01427806482802201 0.33260017619442422 0 -0.01427806482802201 0.33260017619442422 0 -0.003813461748498483 0.33885824921084112 0 -0.016482755268957448 0.34461896909190348 0 -0.01427806482802201 0.33260017619442422 0 -0.003813461748498483 0.33885824921084112 0 -0.0044533889397110581 0.32576312122417461 0 -0.020109607236189712 0.3063260667607649 0 -0.019063868983659919 0.32113800430564449 0 -0.0044533889397110581 0.32576312122417461 0 -0.020109607236189712 0.3063260667607649 0 -0.0044533889397110581 0.32576312122417461 0 -0.0037735911627670279 0.30794855218137251 0 -0.020109607236189712 0.3063260667607649 0 -0.0044533889397110581 0.32576312122417461 0 -0.019063868983659919 0.32113800430564449 0 -0.01427806482802201 0.33260017619442422 0 -0.0044533889397110581 0.32576312122417461 0 -0.0061059733122382949 0.36543146842299112 0 -0.0063076613608452911 0.35318089762869892 0 -0.018925823628991961 0.36259865486902049 0 -0.0061059733122382949 0.36543146842299112 0 -0.018925823628991961 0.36259865486902049 0 -0.0085562506476948019 0.37815234602365572 0 -0.0061059733122382949 0.36543146842299112 0 -0.0085562506476948019 0.37815234602365572 0 0.0058591024644449544 0.37408789411368543 0 -0.0061059733122382949 0.36543146842299112 0 -0.0063076613608452911 0.35318089762869892 0 0.0045562057832190537 0.36086632368490462 0 -0.0063076613608452911 0.35318089762869892 0 -0.016482755268957448 0.34461896909190348 0 -0.018925823628991961 0.36259865486902049 0 -0.003813461748498483 0.33885824921084112 0 -0.0063076613608452911 0.35318089762869892 0 0.0081135051517422351 0.35189782535478159 0 -0.003813461748498483 0.33885824921084112 0 -0.0063076613608452911 0.35318089762869892 0 -0.016482755268957448 0.34461896909190348 0 -0.029541092916119591 0.34772261642365643 0 -0.018925823628991961 0.36259865486902049 0 -0.03664687276035395 0.36282010293208761 0 -0.016482755268957448 0.34461896909190348 0 -0.029541092916119591 0.34772261642365643 0 -0.018925823628991961 0.36259865486902049 0 -0.018925823628991961 0.36259865486902049 0 -0.03664687276035395 0.36282010293208761 0 -0.029123654744962309 0.3771058220378854 0 -0.018925823628991961 0.36259865486902049 0 -0.029123654744962309 0.3771058220378854 0 -0.0085562506476948019 0.37815234602365572 0 -0.018925823628991961 0.36259865486902049 0 -0.03664687276035395 0.36282010293208761 0 -0.03664687276035395 0.36282010293208761 0 -0.054367921891715992 0.36304155099515423 0 -0.03664687276035395 0.36282010293208761 0 -0.046575630326068533 0.36953055255711797 0 -0.054367921891715992 0.36304155099515423 0 -0.03664687276035395 0.36282010293208761 0 -0.046575630326068533 0.36953055255711797 0 -0.029123654744962309 0.3771058220378854 0 -0.048167223105369202 0.3376573714292212 0 -0.03664687276035395 0.36282010293208761 0 -0.054367921891715992 0.36304155099515423 0 -0.048167223105369202 0.3376573714292212 0 -0.029541092916119591 0.34772261642365643 0 -0.03664687276035395 0.36282010293208761 0 -0.048167223105369202 0.3376573714292212 0 -0.058915643073324947 0.35253818965494432 0 -0.054367921891715992 0.36304155099515423 0 -0.048167223105369202 0.3376573714292212 0 -0.054367921891715992 0.36304155099515423 0 -0.058915643073324947 0.35253818965494432 0 -0.054367921891715992 0.36304155099515423 0 -0.065221017445396864 0.35966498974848549 0 -0.048167223105369202 0.3376573714292212 0 -0.058915643073324947 0.35253818965494432 0 -0.060894852719834948 0.34558576733838969 0 -0.058915643073324947 0.35253818965494432 0 -0.060894852719834948 0.34558576733838969 0 -0.064821340430136362 0.35111353753572039 0 -0.055571088494621328 0.37008600530223962 0 -0.078056900058470435 0.36353142261897292 0 -0.053403541008422289 0.37896247326861338 0 -0.046575630326068533 0.36953055255711797 0 -0.054367921891715992 0.36304155099515423 0 -0.055571088494621328 0.37008600530223962 0 -0.046575630326068533 0.36953055255711797 0 -0.055571088494621328 0.37008600530223962 0 -0.053403541008422289 0.37896247326861338 0 -0.054367921891715992 0.36304155099515423 0 -0.065221017445396864 0.35966498974848549 0 -0.078056900058470435 0.36353142261897292 0 -0.054367921891715992 0.36304155099515423 0 -0.055571088494621328 0.37008600530223962 0 -0.078056900058470435 0.36353142261897292 0 -0.054367921891715992 0.36304155099515423 0 -0.078056900058470435 0.36353142261897292 0 -0.078056900058470435 0.36353142261897292 0 -0.053403541008422289 0.37896247326861338 0 -0.078056900058470435 0.36353142261897292 0 -0.069210832529228189 0.37621843676807942 0 -0.053403541008422289 0.37896247326861338 0 -0.065221017445396864 0.35966498974848549 0 -0.073222032380673749 0.35969907665844159 0 -0.078056900058470435 0.36353142261897292 0 -0.073222032380673749 0.35969907665844159 0 -0.078056900058470435 0.36353142261897292 0 -0.078153089983797178 0.35830789987477379 0 -0.078056900058470435 0.36353142261897292 0 -0.079658809836044356 0.36953675971710742 0 -0.069210832529228189 0.37621843676807942 0 -0.079658809836044356 0.36953675971710742 0 -0.080222837268140029 0.37618614450843058 0 -0.069210832529228189 0.37621843676807942 0 -0.078056900058470435 0.36353142261897292 0 -0.079658809836044356 0.36953675971710742 0 -0.086526193639199625 0.37135266334234418 0 -0.086526193639199625 0.37135266334234418 0 -0.1037565267618548 0.36365872725853488 0 -0.089930570003173449 0.38403154610080209 0 -0.078056900058470435 0.36353142261897292 0 -0.1037565267618548 0.36365872725853488 0 -0.078056900058470435 0.36353142261897292 0 -0.087549613322147848 0.35886386411246579 0 -0.1037565267618548 0.36365872725853488 0 -0.078056900058470435 0.36353142261897292 0 -0.086526193639199625 0.37135266334234418 0 -0.1037565267618548 0.36365872725853488 0 -0.079658809836044356 0.36953675971710742 0 -0.086526193639199625 0.37135266334234418 0 -0.080222837268140029 0.37618614450843058 0 -0.078056900058470435 0.36353142261897292 0 -0.087549613322147848 0.35886386411246579 0 -0.078153089983797178 0.35830789987477379 0 -0.092330728254500283 0.3483411484245007 0 -0.087052054542751389 0.35404174778756281 0 -0.081994413459632237 0.34780973210640931 0 -0.092330728254500283 0.3483411484245007 0 -0.081994413459632237 0.34780973210640931 0 -0.087740738250914455 0.33941767466087119 0 -0.092330728254500283 0.3483411484245007 0 -0.087052054542751389 0.35404174778756281 0 -0.094990417007323441 0.35465280200713012 0 -0.087549613322147848 0.35886386411246579 0 -0.087052054542751389 0.35404174778756281 0 -0.094990417007323441 0.35465280200713012 0 -0.087549613322147848 0.35886386411246579 0 -0.08227421036431902 0.35450226313645128 0 -0.078153089983797178 0.35830789987477379 0 -0.087052054542751389 0.35404174778756281 0 -0.08227421036431902 0.35450226313645128 0 -0.081994413459632237 0.34780973210640931 0 -0.087549613322147848 0.35886386411246579 0 -0.087052054542751389 0.35404174778756281 0 -0.08227421036431902 0.35450226313645128 0 -0.08227421036431902 0.35450226313645128 0 -0.081994413459632237 0.34780973210640931 0 -0.076621880513266474 0.35348807180104508 0 -0.08227421036431902 0.35450226313645128 0 -0.078153089983797178 0.35830789987477379 0 -0.076621880513266474 0.35348807180104508 0 -0.081994413459632237 0.34780973210640931 0 -0.070609077230293027 0.34680220055952898 0 -0.076621880513266474 0.35348807180104508 0 -0.081994413459632237 0.34780973210640931 0 -0.070609077230293027 0.34680220055952898 0 -0.076754165746521288 0.33671189587128347 0 -0.070609077230293027 0.34680220055952898 0 -0.076621880513266474 0.35348807180104508 0 -0.070835152731753392 0.35468432931983029 0 -0.073222032380673749 0.35969907665844159 0 -0.078153089983797178 0.35830789987477379 0 -0.075056112865941715 0.35676530541479262 0 -0.078153089983797178 0.35830789987477379 0 -0.075056112865941715 0.35676530541479262 0 -0.076621880513266474 0.35348807180104508 0 -0.075056112865941715 0.35676530541479262 0 -0.076621880513266474 0.35348807180104508 0 -0.070835152731753392 0.35468432931983029 0 -0.073222032380673749 0.35969907665844159 0 -0.070835152731753392 0.35468432931983029 0 -0.069010415730376459 0.35773644887782868 0 -0.073222032380673749 0.35969907665844159 0 -0.075056112865941715 0.35676530541479262 0 -0.070835152731753392 0.35468432931983029 0 -0.065221017445396864 0.35966498974848549 0 -0.073222032380673749 0.35969907665844159 0 -0.069010415730376459 0.35773644887782868 0 -0.070835152731753392 0.35468432931983029 0 -0.069010415730376459 0.35773644887782868 0 -0.064980037111778452 0.35622534647154769 0 -0.070835152731753392 0.35468432931983029 0 -0.064980037111778452 0.35622534647154769 0 -0.064821340430136362 0.35111353753572039 0 -0.058915643073324947 0.35253818965494432 0 -0.064980037111778452 0.35622534647154769 0 -0.064821340430136362 0.35111353753572039 0 -0.058915643073324947 0.35253818965494432 0 -0.065221017445396864 0.35966498974848549 0 -0.064980037111778452 0.35622534647154769 0 -0.065221017445396864 0.35966498974848549 0 -0.069010415730376459 0.35773644887782868 0 -0.064980037111778452 0.35622534647154769 0 -0.070609077230293027 0.34680220055952898 0 -0.070835152731753392 0.35468432931983029 0 -0.064821340430136362 0.35111353753572039 0 -0.060894852719834948 0.34558576733838969 0 -0.070609077230293027 0.34680220055952898 0 -0.064821340430136362 0.35111353753572039 0 -0.060894852719834948 0.34558576733838969 0 -0.070609077230293027 0.34680220055952898 0 -0.063727370394189131 0.33613992718031832 0 -0.063727370394189131 0.33613992718031832 0 -0.076754165746521288 0.33671189587128347 0 -0.069315935993918582 0.32719762312571599 0 -0.076754165746521288 0.33671189587128347 0 -0.069315935993918582 0.32719762312571599 0 -0.07822275920193715 0.3287742903636211 0 -0.070609077230293027 0.34680220055952898 0 -0.063727370394189131 0.33613992718031832 0 -0.076754165746521288 0.33671189587128347 0 -0.085891585627181369 0.31223470127304659 0 -0.067972896282845849 0.31081295939180809 0 -0.078337526932654916 0.32114113174684572 0 -0.067972896282845849 0.31081295939180809 0 -0.069315935993918582 0.32719762312571599 0 -0.078337526932654916 0.32114113174684572 0 -0.056901946612511953 0.32042735527956728 0 -0.063727370394189131 0.33613992718031832 0 -0.069315935993918582 0.32719762312571599 0 -0.067972896282845849 0.31081295939180809 0 -0.056901946612511953 0.32042735527956728 0 -0.069315935993918582 0.32719762312571599 0 -0.069315935993918582 0.32719762312571599 0 -0.078337526932654916 0.32114113174684572 0 -0.07822275920193715 0.3287742903636211 0 -0.085891585627181369 0.31223470127304659 0 -0.078337526932654916 0.32114113174684572 0 -0.086028750630850775 0.32207415040121701 0 -0.078337526932654916 0.32114113174684572 0 -0.086028750630850775 0.32207415040121701 0 -0.07822275920193715 0.3287742903636211 0 -0.086028750630850775 0.32207415040121701 0 -0.07822275920193715 0.3287742903636211 0 -0.085785106962812135 0.32981792748660138 0 -0.093740691759110484 0.32133158066081863 0 -0.085785106962812135 0.32981792748660138 0 -0.095277673389175546 0.3317008606074402 0 -0.093740691759110484 0.32133158066081863 0 -0.086028750630850775 0.32207415040121701 0 -0.085785106962812135 0.32981792748660138 0 -0.085891585627181369 0.31223470127304659 0 -0.093740691759110484 0.32133158066081863 0 -0.094809734038222737 0.3131835930475928 0 -0.085891585627181369 0.31223470127304659 0 -0.093740691759110484 0.32133158066081863 0 -0.086028750630850775 0.32207415040121701 0 -0.081994413459632237 0.34780973210640931 0 -0.076754165746521288 0.33671189587128347 0 -0.087740738250914455 0.33941767466087119 0 -0.076754165746521288 0.33671189587128347 0 -0.085785106962812135 0.32981792748660138 0 -0.087740738250914455 0.33941767466087119 0 -0.076754165746521288 0.33671189587128347 0 -0.07822275920193715 0.3287742903636211 0 -0.085785106962812135 0.32981792748660138 0 -0.085785106962812135 0.32981792748660138 0 -0.087740738250914455 0.33941767466087119 0 -0.095277673389175546 0.3317008606074402 0 -0.087740738250914455 0.33941767466087119 0 -0.097129994351171617 0.34064499988852037 0 -0.095277673389175546 0.3317008606074402 0 -0.092330728254500283 0.3483411484245007 0 -0.087740738250914455 0.33941767466087119 0 -0.097129994351171617 0.34064499988852037 0 -0.097129994351171617 0.34064499988852037 0 -0.095277673389175546 0.3317008606074402 0 -0.1047405386975776 0.3355868789685475 0 -0.097129994351171617 0.34064499988852037 0 -0.1047405386975776 0.3355868789685475 0 -0.1024061662540256 0.34806203920196771 0 -0.095277673389175546 0.3317008606074402 0 -0.1047405386975776 0.3355868789685475 0 -0.1022584983781127 0.32470798303773601 0 -0.1047405386975776 0.3355868789685475 0 -0.1164589841509729 0.34494140680418939 0 -0.1024061662540256 0.34806203920196771 0 -0.093740691759110484 0.32133158066081863 0 -0.094809734038222737 0.3131835930475928 0 -0.1029386232365047 0.31444739547408562 0 -0.093740691759110484 0.32133158066081863 0 -0.1022584983781127 0.32470798303773601 0 -0.1029386232365047 0.31444739547408562 0 -0.093740691759110484 0.32133158066081863 0 -0.095277673389175546 0.3317008606074402 0 -0.1022584983781127 0.32470798303773601 0 -0.1022584983781127 0.32470798303773601 0 -0.1029386232365047 0.31444739547408562 0 -0.1140540209374864 0.32307696159469562 0 -0.1047405386975776 0.3355868789685475 0 -0.1022584983781127 0.32470798303773601 0 -0.1140540209374864 0.32307696159469562 0 -0.1029386232365047 0.31444739547408562 0 -0.1108931470430706 0.31281979500966178 0 -0.1140540209374864 0.32307696159469562 0 -0.1183311714902613 0.30974970176368699 0 -0.1108931470430706 0.31281979500966178 0 -0.1140540209374864 0.32307696159469562 0 -0.1291614415400914 0.32622408634984429 0 -0.1140540209374864 0.32307696159469562 0 -0.12355625625981111 0.3169603400801449 0 -0.1183311714902613 0.30974970176368699 0 -0.1140540209374864 0.32307696159469562 0 -0.12355625625981111 0.3169603400801449 0 -0.1047405386975776 0.3355868789685475 0 -0.1140540209374864 0.32307696159469562 0 -0.1164589841509729 0.34494140680418939 0 -0.1291614415400914 0.32622408634984429 0 -0.1164589841509729 0.34494140680418939 0 -0.1291614415400914 0.32622408634984429 0 -0.1140540209374864 0.32307696159469562 0 -0.1164589841509729 0.34494140680418939 0 -0.1291614415400914 0.32622408634984429 0 -0.12317788072287331 0.34502536834736691 0 -0.1164589841509729 0.34494140680418939 0 -0.1164589841509729 0.34494140680418939 0 -0.1171943199056569 0.3638266503448902 0 -0.1037565267618548 0.36365872725853488 0 -0.12317788072287331 0.34502536834736691 0 -0.1164589841509729 0.34494140680418939 0 -0.1171943199056569 0.3638266503448902 0 -0.12317788072287331 0.34502536834736691 0 -0.1171943199056569 0.3638266503448902 0 -0.1164589841509729 0.34494140680418939 0 -0.1037565267618548 0.36365872725853488 0 -0.12950843241589069 0.35583734230918612 0 -0.12317788072287331 0.34502536834736691 0 -0.1171943199056569 0.3638266503448902 0 -0.1171943199056569 0.3638266503448902 0 -0.1037565267618548 0.36365872725853488 0 -0.110364517614067 0.38528695513563882 0 -0.1171943199056569 0.3638266503448902 0 -0.110364517614067 0.38528695513563882 0 -0.13127260941300259 0.3746433260741861 0 -0.1171943199056569 0.3638266503448902 0 -0.1205246004680459 0.38450984139923239 0 -0.1171943199056569 0.3638266503448902 0 -0.1037565267618548 0.36365872725853488 0 -0.1037565267618548 0.36365872725853488 0 -0.089930570003173449 0.38403154610080209 0 -0.087549613322147848 0.35886386411246579 0 -0.1037565267618548 0.36365872725853488 0 -0.094990417007323441 0.35465280200713012 0 -0.1037565267618548 0.36365872725853488 0 -0.094990417007323441 0.35465280200713012 0 -0.1024061662540256 0.34806203920196771 0 -0.1164589841509729 0.34494140680418939 0 -0.1037565267618548 0.36365872725853488 0 -0.1024061662540256 0.34806203920196771 0 -0.092330728254500283 0.3483411484245007 0 -0.097129994351171617 0.34064499988852037 0 -0.1024061662540256 0.34806203920196771 0 -0.092330728254500283 0.3483411484245007 0 -0.094990417007323441 0.35465280200713012 0 -0.1024061662540256 0.34806203920196771 0 -0.110364517614067 0.38528695513563882 0 -0.1035347153224795 0.40674725992638822 0 -0.092047333104112547 0.39923918998040098 0 -0.110364517614067 0.38528695513563882 0 -0.110701368821923 0.39073153010882672 0 -0.1035347153224795 0.40674725992638822 0 -0.110364517614067 0.38528695513563882 0 -0.1035347153224795 0.40674725992638822 0 -0.1035347153224795 0.40674725992638822 0 -0.096941996002387315 0.41200460840622127 0 -0.092047333104112547 0.39923918998040098 0 -0.110364517614067 0.38528695513563882 0 -0.092047333104112547 0.39923918998040098 0 -0.089930570003173449 0.38403154610080209 0 -0.1037565267618548 0.36365872725853488 0 -0.110364517614067 0.38528695513563882 0 -0.089930570003173449 0.38403154610080209 0 -0.110364517614067 0.38528695513563882 0 -0.1205246004680459 0.38450984139923239 0 -0.110701368821923 0.39073153010882672 0 -0.1171943199056569 0.3638266503448902 0 -0.110364517614067 0.38528695513563882 0 -0.1205246004680459 0.38450984139923239 0 -0.1205246004680459 0.38450984139923239 0 -0.118822103942645 0.39455636791041943 0 -0.110701368821923 0.39073153010882672 0 -0.13069806257389191 0.38508591269685633 0 -0.1205246004680459 0.38450984139923239 0 -0.118822103942645 0.39455636791041943 0 -0.13069806257389191 0.38508591269685633 0 -0.118822103942645 0.39455636791041943 0 -0.118822103942645 0.39455636791041943 0 -0.110701368821923 0.39073153010882672 0 -0.1035347153224795 0.40674725992638822 0 -0.118822103942645 0.39455636791041943 0 -0.11786539745278719 0.41149149123291462 0 -0.1035347153224795 0.40674725992638822 0 -0.118822103942645 0.39455636791041943 0 -0.110701368821923 0.39073153010882672 0 -0.118822103942645 0.39455636791041943 0 -0.1035347153224795 0.40674725992638822 0 -0.13098407999684841 0.4142561318584298 0 -0.118822103942645 0.39455636791041943 0 -0.11786539745278719 0.41149149123291462 0 -0.13098407999684841 0.4142561318584298 0 -0.11786539745278719 0.41149149123291462 0 -0.1219826263572617 0.42544113180991988 0 -0.11786539745278719 0.41149149123291462 0 -0.112130041753355 0.41911126785108782 0 -0.1219826263572617 0.42544113180991988 0 -0.11786539745278719 0.41149149123291462 0 -0.112130041753355 0.41911126785108782 0 -0.1035347153224795 0.40674725992638822 0 -0.1219826263572617 0.42544113180991988 0 -0.1160347721948565 0.43412092433543548 0 -0.1241883904025063 0.43876471153149899 0 -0.1219826263572617 0.42544113180991988 0 -0.11378996456028009 0.42708361938528372 0 -0.1160347721948565 0.43412092433543548 0 -0.112130041753355 0.41911126785108782 0 -0.1219826263572617 0.42544113180991988 0 -0.11378996456028009 0.42708361938528372 0 -0.112130041753355 0.41911126785108782 0 -0.11378996456028009 0.42708361938528372 0 -0.10650347755993921 0.42335851794428392 0 -0.11378996456028009 0.42708361938528372 0 -0.1160347721948565 0.43412092433543548 0 -0.1069181363621404 0.43388206627038489 0 -0.1160347721948565 0.43412092433543548 0 -0.1069181363621404 0.43388206627038489 0 -0.1130157628815423 0.44345732641231961 0 -0.096144529801440809 0.42996837628827461 0 -0.096162450611461475 0.42157323121081308 0 -0.089756382162494597 0.44771548747387602 0 -0.1069181363621404 0.43388206627038489 0 -0.096144529801440809 0.42996837628827461 0 -0.1019972708981377 0.44138537807505901 0 -0.1069181363621404 0.43388206627038489 0 -0.10650347755993921 0.42335851794428392 0 -0.096144529801440809 0.42996837628827461 0 -0.11378996456028009 0.42708361938528372 0 -0.1069181363621404 0.43388206627038489 0 -0.10650347755993921 0.42335851794428392 0 -0.096144529801440809 0.42996837628827461 0 -0.1035347153224795 0.40674725992638822 0 -0.112130041753355 0.41911126785108782 0 -0.10650347755993921 0.42335851794428392 0 -0.1035347153224795 0.40674725992638822 0 -0.10650347755993921 0.42335851794428392 0 -0.096144529801440809 0.42996837628827461 0 -0.1035347153224795 0.40674725992638822 0 -0.096144529801440809 0.42996837628827461 0 -0.1035347153224795 0.40674725992638822 0 -0.096162450611461475 0.42157323121081308 0 -0.1035347153224795 0.40674725992638822 0 -0.096162450611461475 0.42157323121081308 0 -0.096941996002387315 0.41200460840622127 0 -0.1035347153224795 0.40674725992638822 0 -0.096941996002387315 0.41200460840622127 0 -0.083771977209022408 0.41574772692799672 0 -0.076104613244492789 0.40440436494306992 0 -0.092047333104112547 0.39923918998040098 0 -0.096941996002387315 0.41200460840622127 0 -0.083771977209022408 0.41574772692799672 0 -0.092047333104112547 0.39923918998040098 0 -0.096162450611461475 0.42157323121081308 0 -0.096941996002387315 0.41200460840622127 0 -0.083771977209022408 0.41574772692799672 0 -0.096162450611461475 0.42157323121081308 0 -0.083771977209022408 0.41574772692799672 0 -0.080130585459200002 0.43170251878069549 0 -0.096162450611461475 0.42157323121081308 0 -0.089756382162494597 0.44771548747387602 0 -0.096162450611461475 0.42157323121081308 0 -0.080130585459200002 0.43170251878069549 0 -0.089756382162494597 0.44771548747387602 0 -0.080130585459200002 0.43170251878069549 0 -0.062278656485812149 0.42477718378533758 0 -0.067978123481394648 0.44530425571048371 0 -0.083771977209022408 0.41574772692799672 0 -0.080130585459200002 0.43170251878069549 0 -0.062278656485812149 0.42477718378533758 0 -0.083771977209022408 0.41574772692799672 0 -0.076104613244492789 0.40440436494306992 0 -0.062278656485812149 0.42477718378533758 0 -0.076104613244492789 0.40440436494306992 0 -0.049349388681700503 0.40434100984352772 0 -0.062278656485812149 0.42477718378533758 0 -0.076104613244492789 0.40440436494306992 0 -0.062278656485812149 0.42477718378533758 0 -0.076104613244492789 0.40440436494306992 0 -0.064414830851005286 0.3916118385435518 0 -0.049349388681700503 0.40434100984352772 0 -0.076104613244492789 0.40440436494306992 0 -0.064414830851005286 0.3916118385435518 0 -0.074697819500603529 0.38548070133923062 0 -0.076104613244492789 0.40440436494306992 0 -0.089930570003173449 0.38403154610080209 0 -0.076104613244492789 0.40440436494306992 0 -0.092047333104112547 0.39923918998040098 0 -0.089930570003173449 0.38403154610080209 0 -0.076104613244492789 0.40440436494306992 0 -0.089930570003173449 0.38403154610080209 0 -0.074697819500603529 0.38548070133923062 0 -0.086526193639199625 0.37135266334234418 0 -0.089930570003173449 0.38403154610080209 0 -0.080222837268140029 0.37618614450843058 0 -0.089930570003173449 0.38403154610080209 0 -0.080222837268140029 0.37618614450843058 0 -0.074697819500603529 0.38548070133923062 0 -0.080222837268140029 0.37618614450843058 0 -0.074697819500603529 0.38548070133923062 0 -0.069210832529228189 0.37621843676807942 0 -0.064414830851005286 0.3916118385435518 0 -0.074697819500603529 0.38548070133923062 0 -0.069210832529228189 0.37621843676807942 0 -0.064414830851005286 0.3916118385435518 0 -0.069210832529228189 0.37621843676807942 0 -0.053403541008422289 0.37896247326861338 0 -0.064414830851005286 0.3916118385435518 0 -0.053403541008422289 0.37896247326861338 0 -0.049349388681700503 0.40434100984352772 0 -0.049349388681700503 0.40434100984352772 0 -0.028750181958374109 0.39439352391825389 0 -0.027454658508764909 0.412521303854129 0 -0.053403541008422289 0.37896247326861338 0 -0.049349388681700503 0.40434100984352772 0 -0.028750181958374109 0.39439352391825389 0 -0.046575630326068533 0.36953055255711797 0 -0.053403541008422289 0.37896247326861338 0 -0.029123654744962309 0.3771058220378854 0 -0.053403541008422289 0.37896247326861338 0 -0.029123654744962309 0.3771058220378854 0 -0.028750181958374109 0.39439352391825389 0 -0.053403541008422289 0.37896247326861338 0 -0.028750181958374109 0.39439352391825389 0 -0.029123654744962309 0.3771058220378854 0 -0.028750181958374109 0.39439352391825389 0 -0.01100728288483056 0.39328310069644917 0 -0.029123654744962309 0.3771058220378854 0 -0.01100728288483056 0.39328310069644917 0 -0.0085562506476948019 0.37815234602365572 0 -0.028750181958374109 0.39439352391825389 0 -0.0040968229083259266 0.40982457456789462 0 -0.028750181958374109 0.39439352391825389 0 -0.0040968229083259266 0.40982457456789462 0 -0.027454658508764909 0.412521303854129 0 -0.028750181958374109 0.39439352391825389 0 -0.01100728288483056 0.39328310069644917 0 -0.0040968229083259266 0.40982457456789462 0 -0.01100728288483056 0.39328310069644917 0 -0.0040968229083259266 0.40982457456789462 0 0.0062520788255263577 0.39546140282883258 0 -0.01100728288483056 0.39328310069644917 0 -0.0085562506476948019 0.37815234602365572 0 0.0062520788255263577 0.39546140282883258 0 -0.0047437967268179572 0.43600941659475068 0 -0.0009658409520053999 0.42618781485431828 0 -0.016967121554458089 0.42768717627593578 0 -0.0047437967268179572 0.43600941659475068 0 -0.016967121554458089 0.42768717627593578 0 -0.01143489972844499 0.44614983825235721 0 -0.0040968229083259266 0.40982457456789462 0 -0.016967121554458089 0.42768717627593578 0 -0.0009658409520053999 0.42618781485431828 0 -0.0040968229083259266 0.40982457456789462 0 -0.016967121554458089 0.42768717627593578 0 -0.0040968229083259266 0.40982457456789462 0 -0.027454658508764909 0.412521303854129 0 -0.016967121554458089 0.42768717627593578 0 -0.016967121554458089 0.42768717627593578 0 -0.038109777440965907 0.42636023466503309 0 -0.029837420200591169 0.44554977798397633 0 -0.016967121554458089 0.42768717627593578 0 -0.029837420200591169 0.44554977798397633 0 -0.027454658508764909 0.412521303854129 0 -0.016967121554458089 0.42768717627593578 0 -0.038109777440965907 0.42636023466503309 0 -0.049349388681700503 0.40434100984352772 0 -0.027454658508764909 0.412521303854129 0 -0.038109777440965907 0.42636023466503309 0 -0.049349388681700503 0.40434100984352772 0 -0.038109777440965907 0.42636023466503309 0 -0.062278656485812149 0.42477718378533758 0 -0.038109777440965907 0.42636023466503309 0 -0.062278656485812149 0.42477718378533758 0 -0.048452699727131517 0.44515000262760529 0 -0.062278656485812149 0.42477718378533758 0 -0.048452699727131517 0.44515000262760529 0 -0.062278656485812149 0.42477718378533758 0 -0.048452699727131517 0.44515000262760529 0 -0.067978123481394648 0.44530425571048371 0 -0.048452699727131517 0.44515000262760529 0 -0.057952633392742869 0.45922889555257529 0 -0.067978123481394648 0.44530425571048371 0 -0.057952633392742869 0.45922889555257529 0 -0.042707718846724238 0.46341237969201682 0 -0.059991321755959483 0.47755068014287538 0 -0.048452699727131517 0.44515000262760529 0 -0.057952633392742869 0.45922889555257529 0 -0.042707718846724238 0.46341237969201682 0 -0.042707718846724238 0.46341237969201682 0 -0.029837420200591169 0.44554977798397633 0 -0.0214768820405946 0.45677438380109647 0 -0.042707718846724238 0.46341237969201682 0 -0.029837420200591169 0.44554977798397633 0 -0.038109777440965907 0.42636023466503309 0 -0.048452699727131517 0.44515000262760529 0 -0.029837420200591169 0.44554977798397633 0 -0.048452699727131517 0.44515000262760529 0 -0.042707718846724238 0.46341237969201682 0 -0.029837420200591169 0.44554977798397633 0 -0.029837420200591169 0.44554977798397633 0 -0.0214768820405946 0.45677438380109647 0 -0.01143489972844499 0.44614983825235721 0 -0.016967121554458089 0.42768717627593578 0 -0.029837420200591169 0.44554977798397633 0 -0.01143489972844499 0.44614983825235721 0 -0.042707718846724238 0.46341237969201682 0 -0.0214768820405946 0.45677438380109647 0 -0.019980953903329522 0.4713535189608804 0 -0.0214768820405946 0.45677438380109647 0 -0.0059791835823989562 0.46022442924751211 0 -0.019980953903329522 0.4713535189608804 0 -0.0214768820405946 0.45677438380109647 0 -0.0059791835823989562 0.46022442924751211 0 -0.01143489972844499 0.44614983825235721 0 -0.0059791835823989562 0.46022442924751211 0 -0.01143489972844499 0.44614983825235721 0 0.00158744369902884 0.45224239293530732 0 -0.01143489972844499 0.44614983825235721 0 0.00013786979739127789 0.44340215130982891 0 0.00158744369902884 0.45224239293530732 0 -0.0047437967268179572 0.43600941659475068 0 -0.01143489972844499 0.44614983825235721 0 0.00013786979739127789 0.44340215130982891 0 -0.0048531756735428356 0.50000000000000155 0 0.0031183794832156681 0.47875215537605292 0 -0.0048531756735428356 0.50000000000000155 0 -0.01686835393871124 0.48719540707274922 0 0.0031183794832156681 0.47875215537605292 0 -0.019980953903329522 0.4713535189608804 0 -0.01686835393871124 0.48719540707274922 0 0.0031183794832156681 0.47875215537605292 0 -0.0059791835823989562 0.46022442924751211 0 -0.019980953903329522 0.4713535189608804 0 0.0031183794832156681 0.47875215537605292 0 -0.019980953903329522 0.4713535189608804 0 -0.01686835393871124 0.48719540707274922 0 -0.036890961563804628 0.48325199764475357 0 -0.028883532203882071 0.5 0 -0.01686835393871124 0.48719540707274922 0 -0.036890961563804628 0.48325199764475357 0 -0.0048531756735428356 0.50000000000000155 0 -0.028883532203882071 0.5 0 -0.01686835393871124 0.48719540707274922 0 -0.028883532203882071 0.5 0 -0.036890961563804628 0.48325199764475357 0 -0.052913888734221197 0.5 0 -0.042707718846724238 0.46341237969201682 0 -0.019980953903329522 0.4713535189608804 0 -0.036890961563804628 0.48325199764475357 0 -0.042707718846724238 0.46341237969201682 0 -0.036890961563804628 0.48325199764475357 0 -0.059991321755959483 0.47755068014287538 0 -0.036890961563804628 0.48325199764475357 0 -0.059991321755959483 0.47755068014287538 0 -0.052913888734221197 0.5 0 -0.059991321755959483 0.47755068014287538 0 -0.052913888734221197 0.5 0 -0.076944245264560479 0.50000000000000155 0 -0.076944245264560479 0.50000000000000155 0 -0.093210387186889843 0.48552711484038641 0 -0.093622253644301462 0.49999999999999978 0 -0.076944245264560479 0.50000000000000155 0 -0.093210387186889843 0.48552711484038641 0 -0.083350313713527718 0.47385774373693879 0 -0.076944245264560479 0.50000000000000155 0 -0.083350313713527718 0.47385774373693879 0 -0.093210387186889843 0.48552711484038641 0 -0.083350313713527718 0.47385774373693879 0 -0.10315036783346861 0.46763636011217352 0 -0.059991321755959483 0.47755068014287538 0 -0.083350313713527718 0.47385774373693879 0 -0.071805754901223859 0.46073141252334981 0 -0.059991321755959483 0.47755068014287538 0 -0.076944245264560479 0.50000000000000155 0 -0.083350313713527718 0.47385774373693879 0 -0.057952633392742869 0.45922889555257529 0 -0.059991321755959483 0.47755068014287538 0 -0.071805754901223859 0.46073141252334981 0 -0.057952633392742869 0.45922889555257529 0 -0.071805754901223859 0.46073141252334981 0 -0.067978123481394648 0.44530425571048371 0 -0.071805754901223859 0.46073141252334981 0 -0.067978123481394648 0.44530425571048371 0 -0.089756382162494597 0.44771548747387602 0 -0.080130585459200002 0.43170251878069549 0 -0.067978123481394648 0.44530425571048371 0 -0.089756382162494597 0.44771548747387602 0 -0.083350313713527718 0.47385774373693879 0 -0.071805754901223859 0.46073141252334981 0 -0.089756382162494597 0.44771548747387602 0 -0.083350313713527718 0.47385774373693879 0 -0.089756382162494597 0.44771548747387602 0 -0.10315036783346861 0.46763636011217352 0 -0.083350313713527718 0.47385774373693879 0 -0.089756382162494597 0.44771548747387602 0 -0.10315036783346861 0.46763636011217352 0 -0.10510469199495941 0.45138597185370699 0 -0.11760367619915391 0.45673530719510691 0 -0.089756382162494597 0.44771548747387602 0 -0.10315036783346861 0.46763636011217352 0 -0.10510469199495941 0.45138597185370699 0 -0.096144529801440809 0.42996837628827461 0 -0.089756382162494597 0.44771548747387602 0 -0.1019972708981377 0.44138537807505901 0 -0.089756382162494597 0.44771548747387602 0 -0.10510469199495941 0.45138597185370699 0 -0.1019972708981377 0.44138537807505901 0 -0.10510469199495941 0.45138597185370699 0 -0.1019972708981377 0.44138537807505901 0 -0.1130157628815423 0.44345732641231961 0 -0.1069181363621404 0.43388206627038489 0 -0.1019972708981377 0.44138537807505901 0 -0.1130157628815423 0.44345732641231961 0 -0.10510469199495941 0.45138597185370699 0 -0.1130157628815423 0.44345732641231961 0 -0.11760367619915391 0.45673530719510691 0 -0.1130157628815423 0.44345732641231961 0 -0.1215155981663168 0.44755177654886852 0 -0.11760367619915391 0.45673530719510691 0 -0.1309883998487279 0.45056556980610168 0 -0.1215155981663168 0.44755177654886852 0 -0.11760367619915391 0.45673530719510691 0 -0.1130157628815423 0.44345732641231961 0 -0.1215155981663168 0.44755177654886852 0 -0.1241883904025063 0.43876471153149899 0 -0.1160347721948565 0.43412092433543548 0 -0.1130157628815423 0.44345732641231961 0 -0.1241883904025063 0.43876471153149899 0 -0.10315036783346861 0.46763636011217352 0 -0.11760367619915391 0.45673530719510691 0 -0.1243472573128805 0.47228294070563881 0 -0.1309883998487279 0.45056556980610168 0 -0.11760367619915391 0.45673530719510691 0 -0.1243472573128805 0.47228294070563881 0 -0.10315036783346861 0.46763636011217352 0 -0.1243472573128805 0.47228294070563881 0 -0.108984755478591 0.48614147035281918 0 -0.13040624056921249 0.48649431507048269 0 -0.1243472573128805 0.47228294070563881 0 -0.108984755478591 0.48614147035281918 0 -0.1243472573128805 0.47228294070563881 0 -0.108984755478591 0.48614147035281918 0 -0.13040624056921249 0.48649431507048269 0 -0.12290484643059719 0.5 0 -0.108984755478591 0.48614147035281918 0 -0.093210387186889843 0.48552711484038641 0 -0.093622253644301462 0.49999999999999978 0 -0.108984755478591 0.48614147035281918 0 -0.093622253644301462 0.49999999999999978 0 -0.12290484643059719 0.5 0 -0.108984755478591 0.48614147035281918 0 -0.093622253644301462 0.49999999999999978 0 -0.108984755478591 0.48614147035281918 0 -0.093210387186889843 0.48552711484038641 0 -0.10315036783346861 0.46763636011217352 0 -0.108984755478591 0.48614147035281918 0 -0.16566880116412469 0.086335007320422236 0 -0.1816223471760284 0.092878319313599328 0 -0.155858734966423 0.1005157394380068 0 -0.16566880116412469 0.086335007320422236 0 -0.155858734966423 0.1005157394380068 0 -0.15210846208687209 0.075683821175024035 0 -0.16566880116412469 0.086335007320422236 0 -0.16753208900650399 0.063891194684540784 0 -0.15210846208687209 0.075683821175024035 0 -0.16566880116412469 0.086335007320422236 0 -0.16753208900650399 0.063891194684540784 0 -0.17842396825266879 0.076597079913091698 0 -0.16753208900650399 0.063891194684540784 0 -0.17842396825266879 0.076597079913091698 0 -0.18376391453893809 0.063735239234962507 0 -0.17842396825266879 0.076597079913091698 0 -0.18376391453893809 0.063735239234962507 0 -0.19353268937774859 0.076145639011933636 0 -0.16566880116412469 0.086335007320422236 0 -0.17842396825266879 0.076597079913091698 0 -0.1816223471760284 0.092878319313599328 0 -0.17842396825266879 0.076597079913091698 0 -0.1816223471760284 0.092878319313599328 0 -0.19353268937774859 0.076145639011933636 0 -0.1816223471760284 0.092878319313599328 0 -0.17640245880413671 0.1083888279474878 0 -0.19548633673819019 0.10211335741951751 0 -0.17640245880413671 0.1083888279474878 0 -0.17951564659709091 0.124071201996113 0 -0.19775342251112149 0.1195861884236385 0 -0.17640245880413671 0.1083888279474878 0 -0.17951564659709091 0.124071201996113 0 -0.16496470633131299 0.1171826443969627 0 -0.17640245880413671 0.1083888279474878 0 -0.16496470633131299 0.1171826443969627 0 -0.1569844014462391 0.1079691858713409 0 -0.17951564659709091 0.124071201996113 0 -0.16496470633131299 0.1171826443969627 0 -0.16857284444025539 0.12882542857639689 0 -0.16496470633131299 0.1171826443969627 0 -0.1569844014462391 0.1079691858713409 0 -0.15418455768106451 0.1178610593945781 0 -0.16496470633131299 0.1171826443969627 0 -0.15418455768106451 0.1178610593945781 0 -0.15569189489731561 0.12536993684311529 0 -0.16496470633131299 0.1171826443969627 0 -0.16857284444025539 0.12882542857639689 0 -0.15569189489731561 0.12536993684311529 0 -0.1816223471760284 0.092878319313599328 0 -0.155858734966423 0.1005157394380068 0 -0.1816223471760284 0.092878319313599328 0 -0.17640245880413671 0.1083888279474878 0 -0.155858734966423 0.1005157394380068 0 -0.17640245880413671 0.1083888279474878 0 -0.1569844014462391 0.1079691858713409 0 -0.155858734966423 0.1005157394380068 0 -0.1569844014462391 0.1079691858713409 0 -0.155858734966423 0.1005157394380068 0 -0.15409592586815141 0.097656750856382285 0 -0.15140089892148639 0.1018372298580591 0 -0.14227542083654521 0.09210876874296367 0 -0.15140089892148639 0.1018372298580591 0 -0.13302456697366091 0.1072847488739966 0 -0.15140089892148639 0.1018372298580591 0 -0.13302456697366091 0.1072847488739966 0 -0.14227542083654521 0.09210876874296367 0 -0.155858734966423 0.1005157394380068 0 -0.15140089892148639 0.1018372298580591 0 -0.15409592586815141 0.097656750856382285 0 -0.155858734966423 0.1005157394380068 0 -0.15140089892148639 0.1018372298580591 0 -0.15409592586815141 0.097656750856382285 0 -0.15140089892148639 0.1018372298580591 0 -0.1569844014462391 0.1079691858713409 0 -0.155858734966423 0.1005157394380068 0 -0.15140089892148639 0.1018372298580591 0 -0.15140089892148639 0.1018372298580591 0 -0.13909722804938979 0.12092247046689331 0 -0.13302456697366091 0.1072847488739966 0 -0.15418455768106451 0.1178610593945781 0 -0.13909722804938979 0.12092247046689331 0 -0.15569189489731561 0.12536993684311529 0 -0.15140089892148639 0.1018372298580591 0 -0.13909722804938979 0.12092247046689331 0 -0.1569844014462391 0.1079691858713409 0 -0.15140089892148639 0.1018372298580591 0 -0.13909722804938979 0.12092247046689331 0 -0.1569844014462391 0.1079691858713409 0 -0.15418455768106451 0.1178610593945781 0 -0.13909722804938979 0.12092247046689331 0 -0.13909722804938979 0.12092247046689331 0 -0.13302456697366091 0.1072847488739966 0 -0.13909722804938979 0.12092247046689331 0 -0.13302456697366091 0.1072847488739966 0 -0.1240129492088249 0.1221724056033639 0 -0.13302456697366091 0.1072847488739966 0 -0.12676633129327219 0.093230271799177561 0 -0.14227542083654521 0.09210876874296367 0 -0.13302456697366091 0.1072847488739966 0 -0.12676633129327219 0.093230271799177561 0 -0.12676633129327219 0.093230271799177561 0 -0.1362563398758285 0.076959789895143377 0 -0.1205080956128806 0.079175794724359844 0 -0.12676633129327219 0.093230271799177561 0 -0.14227542083654521 0.09210876874296367 0 -0.1362563398758285 0.076959789895143377 0 -0.15409592586815141 0.097656750856382285 0 -0.155858734966423 0.1005157394380068 0 -0.15210846208687209 0.075683821175024035 0 -0.15409592586815141 0.097656750856382285 0 -0.14227542083654521 0.09210876874296367 0 -0.15210846208687209 0.075683821175024035 0 -0.14227542083654521 0.09210876874296367 0 -0.15210846208687209 0.075683821175024035 0 -0.1362563398758285 0.076959789895143377 0 -0.155858734966423 0.1005157394380068 0 -0.15210846208687209 0.075683821175024035 0 -0.16753208900650399 0.063891194684540784 0 -0.15210846208687209 0.075683821175024035 0 -0.1483581892073195 0.050851902912041488 0 -0.15210846208687209 0.075683821175024035 0 -0.1362563398758285 0.076959789895143377 0 -0.1398292885471355 0.064081513192041528 0 -0.15210846208687209 0.075683821175024035 0 -0.1483581892073195 0.050851902912041488 0 -0.15210846208687209 0.075683821175024035 0 -0.1398292885471355 0.064081513192041528 0 -0.1483581892073195 0.050851902912041488 0 -0.1362563398758285 0.076959789895143377 0 -0.1398292885471355 0.064081513192041528 0 -0.12487611877679081 0.058973567791328042 0 -0.1362563398758285 0.076959789895143377 0 -0.1205080956128806 0.079175794724359844 0 -0.12487611877679081 0.058973567791328042 0 -0.1398292885471355 0.064081513192041528 0 -0.1483581892073195 0.050851902912041488 0 -0.12487611877679081 0.058973567791328042 0 -0.12597681129890859 0.040066542679777252 0 -0.1483581892073195 0.050851902912041488 0 -0.12487611877679081 0.058973567791328042 0 -0.12597681129890859 0.040066542679777252 0 -0.1483581892073195 0.050851902912041488 0 -0.14460791632776701 0.026019984649059011 0 -0.1483581892073195 0.050851902912041488 0 -0.14460791632776701 0.026019984649059011 0 -0.16014401129712011 0.031289218245197488 0 -0.1483581892073195 0.050851902912041488 0 -0.14460791632776701 0.026019984649059011 0 -0.14915950396313971 0.006694546598058051 0 -0.1234979273559844 0.014616194656270899 0 -0.1308273698701844 -0.003706324753454524 0 -0.14915950396313971 0.006694546598058051 0 -0.1234979273559844 0.014616194656270899 0 -0.12597681129890859 0.040066542679777252 0 -0.14460791632776701 0.026019984649059011 0 -0.1234979273559844 0.014616194656270899 0 -0.14460791632776701 0.026019984649059011 0 -0.14915950396313971 0.006694546598058051 0 -0.1234979273559844 0.014616194656270899 0 -0.14460791632776701 0.026019984649059011 0 -0.14915950396313971 0.006694546598058051 0 -0.1618568610252239 0.015355082019856751 0 -0.14460791632776701 0.026019984649059011 0 -0.1618568610252239 0.015355082019856751 0 -0.16014401129712011 0.031289218245197488 0 -0.17482108057029491 -0.0012271014601547951 0 -0.1618568610252239 0.015355082019856751 0 -0.17450755128164669 0.011817240717460729 0 -0.17482108057029491 -0.0012271014601547951 0 -0.14915950396313971 0.006694546598058051 0 -0.1618568610252239 0.015355082019856751 0 -0.17482108057029491 -0.0012271014601547951 0 -0.14915950396313971 0.006694546598058051 0 -0.1618568610252239 0.015355082019856751 0 -0.1709622812836773 0.020878917638368709 0 -0.16014401129712011 0.031289218245197488 0 -0.1709622812836773 0.020878917638368709 0 -0.16014401129712011 0.031289218245197488 0 -0.17748035079435731 0.032410491597089947 0 -0.1618568610252239 0.015355082019856751 0 -0.1709622812836773 0.020878917638368709 0 -0.17450755128164669 0.011817240717460729 0 -0.1709622812836773 0.020878917638368709 0 -0.1827729529715332 0.017556672813602878 0 -0.17748035079435731 0.032410491597089947 0 -0.1827729529715332 0.017556672813602878 0 -0.17748035079435731 0.032410491597089947 0 -0.18847826469717849 0.027042146300344249 0 -0.1827729529715332 0.017556672813602878 0 -0.19008443401053671 0.019575228650454388 0 -0.18847826469717849 0.027042146300344249 0 -0.1827729529715332 0.017556672813602878 0 -0.18806472038413449 0.013079235431504009 0 -0.19008443401053671 0.019575228650454388 0 -0.1709622812836773 0.020878917638368709 0 -0.1827729529715332 0.017556672813602878 0 -0.17450755128164669 0.011817240717460729 0 -0.17482108057029491 -0.0012271014601547951 0 -0.1916493180489231 -0.0013587422905579211 0 -0.1878871464371972 0.003053799429911774 0 -0.1827729529715332 0.017556672813602878 0 -0.17450755128164669 0.011817240717460729 0 -0.18340007162929661 0.0079152635209837428 0 -0.1827729529715332 0.017556672813602878 0 -0.18340007162929661 0.0079152635209837428 0 -0.18806472038413449 0.013079235431504009 0 -0.17482108057029491 -0.0012271014601547951 0 -0.18340007162929661 0.0079152635209837428 0 -0.1878871464371972 0.003053799429911774 0 -0.17482108057029491 -0.0012271014601547951 0 -0.17450755128164669 0.011817240717460729 0 -0.18340007162929661 0.0079152635209837428 0 -0.16753208900650399 0.063891194684540784 0 -0.16606773972301719 0.044901795601342109 0 -0.18012046384982411 0.048887796301475731 0 -0.16753208900650399 0.063891194684540784 0 -0.1483581892073195 0.050851902912041488 0 -0.16606773972301719 0.044901795601342109 0 -0.1483581892073195 0.050851902912041488 0 -0.16606773972301719 0.044901795601342109 0 -0.16014401129712011 0.031289218245197488 0 -0.16606773972301719 0.044901795601342109 0 -0.16014401129712011 0.031289218245197488 0 -0.17748035079435731 0.032410491597089947 0 -0.17748035079435731 0.032410491597089947 0 -0.18012046384982411 0.048887796301475731 0 -0.18894375431354671 0.038789661637495268 0 -0.16606773972301719 0.044901795601342109 0 -0.17748035079435731 0.032410491597089947 0 -0.18012046384982411 0.048887796301475731 0 -0.17748035079435731 0.032410491597089947 0 -0.18894375431354671 0.038789661637495268 0 -0.18847826469717849 0.027042146300344249 0 -0.18012046384982411 0.048887796301475731 0 -0.19328880531425199 0.051875534189075291 0 -0.18894375431354671 0.038789661637495268 0 -0.16753208900650399 0.063891194684540784 0 -0.18376391453893809 0.063735239234962507 0 -0.18012046384982411 0.048887796301475731 0 -0.18376391453893809 0.063735239234962507 0 -0.18012046384982411 0.048887796301475731 0 -0.19328880531425199 0.051875534189075291 0 -0.18376391453893809 0.063735239234962507 0 -0.19328880531425199 0.051875534189075291 0 -0.19979307250870371 0.064925168683236389 0 -0.19328880531425199 0.051875534189075291 0 -0.20637636366085901 0.054108708011182373 0 -0.19979307250870371 0.064925168683236389 0 -0.19328880531425199 0.051875534189075291 0 -0.20073526301364081 0.040806631266099541 0 -0.20637636366085901 0.054108708011182373 0 -0.19328880531425199 0.051875534189075291 0 -0.18894375431354671 0.038789661637495268 0 -0.20073526301364081 0.040806631266099541 0 -0.1943995295536522 0.032139606981039362 0 -0.18894375431354671 0.038789661637495268 0 -0.18847826469717849 0.027042146300344249 0 -0.1943995295536522 0.032139606981039362 0 -0.18894375431354671 0.038789661637495268 0 -0.20073526301364081 0.040806631266099541 0 -0.1943995295536522 0.032139606981039362 0 -0.20073526301364081 0.040806631266099541 0 -0.20204989929084571 0.028947409821830271 0 -0.20073526301364081 0.040806631266099541 0 -0.2130654935489473 0.043308297984979399 0 -0.20637636366085901 0.054108708011182373 0 -0.20073526301364081 0.040806631266099541 0 -0.20792135795856809 0.035077422115247447 0 -0.2130654935489473 0.043308297984979399 0 -0.20073526301364081 0.040806631266099541 0 -0.20792135795856809 0.035077422115247447 0 -0.20204989929084571 0.028947409821830271 0 -0.20792135795856809 0.035077422115247447 0 -0.2165396895797603 0.031836809261580223 0 -0.2130654935489473 0.043308297984979399 0 -0.2130654935489473 0.043308297984979399 0 -0.21718493326187729 0.055962682087815643 0 -0.20637636366085901 0.054108708011182373 0 -0.21718493326187729 0.055962682087815643 0 -0.20637636366085901 0.054108708011182373 0 -0.21358583582704671 0.065729619220833688 0 -0.20637636366085901 0.054108708011182373 0 -0.21358583582704671 0.065729619220833688 0 -0.19979307250870371 0.064925168683236389 0 -0.20283446218667439 0.0052384472620319953 0 -0.19624554147368009 0.00242762966048044 0 -0.2050648132605469 0.00070925757607599434 0 -0.1988101645859931 -0.0018992895646593819 0 -0.19624554147368009 0.00242762966048044 0 -0.2050648132605469 0.00070925757607599434 0 -0.19624554147368009 0.00242762966048044 0 -0.1915213920804191 0.0077385014050758063 0 -0.2005976989588561 0.0096319897203491888 0 -0.20283446218667439 0.0052384472620319953 0 -0.19624554147368009 0.00242762966048044 0 -0.2005976989588561 0.0096319897203491888 0 -0.19624554147368009 0.00242762966048044 0 -0.1878871464371972 0.003053799429911774 0 -0.1915213920804191 0.0077385014050758063 0 -0.1916493180489231 -0.0013587422905579211 0 -0.19624554147368009 0.00242762966048044 0 -0.1878871464371972 0.003053799429911774 0 -0.18340007162929661 0.0079152635209837428 0 -0.1878871464371972 0.003053799429911774 0 -0.1915213920804191 0.0077385014050758063 0 -0.18340007162929661 0.0079152635209837428 0 -0.1915213920804191 0.0077385014050758063 0 -0.18806472038413449 0.013079235431504009 0 -0.1915213920804191 0.0077385014050758063 0 -0.19372800664637921 0.01449526086022011 0 -0.2005976989588561 0.0096319897203491888 0 -0.1915213920804191 0.0077385014050758063 0 -0.18806472038413449 0.013079235431504009 0 -0.19372800664637921 0.01449526086022011 0 -0.19372800664637921 0.01449526086022011 0 -0.2005976989588561 0.0096319897203491888 0 -0.20531285647856831 0.01743724323580903 0 -0.19584667418390561 0.022823144434823899 0 -0.20204989929084571 0.028947409821830271 0 -0.20531285647856831 0.01743724323580903 0 -0.19372800664637921 0.01449526086022011 0 -0.19584667418390561 0.022823144434823899 0 -0.20531285647856831 0.01743724323580903 0 -0.19372800664637921 0.01449526086022011 0 -0.19584667418390561 0.022823144434823899 0 -0.19008443401053671 0.019575228650454388 0 -0.18806472038413449 0.013079235431504009 0 -0.19372800664637921 0.01449526086022011 0 -0.19008443401053671 0.019575228650454388 0 -0.19584667418390561 0.022823144434823899 0 -0.19008443401053671 0.019575228650454388 0 -0.18847826469717849 0.027042146300344249 0 -0.1943995295536522 0.032139606981039362 0 -0.19584667418390561 0.022823144434823899 0 -0.18847826469717849 0.027042146300344249 0 -0.1943995295536522 0.032139606981039362 0 -0.19584667418390561 0.022823144434823899 0 -0.20204989929084571 0.028947409821830271 0 -0.20792135795856809 0.035077422115247447 0 -0.20204989929084571 0.028947409821830271 0 -0.21003235947578869 0.025792219852540269 0 -0.20204989929084571 0.028947409821830271 0 -0.21003235947578869 0.025792219852540269 0 -0.20531285647856831 0.01743724323580903 0 -0.20792135795856809 0.035077422115247447 0 -0.2165396895797603 0.031836809261580223 0 -0.21003235947578869 0.025792219852540269 0 -0.2165396895797603 0.031836809261580223 0 -0.21003235947578869 0.025792219852540269 0 -0.21960277171130849 0.019156858406616111 0 -0.21003235947578869 0.025792219852540269 0 -0.20531285647856831 0.01743724323580903 0 -0.21960277171130849 0.019156858406616111 0 -0.20942979505361439 0.008184912091222362 0 -0.2050648132605469 0.00070925757607599434 0 -0.2245164147613477 0.0023001462659175201 0 -0.20942979505361439 0.008184912091222362 0 -0.2245164147613477 0.0023001462659175201 0 -0.21960277171130849 0.019156858406616111 0 -0.2005976989588561 0.0096319897203491888 0 -0.20531285647856831 0.01743724323580903 0 -0.20942979505361439 0.008184912091222362 0 -0.20531285647856831 0.01743724323580903 0 -0.20942979505361439 0.008184912091222362 0 -0.21960277171130849 0.019156858406616111 0 -0.20283446218667439 0.0052384472620319953 0 -0.2005976989588561 0.0096319897203491888 0 -0.20942979505361439 0.008184912091222362 0 -0.20283446218667439 0.0052384472620319953 0 -0.20942979505361439 0.008184912091222362 0 -0.2050648132605469 0.00070925757607599434 0 -0.25976749961366202 -0.0010753608270254731 0 -0.2517249179826993 0.017253337104544519 0 -0.2245164147613477 0.0023001462659175201 0 -0.2245164147613477 0.0023001462659175201 0 -0.21960277171130849 0.019156858406616111 0 -0.23630349290788269 0.025879992915471169 0 -0.21960277171130849 0.019156858406616111 0 -0.23630349290788269 0.025879992915471169 0 -0.22824495474116741 0.03657121904236383 0 -0.2165396895797603 0.031836809261580223 0 -0.21960277171130849 0.019156858406616111 0 -0.22824495474116741 0.03657121904236383 0 -0.25150930774064451 0.031920585626659392 0 -0.2517249179826993 0.017253337104544519 0 -0.23630349290788269 0.025879992915471169 0 -0.2517249179826993 0.017253337104544519 0 -0.2245164147613477 0.0023001462659175201 0 -0.23630349290788269 0.025879992915471169 0 -0.22792642939186811 0.051082983248845748 0 -0.2395030512569675 0.060180227187257483 0 -0.22710797838520669 0.065697513384638404 0 -0.21718493326187729 0.055962682087815643 0 -0.22710797838520669 0.065697513384638404 0 -0.21358583582704671 0.065729619220833688 0 -0.21718493326187729 0.055962682087815643 0 -0.22792642939186811 0.051082983248845748 0 -0.22710797838520669 0.065697513384638404 0 -0.2130654935489473 0.043308297984979399 0 -0.21718493326187729 0.055962682087815643 0 -0.22792642939186811 0.051082983248845748 0 -0.2130654935489473 0.043308297984979399 0 -0.22792642939186811 0.051082983248845748 0 -0.22824495474116741 0.03657121904236383 0 -0.2165396895797603 0.031836809261580223 0 -0.2130654935489473 0.043308297984979399 0 -0.22824495474116741 0.03657121904236383 0 -0.22792642939186811 0.051082983248845748 0 -0.22824495474116741 0.03657121904236383 0 -0.242602603959445 0.044785963142970918 0 -0.25150930774064451 0.031920585626659392 0 -0.23630349290788269 0.025879992915471169 0 -0.242602603959445 0.044785963142970918 0 -0.23630349290788269 0.025879992915471169 0 -0.22824495474116741 0.03657121904236383 0 -0.242602603959445 0.044785963142970918 0 -0.25592661339345901 0.062396704574867443 0 -0.242602603959445 0.044785963142970918 0 -0.2395030512569675 0.060180227187257483 0 -0.22792642939186811 0.051082983248845748 0 -0.242602603959445 0.044785963142970918 0 -0.2395030512569675 0.060180227187257483 0 -0.2395030512569675 0.060180227187257483 0 -0.24370472515519279 0.073126728262141005 0 -0.22710797838520669 0.065697513384638404 0 -0.25592661339345901 0.062396704574867443 0 -0.2395030512569675 0.060180227187257483 0 -0.24370472515519279 0.073126728262141005 0 -0.24370472515519279 0.073126728262141005 0 -0.2326650791575266 0.079189935059552907 0 -0.22710797838520669 0.065697513384638404 0 -0.2453305616145752 0.090555806388597324 0 -0.2282619717195167 0.091911529443774842 0 -0.2326650791575266 0.079189935059552907 0 -0.24370472515519279 0.073126728262141005 0 -0.2453305616145752 0.090555806388597324 0 -0.2326650791575266 0.079189935059552907 0 -0.25575636728774542 0.079115484991206964 0 -0.24370472515519279 0.073126728262141005 0 -0.2453305616145752 0.090555806388597324 0 -0.2282619717195167 0.091911529443774842 0 -0.2326650791575266 0.079189935059552907 0 -0.21892015891314151 0.074658097818612934 0 -0.2326650791575266 0.079189935059552907 0 -0.22710797838520669 0.065697513384638404 0 -0.21892015891314151 0.074658097818612934 0 -0.22710797838520669 0.065697513384638404 0 -0.21892015891314151 0.074658097818612934 0 -0.21358583582704671 0.065729619220833688 0 -0.21892015891314151 0.074658097818612934 0 -0.21358583582704671 0.065729619220833688 0 -0.20704875904309589 0.069976918537663302 0 -0.21358583582704671 0.065729619220833688 0 -0.20704875904309589 0.069976918537663302 0 -0.19979307250870371 0.064925168683236389 0 -0.21892015891314151 0.074658097818612934 0 -0.20704875904309589 0.069976918537663302 0 -0.20555804838940561 0.077098833804354616 0 -0.20704875904309589 0.069976918537663302 0 -0.20555804838940561 0.077098833804354616 0 -0.20105036771269821 0.072111375038547365 0 -0.2282619717195167 0.091911529443774842 0 -0.20555804838940561 0.077098833804354616 0 -0.2282619717195167 0.091911529443774842 0 -0.21892015891314151 0.074658097818612934 0 -0.20555804838940561 0.077098833804354616 0 -0.2282619717195167 0.091911529443774842 0 -0.20555804838940561 0.077098833804354616 0 -0.20738595938563401 0.08524089918919199 0 -0.1816223471760284 0.092878319313599328 0 -0.20738595938563401 0.08524089918919199 0 -0.19548633673819019 0.10211335741951751 0 -0.20555804838940561 0.077098833804354616 0 -0.20738595938563401 0.08524089918919199 0 -0.19353268937774859 0.076145639011933636 0 -0.1816223471760284 0.092878319313599328 0 -0.20738595938563401 0.08524089918919199 0 -0.19353268937774859 0.076145639011933636 0 -0.1816223471760284 0.092878319313599328 0 -0.20738595938563401 0.08524089918919199 0 -0.18376391453893809 0.063735239234962507 0 -0.19353268937774859 0.076145639011933636 0 -0.19979307250870371 0.064925168683236389 0 -0.20704875904309589 0.069976918537663302 0 -0.19979307250870371 0.064925168683236389 0 -0.20105036771269821 0.072111375038547365 0 -0.20555804838940561 0.077098833804354616 0 -0.19353268937774859 0.076145639011933636 0 -0.20105036771269821 0.072111375038547365 0 -0.19353268937774859 0.076145639011933636 0 -0.19979307250870371 0.064925168683236389 0 -0.20105036771269821 0.072111375038547365 0 -0.17640245880413671 0.1083888279474878 0 -0.19775342251112149 0.1195861884236385 0 -0.19548633673819019 0.10211335741951751 0 -0.19775342251112149 0.1195861884236385 0 -0.19548633673819019 0.10211335741951751 0 -0.21426749581403029 0.1044725522236699 0 -0.2282619717195167 0.091911529443774842 0 -0.20738595938563401 0.08524089918919199 0 -0.21426749581403029 0.1044725522236699 0 -0.20738595938563401 0.08524089918919199 0 -0.19548633673819019 0.10211335741951751 0 -0.21426749581403029 0.1044725522236699 0 -0.19775342251112149 0.1195861884236385 0 -0.21426749581403029 0.1044725522236699 0 -0.2257814651535035 0.12541589453192131 0 -0.21426749581403029 0.1044725522236699 0 -0.2295343924578401 0.107580465086438 0 -0.2257814651535035 0.12541589453192131 0 -0.2295343924578401 0.107580465086438 0 -0.24730101324871431 0.1070344867981963 0 -0.2257814651535035 0.12541589453192131 0 -0.2282619717195167 0.091911529443774842 0 -0.21426749581403029 0.1044725522236699 0 -0.2295343924578401 0.107580465086438 0 -0.25096589504962769 0.1067242250831951 0 -0.2282619717195167 0.091911529443774842 0 -0.25096589504962769 0.1067242250831951 0 -0.2453305616145752 0.090555806388597324 0 -0.2282619717195167 0.091911529443774842 0 -0.25117752100816348 0.097584187418704199 0 -0.25096589504962769 0.1067242250831951 0 -0.2453305616145752 0.090555806388597324 0 -0.25096589504962769 0.1067242250831951 0 -0.2282619717195167 0.091911529443774842 0 -0.24730101324871431 0.1070344867981963 0 -0.2282619717195167 0.091911529443774842 0 -0.2295343924578401 0.107580465086438 0 -0.24730101324871431 0.1070344867981963 0 -0.25096589504962769 0.1067242250831951 0 -0.24730101324871431 0.1070344867981963 0 -0.24904366568778949 0.12297968893121029 0 -0.24730101324871431 0.1070344867981963 0 -0.24904366568778949 0.12297968893121029 0 -0.2257814651535035 0.12541589453192131 0 -0.24730101324871431 0.1070344867981963 0 -0.2257814651535035 0.12541589453192131 0 -0.25688044353971651 0.13977980518516439 0 -0.24904366568778949 0.12297968893121029 0 -0.23922129183689789 0.13834698455375499 0 -0.24904366568778949 0.12297968893121029 0 -0.23922129183689789 0.13834698455375499 0 -0.2257814651535035 0.12541589453192131 0 -0.23922129183689789 0.13834698455375499 0 -0.2257814651535035 0.12541589453192131 0 -0.22430981610378589 0.1455368444727656 0 -0.22430981610378589 0.1455368444727656 0 -0.24009106869969429 0.15802268964771349 0 -0.21450880600745351 0.16133367574836799 0 -0.25688044353971651 0.13977980518516439 0 -0.23922129183689789 0.13834698455375499 0 -0.24009106869969429 0.15802268964771349 0 -0.23922129183689789 0.13834698455375499 0 -0.22430981610378589 0.1455368444727656 0 -0.24009106869969429 0.15802268964771349 0 -0.25688044353971651 0.13977980518516439 0 -0.24009106869969429 0.15802268964771349 0 -0.24009106869969429 0.15802268964771349 0 -0.24625838967984681 0.181395420132927 0 -0.22330169385967211 0.17626557411026281 0 -0.24625838967984681 0.181395420132927 0 -0.22330169385967211 0.17626557411026281 0 -0.22323441930354671 0.19548111515624481 0 -0.24009106869969429 0.15802268964771349 0 -0.22330169385967211 0.17626557411026281 0 -0.21450880600745351 0.16133367574836799 0 -0.24009106869969429 0.15802268964771349 0 -0.22330169385967211 0.17626557411026281 0 -0.21450880600745351 0.16133367574836799 0 -0.20230530118754281 0.17426542441086429 0 -0.19849248283489759 0.1632734629614076 0 -0.22330169385967211 0.17626557411026281 0 -0.21450880600745351 0.16133367574836799 0 -0.20230530118754281 0.17426542441086429 0 -0.22330169385967211 0.17626557411026281 0 -0.20230530118754281 0.17426542441086429 0 -0.2086778334798858 0.18884909231468269 0 -0.22330169385967211 0.17626557411026281 0 -0.22323441930354671 0.19548111515624481 0 -0.2086778334798858 0.18884909231468269 0 -0.20230530118754281 0.17426542441086429 0 -0.2086778334798858 0.18884909231468269 0 -0.19433730412142111 0.1886665377164787 0 -0.20230530118754281 0.17426542441086429 0 -0.18963524382255589 0.17360457102488011 0 -0.19433730412142111 0.1886665377164787 0 -0.18963524382255589 0.17360457102488011 0 -0.19433730412142111 0.1886665377164787 0 -0.183138513096964 0.182362663805683 0 -0.18963524382255589 0.17360457102488011 0 -0.19849248283489759 0.1632734629614076 0 -0.1827423689630816 0.1621787099993714 0 -0.19849248283489759 0.1632734629614076 0 -0.20426191705829261 0.14379730226564641 0 -0.1827423689630816 0.1621787099993714 0 -0.20230530118754281 0.17426542441086429 0 -0.18963524382255589 0.17360457102488011 0 -0.19849248283489759 0.1632734629614076 0 -0.20426191705829261 0.14379730226564641 0 -0.17613280713273841 0.15145553761029321 0 -0.1827423689630816 0.1621787099993714 0 -0.20426191705829261 0.14379730226564641 0 -0.1827423689630816 0.1621787099993714 0 -0.20426191705829261 0.14379730226564641 0 -0.18686809023678161 0.1353539697309262 0 -0.17613280713273841 0.15145553761029321 0 -0.19775342251112149 0.1195861884236385 0 -0.20426191705829261 0.14379730226564641 0 -0.18686809023678161 0.1353539697309262 0 -0.17951564659709091 0.124071201996113 0 -0.19775342251112149 0.1195861884236385 0 -0.18686809023678161 0.1353539697309262 0 -0.2257814651535035 0.12541589453192131 0 -0.20426191705829261 0.14379730226564641 0 -0.19775342251112149 0.1195861884236385 0 -0.2257814651535035 0.12541589453192131 0 -0.20426191705829261 0.14379730226564641 0 -0.2257814651535035 0.12541589453192131 0 -0.22430981610378589 0.1455368444727656 0 -0.20426191705829261 0.14379730226564641 0 -0.21450880600745351 0.16133367574836799 0 -0.19849248283489759 0.1632734629614076 0 -0.20426191705829261 0.14379730226564641 0 -0.22430981610378589 0.1455368444727656 0 -0.21450880600745351 0.16133367574836799 0 -0.20426191705829261 0.14379730226564641 0 -0.20994227553390341 0.25399769603615968 0 -0.23118763321222849 0.24810935190821529 0 -0.21633472519777699 0.23704111998738231 0 -0.23118763321222849 0.24810935190821529 0 -0.24252528348747809 0.22916606022967431 0 -0.21633472519777699 0.23704111998738231 0 -0.2531312179692447 0.24693268900981011 0 -0.23118763321222849 0.24810935190821529 0 -0.24252528348747809 0.22916606022967431 0 -0.24252528348747809 0.22916606022967431 0 -0.2204972521431926 0.21852444410992761 0 -0.21633472519777699 0.23704111998738231 0 -0.2204972521431926 0.21852444410992761 0 -0.24017025989270971 0.20736385408167921 0 -0.22323441930354671 0.19548111515624481 0 -0.24252528348747809 0.22916606022967431 0 -0.2204972521431926 0.21852444410992761 0 -0.24017025989270971 0.20736385408167921 0 -0.2623399943966378 0.2074572994922125 0 -0.24252528348747809 0.22916606022967431 0 -0.24017025989270971 0.20736385408167921 0 -0.24625838967984681 0.181395420132927 0 -0.22323441930354671 0.19548111515624481 0 -0.24625838967984681 0.181395420132927 0 -0.24017025989270971 0.20736385408167921 0 -0.22323441930354671 0.19548111515624481 0 -0.2623399943966378 0.2074572994922125 0 -0.24625838967984681 0.181395420132927 0 -0.24017025989270971 0.20736385408167921 0 -0.22323441930354671 0.19548111515624481 0 -0.2086778334798858 0.18884909231468269 0 -0.20021044892724671 0.20956681017956269 0 -0.22323441930354671 0.19548111515624481 0 -0.20021044892724671 0.20956681017956269 0 -0.19433730412142111 0.1886665377164787 0 -0.1875850248386885 0.20140763374264961 0 -0.20021044892724671 0.20956681017956269 0 -0.2086778334798858 0.18884909231468269 0 -0.19433730412142111 0.1886665377164787 0 -0.20021044892724671 0.20956681017956269 0 -0.1875850248386885 0.20140763374264961 0 -0.20021044892724671 0.20956681017956269 0 -0.18402809589793659 0.2117838496968569 0 -0.20021044892724671 0.20956681017956269 0 -0.17718647855094691 0.22365250520288091 0 -0.2204972521431926 0.21852444410992761 0 -0.22323441930354671 0.19548111515624481 0 -0.20021044892724671 0.20956681017956269 0 -0.2204972521431926 0.21852444410992761 0 -0.1992592176227212 0.23152876100681169 0 -0.21633472519777699 0.23704111998738231 0 -0.2204972521431926 0.21852444410992761 0 -0.20021044892724671 0.20956681017956269 0 -0.1992592176227212 0.23152876100681169 0 -0.20021044892724671 0.20956681017956269 0 -0.1992592176227212 0.23152876100681169 0 -0.17718647855094691 0.22365250520288091 0 -0.1877721056544481 0.25031621228853818 0 -0.1992592176227212 0.23152876100681169 0 -0.17718647855094691 0.22365250520288091 0 -0.20994227553390341 0.25399769603615968 0 -0.1877721056544481 0.25031621228853818 0 -0.1992592176227212 0.23152876100681169 0 -0.20994227553390341 0.25399769603615968 0 -0.1992592176227212 0.23152876100681169 0 -0.21633472519777699 0.23704111998738231 0 -0.1640617627792666 0.24981997117292951 0 -0.16183089979698331 0.24193994151295611 0 -0.16614044010106521 0.2406932537131031 0 -0.15695146594595341 0.24240831339349089 0 -0.1640617627792666 0.24981997117292951 0 -0.14848436726826189 0.24606264326291691 0 -0.15695146594595341 0.24240831339349089 0 -0.1640617627792666 0.24981997117292951 0 -0.16183089979698331 0.24193994151295611 0 -0.16183089979698331 0.24193994151295611 0 -0.16614044010106521 0.2406932537131031 0 -0.16252225947873411 0.23262383874051079 0 -0.15695146594595341 0.24240831339349089 0 -0.16183089979698331 0.24193994151295611 0 -0.16252225947873411 0.23262383874051079 0 -0.16614044010106521 0.2406932537131031 0 -0.17614683834927691 0.23838926342601621 0 -0.16252225947873411 0.23262383874051079 0 -0.1640617627792666 0.24981997117292951 0 -0.16614044010106521 0.2406932537131031 0 -0.17614683834927691 0.23838926342601621 0 -0.1877721056544481 0.25031621228853818 0 -0.17718647855094691 0.22365250520288091 0 -0.1877721056544481 0.25031621228853818 0 -0.17614683834927691 0.23838926342601621 0 -0.17718647855094691 0.22365250520288091 0 -0.17614683834927691 0.23838926342601621 0 -0.17718647855094691 0.22365250520288091 0 -0.16252225947873411 0.23262383874051079 0 -0.17718647855094691 0.22365250520288091 0 -0.17540200869662051 0.21915767640966641 0 -0.17818164061184991 0.21367693965203541 0 -0.17718647855094691 0.22365250520288091 0 -0.17540200869662051 0.21915767640966641 0 -0.17718647855094691 0.22365250520288091 0 -0.17540200869662051 0.21915767640966641 0 -0.16760996972445619 0.22117139263659791 0 -0.17718647855094691 0.22365250520288091 0 -0.16760996972445619 0.22117139263659791 0 -0.16252225947873411 0.23262383874051079 0 -0.17718647855094691 0.22365250520288091 0 -0.16252225947873411 0.23262383874051079 0 -0.16760996972445619 0.22117139263659791 0 -0.16252225947873411 0.23262383874051079 0 -0.1584531153883679 0.22097000172295919 0 -0.16252225947873411 0.23262383874051079 0 -0.1584531153883679 0.22097000172295919 0 -0.14819666574411289 0.22542755326032679 0 -0.16760996972445619 0.22117139263659791 0 -0.1584531153883679 0.22097000172295919 0 -0.16325938143394139 0.21449502017076269 0 -0.1584531153883679 0.22097000172295919 0 -0.16325938143394139 0.21449502017076269 0 -0.15344118670155049 0.21138439532041539 0 -0.16325938143394139 0.21449502017076269 0 -0.1615879418803895 0.2067051863967127 0 -0.15344118670155049 0.21138439532041539 0 -0.1615879418803895 0.2067051863967127 0 -0.15694594002853321 0.20009757627232011 0 -0.15344118670155049 0.21138439532041539 0 -0.16325938143394139 0.21449502017076269 0 -0.1615879418803895 0.2067051863967127 0 -0.16720760968600801 0.20911493896329489 0 -0.1615879418803895 0.2067051863967127 0 -0.16720760968600801 0.20911493896329489 0 -0.16904392573188121 0.20342220360345159 0 -0.16720760968600801 0.20911493896329489 0 -0.16904392573188121 0.20342220360345159 0 -0.17253920632964651 0.21000069251756551 0 -0.16720760968600801 0.20911493896329489 0 -0.1703906265370313 0.2156331246247957 0 -0.17253920632964651 0.21000069251756551 0 -0.16325938143394139 0.21449502017076269 0 -0.16720760968600801 0.20911493896329489 0 -0.1703906265370313 0.2156331246247957 0 -0.16760996972445619 0.22117139263659791 0 -0.16325938143394139 0.21449502017076269 0 -0.1703906265370313 0.2156331246247957 0 -0.17540200869662051 0.21915767640966641 0 -0.16760996972445619 0.22117139263659791 0 -0.1703906265370313 0.2156331246247957 0 -0.20021044892724671 0.20956681017956269 0 -0.17718647855094691 0.22365250520288091 0 -0.18402809589793659 0.2117838496968569 0 -0.17540200869662051 0.21915767640966641 0 -0.1703906265370313 0.2156331246247957 0 -0.17818164061184991 0.21367693965203541 0 -0.1703906265370313 0.2156331246247957 0 -0.17818164061184991 0.21367693965203541 0 -0.17253920632964651 0.21000069251756551 0 -0.17718647855094691 0.22365250520288091 0 -0.17818164061184991 0.21367693965203541 0 -0.18402809589793659 0.2117838496968569 0 -0.1875850248386885 0.20140763374264961 0 -0.18402809589793659 0.2117838496968569 0 -0.17776693232203211 0.20437774163936639 0 -0.17818164061184991 0.21367693965203541 0 -0.18402809589793659 0.2117838496968569 0 -0.17776693232203211 0.20437774163936639 0 -0.17818164061184991 0.21367693965203541 0 -0.17776693232203211 0.20437774163936639 0 -0.17253920632964651 0.21000069251756551 0 -0.16904392573188121 0.20342220360345159 0 -0.17776693232203211 0.20437774163936639 0 -0.17253920632964651 0.21000069251756551 0 -0.16904392573188121 0.20342220360345159 0 -0.17776693232203211 0.20437774163936639 0 -0.17276587108190189 0.19767757631121291 0 -0.17776693232203211 0.20437774163936639 0 -0.17276587108190189 0.19767757631121291 0 -0.17956029289173631 0.19237687316980601 0 -0.1875850248386885 0.20140763374264961 0 -0.17776693232203211 0.20437774163936639 0 -0.17956029289173631 0.19237687316980601 0 -0.19433730412142111 0.1886665377164787 0 -0.1875850248386885 0.20140763374264961 0 -0.17956029289173631 0.19237687316980601 0 -0.19433730412142111 0.1886665377164787 0 -0.17956029289173631 0.19237687316980601 0 -0.183138513096964 0.182362663805683 0 -0.17956029289173631 0.19237687316980601 0 -0.17147151345177519 0.19152776440418329 0 -0.1737017745532608 0.18300950596330409 0 -0.17276587108190189 0.19767757631121291 0 -0.17956029289173631 0.19237687316980601 0 -0.17147151345177519 0.19152776440418329 0 -0.17147151345177519 0.19152776440418329 0 -0.16465775327091731 0.19608645317528331 0 -0.16639199840515251 0.1868982951669392 0 -0.17276587108190189 0.19767757631121291 0 -0.17147151345177519 0.19152776440418329 0 -0.16465775327091731 0.19608645317528331 0 -0.16904392573188121 0.20342220360345159 0 -0.17276587108190189 0.19767757631121291 0 -0.16465775327091731 0.19608645317528331 0 -0.1615879418803895 0.2067051863967127 0 -0.16904392573188121 0.20342220360345159 0 -0.16465775327091731 0.19608645317528331 0 -0.1615879418803895 0.2067051863967127 0 -0.16465775327091731 0.19608645317528331 0 -0.15694594002853321 0.20009757627232011 0 -0.16465775327091731 0.19608645317528331 0 -0.15694594002853321 0.20009757627232011 0 -0.15853059346726131 0.19428166094192259 0 -0.16465775327091731 0.19608645317528331 0 -0.15853059346726131 0.19428166094192259 0 -0.15983426769858869 0.18818985284880971 0 -0.15853059346726131 0.19428166094192259 0 -0.15983426769858869 0.18818985284880971 0 -0.1526844128710059 0.1927527614712774 0 -0.16465775327091731 0.19608645317528331 0 -0.15983426769858869 0.18818985284880971 0 -0.16639199840515251 0.1868982951669392 0 -0.15983426769858869 0.18818985284880971 0 -0.1526844128710059 0.1927527614712774 0 -0.15447927321896621 0.183407935251511 0 -0.15694594002853321 0.20009757627232011 0 -0.1526844128710059 0.1927527614712774 0 -0.14557202760445501 0.20275735262174349 0 -0.15694594002853321 0.20009757627232011 0 -0.15853059346726131 0.19428166094192259 0 -0.1526844128710059 0.1927527614712774 0 -0.1526844128710059 0.1927527614712774 0 -0.14557202760445501 0.20275735262174349 0 -0.13994247989310329 0.19473523720537189 0 -0.1526844128710059 0.1927527614712774 0 -0.13994247989310329 0.19473523720537189 0 -0.14580877462958261 0.18394706165292779 0 -0.13994247989310329 0.19473523720537189 0 -0.13680333753250479 0.18378791911239339 0 -0.12433600025794909 0.1888934339135554 0 -0.13994247989310329 0.19473523720537189 0 -0.13072257227252371 0.2043085834578636 0 -0.12433600025794909 0.1888934339135554 0 -0.14557202760445501 0.20275735262174349 0 -0.13994247989310329 0.19473523720537189 0 -0.13072257227252371 0.2043085834578636 0 -0.14557202760445501 0.20275735262174349 0 -0.13072257227252371 0.2043085834578636 0 -0.140605547348331 0.2136461244634385 0 -0.13072257227252371 0.2043085834578636 0 -0.140605547348331 0.2136461244634385 0 -0.12791279364405631 0.2247525491699707 0 -0.140605547348331 0.2136461244634385 0 -0.15344118670155049 0.21138439532041539 0 -0.14819666574411289 0.22542755326032679 0 -0.14557202760445501 0.20275735262174349 0 -0.140605547348331 0.2136461244634385 0 -0.15344118670155049 0.21138439532041539 0 -0.15694594002853321 0.20009757627232011 0 -0.14557202760445501 0.20275735262174349 0 -0.15344118670155049 0.21138439532041539 0 -0.14819666574411289 0.22542755326032679 0 -0.12791279364405631 0.2247525491699707 0 -0.14785804040652151 0.24159517227814109 0 -0.16252225947873411 0.23262383874051079 0 -0.14819666574411289 0.22542755326032679 0 -0.14785804040652151 0.24159517227814109 0 -0.1584531153883679 0.22097000172295919 0 -0.15344118670155049 0.21138439532041539 0 -0.14819666574411289 0.22542755326032679 0 -0.140605547348331 0.2136461244634385 0 -0.14819666574411289 0.22542755326032679 0 -0.12791279364405631 0.2247525491699707 0 -0.12791279364405631 0.2247525491699707 0 -0.13574780703940201 0.2457674948930661 0 -0.1238558918948755 0.24585549267607229 0 -0.12791279364405631 0.2247525491699707 0 -0.13574780703940201 0.2457674948930661 0 -0.14848436726826189 0.24606264326291691 0 -0.12791279364405631 0.2247525491699707 0 -0.14848436726826189 0.24606264326291691 0 -0.13218935898252701 0.25468258074821709 0 -0.13574780703940201 0.2457674948930661 0 -0.1238558918948755 0.24585549267607229 0 -0.12791279364405631 0.2247525491699707 0 -0.14785804040652151 0.24159517227814109 0 -0.14848436726826189 0.24606264326291691 0 -0.1425475155209586 0.25127379529260208 0 -0.13574780703940201 0.2457674948930661 0 -0.14848436726826189 0.24606264326291691 0 -0.15695146594595341 0.24240831339349089 0 -0.16252225947873411 0.23262383874051079 0 -0.14785804040652151 0.24159517227814109 0 -0.16252225947873411 0.23262383874051079 0 -0.14785804040652151 0.24159517227814109 0 -0.15695146594595341 0.24240831339349089 0 -0.14785804040652151 0.24159517227814109 0 -0.14848436726826189 0.24606264326291691 0 -0.16032836684724089 0.15582009882552869 0 -0.17613280713273841 0.15145553761029321 0 -0.1525704759102591 0.15118011221362071 0 -0.16032836684724089 0.15582009882552869 0 -0.17613280713273841 0.15145553761029321 0 -0.16618433890533421 0.1590395974353436 0 -0.1644328719110329 0.1422946624398142 0 -0.17613280713273841 0.15145553761029321 0 -0.1525704759102591 0.15118011221362071 0 -0.17613280713273841 0.15145553761029321 0 -0.1525704759102591 0.15118011221362071 0 -0.16032836684724089 0.15582009882552869 0 -0.1551059648224396 0.1581060880764398 0 -0.15384838906372561 0.15404999472305231 0 -0.1644328719110329 0.1422946624398142 0 -0.15519430554294311 0.14133969290320669 0 -0.1525704759102591 0.15118011221362071 0 -0.1644328719110329 0.1422946624398142 0 -0.15807697480264521 0.13450745742989631 0 -0.15519430554294311 0.14133969290320669 0 -0.1644328719110329 0.1422946624398142 0 -0.15807697480264521 0.13450745742989631 0 -0.16857284444025539 0.12882542857639689 0 -0.15807697480264521 0.13450745742989631 0 -0.16857284444025539 0.12882542857639689 0 -0.15569189489731561 0.12536993684311529 0 -0.1644328719110329 0.1422946624398142 0 -0.16857284444025539 0.12882542857639689 0 -0.17544646894048971 0.13844143883324131 0 -0.17951564659709091 0.124071201996113 0 -0.16857284444025539 0.12882542857639689 0 -0.17544646894048971 0.13844143883324131 0 -0.17951564659709091 0.124071201996113 0 -0.17544646894048971 0.13844143883324131 0 -0.18686809023678161 0.1353539697309262 0 -0.17544646894048971 0.13844143883324131 0 -0.18686809023678161 0.1353539697309262 0 -0.17613280713273841 0.15145553761029321 0 -0.1644328719110329 0.1422946624398142 0 -0.17544646894048971 0.13844143883324131 0 -0.17613280713273841 0.15145553761029321 0 -0.18963524382255589 0.17360457102488011 0 -0.1827423689630816 0.1621787099993714 0 -0.17856219017270139 0.17326655982003231 0 -0.17212832835506611 0.16451590467507729 0 -0.17856219017270139 0.17326655982003231 0 -0.17015340654382441 0.17416603291929539 0 -0.1827423689630816 0.1621787099993714 0 -0.17212832835506611 0.16451590467507729 0 -0.17856219017270139 0.17326655982003231 0 -0.17613280713273841 0.15145553761029321 0 -0.1827423689630816 0.1621787099993714 0 -0.17212832835506611 0.16451590467507729 0 -0.18963524382255589 0.17360457102488011 0 -0.183138513096964 0.182362663805683 0 -0.17856219017270139 0.17326655982003231 0 -0.183138513096964 0.182362663805683 0 -0.17856219017270139 0.17326655982003231 0 -0.1737017745532608 0.18300950596330409 0 -0.17856219017270139 0.17326655982003231 0 -0.1737017745532608 0.18300950596330409 0 -0.17015340654382441 0.17416603291929539 0 -0.17956029289173631 0.19237687316980601 0 -0.183138513096964 0.182362663805683 0 -0.1737017745532608 0.18300950596330409 0 -0.17147151345177519 0.19152776440418329 0 -0.1737017745532608 0.18300950596330409 0 -0.16639199840515251 0.1868982951669392 0 -0.1737017745532608 0.18300950596330409 0 -0.16639199840515251 0.1868982951669392 0 -0.16663450731067189 0.18046835245718981 0 -0.16639199840515251 0.1868982951669392 0 -0.16663450731067189 0.18046835245718981 0 -0.16104259838173521 0.18198249498446789 0 -0.1737017745532608 0.18300950596330409 0 -0.16663450731067189 0.18046835245718981 0 -0.17015340654382441 0.17416603291929539 0 -0.16663450731067189 0.18046835245718981 0 -0.17015340654382441 0.17416603291929539 0 -0.16299332768103869 0.17551804525476611 0 -0.17015340654382441 0.17416603291929539 0 -0.16299332768103869 0.17551804525476611 0 -0.16504099553930859 0.16968224316423161 0 -0.16299332768103869 0.17551804525476611 0 -0.15707475117678099 0.17717457966677819 0 -0.15801370713391111 0.16963456833663371 0 -0.16663450731067189 0.18046835245718981 0 -0.16299332768103869 0.17551804525476611 0 -0.16104259838173521 0.18198249498446789 0 -0.16299332768103869 0.17551804525476611 0 -0.15707475117678099 0.17717457966677819 0 -0.16104259838173521 0.18198249498446789 0 -0.15707475117678099 0.17717457966677819 0 -0.16104259838173521 0.18198249498446789 0 -0.15447927321896621 0.183407935251511 0 -0.15983426769858869 0.18818985284880971 0 -0.16104259838173521 0.18198249498446789 0 -0.15447927321896621 0.183407935251511 0 -0.15983426769858869 0.18818985284880971 0 -0.16639199840515251 0.1868982951669392 0 -0.16104259838173521 0.18198249498446789 0 -0.17613280713273841 0.15145553761029321 0 -0.17212832835506611 0.16451590467507729 0 -0.16618433890533421 0.1590395974353436 0 -0.17212832835506611 0.16451590467507729 0 -0.16618433890533421 0.1590395974353436 0 -0.1638918444264901 0.16399194347069579 0 -0.17212832835506611 0.16451590467507729 0 -0.16504099553930859 0.16968224316423161 0 -0.1638918444264901 0.16399194347069579 0 -0.17212832835506611 0.16451590467507729 0 -0.17015340654382441 0.17416603291929539 0 -0.16504099553930859 0.16968224316423161 0 -0.15801370713391111 0.16963456833663371 0 -0.1581282252489486 0.16108926289442421 0 -0.1638918444264901 0.16399194347069579 0 -0.16504099553930859 0.16968224316423161 0 -0.15801370713391111 0.16963456833663371 0 -0.1638918444264901 0.16399194347069579 0 -0.16299332768103869 0.17551804525476611 0 -0.16504099553930859 0.16968224316423161 0 -0.15801370713391111 0.16963456833663371 0 -0.16032836684724089 0.15582009882552869 0 -0.16618433890533421 0.1590395974353436 0 -0.1581282252489486 0.16108926289442421 0 -0.16618433890533421 0.1590395974353436 0 -0.1581282252489486 0.16108926289442421 0 -0.1638918444264901 0.16399194347069579 0 -0.16032836684724089 0.15582009882552869 0 -0.1581282252489486 0.16108926289442421 0 -0.1551059648224396 0.1581060880764398 0 -0.15147741799329301 0.16031222451578089 0 -0.14473061671703741 0.159975931900148 0 -0.15384838906372561 0.15404999472305231 0 -0.1581282252489486 0.16108926289442421 0 -0.1551059648224396 0.1581060880764398 0 -0.15147741799329301 0.16031222451578089 0 -0.1551059648224396 0.1581060880764398 0 -0.15147741799329301 0.16031222451578089 0 -0.15384838906372561 0.15404999472305231 0 -0.15147741799329301 0.16031222451578089 0 -0.15038016951169009 0.1666029926941596 0 -0.14473061671703741 0.159975931900148 0 -0.1581282252489486 0.16108926289442421 0 -0.15147741799329301 0.16031222451578089 0 -0.15038016951169009 0.1666029926941596 0 -0.15801370713391111 0.16963456833663371 0 -0.15038016951169009 0.1666029926941596 0 -0.1502733167163959 0.17512646437406071 0 -0.15801370713391111 0.16963456833663371 0 -0.1581282252489486 0.16108926289442421 0 -0.15038016951169009 0.1666029926941596 0 -0.15038016951169009 0.1666029926941596 0 -0.14473061671703741 0.159975931900148 0 -0.14132721619718219 0.17384007547252689 0 -0.15038016951169009 0.1666029926941596 0 -0.1502733167163959 0.17512646437406071 0 -0.14132721619718219 0.17384007547252689 0 -0.15447927321896621 0.183407935251511 0 -0.1502733167163959 0.17512646437406071 0 -0.14580877462958261 0.18394706165292779 0 -0.1526844128710059 0.1927527614712774 0 -0.15447927321896621 0.183407935251511 0 -0.14580877462958261 0.18394706165292779 0 -0.15707475117678099 0.17717457966677819 0 -0.15447927321896621 0.183407935251511 0 -0.1502733167163959 0.17512646437406071 0 -0.15707475117678099 0.17717457966677819 0 -0.15801370713391111 0.16963456833663371 0 -0.1502733167163959 0.17512646437406071 0 -0.1502733167163959 0.17512646437406071 0 -0.14132721619718219 0.17384007547252689 0 -0.14580877462958261 0.18394706165292779 0 -0.14132721619718219 0.17384007547252689 0 -0.14580877462958261 0.18394706165292779 0 -0.13680333753250479 0.18378791911239339 0 -0.13994247989310329 0.19473523720537189 0 -0.14580877462958261 0.18394706165292779 0 -0.13680333753250479 0.18378791911239339 0 -0.14132721619718219 0.17384007547252689 0 -0.13680333753250479 0.18378791911239339 0 -0.12801773144507661 0.1759548492759932 0 -0.13680333753250479 0.18378791911239339 0 -0.12801773144507661 0.1759548492759932 0 -0.12433600025794909 0.1888934339135554 0 -0.14473061671703741 0.159975931900148 0 -0.13004110708937691 0.16344291575557759 0 -0.13620409579971399 0.1509888019102584 0 -0.14473061671703741 0.159975931900148 0 -0.14132721619718219 0.17384007547252689 0 -0.13004110708937691 0.16344291575557759 0 -0.14132721619718219 0.17384007547252689 0 -0.12801773144507661 0.1759548492759932 0 -0.13004110708937691 0.16344291575557759 0 -0.13620409579971399 0.1509888019102584 0 -0.14583385197982271 0.1360512913402577 0 -0.12946747186928001 0.1358599810368962 0 -0.13620409579971399 0.1509888019102584 0 -0.1198377156891688 0.1507974916068982 0 -0.13004110708937691 0.16344291575557759 0 -0.13620409579971399 0.1509888019102584 0 -0.1198377156891688 0.1507974916068982 0 -0.13620409579971399 0.1509888019102584 0 -0.12946747186928001 0.1358599810368962 0 -0.1198377156891688 0.1507974916068982 0 -0.13620409579971399 0.1509888019102584 0 -0.1525704759102591 0.15118011221362071 0 -0.14473061671703741 0.159975931900148 0 -0.13620409579971399 0.1509888019102584 0 -0.1525704759102591 0.15118011221362071 0 -0.13620409579971399 0.1509888019102584 0 -0.1525704759102591 0.15118011221362071 0 -0.14583385197982271 0.1360512913402577 0 -0.15519430554294311 0.14133969290320669 0 -0.1525704759102591 0.15118011221362071 0 -0.14583385197982271 0.1360512913402577 0 -0.1525704759102591 0.15118011221362071 0 -0.14583385197982271 0.1360512913402577 0 -0.14473061671703741 0.159975931900148 0 -0.1525704759102591 0.15118011221362071 0 -0.15384838906372561 0.15404999472305231 0 -0.16032836684724089 0.15582009882552869 0 -0.1525704759102591 0.15118011221362071 0 -0.15384838906372561 0.15404999472305231 0 -0.1525704759102591 0.15118011221362071 0 -0.15384838906372561 0.15404999472305231 0 -0.13909722804938979 0.12092247046689331 0 -0.15569189489731561 0.12536993684311529 0 -0.14583385197982271 0.1360512913402577 0 -0.15807697480264521 0.13450745742989631 0 -0.15569189489731561 0.12536993684311529 0 -0.14583385197982271 0.1360512913402577 0 -0.15807697480264521 0.13450745742989631 0 -0.15519430554294311 0.14133969290320669 0 -0.14583385197982271 0.1360512913402577 0 -0.13909722804938979 0.12092247046689331 0 -0.14583385197982271 0.1360512913402577 0 -0.13909722804938979 0.12092247046689331 0 -0.12946747186928001 0.1358599810368962 0 -0.13909722804938979 0.12092247046689331 0 -0.14583385197982271 0.1360512913402577 0 -0.12946747186928001 0.1358599810368962 0 -0.13909722804938979 0.12092247046689331 0 -0.12946747186928001 0.1358599810368962 0 -0.1240129492088249 0.1221724056033639 0 -0.12946747186928001 0.1358599810368962 0 -0.1081645267407164 0.13277680644487461 0 -0.1198377156891688 0.1507974916068982 0 -0.12946747186928001 0.1358599810368962 0 -0.1081645267407164 0.13277680644487461 0 -0.1240129492088249 0.1221724056033639 0 -0.1081645267407164 0.13277680644487461 0 -0.086988272730917707 0.13809771398926091 0 -0.087597337848493273 0.1207512935143198 0 -0.1081645267407164 0.13277680644487461 0 -0.098699764771330037 0.15055040533765501 0 -0.086988272730917707 0.13809771398926091 0 -0.098699764771330037 0.15055040533765501 0 -0.1198377156891688 0.1507974916068982 0 -0.1081645267407164 0.13277680644487461 0 -0.098699764771330037 0.15055040533765501 0 -0.1198377156891688 0.1507974916068982 0 -0.12946747186928001 0.1358599810368962 0 -0.1198377156891688 0.1507974916068982 0 -0.1198377156891688 0.1507974916068982 0 -0.1075809961483699 0.16980990212591271 0 -0.12801773144507661 0.1759548492759932 0 -0.13004110708937691 0.16344291575557759 0 -0.1075809961483699 0.16980990212591271 0 -0.13004110708937691 0.16344291575557759 0 -0.1198377156891688 0.1507974916068982 0 -0.1075809961483699 0.16980990212591271 0 -0.12801773144507661 0.1759548492759932 0 -0.1075809961483699 0.16980990212591271 0 -0.12433600025794909 0.1888934339135554 0 -0.1075809961483699 0.16980990212591271 0 -0.12433600025794909 0.1888934339135554 0 -0.1092240167607982 0.19043559082027289 0 -0.1075809961483699 0.16980990212591271 0 -0.095324276607569869 0.1888223126449263 0 -0.1075809961483699 0.16980990212591271 0 -0.089178340119849375 0.17990185571001591 0 -0.095324276607569869 0.1888223126449263 0 -0.1075809961483699 0.16980990212591271 0 -0.1092240167607982 0.19043559082027289 0 -0.095324276607569869 0.1888223126449263 0 -0.098699764771330037 0.15055040533765501 0 -0.1198377156891688 0.1507974916068982 0 -0.1075809961483699 0.16980990212591271 0 -0.1075809961483699 0.16980990212591271 0 -0.092677019150156539 0.16481673491381671 0 -0.089178340119849375 0.17990185571001591 0 -0.098699764771330037 0.15055040533765501 0 -0.1075809961483699 0.16980990212591271 0 -0.092677019150156539 0.16481673491381671 0 -0.098699764771330037 0.15055040533765501 0 -0.092677019150156539 0.16481673491381671 0 -0.083808257351213708 0.15892555251241011 0 -0.092677019150156539 0.16481673491381671 0 -0.078649295678902706 0.16672023618718229 0 -0.089178340119849375 0.17990185571001591 0 -0.092677019150156539 0.16481673491381671 0 -0.078649295678902706 0.16672023618718229 0 -0.083808257351213708 0.15892555251241011 0 -0.089178340119849375 0.17990185571001591 0 -0.06842172927117092 0.18538003230583891 0 -0.080485418640461298 0.19209423792358621 0 -0.089178340119849375 0.17990185571001591 0 -0.095324276607569869 0.1888223126449263 0 -0.080485418640461298 0.19209423792358621 0 -0.089178340119849375 0.17990185571001591 0 -0.060690563474574792 0.17117617036072699 0 -0.089178340119849375 0.17990185571001591 0 -0.06842172927117092 0.18538003230583891 0 -0.060690563474574792 0.17117617036072699 0 -0.078649295678902706 0.16672023618718229 0 -0.089178340119849375 0.17990185571001591 0 -0.060690563474574792 0.17117617036072699 0 -0.078649295678902706 0.16672023618718229 0 -0.06807265553529962 0.15895148248127819 0 -0.060690563474574792 0.17117617036072699 0 -0.078649295678902706 0.16672023618718229 0 -0.083808257351213708 0.15892555251241011 0 -0.06807265553529962 0.15895148248127819 0 -0.077561813853491257 0.15030331906841241 0 -0.071687015383930186 0.14224587127074109 0 -0.056423862935652547 0.15005623279917099 0 -0.06807265553529962 0.15895148248127819 0 -0.077561813853491257 0.15030331906841241 0 -0.056423862935652547 0.15005623279917099 0 -0.077561813853491257 0.15030331906841241 0 -0.056423862935652547 0.15005623279917099 0 -0.083808257351213708 0.15892555251241011 0 -0.06807265553529962 0.15895148248127819 0 -0.077561813853491257 0.15030331906841241 0 -0.071687015383930186 0.14224587127074109 0 -0.056423862935652547 0.15005623279917099 0 -0.071687015383930186 0.14224587127074109 0 -0.062067005767669443 0.13813112224013691 0 -0.056423862935652547 0.15005623279917099 0 -0.071687015383930186 0.14224587127074109 0 -0.075185306741824692 0.13236024978480129 0 -0.062067005767669443 0.13813112224013691 0 -0.075185306741824692 0.13236024978480129 0 -0.067586901978112818 0.12257524790954789 0 -0.087597337848493273 0.1207512935143198 0 -0.075185306741824692 0.13236024978480129 0 -0.062067005767669443 0.13813112224013691 0 -0.067586901978112818 0.12257524790954789 0 -0.071687015383930186 0.14224587127074109 0 -0.075185306741824692 0.13236024978480129 0 -0.086988272730917707 0.13809771398926091 0 -0.075185306741824692 0.13236024978480129 0 -0.086988272730917707 0.13809771398926091 0 -0.087597337848493273 0.1207512935143198 0 -0.098699764771330037 0.15055040533765501 0 -0.077561813853491257 0.15030331906841241 0 -0.098699764771330037 0.15055040533765501 0 -0.077561813853491257 0.15030331906841241 0 -0.086988272730917707 0.13809771398926091 0 -0.098699764771330037 0.15055040533765501 0 -0.083808257351213708 0.15892555251241011 0 -0.077561813853491257 0.15030331906841241 0 -0.077561813853491257 0.15030331906841241 0 -0.071687015383930186 0.14224587127074109 0 -0.086988272730917707 0.13809771398926091 0 -0.094419367083935696 0.2541287094804705 0 -0.094608679571589305 0.23706580411560621 0 -0.1105006514436046 0.23864780213626879 0 -0.094419367083935696 0.2541287094804705 0 -0.11332233907812909 0.25480978493684808 0 -0.1105006514436046 0.23864780213626879 0 -0.12791279364405631 0.2247525491699707 0 -0.1105006514436046 0.23864780213626879 0 -0.1238558918948755 0.24585549267607229 0 -0.11332233907812909 0.25480978493684808 0 -0.1105006514436046 0.23864780213626879 0 -0.1238558918948755 0.24585549267607229 0 -0.12791279364405631 0.2247525491699707 0 -0.1105006514436046 0.23864780213626879 0 -0.1024192716577649 0.2217288696393043 0 -0.094608679571589305 0.23706580411560621 0 -0.1024192716577649 0.2217288696393043 0 -0.085110907413110892 0.22533040482376959 0 -0.094608679571589305 0.23706580411560621 0 -0.1105006514436046 0.23864780213626879 0 -0.1024192716577649 0.2217288696393043 0 -0.1024192716577649 0.2217288696393043 0 -0.10002780393171171 0.20439479436993249 0 -0.083067557066769812 0.20783472316394 0 -0.1024192716577649 0.2217288696393043 0 -0.10002780393171171 0.20439479436993249 0 -0.1154885474690004 0.20504900895690789 0 -0.12791279364405631 0.2247525491699707 0 -0.1024192716577649 0.2217288696393043 0 -0.1154885474690004 0.20504900895690789 0 -0.13072257227252371 0.2043085834578636 0 -0.12791279364405631 0.2247525491699707 0 -0.1154885474690004 0.20504900895690789 0 -0.1154885474690004 0.20504900895690789 0 -0.12433600025794909 0.1888934339135554 0 -0.1092240167607982 0.19043559082027289 0 -0.13072257227252371 0.2043085834578636 0 -0.1154885474690004 0.20504900895690789 0 -0.12433600025794909 0.1888934339135554 0 -0.10002780393171171 0.20439479436993249 0 -0.1154885474690004 0.20504900895690789 0 -0.1092240167607982 0.19043559082027289 0 -0.10002780393171171 0.20439479436993249 0 -0.1092240167607982 0.19043559082027289 0 -0.095324276607569869 0.1888223126449263 0 -0.095324276607569869 0.1888223126449263 0 -0.083067557066769812 0.20783472316394 0 -0.10002780393171171 0.20439479436993249 0 -0.095324276607569869 0.1888223126449263 0 -0.083067557066769812 0.20783472316394 0 -0.095324276607569869 0.1888223126449263 0 -0.080485418640461298 0.19209423792358621 0 -0.083067557066769812 0.20783472316394 0 -0.080485418640461298 0.19209423792358621 0 -0.065928581812116277 0.19736169137269821 0 -0.083067557066769812 0.20783472316394 0 -0.06842172927117092 0.18538003230583891 0 -0.080485418640461298 0.19209423792358621 0 -0.065928581812116277 0.19736169137269821 0 -0.065928581812116277 0.19736169137269821 0 -0.070216184433915696 0.21775929476900871 0 -0.054162905514380619 0.22019796982407891 0 -0.065928581812116277 0.19736169137269821 0 -0.070216184433915696 0.21775929476900871 0 -0.083067557066769812 0.20783472316394 0 -0.070216184433915696 0.21775929476900871 0 -0.083067557066769812 0.20783472316394 0 -0.085110907413110892 0.22533040482376959 0 -0.1024192716577649 0.2217288696393043 0 -0.083067557066769812 0.20783472316394 0 -0.085110907413110892 0.22533040482376959 0 -0.070216184433915696 0.21775929476900871 0 -0.085110907413110892 0.22533040482376959 0 -0.073834855934457877 0.24141335820277049 0 -0.070216184433915696 0.21775929476900871 0 -0.073834855934457877 0.24141335820277049 0 -0.059173021582836272 0.23459367480320981 0 -0.073834855934457877 0.24141335820277049 0 -0.060366595154730002 0.24980608077318411 0 -0.059173021582836272 0.23459367480320981 0 -0.094608679571589305 0.23706580411560621 0 -0.085110907413110892 0.22533040482376959 0 -0.073834855934457877 0.24141335820277049 0 -0.094419367083935696 0.2541287094804705 0 -0.094608679571589305 0.23706580411560621 0 -0.073834855934457877 0.24141335820277049 0 -0.031948649257811358 0.2390360816928537 0 -0.042397229216644967 0.24303424827545961 0 -0.038347954365463767 0.2264988993100166 0 -0.031948649257811358 0.2390360816928537 0 -0.042397229216644967 0.24303424827545961 0 -0.026607954193611769 0.2493988747302498 0 -0.042397229216644967 0.24303424827545961 0 -0.060366595154730002 0.24980608077318411 0 -0.059173021582836272 0.23459367480320981 0 -0.070216184433915696 0.21775929476900871 0 -0.059173021582836272 0.23459367480320981 0 -0.054162905514380619 0.22019796982407891 0 -0.042397229216644967 0.24303424827545961 0 -0.059173021582836272 0.23459367480320981 0 -0.054162905514380619 0.22019796982407891 0 -0.042397229216644967 0.24303424827545961 0 -0.054162905514380619 0.22019796982407891 0 -0.042397229216644967 0.24303424827545961 0 -0.054162905514380619 0.22019796982407891 0 -0.038347954365463767 0.2264988993100166 0 -0.038347954365463767 0.2264988993100166 0 -0.034205048888580038 0.20964671444791261 0 -0.022584355468306581 0.23292722273365751 0 -0.054162905514380619 0.22019796982407891 0 -0.038347954365463767 0.2264988993100166 0 -0.034205048888580038 0.20964671444791261 0 -0.054162905514380619 0.22019796982407891 0 -0.034205048888580038 0.20964671444791261 0 -0.050030569630982458 0.2033931454517143 0 -0.065928581812116277 0.19736169137269821 0 -0.054162905514380619 0.22019796982407891 0 -0.065928581812116277 0.19736169137269821 0 -0.054162905514380619 0.22019796982407891 0 -0.050030569630982458 0.2033931454517143 0 -0.065928581812116277 0.19736169137269821 0 -0.050030569630982458 0.2033931454517143 0 -0.04582574230885289 0.1863662061621674 0 -0.06842172927117092 0.18538003230583891 0 -0.065928581812116277 0.19736169137269821 0 -0.04582574230885289 0.1863662061621674 0 -0.034205048888580038 0.20964671444791261 0 -0.04582574230885289 0.1863662061621674 0 -0.034205048888580038 0.20964671444791261 0 -0.050030569630982458 0.2033931454517143 0 -0.04582574230885289 0.1863662061621674 0 -0.034205048888580038 0.20964671444791261 0 -0.030223242769515869 0.19643355587761649 0 -0.04582574230885289 0.1863662061621674 0 -0.030223242769515869 0.19643355587761649 0 -0.04582574230885289 0.1863662061621674 0 -0.025394881988052748 0.1859296137103176 0 -0.01546729789257782 0.20379168919006871 0 -0.025394881988052748 0.1859296137103176 0 -0.0080804673240217166 0.173551769459069 0 -0.030223242769515869 0.19643355587761649 0 -0.01546729789257782 0.20379168919006871 0 -0.025394881988052748 0.1859296137103176 0 -0.01546729789257782 0.20379168919006871 0 -0.0075100909935939654 0.1750860714174641 0 0.0010354531721193309 0.1980734298502804 0 -0.01546729789257782 0.20379168919006871 0 -0.0080804673240217166 0.173551769459069 0 -0.01546729789257782 0.20379168919006871 0 -0.0047117038411451876 0.2156921999853775 0 -0.022584355468306581 0.23292722273365751 0 -0.01546729789257782 0.20379168919006871 0 -0.0047117038411451876 0.2156921999853775 0 0.0010354531721193309 0.1980734298502804 0 -0.034205048888580038 0.20964671444791261 0 -0.01546729789257782 0.20379168919006871 0 -0.022584355468306581 0.23292722273365751 0 -0.01546729789257782 0.20379168919006871 0 -0.022584355468306581 0.23292722273365751 0 -0.034205048888580038 0.20964671444791261 0 -0.030223242769515869 0.19643355587761649 0 -0.01546729789257782 0.20379168919006871 0 -0.031948649257811358 0.2390360816928537 0 -0.038347954365463767 0.2264988993100166 0 -0.022584355468306581 0.23292722273365751 0 -0.034205048888580038 0.20964671444791261 0 -0.022584355468306581 0.23292722273365751 0 -0.022584355468306581 0.23292722273365751 0 -0.0067799901656662364 0.22965509042738519 0 -0.01389542804982434 0.2379350868161324 0 -0.0047117038411451876 0.2156921999853775 0 -0.022584355468306581 0.23292722273365751 0 -0.0067799901656662364 0.22965509042738519 0 -0.0047117038411451876 0.2156921999853775 0 -0.0067799901656662364 0.22965509042738519 0 0.00048835994026151497 0.22446645239625429 0 -0.0067799901656662364 0.22965509042738519 0 0.0032341845024103301 0.23329049900368271 0 0.00048835994026151497 0.22446645239625429 0 -0.0067799901656662364 0.22965509042738519 0 -0.0052725913194227019 0.23834947606816001 0 0.0032341845024103301 0.23329049900368271 0 -0.0067799901656662364 0.22965509042738519 0 -0.01389542804982434 0.2379350868161324 0 -0.0052725913194227019 0.23834947606816001 0 -0.01129333948663643 0.24599948298869609 0 0.002868069763145869 0.24330852020286761 0 0.0076893730913138083 0.25651749406871249 0 -0.01389542804982434 0.2379350868161324 0 -0.0052725913194227019 0.23834947606816001 0 -0.01129333948663643 0.24599948298869609 0 -0.0052725913194227019 0.23834947606816001 0 -0.01129333948663643 0.24599948298869609 0 0.002868069763145869 0.24330852020286761 0 -0.01399701172863455 0.25013081978710272 0 -0.01389542804982434 0.2379350868161324 0 -0.01129333948663643 0.24599948298869609 0 -0.031948649257811358 0.2390360816928537 0 -0.022584355468306581 0.23292722273365751 0 -0.026607954193611769 0.2493988747302498 0 -0.01399701172863455 0.25013081978710272 0 -0.022584355468306581 0.23292722273365751 0 -0.01389542804982434 0.2379350868161324 0 -0.01399701172863455 0.25013081978710272 0 -0.022584355468306581 0.23292722273365751 0 -0.01399701172863455 0.25013081978710272 0 -0.022584355468306581 0.23292722273365751 0 -0.026607954193611769 0.2493988747302498 0 -0.022584355468306581 0.23292722273365751 0 -0.026607954193611769 0.2493988747302498 0 -0.041744593469785353 0.1498846435121276 0 -0.056423862935652547 0.15005623279917099 0 -0.032202786829299668 0.1624504850114393 0 -0.041744593469785353 0.1498846435121276 0 -0.032202786829299668 0.1624504850114393 0 -0.027795020198956841 0.15052075348947899 0 -0.041744593469785353 0.1498846435121276 0 -0.032121323235995043 0.1382100905072311 0 -0.027795020198956841 0.15052075348947899 0 -0.032121323235995043 0.1382100905072311 0 -0.050778530927625291 0.13358538033325729 0 -0.039986688155642262 0.1227899012845101 0 -0.041744593469785353 0.1498846435121276 0 -0.032121323235995043 0.1382100905072311 0 -0.050778530927625291 0.13358538033325729 0 -0.032121323235995043 0.1382100905072311 0 -0.02899991965232792 0.1234060587075974 0 -0.039986688155642262 0.1227899012845101 0 -0.050778530927625291 0.13358538033325729 0 -0.062067005767669443 0.13813112224013691 0 -0.067586901978112818 0.12257524790954789 0 -0.050778530927625291 0.13358538033325729 0 -0.062067005767669443 0.13813112224013691 0 -0.056423862935652547 0.15005623279917099 0 -0.041744593469785353 0.1498846435121276 0 -0.050778530927625291 0.13358538033325729 0 -0.056423862935652547 0.15005623279917099 0 -0.041744593469785353 0.1498846435121276 0 -0.056423862935652547 0.15005623279917099 0 -0.056423862935652547 0.15005623279917099 0 -0.060690563474574792 0.17117617036072699 0 -0.032202786829299668 0.1624504850114393 0 -0.06807265553529962 0.15895148248127819 0 -0.056423862935652547 0.15005623279917099 0 -0.060690563474574792 0.17117617036072699 0 -0.06842172927117092 0.18538003230583891 0 -0.060690563474574792 0.17117617036072699 0 -0.04582574230885289 0.1863662061621674 0 -0.060690563474574792 0.17117617036072699 0 -0.039541016698379373 0.17640802760495791 0 -0.04582574230885289 0.1863662061621674 0 -0.039541016698379373 0.17640802760495791 0 -0.04582574230885289 0.1863662061621674 0 -0.025394881988052748 0.1859296137103176 0 -0.039541016698379373 0.17640802760495791 0 -0.032202786829299668 0.1624504850114393 0 -0.025394881988052748 0.1859296137103176 0 -0.060690563474574792 0.17117617036072699 0 -0.039541016698379373 0.17640802760495791 0 -0.032202786829299668 0.1624504850114393 0 -0.056423862935652547 0.15005623279917099 0 -0.032202786829299668 0.1624504850114393 0 -0.060690563474574792 0.17117617036072699 0 -0.032202786829299668 0.1624504850114393 0 -0.032202786829299668 0.1624504850114393 0 -0.0080804673240217166 0.173551769459069 0 -0.01425140718047605 0.15695205344369251 0 -0.032202786829299668 0.1624504850114393 0 -0.01425140718047605 0.15695205344369251 0 -0.027795020198956841 0.15052075348947899 0 -0.032202786829299668 0.1624504850114393 0 -0.01425140718047605 0.15695205344369251 0 -0.032202786829299668 0.1624504850114393 0 -0.0080804673240217166 0.173551769459069 0 -0.032202786829299668 0.1624504850114393 0 -0.025394881988052748 0.1859296137103176 0 -0.0080804673240217166 0.173551769459069 0 -0.01546729789257782 0.20379168919006871 0 -0.0080804673240217166 0.173551769459069 0 -0.0075100909935939654 0.1750860714174641 0 -0.0075100909935939654 0.1750860714174641 0 0.0010354531721193309 0.1980734298502804 0 -0.0075100909935939654 0.1750860714174641 0 0.0066819624712132694 0.18234833711038231 0 -0.0080804673240217166 0.173551769459069 0 -0.0075100909935939654 0.1750860714174641 0 0.001126993603499973 0.17100206799644649 0 -0.0080804673240217166 0.173551769459069 0 -0.0075100909935939654 0.1750860714174641 0 -0.0080804673240217166 0.173551769459069 0 -0.0019049934253328601 0.14827085455731351 0 -0.0080804673240217166 0.173551769459069 0 -0.006773790374951412 0.15466169108161651 0 -0.0019049934253328601 0.14827085455731351 0 -0.0080804673240217166 0.173551769459069 0 -0.0019049934253328601 0.14827085455731351 0 0.001126993603499973 0.17100206799644649 0 -0.0080804673240217166 0.173551769459069 0 -0.01425140718047605 0.15695205344369251 0 -0.006773790374951412 0.15466169108161651 0 -0.0080804673240217166 0.173551769459069 0 -0.01425140718047605 0.15695205344369251 0 -0.006773790374951412 0.15466169108161651 0 -0.0019049934253328601 0.14827085455731351 0 -0.010321577720407401 0.14690880245341861 0 -0.0019049934253328601 0.14827085455731351 0 -0.010321577720407401 0.14690880245341861 0 -0.01002661746290193 0.13540992005722 0 -0.010321577720407401 0.14690880245341861 0 -0.018654990279227769 0.1451064949729057 0 -0.01002661746290193 0.13540992005722 0 -0.01425140718047605 0.15695205344369251 0 -0.006773790374951412 0.15466169108161651 0 -0.010321577720407401 0.14690880245341861 0 -0.01425140718047605 0.15695205344369251 0 -0.010321577720407401 0.14690880245341861 0 -0.018654990279227769 0.1451064949729057 0 -0.01425140718047605 0.15695205344369251 0 -0.006773790374951412 0.15466169108161651 0 -0.01425140718047605 0.15695205344369251 0 -0.018654990279227769 0.1451064949729057 0 -0.01425140718047605 0.15695205344369251 0 -0.018654990279227769 0.1451064949729057 0 -0.027795020198956841 0.15052075348947899 0 -0.032121323235995043 0.1382100905072311 0 -0.018654990279227769 0.1451064949729057 0 -0.027795020198956841 0.15052075348947899 0 -0.021245510176909031 0.13200282329336119 0 -0.01002661746290193 0.13540992005722 0 -0.016424700254092501 0.11788155222185159 0 -0.032121323235995043 0.1382100905072311 0 -0.021245510176909031 0.13200282329336119 0 -0.02899991965232792 0.1234060587075974 0 -0.032121323235995043 0.1382100905072311 0 -0.018654990279227769 0.1451064949729057 0 -0.021245510176909031 0.13200282329336119 0 -0.018654990279227769 0.1451064949729057 0 -0.021245510176909031 0.13200282329336119 0 -0.01002661746290193 0.13540992005722 0 -0.01002661746290193 0.13540992005722 0 -0.016424700254092501 0.11788155222185159 0 0.0042704804733579918 0.1229899396555585 0 -0.0019049934253328601 0.14827085455731351 0 -0.01002661746290193 0.13540992005722 0 0.0042704804733579918 0.1229899396555585 0 -0.0060484899743172057 0.1050622656697115 0 -0.016424700254092501 0.11788155222185159 0 0.0042704804733579918 0.1229899396555585 0 -0.0060484899743172057 0.1050622656697115 0 -0.0087769151569504714 0.087682480279528574 0 0.010445954372048861 0.097709024753803511 0 -0.0060484899743172057 0.1050622656697115 0 -0.019757269305949909 0.099048331437815357 0 -0.016424700254092501 0.11788155222185159 0 -0.0060484899743172057 0.1050622656697115 0 -0.019757269305949909 0.099048331437815357 0 -0.0087769151569504714 0.087682480279528574 0 -0.019757269305949909 0.099048331437815357 0 -0.016424700254092501 0.11788155222185159 0 -0.033416624970403687 0.1090983451558027 0 -0.019757269305949909 0.099048331437815357 0 -0.033074536459593809 0.091500687654761395 0 -0.033416624970403687 0.1090983451558027 0 -0.02899991965232792 0.1234060587075974 0 -0.016424700254092501 0.11788155222185159 0 -0.033416624970403687 0.1090983451558027 0 -0.021245510176909031 0.13200282329336119 0 -0.02899991965232792 0.1234060587075974 0 -0.016424700254092501 0.11788155222185159 0 -0.0087769151569504714 0.087682480279528574 0 -0.016137475489694571 0.071135028608727252 0 0.00024197639052214381 0.071781569230384867 0 -0.016137475489694571 0.071135028608727252 0 0.00024197639052214381 0.071781569230384867 0 -0.016137475489694571 0.071135028608727252 0 -0.01098195155134039 0.058199651816400778 0 0.00024197639052214381 0.071781569230384867 0 -0.0087769151569504714 0.087682480279528574 0 -0.021758463691144481 0.083809597809841332 0 -0.016137475489694571 0.071135028608727252 0 -0.021758463691144481 0.083809597809841332 0 -0.030759244118593571 0.0755401540535586 0 -0.033074536459593809 0.091500687654761395 0 -0.019757269305949909 0.099048331437815357 0 -0.0087769151569504714 0.087682480279528574 0 -0.021758463691144481 0.083809597809841332 0 -0.019757269305949909 0.099048331437815357 0 -0.021758463691144481 0.083809597809841332 0 -0.033074536459593809 0.091500687654761395 0 -0.016137475489694571 0.071135028608727252 0 -0.026705692462431579 0.060789175594995831 0 -0.01098195155134039 0.058199651816400778 0 -0.021758463691144481 0.083809597809841332 0 -0.016137475489694571 0.071135028608727252 0 -0.030759244118593571 0.0755401540535586 0 -0.016137475489694571 0.071135028608727252 0 -0.030759244118593571 0.0755401540535586 0 -0.026705692462431579 0.060789175594995831 0 -0.045939249515673818 0.06378540294316834 0 -0.039331343353379712 0.079469576681171564 0 -0.047552343319657631 0.087052062073197933 0 -0.030759244118593571 0.0755401540535586 0 -0.045939249515673818 0.06378540294316834 0 -0.026705692462431579 0.060789175594995831 0 -0.030759244118593571 0.0755401540535586 0 -0.045939249515673818 0.06378540294316834 0 -0.039331343353379712 0.079469576681171564 0 -0.045939249515673818 0.06378540294316834 0 -0.047552343319657631 0.087052062073197933 0 -0.030759244118593571 0.0755401540535586 0 -0.039331343353379712 0.079469576681171564 0 -0.033074536459593809 0.091500687654761395 0 -0.033074536459593809 0.091500687654761395 0 -0.047552343319657631 0.087052062073197933 0 -0.040802235468324143 0.099492454021747403 0 -0.039331343353379712 0.079469576681171564 0 -0.033074536459593809 0.091500687654761395 0 -0.047552343319657631 0.087052062073197933 0 -0.054748181175482261 0.082068339247399869 0 -0.063557112835290655 0.1003512755516313 0 -0.063728905112334755 0.085704772336994486 0 -0.054748181175482261 0.082068339247399869 0 -0.063557112835290655 0.1003512755516313 0 -0.047552343319657631 0.087052062073197933 0 -0.054748181175482261 0.082068339247399869 0 -0.063557112835290655 0.1003512755516313 0 -0.054748181175482261 0.082068339247399869 0 -0.063728905112334755 0.085704772336994486 0 -0.064761713473033541 0.075306731423854967 0 -0.045939249515673818 0.06378540294316834 0 -0.054748181175482261 0.082068339247399869 0 -0.058086937996585042 0.067608337603158986 0 -0.045939249515673818 0.06378540294316834 0 -0.054748181175482261 0.082068339247399869 0 -0.045939249515673818 0.06378540294316834 0 -0.047552343319657631 0.087052062073197933 0 -0.054748181175482261 0.082068339247399869 0 -0.054748181175482261 0.082068339247399869 0 -0.058086937996585042 0.067608337603158986 0 -0.064761713473033541 0.075306731423854967 0 -0.050778530927625291 0.13358538033325729 0 -0.039986688155642262 0.1227899012845101 0 -0.049165437123641458 0.1103187212032276 0 -0.039986688155642262 0.1227899012845101 0 -0.033416624970403687 0.1090983451558027 0 -0.049165437123641458 0.1103187212032276 0 -0.02899991965232792 0.1234060587075974 0 -0.039986688155642262 0.1227899012845101 0 -0.033416624970403687 0.1090983451558027 0 -0.033416624970403687 0.1090983451558027 0 -0.040802235468324143 0.099492454021747403 0 -0.049165437123641458 0.1103187212032276 0 -0.033074536459593809 0.091500687654761395 0 -0.033416624970403687 0.1090983451558027 0 -0.040802235468324143 0.099492454021747403 0 -0.047552343319657631 0.087052062073197933 0 -0.040802235468324143 0.099492454021747403 0 -0.049165437123641458 0.1103187212032276 0 -0.047552343319657631 0.087052062073197933 0 -0.049165437123641458 0.1103187212032276 0 -0.047552343319657631 0.087052062073197933 0 -0.049165437123641458 0.1103187212032276 0 -0.063557112835290655 0.1003512755516313 0 -0.050778530927625291 0.13358538033325729 0 -0.049165437123641458 0.1103187212032276 0 -0.067586901978112818 0.12257524790954789 0 -0.049165437123641458 0.1103187212032276 0 -0.067586901978112818 0.12257524790954789 0 -0.063557112835290655 0.1003512755516313 0 -0.050778530927625291 0.13358538033325729 0 -0.049165437123641458 0.1103187212032276 0 -0.067586901978112818 0.12257524790954789 0 -0.076382425539208362 0.1095030493563952 0 -0.087597337848493273 0.1207512935143198 0 -0.067586901978112818 0.12257524790954789 0 -0.076382425539208362 0.1095030493563952 0 -0.063557112835290655 0.1003512755516313 0 -0.076382425539208362 0.1095030493563952 0 -0.087597337848493273 0.1207512935143198 0 -0.091403562700378693 0.1014264711422595 0 -0.076382425539208362 0.1095030493563952 0 -0.091403562700378693 0.1014264711422595 0 -0.076666981758548913 0.096658923459198492 0 -0.091403562700378693 0.1014264711422595 0 -0.076666981758548913 0.096658923459198492 0 -0.084347216215239593 0.087337155009061765 0 -0.076666981758548913 0.096658923459198492 0 -0.063557112835290655 0.1003512755516313 0 -0.071848612965532591 0.085092743125091783 0 -0.076382425539208362 0.1095030493563952 0 -0.076666981758548913 0.096658923459198492 0 -0.063557112835290655 0.1003512755516313 0 -0.063557112835290655 0.1003512755516313 0 -0.063728905112334755 0.085704772336994486 0 -0.071848612965532591 0.085092743125091783 0 -0.063728905112334755 0.085704772336994486 0 -0.071848612965532591 0.085092743125091783 0 -0.064761713473033541 0.075306731423854967 0 -0.071848612965532591 0.085092743125091783 0 -0.064761713473033541 0.075306731423854967 0 -0.078397299667226833 0.075086515477637616 0 -0.076666981758548913 0.096658923459198492 0 -0.071848612965532591 0.085092743125091783 0 -0.084347216215239593 0.087337155009061765 0 -0.058086937996585042 0.067608337603158986 0 -0.064761713473033541 0.075306731423854967 0 -0.069998965142717945 0.061192724588466377 0 -0.064761713473033541 0.075306731423854967 0 -0.078397299667226833 0.075086515477637616 0 -0.069998965142717945 0.061192724588466377 0 -0.078397299667226833 0.075086515477637616 0 -0.08924632578435715 0.063700633498409362 0 -0.069998965142717945 0.061192724588466377 0 -0.078397299667226833 0.075086515477637616 0 -0.091389346417477216 0.076704742040604595 0 -0.08924632578435715 0.063700633498409362 0 -0.091389346417477216 0.076704742040604595 0 -0.084347216215239593 0.087337155009061765 0 -0.1013796213017189 0.086419101620993727 0 -0.091403562700378693 0.1014264711422595 0 -0.084347216215239593 0.087337155009061765 0 -0.1013796213017189 0.086419101620993727 0 -0.071848612965532591 0.085092743125091783 0 -0.078397299667226833 0.075086515477637616 0 -0.084347216215239593 0.087337155009061765 0 -0.078397299667226833 0.075086515477637616 0 -0.091389346417477216 0.076704742040604595 0 -0.084347216215239593 0.087337155009061765 0 -0.1013796213017189 0.086419101620993727 0 -0.1043630037826599 0.071109510434317319 0 -0.1205080956128806 0.079175794724359844 0 -0.1043630037826599 0.071109510434317319 0 -0.11411365804163839 0.065819222513671699 0 -0.10670741399422221 0.054018017104681577 0 -0.08924632578435715 0.063700633498409362 0 -0.1043630037826599 0.071109510434317319 0 -0.10670741399422221 0.054018017104681577 0 -0.091389346417477216 0.076704742040604595 0 -0.08924632578435715 0.063700633498409362 0 -0.1043630037826599 0.071109510434317319 0 -0.091389346417477216 0.076704742040604595 0 -0.1013796213017189 0.086419101620993727 0 -0.1043630037826599 0.071109510434317319 0 -0.1043630037826599 0.071109510434317319 0 -0.11411365804163839 0.065819222513671699 0 -0.1205080956128806 0.079175794724359844 0 -0.11411365804163839 0.065819222513671699 0 -0.1205080956128806 0.079175794724359844 0 -0.12487611877679081 0.058973567791328042 0 -0.12676633129327219 0.093230271799177561 0 -0.1205080956128806 0.079175794724359844 0 -0.11350440212521801 0.09809541723267784 0 -0.1013796213017189 0.086419101620993727 0 -0.1205080956128806 0.079175794724359844 0 -0.11350440212521801 0.09809541723267784 0 -0.12676633129327219 0.093230271799177561 0 -0.1205080956128806 0.079175794724359844 0 -0.13302456697366091 0.1072847488739966 0 -0.11350440212521801 0.09809541723267784 0 -0.11031095241107711 0.11401802119415839 0 -0.13302456697366091 0.1072847488739966 0 -0.12676633129327219 0.093230271799177561 0 -0.11350440212521801 0.09809541723267784 0 -0.13302456697366091 0.1072847488739966 0 -0.11031095241107711 0.11401802119415839 0 -0.1081645267407164 0.13277680644487461 0 -0.11031095241107711 0.11401802119415839 0 -0.1240129492088249 0.1221724056033639 0 -0.13302456697366091 0.1072847488739966 0 -0.11031095241107711 0.11401802119415839 0 -0.1240129492088249 0.1221724056033639 0 -0.1081645267407164 0.13277680644487461 0 -0.087597337848493273 0.1207512935143198 0 -0.11031095241107711 0.11401802119415839 0 -0.087597337848493273 0.1207512935143198 0 -0.091403562700378693 0.1014264711422595 0 -0.11031095241107711 0.11401802119415839 0 -0.087597337848493273 0.1207512935143198 0 -0.11031095241107711 0.11401802119415839 0 -0.091403562700378693 0.1014264711422595 0 -0.1013796213017189 0.086419101620993727 0 -0.11350440212521801 0.09809541723267784 0 -0.091403562700378693 0.1014264711422595 0 -0.11350440212521801 0.09809541723267784 0 -0.11031095241107711 0.11401802119415839 0 -0.097836350748829209 0.022537842714483749 0 -0.102069930659121 0.0058161948806418904 0 -0.1234979273559844 0.014616194656270899 0 -0.1155530629942846 -0.0040336814150362509 0 -0.1308273698701844 -0.003706324753454524 0 -0.1234979273559844 0.014616194656270899 0 -0.1155530629942846 -0.0040336814150362509 0 -0.102069930659121 0.0058161948806418904 0 -0.1234979273559844 0.014616194656270899 0 -0.097836350748829209 0.022537842714483749 0 -0.1234979273559844 0.014616194656270899 0 -0.10781330213136781 0.035919588965282447 0 -0.097836350748829209 0.022537842714483749 0 -0.1234979273559844 0.014616194656270899 0 -0.12597681129890859 0.040066542679777252 0 -0.1234979273559844 0.014616194656270899 0 -0.10781330213136781 0.035919588965282447 0 -0.12597681129890859 0.040066542679777252 0 -0.10670741399422221 0.054018017104681577 0 -0.10781330213136781 0.035919588965282447 0 -0.12597681129890859 0.040066542679777252 0 -0.12487611877679081 0.058973567791328042 0 -0.10670741399422221 0.054018017104681577 0 -0.11411365804163839 0.065819222513671699 0 -0.12487611877679081 0.058973567791328042 0 -0.10670741399422221 0.054018017104681577 0 -0.08924632578435715 0.063700633498409362 0 -0.10670741399422221 0.054018017104681577 0 -0.086689770638088248 0.044790154714989178 0 -0.097836350748829209 0.022537842714483749 0 -0.10781330213136781 0.035919588965282447 0 -0.086689770638088248 0.044790154714989178 0 -0.10670741399422221 0.054018017104681577 0 -0.10781330213136781 0.035919588965282447 0 -0.086689770638088248 0.044790154714989178 0 -0.097836350748829209 0.022537842714483749 0 -0.086689770638088248 0.044790154714989178 0 -0.072174774141674086 0.030459490772696558 0 -0.08924632578435715 0.063700633498409362 0 -0.086689770638088248 0.044790154714989178 0 -0.069998965142717945 0.061192724588466377 0 -0.086689770638088248 0.044790154714989178 0 -0.069998965142717945 0.061192724588466377 0 -0.061921915058978212 0.046652380718750087 0 -0.086689770638088248 0.044790154714989178 0 -0.072174774141674086 0.030459490772696558 0 -0.061921915058978212 0.046652380718750087 0 -0.072174774141674086 0.030459490772696558 0 -0.080019140102338349 0.0090783544575563768 0 -0.058320048274435453 0.011702135624293101 0 -0.097836350748829209 0.022537842714483749 0 -0.072174774141674086 0.030459490772696558 0 -0.080019140102338349 0.0090783544575563768 0 -0.097836350748829209 0.022537842714483749 0 -0.072174774141674086 0.030459490772696558 0 -0.090400042956509136 -0.0016468222240374789 0 -0.102069930659121 0.0058161948806418904 0 -0.080019140102338349 0.0090783544575563768 0 -0.097836350748829209 0.022537842714483749 0 -0.102069930659121 0.0058161948806418904 0 -0.080019140102338349 0.0090783544575563768 0 -0.0656650319423632 -0.001268180764667408 0 -0.080019140102338349 0.0090783544575563768 0 -0.058320048274435453 0.011702135624293101 0 -0.048933732325526003 -0.0029621306740495062 0 -0.058320048274435453 0.011702135624293101 0 -0.039886901291926777 0.012361941693878839 0 -0.0656650319423632 -0.001268180764667408 0 -0.048933732325526003 -0.0029621306740495062 0 -0.058320048274435453 0.011702135624293101 0 -0.072174774141674086 0.030459490772696558 0 -0.049405654040528033 0.023970642384467569 0 -0.046513197534519143 0.038381138830909323 0 -0.058320048274435453 0.011702135624293101 0 -0.049405654040528033 0.023970642384467569 0 -0.039886901291926777 0.012361941693878839 0 -0.072174774141674086 0.030459490772696558 0 -0.058320048274435453 0.011702135624293101 0 -0.049405654040528033 0.023970642384467569 0 -0.049405654040528033 0.023970642384467569 0 -0.036754890288775849 0.02297887450009917 0 -0.039886901291926777 0.012361941693878839 0 -0.036754890288775849 0.02297887450009917 0 -0.035817108822338177 0.042776901491954837 0 -0.025694968129002529 0.021768400040741341 0 -0.049405654040528033 0.023970642384467569 0 -0.043527169461666688 0.02899446625224179 0 -0.036754890288775849 0.02297887450009917 0 -0.049405654040528033 0.023970642384467569 0 -0.043527169461666688 0.02899446625224179 0 -0.046513197534519143 0.038381138830909323 0 -0.036754890288775849 0.02297887450009917 0 -0.039886901291926777 0.012361941693878839 0 -0.025694968129002529 0.021768400040741341 0 -0.031850607683756693 -0.00085088897714030286 0 -0.039886901291926777 0.012361941693878839 0 -0.025694968129002529 0.021768400040741341 0 -0.048933732325526003 -0.0029621306740495062 0 -0.031850607683756693 -0.00085088897714030286 0 -0.039886901291926777 0.012361941693878839 0 -0.054986580676017673 0.055688489812905417 0 -0.061921915058978212 0.046652380718750087 0 -0.044733209488670253 0.046389934597705032 0 -0.045939249515673818 0.06378540294316834 0 -0.054986580676017673 0.055688489812905417 0 -0.044733209488670253 0.046389934597705032 0 -0.045939249515673818 0.06378540294316834 0 -0.058086937996585042 0.067608337603158986 0 -0.054986580676017673 0.055688489812905417 0 -0.058086937996585042 0.067608337603158986 0 -0.069998965142717945 0.061192724588466377 0 -0.054986580676017673 0.055688489812905417 0 -0.069998965142717945 0.061192724588466377 0 -0.054986580676017673 0.055688489812905417 0 -0.061921915058978212 0.046652380718750087 0 -0.072174774141674086 0.030459490772696558 0 -0.046513197534519143 0.038381138830909323 0 -0.072174774141674086 0.030459490772696558 0 -0.061921915058978212 0.046652380718750087 0 -0.046513197534519143 0.038381138830909323 0 -0.061921915058978212 0.046652380718750087 0 -0.044733209488670253 0.046389934597705032 0 -0.046513197534519143 0.038381138830909323 0 -0.043527169461666688 0.02899446625224179 0 -0.044733209488670253 0.046389934597705032 0 -0.035817108822338177 0.042776901491954837 0 -0.043527169461666688 0.02899446625224179 0 -0.036754890288775849 0.02297887450009917 0 -0.035817108822338177 0.042776901491954837 0 -0.043527169461666688 0.02899446625224179 0 -0.044733209488670253 0.046389934597705032 0 -0.043527169461666688 0.02899446625224179 0 -0.044733209488670253 0.046389934597705032 0 -0.046513197534519143 0.038381138830909323 0 -0.045939249515673818 0.06378540294316834 0 -0.035817108822338177 0.042776901491954837 0 -0.02996028015357266 0.049875975230173397 0 -0.045939249515673818 0.06378540294316834 0 -0.035817108822338177 0.042776901491954837 0 -0.045939249515673818 0.06378540294316834 0 -0.044733209488670253 0.046389934597705032 0 -0.045939249515673818 0.06378540294316834 0 -0.044733209488670253 0.046389934597705032 0 -0.035817108822338177 0.042776901491954837 0 -0.045939249515673818 0.06378540294316834 0 -0.026705692462431579 0.060789175594995831 0 -0.02996028015357266 0.049875975230173397 0 -0.026705692462431579 0.060789175594995831 0 -0.020694818307383959 0.04693110454701431 0 -0.01098195155134039 0.058199651816400778 0 -0.026705692462431579 0.060789175594995831 0 -0.02996028015357266 0.049875975230173397 0 -0.020694818307383959 0.04693110454701431 0 -0.025837333052582508 0.038952032630802977 0 -0.017019489850615219 0.033407781844131047 0 -0.025694968129002529 0.021768400040741341 0 -0.035817108822338177 0.042776901491954837 0 -0.025694968129002529 0.021768400040741341 0 -0.035817108822338177 0.042776901491954837 0 -0.025837333052582508 0.038952032630802977 0 -0.025694968129002529 0.021768400040741341 0 -0.020694818307383959 0.04693110454701431 0 -0.025837333052582508 0.038952032630802977 0 -0.017019489850615219 0.033407781844131047 0 -0.02996028015357266 0.049875975230173397 0 -0.020694818307383959 0.04693110454701431 0 -0.025837333052582508 0.038952032630802977 0 -0.035817108822338177 0.042776901491954837 0 -0.02996028015357266 0.049875975230173397 0 -0.025837333052582508 0.038952032630802977 0 -0.017019489850615219 0.033407781844131047 0 -0.0079637206383430022 0.043031223738005317 0 -0.0070354386804615714 0.026070149703007271 0 -0.0079637206383430022 0.043031223738005317 0 -0.0070354386804615714 0.026070149703007271 0 0.0069273215675512883 0.041578591966597141 0 -0.020694818307383959 0.04693110454701431 0 -0.017019489850615219 0.033407781844131047 0 -0.0079637206383430022 0.043031223738005317 0 -0.0079637206383430022 0.043031223738005317 0 -0.01098195155134039 0.058199651816400778 0 0.005368021199288594 0.055529809179277162 0 -0.01098195155134039 0.058199651816400778 0 0.005368021199288594 0.055529809179277162 0 0.00024197639052214381 0.071781569230384867 0 -0.020694818307383959 0.04693110454701431 0 -0.0079637206383430022 0.043031223738005317 0 -0.01098195155134039 0.058199651816400778 0 -0.031850607683756693 -0.00085088897714030286 0 -0.025694968129002529 0.021768400040741341 0 -0.01557282743566684 0.00075989858952775491 0 -0.025694968129002529 0.021768400040741341 0 -0.01557282743566684 0.00075989858952775491 0 -0.025694968129002529 0.021768400040741341 0 -0.0070354386804615714 0.026070149703007271 0 -0.01557282743566684 0.00075989858952775491 0 -0.017019489850615219 0.033407781844131047 0 -0.025694968129002529 0.021768400040741341 0 -0.0070354386804615714 0.026070149703007271 0 -0.0070354386804615714 0.026070149703007271 0 -0.00065484893076889011 0.014296852006344909 0 -0.01557282743566684 0.00075989858952775491 0 -0.00065484893076889011 0.014296852006344909 0 -0.01557282743566684 0.00075989858952775491 0 -0.0020858838102024279 0.0039170107241266374 0 -0.0020858838102024279 0.0039170107241266374 0 0.0096709608759811237 0.011241053897937409 0 0.0032282499690442449 -0.0088745875952064811 0 0.010796000673796239 0.001043184006459454 0 0.0096709608759811237 0.011241053897937409 0 0.0032282499690442449 -0.0088745875952064811 0 0.0096709608759811237 0.011241053897937409 0 0.0032282499690442449 -0.0088745875952064811 0 0.010796000673796239 0.001043184006459454 0 0.0096709608759811237 0.011241053897937409 0 0.018444975082959891 0.0074489691581596006 0 -0.00065484893076889011 0.014296852006344909 0 -0.0020858838102024279 0.0039170107241266374 0 0.0096709608759811237 0.011241053897937409 0 -0.00065484893076889011 0.014296852006344909 0 0.0096709608759811237 0.011241053897937409 0 0.009929676881958522 0.026430632885268951 0 -0.0070354386804615714 0.026070149703007271 0 -0.00065484893076889011 0.014296852006344909 0 0.009929676881958522 0.026430632885268951 0 0.0096709608759811237 0.011241053897937409 0 0.009929676881958522 0.026430632885268951 0 0.01879542465748886 0.01835528790452871 0 0.009929676881958522 0.026430632885268951 0 0.02703349067685137 0.029803613666181339 0 0.01879542465748886 0.01835528790452871 0 0.02703349067685137 0.029803613666181339 0 0.01879542465748886 0.01835528790452871 0 0.029461474512617769 0.0091796361634523208 0 0.010796000673796239 0.001043184006459454 0 0.018444975082959891 0.0074489691581596006 0 0.022339275083212859 -0.0015369494510790759 0 0.029461474512617769 0.0091796361634523208 0 0.018444975082959891 0.0074489691581596006 0 0.022339275083212859 -0.0015369494510790759 0 0.01879542465748886 0.01835528790452871 0 0.029461474512617769 0.0091796361634523208 0 0.018444975082959891 0.0074489691581596006 0 0.0096709608759811237 0.011241053897937409 0 0.01879542465748886 0.01835528790452871 0 0.018444975082959891 0.0074489691581596006 0 0.005368021199288594 0.055529809179277162 0 0.0069273215675512883 0.041578591966597141 0 0.021827459473795548 0.051115861759114908 0 0.005368021199288594 0.055529809179277162 0 0.021827459473795548 0.051115861759114908 0 0.01662142827073863 0.0724281098520482 0 -0.0070354386804615714 0.026070149703007271 0 0.009929676881958522 0.026430632885268951 0 0.0069273215675512883 0.041578591966597141 0 0.009929676881958522 0.026430632885268951 0 0.02703349067685137 0.029803613666181339 0 0.0069273215675512883 0.041578591966597141 0 -0.0079637206383430022 0.043031223738005317 0 0.005368021199288594 0.055529809179277162 0 0.0069273215675512883 0.041578591966597141 0 0.02703349067685137 0.029803613666181339 0 0.021827459473795548 0.051115861759114908 0 0.043754155459148042 0.046329862342270572 0 0.02703349067685137 0.029803613666181339 0 0.0069273215675512883 0.041578591966597141 0 0.021827459473795548 0.051115861759114908 0 0.02703349067685137 0.029803613666181339 0 0.021827459473795548 0.051115861759114908 0 0.021827459473795548 0.051115861759114908 0 0.01662142827073863 0.0724281098520482 0 0.021827459473795548 0.051115861759114908 0 0.043754155459148042 0.046329862342270572 0 0.04423057427482735 0.073517916431130731 0 0.02703349067685137 0.029803613666181339 0 0.043754155459148042 0.046329862342270572 0 0.055662179103591461 0.02973850890274814 0 0.043754155459148042 0.046329862342270572 0 0.055662179103591461 0.02973850890274814 0 0.062782147606245564 0.055732789743071373 0 0.043754155459148042 0.046329862342270572 0 0.062782147606245564 0.055732789743071373 0 0.04423057427482735 0.073517916431130731 0 0.029461474512617769 0.0091796361634523208 0 0.047704183673405648 0.010706721758899061 0 0.037895535239882719 -0.0087994323662799953 0 0.02703349067685137 0.029803613666181339 0 0.055662179103591461 0.02973850890274814 0 0.047704183673405648 0.010706721758899061 0 0.02703349067685137 0.029803613666181339 0 0.029461474512617769 0.0091796361634523208 0 0.047704183673405648 0.010706721758899061 0 0.055662179103591461 0.02973850890274814 0 0.047704183673405648 0.010706721758899061 0 0.074325727717583515 0.01378843070404526 0 0.047704183673405648 0.010706721758899061 0 0.074325727717583515 0.01378843070404526 0 0.061846694789907057 -0.0094704265167526863 0 0.074325727717583515 0.01378843070404526 0 0.1021263642761613 0.0080934557538357536 0 0.083345215077867602 -0.0079048656384585556 0 0.074325727717583515 0.01378843070404526 0 0.077354330297222607 0.040701016055952208 0 0.094299200272274564 0.029366699749769382 0 0.074325727717583515 0.01378843070404526 0 0.1021263642761613 0.0080934557538357536 0 0.094299200272274564 0.029366699749769382 0 0.055662179103591461 0.02973850890274814 0 0.074325727717583515 0.01378843070404526 0 0.077354330297222607 0.040701016055952208 0 0.055662179103591461 0.02973850890274814 0 0.077354330297222607 0.040701016055952208 0 0.062782147606245564 0.055732789743071373 0 0.077354330297222607 0.040701016055952208 0 0.062782147606245564 0.055732789743071373 0 0.092281816250406906 0.071697488771998108 0 0.077354330297222607 0.040701016055952208 0 0.103365079703285 0.054275949739436641 0 0.092281816250406906 0.071697488771998108 0 0.077354330297222607 0.040701016055952208 0 0.103365079703285 0.054275949739436641 0 0.077354330297222607 0.040701016055952208 0 0.103365079703285 0.054275949739436641 0 0.094299200272274564 0.029366699749769382 0 0.103365079703285 0.054275949739436641 0 0.1143244993671204 0.029974646495577021 0 0.094299200272274564 0.029366699749769382 0 0.103365079703285 0.054275949739436641 0 0.1293758291093475 0.06785088342292106 0 0.103365079703285 0.054275949739436641 0 0.12487160826149971 0.046854995956776793 0 0.1293758291093475 0.06785088342292106 0 0.103365079703285 0.054275949739436641 0 0.12487160826149971 0.046854995956776793 0 0.1143244993671204 0.029974646495577021 0 0.1143244993671204 0.029974646495577021 0 0.1021263642761613 0.0080934557538357536 0 0.12764307924079521 0.012325017931860249 0 0.1021263642761613 0.0080934557538357536 0 0.12764307924079521 0.012325017931860249 0 0.122836876780338 -0.0080023686202002862 0 0.1143244993671204 0.029974646495577021 0 0.1021263642761613 0.0080934557538357536 0 0.094299200272274564 0.029366699749769382 0 0.094134993361589481 0.1171436739207557 0 0.11902016168324191 0.1197027187353239 0 0.1027526958170653 0.089493820757255635 0 0.11902016168324191 0.1197027187353239 0 0.1027526958170653 0.089493820757255635 0 0.1250839813190904 0.093164354471990701 0 0.1027526958170653 0.089493820757255635 0 0.092281816250406906 0.071697488771998108 0 0.1293758291093475 0.06785088342292106 0 0.103365079703285 0.054275949739436641 0 0.092281816250406906 0.071697488771998108 0 0.1293758291093475 0.06785088342292106 0 0.1027526958170653 0.089493820757255635 0 0.1293758291093475 0.06785088342292106 0 0.1250839813190904 0.093164354471990701 0 0.1027526958170653 0.089493820757255635 0 0.092281816250406906 0.071697488771998108 0 0.07493117243548994 0.10150465241962239 0 0.092281816250406906 0.071697488771998108 0 0.071839720278915831 0.074607723010218979 0 0.07493117243548994 0.10150465241962239 0 0.062782147606245564 0.055732789743071373 0 0.092281816250406906 0.071697488771998108 0 0.071839720278915831 0.074607723010218979 0 0.071839720278915831 0.074607723010218979 0 0.07493117243548994 0.10150465241962239 0 0.056361225919371642 0.09023963643215796 0 0.094134993361589481 0.1171436739207557 0 0.07493117243548994 0.10150465241962239 0 0.077217871375999947 0.13300802471733711 0 0.07493117243548994 0.10150465241962239 0 0.056806786946916252 0.12657041462148461 0 0.077217871375999947 0.13300802471733711 0 0.094134993361589481 0.1171436739207557 0 0.1027526958170653 0.089493820757255635 0 0.07493117243548994 0.10150465241962239 0 0.07493117243548994 0.10150465241962239 0 0.045559632279235457 0.108361716062865 0 0.056806786946916252 0.12657041462148461 0 0.07493117243548994 0.10150465241962239 0 0.045559632279235457 0.108361716062865 0 0.056361225919371642 0.09023963643215796 0 0.045559632279235457 0.108361716062865 0 0.030659800544912252 0.090028301357858193 0 0.02425954845156551 0.1162284089751989 0 0.045559632279235457 0.108361716062865 0 0.056361225919371642 0.09023963643215796 0 0.030659800544912252 0.090028301357858193 0 0.045559632279235457 0.108361716062865 0 0.037331093498162653 0.13544467830967771 0 0.045559632279235457 0.108361716062865 0 0.056806786946916252 0.12657041462148461 0 0.037331093498162653 0.13544467830967771 0 0.045559632279235457 0.108361716062865 0 0.02425954845156551 0.1162284089751989 0 0.037331093498162653 0.13544467830967771 0 0.071839720278915831 0.074607723010218979 0 0.04423057427482735 0.073517916431130731 0 0.062782147606245564 0.055732789743071373 0 0.071839720278915831 0.074607723010218979 0 0.04423057427482735 0.073517916431130731 0 0.071839720278915831 0.074607723010218979 0 0.056361225919371642 0.09023963643215796 0 0.04423057427482735 0.073517916431130731 0 0.056361225919371642 0.09023963643215796 0 0.04423057427482735 0.073517916431130731 0 0.030659800544912252 0.090028301357858193 0 0.04423057427482735 0.073517916431130731 0 0.01662142827073863 0.0724281098520482 0 0.021827459473795548 0.051115861759114908 0 0.04423057427482735 0.073517916431130731 0 0.01662142827073863 0.0724281098520482 0 0.01662142827073863 0.0724281098520482 0 0.030659800544912252 0.090028301357858193 0 0.010445954372048861 0.097709024753803511 0 0.04423057427482735 0.073517916431130731 0 0.01662142827073863 0.0724281098520482 0 0.030659800544912252 0.090028301357858193 0 -0.0087769151569504714 0.087682480279528574 0 0.00024197639052214381 0.071781569230384867 0 0.010445954372048861 0.097709024753803511 0 0.01662142827073863 0.0724281098520482 0 0.00024197639052214381 0.071781569230384867 0 0.010445954372048861 0.097709024753803511 0 0.01662142827073863 0.0724281098520482 0 0.010445954372048861 0.097709024753803511 0 0.01662142827073863 0.0724281098520482 0 0.00024197639052214381 0.071781569230384867 0 0.005368021199288594 0.055529809179277162 0 0.01662142827073863 0.0724281098520482 0 0.00024197639052214381 0.071781569230384867 0 0.030659800544912252 0.090028301357858193 0 0.02425954845156551 0.1162284089751989 0 0.010445954372048861 0.097709024753803511 0 -0.0060484899743172057 0.1050622656697115 0 0.010445954372048861 0.097709024753803511 0 0.0042704804733579918 0.1229899396555585 0 0.02425954845156551 0.1162284089751989 0 0.010445954372048861 0.097709024753803511 0 0.0042704804733579918 0.1229899396555585 0 0.010445954372048861 0.097709024753803511 0 0.0042704804733579918 0.1229899396555585 0 -0.0019049934253328601 0.14827085455731351 0 0.0042704804733579918 0.1229899396555585 0 0.017290329541675829 0.14283679371143071 0 0.02425954845156551 0.1162284089751989 0 0.0042704804733579918 0.1229899396555585 0 0.017290329541675829 0.14283679371143071 0 -0.0019049934253328601 0.14827085455731351 0 0.0042704804733579918 0.1229899396555585 0 0.02425954845156551 0.1162284089751989 0 0.017290329541675829 0.14283679371143071 0 0.037331093498162653 0.13544467830967771 0 0.017290329541675829 0.14283679371143071 0 0.010457129204248031 0.162308727808463 0 0.029102554717089849 0.16252764055649041 0 0.017290329541675829 0.14283679371143071 0 0.029102554717089849 0.16252764055649041 0 0.037331093498162653 0.13544467830967771 0 -0.0019049934253328601 0.14827085455731351 0 0.017290329541675829 0.14283679371143071 0 0.010457129204248031 0.162308727808463 0 0.010457129204248031 0.162308727808463 0 0.0066819624712132694 0.18234833711038231 0 0.029102554717089849 0.16252764055649041 0 -0.0019049934253328601 0.14827085455731351 0 0.010457129204248031 0.162308727808463 0 0.001126993603499973 0.17100206799644649 0 -0.0075100909935939654 0.1750860714174641 0 0.0066819624712132694 0.18234833711038231 0 0.0010354531721193309 0.1980734298502804 0 0.010457129204248031 0.162308727808463 0 0.001126993603499973 0.17100206799644649 0 0.0066819624712132694 0.18234833711038231 0 -0.0075100909935939654 0.1750860714174641 0 0.001126993603499973 0.17100206799644649 0 0.0066819624712132694 0.18234833711038231 0 0.0066819624712132694 0.18234833711038231 0 0.020874015936018672 0.18961060280330391 0 0.029102554717089849 0.16252764055649041 0 0.040691478400978913 0.180121486020208 0 0.020874015936018672 0.18961060280330391 0 0.029102554717089849 0.16252764055649041 0 0.020874015936018672 0.18961060280330391 0 0.0066819624712132694 0.18234833711038231 0 0.029102554717089849 0.16252764055649041 0 0.020874015936018672 0.18961060280330391 0 0.029102554717089849 0.16252764055649041 0 0.040691478400978913 0.180121486020208 0 0.05774623484848744 0.17196204108014171 0 0.05774623484848744 0.17196204108014171 0 0.059101008969900483 0.1896071710732061 0 0.066967037150342079 0.19019196384173381 0 0.040691478400978913 0.180121486020208 0 0.05774623484848744 0.17196204108014171 0 0.049036123066439147 0.1872660082077694 0 0.05774623484848744 0.17196204108014171 0 0.049036123066439147 0.1872660082077694 0 0.059101008969900483 0.1896071710732061 0 0.05774623484848744 0.17196204108014171 0 0.055049499274971159 0.14851879892744449 0 0.072092454263170819 0.16159999427953539 0 0.029102554717089849 0.16252764055649041 0 0.05774623484848744 0.17196204108014171 0 0.055049499274971159 0.14851879892744449 0 0.055049499274971159 0.14851879892744449 0 0.056806786946916252 0.12657041462148461 0 0.037331093498162653 0.13544467830967771 0 0.029102554717089849 0.16252764055649041 0 0.055049499274971159 0.14851879892744449 0 0.037331093498162653 0.13544467830967771 0 0.029102554717089849 0.16252764055649041 0 0.037331093498162653 0.13544467830967771 0 0.023101296609449859 0.23135853900653819 0 0.033201843644608299 0.22645537315310649 0 0.034398217230692203 0.24559588675362751 0 0.018126541503550891 0.2440481467159111 0 0.023101296609449859 0.23135853900653819 0 0.034398217230692203 0.24559588675362751 0 0.018126541503550891 0.2440481467159111 0 0.002868069763145869 0.24330852020286761 0 0.0076893730913138083 0.25651749406871249 0 -0.0052725913194227019 0.23834947606816001 0 0.002868069763145869 0.24330852020286761 0 0.0032341845024103301 0.23329049900368271 0 0.018126541503550891 0.2440481467159111 0 0.002868069763145869 0.24330852020286761 0 0.0032341845024103301 0.23329049900368271 0 0.018126541503550891 0.2440481467159111 0 0.009580997337835134 0.2210607882830958 0 0.018126541503550891 0.2440481467159111 0 0.0032341845024103301 0.23329049900368271 0 0.009580997337835134 0.2210607882830958 0 0.0032341845024103301 0.23329049900368271 0 0.00048835994026151497 0.22446645239625429 0 0.009580997337835134 0.2210607882830958 0 -0.0047117038411451876 0.2156921999853775 0 0.00048835994026151497 0.22446645239625429 0 0.009580997337835134 0.2210607882830958 0 0.018126541503550891 0.2440481467159111 0 0.009580997337835134 0.2210607882830958 0 0.023101296609449859 0.23135853900653819 0 0.021132428692334039 0.2198218266483204 0 0.029748044643801829 0.21058964561322061 0 0.033201843644608299 0.22645537315310649 0 0.009580997337835134 0.2210607882830958 0 0.021132428692334039 0.2198218266483204 0 0.023101296609449859 0.23135853900653819 0 0.021132428692334039 0.2198218266483204 0 0.023101296609449859 0.23135853900653819 0 0.033201843644608299 0.22645537315310649 0 0.029748044643801829 0.21058964561322061 0 0.01451097896247718 0.21055355448821769 0 0.020874015936018672 0.18961060280330391 0 0.021132428692334039 0.2198218266483204 0 0.029748044643801829 0.21058964561322061 0 0.01451097896247718 0.21055355448821769 0 -0.0047117038411451876 0.2156921999853775 0 0.009580997337835134 0.2210607882830958 0 0.0010354531721193309 0.1980734298502804 0 0.009580997337835134 0.2210607882830958 0 0.021132428692334039 0.2198218266483204 0 0.01451097896247718 0.21055355448821769 0 0.009580997337835134 0.2210607882830958 0 0.0010354531721193309 0.1980734298502804 0 0.009580997337835134 0.2210607882830958 0 0.01451097896247718 0.21055355448821769 0 0.0010354531721193309 0.1980734298502804 0 0.01451097896247718 0.21055355448821769 0 0.0010354531721193309 0.1980734298502804 0 0.020874015936018672 0.18961060280330391 0 0.0066819624712132694 0.18234833711038231 0 0.0010354531721193309 0.1980734298502804 0 0.020874015936018672 0.18961060280330391 0 0.029748044643801829 0.21058964561322061 0 0.020874015936018672 0.18961060280330391 0 0.040194260298647019 0.19949703313289061 0 0.020874015936018672 0.18961060280330391 0 0.040194260298647019 0.19949703313289061 0 0.01451097896247718 0.21055355448821769 0 0.020874015936018672 0.18961060280330391 0 0.040691478400978913 0.180121486020208 0 0.020874015936018672 0.18961060280330391 0 0.040194260298647019 0.19949703313289061 0 0.040691478400978913 0.180121486020208 0 0.049036123066439147 0.1872660082077694 0 0.040194260298647019 0.19949703313289061 0 0.040194260298647019 0.19949703313289061 0 0.054124029436090272 0.19687250753823951 0 0.05951450466127528 0.20938346346247749 0 0.049036123066439147 0.1872660082077694 0 0.040194260298647019 0.19949703313289061 0 0.054124029436090272 0.19687250753823951 0 0.049036123066439147 0.1872660082077694 0 0.059101008969900483 0.1896071710732061 0 0.054124029436090272 0.19687250753823951 0 0.060426842502701417 0.1941542791380852 0 0.059101008969900483 0.1896071710732061 0 0.066967037150342079 0.19019196384173381 0 0.060426842502701417 0.1941542791380852 0 0.059101008969900483 0.1896071710732061 0 0.054124029436090272 0.19687250753823951 0 0.06151529445447286 0.19994547409916141 0 0.054124029436090272 0.19687250753823951 0 0.05951450466127528 0.20938346346247749 0 0.060426842502701417 0.1941542791380852 0 0.06151529445447286 0.19994547409916141 0 0.054124029436090272 0.19687250753823951 0 0.040194260298647019 0.19949703313289061 0 0.05951450466127528 0.20938346346247749 0 0.048097919747220878 0.2207044503371732 0 0.040194260298647019 0.19949703313289061 0 0.05951450466127528 0.20938346346247749 0 0.06151529445447286 0.19994547409916141 0 0.05951450466127528 0.20938346346247749 0 0.063212381326575071 0.2111371869653223 0 0.05951450466127528 0.20938346346247749 0 0.048097919747220878 0.2207044503371732 0 0.063212381326575071 0.2111371869653223 0 0.029748044643801829 0.21058964561322061 0 0.040194260298647019 0.19949703313289061 0 0.048097919747220878 0.2207044503371732 0 0.029748044643801829 0.21058964561322061 0 0.033201843644608299 0.22645537315310649 0 0.048097919747220878 0.2207044503371732 0 0.033201843644608299 0.22645537315310649 0 0.044471123014518332 0.23385628495821509 0 0.048097919747220878 0.2207044503371732 0 0.059457725502808478 0.23208241008891081 0 0.063212381326575071 0.2111371869653223 0 0.048097919747220878 0.2207044503371732 0 0.059457725502808478 0.23208241008891081 0 0.063212381326575071 0.2111371869653223 0 0.044471123014518332 0.23385628495821509 0 0.048097919747220878 0.2207044503371732 0 0.059457725502808478 0.23208241008891081 0 0.044471123014518332 0.23385628495821509 0 0.059457725502808478 0.23208241008891081 0 0.055703069679041879 0.25302763321249938 0 0.059457725502808478 0.23208241008891081 0 0.055703069679041879 0.25302763321249938 0 0.044471123014518332 0.23385628495821509 0 0.034398217230692203 0.24559588675362751 0 0.055703069679041879 0.25302763321249938 0 0.033201843644608299 0.22645537315310649 0 0.044471123014518332 0.23385628495821509 0 0.034398217230692203 0.24559588675362751 0 0.091372002388822315 0.23095413541459109 0 0.078571154590758807 0.25070859306122478 0 0.095569813203880638 0.25234178504612109 0 0.073621023618591436 0.23464898461194519 0 0.091372002388822315 0.23095413541459109 0 0.078571154590758807 0.25070859306122478 0 0.073621023618591436 0.23464898461194519 0 0.055703069679041879 0.25302763321249938 0 0.078571154590758807 0.25070859306122478 0 0.059457725502808478 0.23208241008891081 0 0.073621023618591436 0.23464898461194519 0 0.055703069679041879 0.25302763321249938 0 0.059457725502808478 0.23208241008891081 0 0.070141933238431473 0.22243795502139271 0 0.063212381326575071 0.2111371869653223 0 0.059457725502808478 0.23208241008891081 0 0.073621023618591436 0.23464898461194519 0 0.070141933238431473 0.22243795502139271 0 0.073621023618591436 0.23464898461194519 0 0.070141933238431473 0.22243795502139271 0 0.079547436816589365 0.2221613011235806 0 0.070141933238431473 0.22243795502139271 0 0.079547436816589365 0.2221613011235806 0 0.074871098927592999 0.21215989231720461 0 0.073621023618591436 0.23464898461194519 0 0.079547436816589365 0.2221613011235806 0 0.091372002388822315 0.23095413541459109 0 0.079547436816589365 0.2221613011235806 0 0.091372002388822315 0.23095413541459109 0 0.091039373391301387 0.20963622329240381 0 0.091039373391301387 0.20963622329240381 0 0.079191793713108999 0.20342311867113719 0 0.074871098927592999 0.21215989231720461 0 0.079547436816589365 0.2221613011235806 0 0.091039373391301387 0.20963622329240381 0 0.074871098927592999 0.21215989231720461 0 0.070141933238431473 0.22243795502139271 0 0.074871098927592999 0.21215989231720461 0 0.063212381326575071 0.2111371869653223 0 0.074871098927592999 0.21215989231720461 0 0.063212381326575071 0.2111371869653223 0 0.069831755723034281 0.20407864348963961 0 0.079191793713108999 0.20342311867113719 0 0.074871098927592999 0.21215989231720461 0 0.069831755723034281 0.20407864348963961 0 0.06151529445447286 0.19994547409916141 0 0.063212381326575071 0.2111371869653223 0 0.066967037150342079 0.19019196384173381 0 0.063212381326575071 0.2111371869653223 0 0.069831755723034281 0.20407864348963961 0 0.066967037150342079 0.19019196384173381 0 0.076416573111572877 0.19739348633305831 0 0.066967037150342079 0.19019196384173381 0 0.089675705859806165 0.1918802193297226 0 0.069831755723034281 0.20407864348963961 0 0.076416573111572877 0.19739348633305831 0 0.066967037150342079 0.19019196384173381 0 0.063212381326575071 0.2111371869653223 0 0.066967037150342079 0.19019196384173381 0 0.079191793713108999 0.20342311867113719 0 0.069831755723034281 0.20407864348963961 0 0.076416573111572877 0.19739348633305831 0 0.060426842502701417 0.1941542791380852 0 0.06151529445447286 0.19994547409916141 0 0.066967037150342079 0.19019196384173381 0 0.059101008969900483 0.1896071710732061 0 0.066967037150342079 0.19019196384173381 0 0.066967037150342079 0.19019196384173381 0 0.089675705859806165 0.1918802193297226 0 0.091039373391301387 0.20963622329240381 0 0.079191793713108999 0.20342311867113719 0 0.089675705859806165 0.1918802193297226 0 0.079191793713108999 0.20342311867113719 0 0.076416573111572877 0.19739348633305831 0 0.089675705859806165 0.1918802193297226 0 0.089675705859806165 0.1918802193297226 0 0.1123843745692706 0.19356847481770759 0 0.10050116235632479 0.1777610765571086 0 0.089675705859806165 0.1918802193297226 0 0.1123843745692706 0.19356847481770759 0 0.091039373391301387 0.20963622329240381 0 0.089675705859806165 0.1918802193297226 0 0.1123843745692706 0.19356847481770759 0 0.1123843745692706 0.19356847481770759 0 0.1187424467019486 0.17694205758925419 0 0.13509304327873489 0.19525673030569249 0 0.1123843745692706 0.19356847481770759 0 0.13509304327873489 0.19525673030569249 0 0.1123843745692706 0.19356847481770759 0 0.10974208400759911 0.2171158753681032 0 0.1295475756929414 0.214573980938536 0 0.091039373391301387 0.20963622329240381 0 0.1123843745692706 0.19356847481770759 0 0.10974208400759911 0.2171158753681032 0 0.091372002388822315 0.23095413541459109 0 0.091039373391301387 0.20963622329240381 0 0.10974208400759911 0.2171158753681032 0 0.091372002388822315 0.23095413541459109 0 0.10974208400759911 0.2171158753681032 0 0.1077906877987643 0.2347688846398947 0 0.10974208400759911 0.2171158753681032 0 0.12155702354440411 0.22858976926690541 0 0.1295475756929414 0.214573980938536 0 0.10974208400759911 0.2171158753681032 0 0.12155702354440411 0.22858976926690541 0 0.1077906877987643 0.2347688846398947 0 0.12155702354440411 0.22858976926690541 0 0.1194572647376068 0.24349155720862209 0 0.1077906877987643 0.2347688846398947 0 0.1194572647376068 0.24349155720862209 0 0.10834741414862201 0.24821867857208851 0 0.1077906877987643 0.2347688846398947 0 0.10834741414862201 0.24821867857208851 0 0.1077906877987643 0.2347688846398947 0 0.095569813203880638 0.25234178504612109 0 0.091372002388822315 0.23095413541459109 0 0.1077906877987643 0.2347688846398947 0 0.095569813203880638 0.25234178504612109 0 0.072092454263170819 0.16159999427953539 0 0.09186363657452172 0.1638556909160388 0 0.096753065496150231 0.14200915297423969 0 0.077217871375999947 0.13300802471733711 0 0.072092454263170819 0.16159999427953539 0 0.096753065496150231 0.14200915297423969 0 0.094134993361589481 0.1171436739207557 0 0.077217871375999947 0.13300802471733711 0 0.096753065496150231 0.14200915297423969 0 0.055049499274971159 0.14851879892744449 0 0.056806786946916252 0.12657041462148461 0 0.077217871375999947 0.13300802471733711 0 0.077217871375999947 0.13300802471733711 0 0.072092454263170819 0.16159999427953539 0 0.055049499274971159 0.14851879892744449 0 0.077217871375999947 0.13300802471733711 0 0.072092454263170819 0.16159999427953539 0 0.05774623484848744 0.17196204108014171 0 0.066967037150342079 0.19019196384173381 0 0.072092454263170819 0.16159999427953539 0 0.066967037150342079 0.19019196384173381 0 0.072092454263170819 0.16159999427953539 0 0.082633318598554439 0.1774917416179784 0 0.066967037150342079 0.19019196384173381 0 0.072092454263170819 0.16159999427953539 0 0.066967037150342079 0.19019196384173381 0 0.089675705859806165 0.1918802193297226 0 0.082633318598554439 0.1774917416179784 0 0.082633318598554439 0.1774917416179784 0 0.09186363657452172 0.1638556909160388 0 0.10050116235632479 0.1777610765571086 0 0.089675705859806165 0.1918802193297226 0 0.082633318598554439 0.1774917416179784 0 0.10050116235632479 0.1777610765571086 0 0.072092454263170819 0.16159999427953539 0 0.082633318598554439 0.1774917416179784 0 0.09186363657452172 0.1638556909160388 0 0.10733818215840819 0.16041648915133211 0 0.10050116235632479 0.1777610765571086 0 0.1187424467019486 0.17694205758925419 0 0.09186363657452172 0.1638556909160388 0 0.10733818215840819 0.16041648915133211 0 0.10050116235632479 0.1777610765571086 0 0.1123843745692706 0.19356847481770759 0 0.10050116235632479 0.1777610765571086 0 0.1187424467019486 0.17694205758925419 0 0.10733818215840819 0.16041648915133211 0 0.1187424467019486 0.17694205758925419 0 0.12324240102501741 0.15925665995795621 0 0.12324240102501741 0.15925665995795621 0 0.1150575763790819 0.1446294323437794 0 0.12783766985631759 0.14482192575327971 0 0.10733818215840819 0.16041648915133211 0 0.12324240102501741 0.15925665995795621 0 0.1150575763790819 0.1446294323437794 0 0.09186363657452172 0.1638556909160388 0 0.10733818215840819 0.16041648915133211 0 0.096753065496150231 0.14200915297423969 0 0.10733818215840819 0.16041648915133211 0 0.1150575763790819 0.1446294323437794 0 0.096753065496150231 0.14200915297423969 0 0.094134993361589481 0.1171436739207557 0 0.11902016168324191 0.1197027187353239 0 0.096753065496150231 0.14200915297423969 0 0.11902016168324191 0.1197027187353239 0 0.1150575763790819 0.1446294323437794 0 0.12783766985631759 0.14482192575327971 0 0.11902016168324191 0.1197027187353239 0 0.1150575763790819 0.1446294323437794 0 0.096753065496150231 0.14200915297423969 0 0.11902016168324191 0.1197027187353239 0 0.138727767925589 0.13755461617201081 0 0.12783766985631759 0.14482192575327971 0 0.11902016168324191 0.1197027187353239 0 0.138727767925589 0.13755461617201081 0 0.1444084766398315 0.12015304776429481 0 0.11902016168324191 0.1197027187353239 0 0.138727767925589 0.13755461617201081 0 0.138727767925589 0.13755461617201081 0 0.15887636782960801 0.13335845630356591 0 0.1444084766398315 0.12015304776429481 0 0.138727767925589 0.13755461617201081 0 0.1584353741679361 0.1554065136086977 0 0.138727767925589 0.13755461617201081 0 0.15887636782960801 0.13335845630356591 0 0.1584353741679361 0.1554065136086977 0 0.138727767925589 0.13755461617201081 0 0.13719503442250461 0.1489129569763892 0 0.1584353741679361 0.1554065136086977 0 0.13719503442250461 0.1489129569763892 0 0.12783766985631759 0.14482192575327971 0 0.13378307770247089 0.158875170334219 0 0.138727767925589 0.13755461617201081 0 0.13719503442250461 0.1489129569763892 0 0.12783766985631759 0.14482192575327971 0 0.12324240102501741 0.15925665995795621 0 0.12783766985631759 0.14482192575327971 0 0.13378307770247089 0.158875170334219 0 0.1187424467019486 0.17694205758925419 0 0.12324240102501741 0.15925665995795621 0 0.13570401845712229 0.1726753671868558 0 0.12324240102501741 0.15925665995795621 0 0.13378307770247089 0.158875170334219 0 0.13570401845712229 0.1726753671868558 0 0.13378307770247089 0.158875170334219 0 0.13570401845712229 0.1726753671868558 0 0.14267237870832311 0.16409174111390079 0 0.13719503442250461 0.1489129569763892 0 0.13378307770247089 0.158875170334219 0 0.14267237870832311 0.16409174111390079 0 0.13570401845712229 0.1726753671868558 0 0.13509304327873489 0.19525673030569249 0 0.1465336967898247 0.18854065295986941 0 0.1187424467019486 0.17694205758925419 0 0.13570401845712229 0.1726753671868558 0 0.13509304327873489 0.19525673030569249 0 0.13570401845712229 0.1726753671868558 0 0.14845429378063629 0.17409422185161191 0 0.1465336967898247 0.18854065295986941 0 0.14845429378063629 0.17409422185161191 0 0.15822546917888139 0.1659009892204282 0 0.15789003180911129 0.1826716210768986 0 0.14845429378063629 0.17409422185161191 0 0.15789003180911129 0.1826716210768986 0 0.1465336967898247 0.18854065295986941 0 0.13719503442250461 0.1489129569763892 0 0.15822546917888139 0.1659009892204282 0 0.1584353741679361 0.1554065136086977 0 0.13719503442250461 0.1489129569763892 0 0.14267237870832311 0.16409174111390079 0 0.15822546917888139 0.1659009892204282 0 0.13719503442250461 0.1489129569763892 0 0.15822546917888139 0.1659009892204282 0 0.13570401845712229 0.1726753671868558 0 0.14845429378063629 0.17409422185161191 0 0.14267237870832311 0.16409174111390079 0 0.14845429378063629 0.17409422185161191 0 0.14267237870832311 0.16409174111390079 0 0.15822546917888139 0.1659009892204282 0 0.15822546917888139 0.1659009892204282 0 0.171968427961147 0.16766526717575711 0 0.1584353741679361 0.1554065136086977 0 0.15822546917888139 0.1659009892204282 0 0.1584353741679361 0.1554065136086977 0 0.171968427961147 0.16766526717575711 0 0.17389178545173739 0.15126593194208521 0 0.1584353741679361 0.1554065136086977 0 0.15822546917888139 0.1659009892204282 0 0.17013146702035939 0.17039218974328979 0 0.1730366328054421 0.17786519862334321 0 0.15822546917888139 0.1659009892204282 0 0.17013146702035939 0.17039218974328979 0 0.171968427961147 0.16766526717575711 0 0.17013146702035939 0.17039218974328979 0 0.171968427961147 0.16766526717575711 0 0.171968427961147 0.16766526717575711 0 0.1584353741679361 0.1554065136086977 0 0.15822546917888139 0.1659009892204282 0 0.15789003180911129 0.1826716210768986 0 0.1730366328054421 0.17786519862334321 0 0.1652269527923258 0.18843735316293619 0 0.17242655211540669 0.19377034001813409 0 0.15822546917888139 0.1659009892204282 0 0.15789003180911129 0.1826716210768986 0 0.1730366328054421 0.17786519862334321 0 0.15822546917888139 0.1659009892204282 0 0.1730366328054421 0.17786519862334321 0 0.15789003180911129 0.1826716210768986 0 0.1730366328054421 0.17786519862334321 0 0.1652269527923258 0.18843735316293619 0 0.18068777258899321 0.17556358034973149 0 0.18784779643200081 0.18982940802626061 0 0.19188603691491801 0.17131059864284109 0 0.1730366328054421 0.17786519862334321 0 0.17242655211540669 0.19377034001813409 0 0.18784779643200081 0.18982940802626061 0 0.17013146702035939 0.17039218974328979 0 0.1730366328054421 0.17786519862334321 0 0.18068777258899321 0.17556358034973149 0 0.1730366328054421 0.17786519862334321 0 0.18784779643200081 0.18982940802626061 0 0.1730366328054421 0.17786519862334321 0 0.18068777258899321 0.17556358034973149 0 0.18784779643200081 0.18982940802626061 0 0.18068777258899321 0.17556358034973149 0 0.171968427961147 0.16766526717575711 0 0.1810888402051358 0.16758810235282109 0 0.17013146702035939 0.17039218974328979 0 0.18068777258899321 0.17556358034973149 0 0.171968427961147 0.16766526717575711 0 0.18068777258899321 0.17556358034973149 0 0.171968427961147 0.16766526717575711 0 0.171968427961147 0.16766526717575711 0 0.1810888402051358 0.16758810235282109 0 0.184510606372178 0.1611262796200861 0 0.18068777258899321 0.17556358034973149 0 0.1810888402051358 0.16758810235282109 0 0.18718855389822489 0.16599728226570951 0 0.18068777258899321 0.17556358034973149 0 0.18718855389822489 0.16599728226570951 0 0.19188603691491801 0.17131059864284109 0 0.1810888402051358 0.16758810235282109 0 0.18718855389822489 0.16599728226570951 0 0.184510606372178 0.1611262796200861 0 0.171968427961147 0.16766526717575711 0 0.184510606372178 0.1611262796200861 0 0.18579334522263441 0.15496005930880399 0 0.171968427961147 0.16766526717575711 0 0.18579334522263441 0.15496005930880399 0 0.18843727425762441 0.1432176767942839 0 0.171968427961147 0.16766526717575711 0 0.18843727425762441 0.1432176767942839 0 0.171968427961147 0.16766526717575711 0 0.17389178545173739 0.15126593194208521 0 0.18843727425762441 0.1432176767942839 0 0.17389178545173739 0.15126593194208521 0 0.17623166944459551 0.14329793102310159 0 0.16730764480768631 0.14359831297462841 0 0.17623166944459551 0.14329793102310159 0 0.17528997326133411 0.1351098023814091 0 0.16730764480768631 0.14359831297462841 0 0.17389178545173739 0.15126593194208521 0 0.17623166944459551 0.14329793102310159 0 0.18843727425762441 0.1432176767942839 0 0.17528997326133411 0.1351098023814091 0 0.18843727425762441 0.1432176767942839 0 0.18585489536986491 0.12232632229339301 0 0.17623166944459551 0.14329793102310159 0 0.17528997326133411 0.1351098023814091 0 0.18843727425762441 0.1432176767942839 0 0.17528997326133411 0.1351098023814091 0 0.1711843195139528 0.12020169681432739 0 0.18585489536986491 0.12232632229339301 0 0.17528997326133411 0.1351098023814091 0 0.15887636782960801 0.13335845630356591 0 0.16730764480768631 0.14359831297462841 0 0.17528997326133411 0.1351098023814091 0 0.15887636782960801 0.13335845630356591 0 0.1711843195139528 0.12020169681432739 0 0.15887636782960801 0.13335845630356591 0 0.1584353741679361 0.1554065136086977 0 0.15887636782960801 0.13335845630356591 0 0.1584353741679361 0.1554065136086977 0 0.16730764480768631 0.14359831297462841 0 0.17389178545173739 0.15126593194208521 0 0.1584353741679361 0.1554065136086977 0 0.16730764480768631 0.14359831297462841 0 0.15123154966920899 0.2468417026449499 0 0.1368551491754432 0.23638200886189439 0 0.15615240342102951 0.2316546282723857 0 0.12155702354440411 0.22858976926690541 0 0.1194572647376068 0.24349155720862209 0 0.1368551491754432 0.23638200886189439 0 0.15123154966920899 0.2468417026449499 0 0.1368551491754432 0.23638200886189439 0 0.1306917988367528 0.25442861185416249 0 0.1194572647376068 0.24349155720862209 0 0.1368551491754432 0.23638200886189439 0 0.1306917988367528 0.25442861185416249 0 0.12155702354440411 0.22858976926690541 0 0.1368551491754432 0.23638200886189439 0 0.1295475756929414 0.214573980938536 0 0.1368551491754432 0.23638200886189439 0 0.14571992967763189 0.2221863510694784 0 0.1295475756929414 0.214573980938536 0 0.14571992967763189 0.2221863510694784 0 0.16391173774198031 0.2191790468962993 0 0.1368551491754432 0.23638200886189439 0 0.14571992967763189 0.2221863510694784 0 0.15615240342102951 0.2316546282723857 0 0.14571992967763189 0.2221863510694784 0 0.15615240342102951 0.2316546282723857 0 0.16391173774198031 0.2191790468962993 0 0.14571992967763189 0.2221863510694784 0 0.1445061989740008 0.20710372440478869 0 0.16391173774198031 0.2191790468962993 0 0.1445061989740008 0.20710372440478869 0 0.15755459443934289 0.19944225293336909 0 0.16391173774198031 0.2191790468962993 0 0.1445061989740008 0.20710372440478869 0 0.1295475756929414 0.214573980938536 0 0.13509304327873489 0.19525673030569249 0 0.14571992967763189 0.2221863510694784 0 0.1445061989740008 0.20710372440478869 0 0.1295475756929414 0.214573980938536 0 0.1123843745692706 0.19356847481770759 0 0.1295475756929414 0.214573980938536 0 0.13509304327873489 0.19525673030569249 0 0.15789003180911129 0.1826716210768986 0 0.1465336967898247 0.18854065295986941 0 0.15755459443934289 0.19944225293336909 0 0.1445061989740008 0.20710372440478869 0 0.13509304327873489 0.19525673030569249 0 0.1465336967898247 0.18854065295986941 0 0.1445061989740008 0.20710372440478869 0 0.1465336967898247 0.18854065295986941 0 0.15755459443934289 0.19944225293336909 0 0.15789003180911129 0.1826716210768986 0 0.15755459443934289 0.19944225293336909 0 0.1652269527923258 0.18843735316293619 0 0.15789003180911129 0.1826716210768986 0 0.15755459443934289 0.19944225293336909 0 0.15755459443934289 0.19944225293336909 0 0.17242655211540669 0.19377034001813409 0 0.1717054428383934 0.20653065420183581 0 0.15755459443934289 0.19944225293336909 0 0.1652269527923258 0.18843735316293619 0 0.17242655211540669 0.19377034001813409 0 0.18210354580632851 0.21617174272311929 0 0.18784779643200081 0.18982940802626061 0 0.17242655211540669 0.19377034001813409 0 0.1717054428383934 0.20653065420183581 0 0.18784779643200081 0.18982940802626061 0 0.18210354580632851 0.21617174272311929 0 0.1717054428383934 0.20653065420183581 0 0.18784779643200081 0.18982940802626061 0 0.18210354580632851 0.21617174272311929 0 0.16391173774198031 0.2191790468962993 0 0.18210354580632851 0.21617174272311929 0 0.1717054428383934 0.20653065420183581 0 0.16391173774198031 0.2191790468962993 0 0.15755459443934289 0.19944225293336909 0 0.1717054428383934 0.20653065420183581 0 0.16391173774198031 0.2191790468962993 0 0.15615240342102951 0.2316546282723857 0 0.16391173774198031 0.2191790468962993 0 0.17713505718559289 0.2389565407261868 0 0.18210354580632851 0.21617174272311929 0 0.17713505718559289 0.2389565407261868 0 0.18210354580632851 0.21617174272311929 0 0.17713505718559289 0.2389565407261868 0 0.1926477951090913 0.22588149903778679 0 0.18210354580632851 0.21617174272311929 0 0.16391173774198031 0.2191790468962993 0 0.17713505718559289 0.2389565407261868 0 0.15123154966920899 0.2468417026449499 0 0.15615240342102951 0.2316546282723857 0 0.17713505718559289 0.2389565407261868 0 0.2118089964261817 0.24811216407671691 0 0.21529690065338669 0.2355378747469048 0 0.2232354012178249 0.2436298145801841 0 0.2118089964261817 0.24811216407671691 0 0.21529690065338669 0.2355378747469048 0 0.19990147760164961 0.23778937141929149 0 0.2118089964261817 0.24811216407671691 0 0.19990147760164961 0.23778937141929149 0 0.19663366196222959 0.25391388438766499 0 0.17713505718559289 0.2389565407261868 0 0.19990147760164961 0.23778937141929149 0 0.19663366196222959 0.25391388438766499 0 0.17713505718559289 0.2389565407261868 0 0.19990147760164961 0.23778937141929149 0 0.1926477951090913 0.22588149903778679 0 0.19990147760164961 0.23778937141929149 0 0.1926477951090913 0.22588149903778679 0 0.20770893669467499 0.22361212379302259 0 0.1926477951090913 0.22588149903778679 0 0.20770893669467499 0.22361212379302259 0 0.1980230973618943 0.2135400673196173 0 0.21529690065338669 0.2355378747469048 0 0.19990147760164961 0.23778937141929149 0 0.20770893669467499 0.22361212379302259 0 0.21529690065338669 0.2355378747469048 0 0.20770893669467499 0.22361212379302259 0 0.21926389096388191 0.22549885571217401 0 0.20770893669467499 0.22361212379302259 0 0.21633291407114999 0.22010636811180601 0 0.2121755965998525 0.21767245473072011 0 0.20770893669467499 0.22361212379302259 0 0.21633291407114999 0.22010636811180601 0 0.21926389096388191 0.22549885571217401 0 0.2121755965998525 0.21767245473072011 0 0.21394264891746001 0.21090839191611491 0 0.1980230973618943 0.2135400673196173 0 0.21394264891746001 0.21090839191611491 0 0.20089522267473031 0.20036889997118781 0 0.21784078806403079 0.2016114020399013 0 0.21394264891746001 0.21090839191611491 0 0.1980230973618943 0.2135400673196173 0 0.20089522267473031 0.20036889997118781 0 0.21394264891746001 0.21090839191611491 0 0.1980230973618943 0.2135400673196173 0 0.21633291407114999 0.22010636811180601 0 0.2121755965998525 0.21767245473072011 0 0.21841685575228359 0.21452258110701811 0 0.2121755965998525 0.21767245473072011 0 0.21841685575228359 0.21452258110701811 0 0.21394264891746001 0.21090839191611491 0 0.21841685575228359 0.21452258110701811 0 0.21394264891746001 0.21090839191611491 0 0.21394264891746001 0.21090839191611491 0 0.20089522267473031 0.20036889997118781 0 0.20770893669467499 0.22361212379302259 0 0.2121755965998525 0.21767245473072011 0 0.1980230973618943 0.2135400673196173 0 0.18210354580632851 0.21617174272311929 0 0.1980230973618943 0.2135400673196173 0 0.18210354580632851 0.21617174272311929 0 0.1926477951090913 0.22588149903778679 0 0.1980230973618943 0.2135400673196173 0 0.18210354580632851 0.21617174272311929 0 0.1980230973618943 0.2135400673196173 0 0.20089522267473031 0.20036889997118781 0 0.20089522267473031 0.20036889997118781 0 0.18784779643200081 0.18982940802626061 0 0.20201968959378691 0.1835513313766953 0 0.18210354580632851 0.21617174272311929 0 0.20089522267473031 0.20036889997118781 0 0.18784779643200081 0.18982940802626061 0 0.20089522267473031 0.20036889997118781 0 0.18784779643200081 0.18982940802626061 0 0.20089522267473031 0.20036889997118781 0 0.21686226147459339 0.18951672504255529 0 0.20201968959378691 0.1835513313766953 0 0.20089522267473031 0.20036889997118781 0 0.21784078806403079 0.2016114020399013 0 0.21686226147459339 0.18951672504255529 0 0.21686226147459339 0.18951672504255529 0 0.22929694621150379 0.19871263110500889 0 0.2279234589415543 0.1882716291967679 0 0.21784078806403079 0.2016114020399013 0 0.22929694621150379 0.19871263110500889 0 0.22820686104186641 0.20855036216464029 0 0.21784078806403079 0.2016114020399013 0 0.21686226147459339 0.18951672504255529 0 0.22929694621150379 0.19871263110500889 0 0.22929694621150379 0.19871263110500889 0 0.2279234589415543 0.1882716291967679 0 0.2370090893606111 0.19260681240379729 0 0.2370090893606111 0.19260681240379729 0 0.2460804663796631 0.19159688976212991 0 0.24007907564214259 0.1792083475378744 0 0.2460804663796631 0.19159688976212991 0 0.2376488081470377 0.20226679061564731 0 0.2478987992535544 0.20483769197021839 0 0.2460804663796631 0.19159688976212991 0 0.2478987992535544 0.20483769197021839 0 0.25535634550368269 0.19617232584258071 0 0.22929694621150379 0.19871263110500889 0 0.2370090893606111 0.19260681240379729 0 0.2376488081470377 0.20226679061564731 0 0.2370090893606111 0.19260681240379729 0 0.2460804663796631 0.19159688976212991 0 0.2376488081470377 0.20226679061564731 0 0.2376488081470377 0.20226679061564731 0 0.2478987992535544 0.20483769197021839 0 0.23666452123070311 0.214428070261767 0 0.23666452123070311 0.214428070261767 0 0.2456252776390182 0.2220162101577105 0 0.2519799366662534 0.21517004449020219 0 0.2478987992535544 0.20483769197021839 0 0.23666452123070311 0.214428070261767 0 0.2519799366662534 0.21517004449020219 0 0.23666452123070311 0.214428070261767 0 0.22458275642665981 0.2136198008895282 0 0.22934557199038799 0.22227399323114591 0 0.23666452123070311 0.214428070261767 0 0.22820686104186641 0.20855036216464029 0 0.22458275642665981 0.2136198008895282 0 0.22929694621150379 0.19871263110500889 0 0.2376488081470377 0.20226679061564731 0 0.22820686104186641 0.20855036216464029 0 0.2376488081470377 0.20226679061564731 0 0.23666452123070311 0.214428070261767 0 0.22820686104186641 0.20855036216464029 0 0.21394264891746001 0.21090839191611491 0 0.22820686104186641 0.20855036216464029 0 0.21394264891746001 0.21090839191611491 0 0.21784078806403079 0.2016114020399013 0 0.22820686104186641 0.20855036216464029 0 0.22458275642665981 0.2136198008895282 0 0.22181666079579851 0.2192062748472218 0 0.22934557199038799 0.22227399323114591 0 0.21394264891746001 0.21090839191611491 0 0.22820686104186641 0.20855036216464029 0 0.22458275642665981 0.2136198008895282 0 0.21841685575228359 0.21452258110701811 0 0.21394264891746001 0.21090839191611491 0 0.22458275642665981 0.2136198008895282 0 0.21841685575228359 0.21452258110701811 0 0.22458275642665981 0.2136198008895282 0 0.22181666079579851 0.2192062748472218 0 0.21633291407114999 0.22010636811180601 0 0.21841685575228359 0.21452258110701811 0 0.22181666079579851 0.2192062748472218 0 0.22181666079579851 0.2192062748472218 0 0.21926389096388191 0.22549885571217401 0 0.22934557199038799 0.22227399323114591 0 0.21633291407114999 0.22010636811180601 0 0.22181666079579851 0.2192062748472218 0 0.21926389096388191 0.22549885571217401 0 0.21926389096388191 0.22549885571217401 0 0.22722223674561851 0.2327290803363376 0 0.22934557199038799 0.22227399323114591 0 0.21529690065338669 0.2355378747469048 0 0.21926389096388191 0.22549885571217401 0 0.22722223674561851 0.2327290803363376 0 0.22722223674561851 0.2327290803363376 0 0.23285686961869259 0.22841248698288549 0 0.23730433380541199 0.2334656626478023 0 0.22722223674561851 0.2327290803363376 0 0.23285686961869259 0.22841248698288549 0 0.22934557199038799 0.22227399323114591 0 0.23285686961869259 0.22841248698288549 0 0.22934557199038799 0.22227399323114591 0 0.2375553359333521 0.22518121171625641 0 0.23666452123070311 0.214428070261767 0 0.22934557199038799 0.22227399323114591 0 0.2375553359333521 0.22518121171625641 0 0.23666452123070311 0.214428070261767 0 0.2375553359333521 0.22518121171625641 0 0.2456252776390182 0.2220162101577105 0 0.2456252776390182 0.2220162101577105 0 0.24651796552036409 0.23110242665056199 0 0.25315194677898373 0.22493079252654741 0 0.2375553359333521 0.22518121171625641 0 0.2456252776390182 0.2220162101577105 0 0.24651796552036409 0.23110242665056199 0 0.24651796552036409 0.23110242665056199 0 0.23730433380541199 0.2334656626478023 0 0.24328902500249289 0.2367615156982491 0 0.2375553359333521 0.22518121171625641 0 0.24651796552036409 0.23110242665056199 0 0.23730433380541199 0.2334656626478023 0 0.23285686961869259 0.22841248698288549 0 0.2375553359333521 0.22518121171625641 0 0.23730433380541199 0.2334656626478023 0 0.23730433380541199 0.2334656626478023 0 0.2403301851033979 0.24158852773248191 0 0.24328902500249289 0.2367615156982491 0 0.23730433380541199 0.2334656626478023 0 0.2403301851033979 0.24158852773248191 0 0.23270075075176891 0.24116389473702751 0 0.2403301851033979 0.24158852773248191 0 0.24900361558079781 0.24088944576215021 0 0.24328902500249289 0.2367615156982491 0 0.24651796552036409 0.23110242665056199 0 0.24900361558079781 0.24088944576215021 0 0.24328902500249289 0.2367615156982491 0 0.24900361558079781 0.24088944576215021 0 0.24552209241342421 0.24938586441016569 0 0.25423555326891639 0.24942618361914939 0 0.2403301851033979 0.24158852773248191 0 0.24900361558079781 0.24088944576215021 0 0.24552209241342421 0.24938586441016569 0 0.2403301851033979 0.24158852773248191 0 0.2373121946882093 0.2491729402658398 0 0.23270075075176891 0.24116389473702751 0 0.2403301851033979 0.24158852773248191 0 0.24552209241342421 0.24938586441016569 0 0.2373121946882093 0.2491729402658398 0 0.2373121946882093 0.2491729402658398 0 0.22943575549951339 0.24954153298696269 0 0.23270075075176891 0.24116389473702751 0 0.22943575549951339 0.24954153298696269 0 0.23270075075176891 0.24116389473702751 0 0.2232354012178249 0.2436298145801841 0 0.22722223674561851 0.2327290803363376 0 0.23270075075176891 0.24116389473702751 0 0.2232354012178249 0.2436298145801841 0 0.22722223674561851 0.2327290803363376 0 0.23730433380541199 0.2334656626478023 0 0.23270075075176891 0.24116389473702751 0 0.21529690065338669 0.2355378747469048 0 0.22722223674561851 0.2327290803363376 0 0.2232354012178249 0.2436298145801841 0 0.22943575549951339 0.24954153298696269 0 0.2232354012178249 0.2436298145801841 0 0.22374275107647101 0.25592796074431778 0 0.2118089964261817 0.24811216407671691 0 0.2232354012178249 0.2436298145801841 0 0.22374275107647101 0.25592796074431778 0 0.21055955486275649 0.1513546574389788 0 0.20594520851305709 0.13724087881963309 0 0.19592427739783541 0.15279178925942161 0 0.21055955486275649 0.1513546574389788 0 0.20594520851305709 0.13724087881963309 0 0.22268282581056081 0.1332381308468569 0 0.20594520851305709 0.13724087881963309 0 0.22268282581056081 0.1332381308468569 0 0.20490612055410309 0.1187700864128117 0 0.20594520851305709 0.13724087881963309 0 0.18843727425762441 0.1432176767942839 0 0.20490612055410309 0.1187700864128117 0 0.18843727425762441 0.1432176767942839 0 0.20490612055410309 0.1187700864128117 0 0.18585489536986491 0.12232632229339301 0 0.18843727425762441 0.1432176767942839 0 0.20490612055410309 0.1187700864128117 0 0.20594520851305709 0.13724087881963309 0 0.18843727425762441 0.1432176767942839 0 0.19592427739783541 0.15279178925942161 0 0.21055955486275649 0.1513546574389788 0 0.19592427739783541 0.15279178925942161 0 0.20265576250125189 0.16309785683794861 0 0.18579334522263441 0.15496005930880399 0 0.18843727425762441 0.1432176767942839 0 0.19592427739783541 0.15279178925942161 0 0.184510606372178 0.1611262796200861 0 0.18579334522263441 0.15496005930880399 0 0.19592427739783541 0.15279178925942161 0 0.18718855389822489 0.16599728226570951 0 0.184510606372178 0.1611262796200861 0 0.19592427739783541 0.15279178925942161 0 0.19592427739783541 0.15279178925942161 0 0.19188603691491801 0.17131059864284109 0 0.20265576250125189 0.16309785683794861 0 0.18718855389822489 0.16599728226570951 0 0.19592427739783541 0.15279178925942161 0 0.19188603691491801 0.17131059864284109 0 0.19592427739783541 0.15279178925942161 0 0.19188603691491801 0.17131059864284109 0 0.19188603691491801 0.17131059864284109 0 0.20265576250125189 0.16309785683794861 0 0.2037281789153122 0.17261062604047339 0 0.18784779643200081 0.18982940802626061 0 0.19188603691491801 0.17131059864284109 0 0.20201968959378691 0.1835513313766953 0 0.18784779643200081 0.18982940802626061 0 0.19188603691491801 0.17131059864284109 0 0.19188603691491801 0.17131059864284109 0 0.20201968959378691 0.1835513313766953 0 0.2037281789153122 0.17261062604047339 0 0.21686226147459339 0.18951672504255529 0 0.20201968959378691 0.1835513313766953 0 0.21219128558436781 0.17734838626745661 0 0.20201968959378691 0.1835513313766953 0 0.2037281789153122 0.17261062604047339 0 0.21219128558436781 0.17734838626745661 0 0.2037281789153122 0.17261062604047339 0 0.21219128558436781 0.17734838626745661 0 0.212902852480232 0.1666601591704456 0 0.21219128558436781 0.17734838626745661 0 0.212902852480232 0.1666601591704456 0 0.22338211602626379 0.17650601467440299 0 0.21686226147459339 0.18951672504255529 0 0.21219128558436781 0.17734838626745661 0 0.22338211602626379 0.17650601467440299 0 0.21055955486275649 0.1513546574389788 0 0.212902852480232 0.1666601591704456 0 0.22891741256770901 0.1589436138097963 0 0.21055955486275649 0.1513546574389788 0 0.20265576250125189 0.16309785683794861 0 0.212902852480232 0.1666601591704456 0 0.20265576250125189 0.16309785683794861 0 0.2037281789153122 0.17261062604047339 0 0.212902852480232 0.1666601591704456 0 0.212902852480232 0.1666601591704456 0 0.22891741256770901 0.1589436138097963 0 0.22338211602626379 0.17650601467440299 0 0.22891741256770901 0.1589436138097963 0 0.22338211602626379 0.17650601467440299 0 0.24007907564214259 0.1792083475378744 0 0.2279234589415543 0.1882716291967679 0 0.22338211602626379 0.17650601467440299 0 0.24007907564214259 0.1792083475378744 0 0.21686226147459339 0.18951672504255529 0 0.2279234589415543 0.1882716291967679 0 0.22338211602626379 0.17650601467440299 0 0.2279234589415543 0.1882716291967679 0 0.2370090893606111 0.19260681240379729 0 0.24007907564214259 0.1792083475378744 0 0.24007907564214259 0.1792083475378744 0 0.2491144448195933 0.16826536546051801 0 0.25167137028295861 0.17663220115905981 0 0.24007907564214259 0.1792083475378744 0 0.25352284263599512 0.1850986446351863 0 0.25167137028295861 0.17663220115905981 0 0.2460804663796631 0.19159688976212991 0 0.24007907564214259 0.1792083475378744 0 0.25352284263599512 0.1850986446351863 0 0.22891741256770901 0.1589436138097963 0 0.24007907564214259 0.1792083475378744 0 0.2491144448195933 0.16826536546051801 0 0.22891741256770901 0.1589436138097963 0 0.2491144448195933 0.16826536546051801 0 0.25040386024834022 0.15833548980136 0 0.22891741256770901 0.1589436138097963 0 0.25314426042736299 0.14827920166102929 0 0.25040386024834022 0.15833548980136 0 0.22891741256770901 0.1589436138097963 0 0.24082077887232661 0.13822745745909271 0 0.25314426042736299 0.14827920166102929 0 0.22891741256770901 0.1589436138097963 0 0.25314426042736299 0.14827920166102929 0 0.21055955486275649 0.1513546574389788 0 0.22891741256770901 0.1589436138097963 0 0.22268282581056081 0.1332381308468569 0 0.22891741256770901 0.1589436138097963 0 0.22268282581056081 0.1332381308468569 0 0.24082077887232661 0.13822745745909271 0 0.24082077887232661 0.13822745745909271 0 0.2407900118549258 0.1224227284823214 0 0.25724954753185281 0.13102681759278989 0 0.22268282581056081 0.1332381308468569 0 0.24082077887232661 0.13822745745909271 0 0.2407900118549258 0.1224227284823214 0 0.2407900118549258 0.1224227284823214 0 0.23655227517800889 0.1045727843819186 0 0.26190943645332521 0.11336057640168661 0 0.23655227517800889 0.1045727843819186 0 0.24644776461963311 0.089106363291110768 0 0.26190943645332521 0.11336057640168661 0 0.23655227517800889 0.1045727843819186 0 0.23306578659226379 0.088189238108984755 0 0.24644776461963311 0.089106363291110768 0 0.23655227517800889 0.1045727843819186 0 0.2228038655657979 0.087937896730909931 0 0.23655227517800889 0.1045727843819186 0 0.22137496685058169 0.094322496031339409 0 0.2228038655657979 0.087937896730909931 0 0.23655227517800889 0.1045727843819186 0 0.22137496685058169 0.094322496031339409 0 0.22552520728348041 0.1141106042115836 0 0.2407900118549258 0.1224227284823214 0 0.23655227517800889 0.1045727843819186 0 0.22552520728348041 0.1141106042115836 0 0.22268282581056081 0.1332381308468569 0 0.2407900118549258 0.1224227284823214 0 0.22552520728348041 0.1141106042115836 0 0.22268282581056081 0.1332381308468569 0 0.22552520728348041 0.1141106042115836 0 0.20490612055410309 0.1187700864128117 0 0.22137496685058169 0.094322496031339409 0 0.20490612055410309 0.1187700864128117 0 0.22137496685058169 0.094322496031339409 0 0.20490612055410309 0.1187700864128117 0 0.20674958575535041 0.1012617566316218 0 0.22137496685058169 0.094322496031339409 0 0.22552520728348041 0.1141106042115836 0 0.20490612055410309 0.1187700864128117 0 0.22137496685058169 0.094322496031339409 0 0.20674958575535041 0.1012617566316218 0 0.2107052313260489 0.092238104714963062 0 0.20674958575535041 0.1012617566316218 0 0.2029399877293579 0.092587964910219339 0 0.2107052313260489 0.092238104714963062 0 0.20674958575535041 0.1012617566316218 0 0.19957420904242421 0.098242024660908978 0 0.19425118651422699 0.1056361426311495 0 0.20490612055410309 0.1187700864128117 0 0.20674958575535041 0.1012617566316218 0 0.19425118651422699 0.1056361426311495 0 0.20674958575535041 0.1012617566316218 0 0.19957420904242421 0.098242024660908978 0 0.2029399877293579 0.092587964910219339 0 0.19957420904242421 0.098242024660908978 0 0.1943560761707615 0.093482234470645242 0 0.2029399877293579 0.092587964910219339 0 0.19957420904242421 0.098242024660908978 0 0.19425118651422699 0.1056361426311495 0 0.1943560761707615 0.093482234470645242 0 0.19425118651422699 0.1056361426311495 0 0.1943560761707615 0.093482234470645242 0 0.18373151532936299 0.097501428738130974 0 0.20490612055410309 0.1187700864128117 0 0.19425118651422699 0.1056361426311495 0 0.18585489536986491 0.12232632229339301 0 0.19530704634137599 0.054668121428892699 0 0.18020518043002201 0.070582537251580341 0 0.19791838412741089 0.079701224389673447 0 0.19530704634137599 0.054668121428892699 0 0.18020518043002201 0.070582537251580341 0 0.19791838412741089 0.079701224389673447 0 0.20905545595358691 0.071303009079901294 0 0.19530704634137599 0.054668121428892699 0 0.20905545595358691 0.071303009079901294 0 0.19530704634137599 0.054668121428892699 0 0.19791838412741089 0.079701224389673447 0 0.18595415123664311 0.086275706070766747 0 0.18020518043002201 0.070582537251580341 0 0.1943560761707615 0.093482234470645242 0 0.19791838412741089 0.079701224389673447 0 0.18595415123664311 0.086275706070766747 0 0.1943560761707615 0.093482234470645242 0 0.18373151532936299 0.097501428738130974 0 0.18595415123664311 0.086275706070766747 0 0.2029399877293579 0.092587964910219339 0 0.19791838412741089 0.079701224389673447 0 0.20796057638471441 0.086050729832787207 0 0.1943560761707615 0.093482234470645242 0 0.2029399877293579 0.092587964910219339 0 0.19791838412741089 0.079701224389673447 0 0.20796057638471441 0.086050729832787207 0 0.21450103991023989 0.086967576168847552 0 0.20905545595358691 0.071303009079901294 0 0.19791838412741089 0.079701224389673447 0 0.20796057638471441 0.086050729832787207 0 0.20905545595358691 0.071303009079901294 0 0.20905545595358691 0.071303009079901294 0 0.2228038655657979 0.087937896730909931 0 0.21450103991023989 0.086967576168847552 0 0.20905545595358691 0.071303009079901294 0 0.2228038655657979 0.087937896730909931 0 0.2029399877293579 0.092587964910219339 0 0.20796057638471441 0.086050729832787207 0 0.2107052313260489 0.092238104714963062 0 0.22137496685058169 0.094322496031339409 0 0.2107052313260489 0.092238104714963062 0 0.21450103991023989 0.086967576168847552 0 0.20796057638471441 0.086050729832787207 0 0.2107052313260489 0.092238104714963062 0 0.21450103991023989 0.086967576168847552 0 0.20905545595358691 0.071303009079901294 0 0.22195201041663071 0.074643098585460782 0 0.2170362399539375 0.056108126886887308 0 0.20905545595358691 0.071303009079901294 0 0.22195201041663071 0.074643098585460782 0 0.2228038655657979 0.087937896730909931 0 0.2309860927859409 0.064852150180534862 0 0.22195201041663071 0.074643098585460782 0 0.23306578659226379 0.088189238108984755 0 0.2309860927859409 0.064852150180534862 0 0.22195201041663071 0.074643098585460782 0 0.2170362399539375 0.056108126886887308 0 0.23655227517800889 0.1045727843819186 0 0.2228038655657979 0.087937896730909931 0 0.23306578659226379 0.088189238108984755 0 0.22137496685058169 0.094322496031339409 0 0.21450103991023989 0.086967576168847552 0 0.2228038655657979 0.087937896730909931 0 0.22195201041663071 0.074643098585460782 0 0.2228038655657979 0.087937896730909931 0 0.23306578659226379 0.088189238108984755 0 0.2309860927859409 0.064852150180534862 0 0.23306578659226379 0.088189238108984755 0 0.24644776461963311 0.089106363291110768 0 0.2309860927859409 0.064852150180534862 0 0.24644776461963311 0.089106363291110768 0 0.25208002729542178 0.064527904360886248 0 0.2309860927859409 0.064852150180534862 0 0.24644776461963311 0.089106363291110768 0 0.2309860927859409 0.064852150180534862 0 0.23768776443311579 0.043688008318092109 0 0.25208002729542178 0.064527904360886248 0 0.23768776443311579 0.043688008318092109 0 0.23801709678707719 0.02333277758724521 0 0.25577337963678798 0.027212692525896549 0 0.23768776443311579 0.043688008318092109 0 0.23801709678707719 0.02333277758724521 0 0.21448943982842611 0.034453626861183959 0 0.23768776443311579 0.043688008318092109 0 0.2170362399539375 0.056108126886887308 0 0.21448943982842611 0.034453626861183959 0 0.2309860927859409 0.064852150180534862 0 0.23768776443311579 0.043688008318092109 0 0.2170362399539375 0.056108126886887308 0 0.2442639786172042 0.0070688571158914679 0 0.23801709678707719 0.02333277758724521 0 0.22170063999037459 0.012173517244787071 0 0.2442639786172042 0.0070688571158914679 0 0.23801709678707719 0.02333277758724521 0 0.25418737821655463 0.015399963457620141 0 0.23801709678707719 0.02333277758724521 0 0.25577337963678798 0.027212692525896549 0 0.25418737821655463 0.015399963457620141 0 0.23801709678707719 0.02333277758724521 0 0.22170063999037459 0.012173517244787071 0 0.21448943982842611 0.034453626861183959 0 0.22170063999037459 0.012173517244787071 0 0.20840023066242969 -0.00016392964902278939 0 0.22810163109014539 -0.005375944402069642 0 0.2442639786172042 0.0070688571158914679 0 0.22170063999037459 0.012173517244787071 0 0.2442639786172042 0.0070688571158914679 0 0.22170063999037459 0.012173517244787071 0 0.22810163109014539 -0.005375944402069642 0 0.22170063999037459 0.012173517244787071 0 0.20420822803374741 0.01833517000093992 0 0.20840023066242969 -0.00016392964902278939 0 0.20420822803374741 0.01833517000093992 0 0.21448943982842611 0.034453626861183959 0 0.196699742061725 0.033360961662076222 0 0.22170063999037459 0.012173517244787071 0 0.20420822803374741 0.01833517000093992 0 0.21448943982842611 0.034453626861183959 0 0.20420822803374741 0.01833517000093992 0 0.1882150070289671 0.02165301590792016 0 0.196699742061725 0.033360961662076222 0 0.1882150070289671 0.02165301590792016 0 0.196699742061725 0.033360961662076222 0 0.18127898907610851 0.037694874111444378 0 0.20420822803374741 0.01833517000093992 0 0.1882150070289671 0.02165301590792016 0 0.19209443694944831 0.0053480433798115757 0 0.20420822803374741 0.01833517000093992 0 0.19209443694944831 0.0053480433798115757 0 0.20840023066242969 -0.00016392964902278939 0 0.2170362399539375 0.056108126886887308 0 0.21448943982842611 0.034453626861183959 0 0.19530704634137599 0.054668121428892699 0 0.20905545595358691 0.071303009079901294 0 0.2170362399539375 0.056108126886887308 0 0.19530704634137599 0.054668121428892699 0 0.21448943982842611 0.034453626861183959 0 0.19530704634137599 0.054668121428892699 0 0.196699742061725 0.033360961662076222 0 0.19530704634137599 0.054668121428892699 0 0.18127898907610851 0.037694874111444378 0 0.19530704634137599 0.054668121428892699 0 0.18127898907610851 0.037694874111444378 0 0.21448943982842611 0.034453626861183959 0 0.196699742061725 0.033360961662076222 0 0.19530704634137599 0.054668121428892699 0 0.19530704634137599 0.054668121428892699 0 0.17445514210188401 0.055527462751279309 0 0.18020518043002201 0.070582537251580341 0 0.19530704634137599 0.054668121428892699 0 0.17445514210188401 0.055527462751279309 0 0.18127898907610851 0.037694874111444378 0 0.17445514210188401 0.055527462751279309 0 0.18127898907610851 0.037694874111444378 0 0.16329614737902889 0.040956356898132713 0 0.18127898907610851 0.037694874111444378 0 0.16329614737902889 0.040956356898132713 0 0.1672509318108405 0.020721626793996511 0 0.16329614737902889 0.040956356898132713 0 0.1593413629472184 0.061191087002269141 0 0.17445514210188401 0.055527462751279309 0 0.16329614737902889 0.040956356898132713 0 0.1593413629472184 0.061191087002269141 0 0.17890973400194199 0.0096148488937639817 0 0.16271339257430739 0.0049797236585138599 0 0.17739857159394909 -0.0043179500811540133 0 0.1882150070289671 0.02165301590792016 0 0.19209443694944831 0.0053480433798115757 0 0.17890973400194199 0.0096148488937639817 0 0.19209443694944831 0.0053480433798115757 0 0.17890973400194199 0.0096148488937639817 0 0.17739857159394909 -0.0043179500811540133 0 0.17890973400194199 0.0096148488937639817 0 0.1768203476010958 0.020857179491168519 0 0.16844707608762011 0.01460153174871801 0 0.18127898907610851 0.037694874111444378 0 0.1672509318108405 0.020721626793996511 0 0.18127898907610851 0.037694874111444378 0 0.1768203476010958 0.020857179491168519 0 0.1672509318108405 0.020721626793996511 0 0.1882150070289671 0.02165301590792016 0 0.18127898907610851 0.037694874111444378 0 0.1768203476010958 0.020857179491168519 0 0.1882150070289671 0.02165301590792016 0 0.17890973400194199 0.0096148488937639817 0 0.1768203476010958 0.020857179491168519 0 0.16329614737902889 0.040956356898132713 0 0.1672509318108405 0.020721626793996511 0 0.16329614737902889 0.040956356898132713 0 0.1672509318108405 0.020721626793996511 0 0.15365417392774419 0.027924936262166439 0 0.1672509318108405 0.020721626793996511 0 0.1624465012298382 0.014908506207956159 0 0.15365417392774419 0.027924936262166439 0 0.1672509318108405 0.020721626793996511 0 0.1624465012298382 0.014908506207956159 0 0.1672509318108405 0.020721626793996511 0 0.16844707608762011 0.01460153174871801 0 0.1624465012298382 0.014908506207956159 0 0.1672509318108405 0.020721626793996511 0 0.16844707608762011 0.01460153174871801 0 0.1768203476010958 0.020857179491168519 0 0.1672509318108405 0.020721626793996511 0 0.16844707608762011 0.01460153174871801 0 0.17890973400194199 0.0096148488937639817 0 0.16844707608762011 0.01460153174871801 0 0.16271339257430739 0.0049797236585138599 0 0.16844707608762011 0.01460153174871801 0 0.1624465012298382 0.014908506207956159 0 0.16271339257430739 0.0049797236585138599 0 0.1624465012298382 0.014908506207956159 0 0.16271339257430739 0.0049797236585138599 0 0.147958354479785 0.013907022772278749 0 0.16271339257430739 0.0049797236585138599 0 0.1419725902365104 0.00067524315852505318 0 0.147958354479785 0.013907022772278749 0 0.147958354479785 0.013907022772278749 0 0.15365417392774419 0.027924936262166439 0 0.13663979030485621 0.029302108031145212 0 0.1624465012298382 0.014908506207956159 0 0.147958354479785 0.013907022772278749 0 0.15365417392774419 0.027924936262166439 0 0.147958354479785 0.013907022772278749 0 0.13663979030485621 0.029302108031145212 0 0.12764307924079521 0.012325017931860249 0 0.1143244993671204 0.029974646495577021 0 0.13663979030485621 0.029302108031145212 0 0.12764307924079521 0.012325017931860249 0 0.1419725902365104 0.00067524315852505318 0 0.12764307924079521 0.012325017931860249 0 0.122836876780338 -0.0080023686202002862 0 0.1419725902365104 0.00067524315852505318 0 0.147958354479785 0.013907022772278749 0 0.12764307924079521 0.012325017931860249 0 0.1593413629472184 0.061191087002269141 0 0.14439971879481289 0.045921381088831488 0 0.1293758291093475 0.06785088342292106 0 0.16329614737902889 0.040956356898132713 0 0.1593413629472184 0.061191087002269141 0 0.14439971879481289 0.045921381088831488 0 0.15365417392774419 0.027924936262166439 0 0.13663979030485621 0.029302108031145212 0 0.14439971879481289 0.045921381088831488 0 0.16329614737902889 0.040956356898132713 0 0.15365417392774419 0.027924936262166439 0 0.14439971879481289 0.045921381088831488 0 0.12487160826149971 0.046854995956776793 0 0.13663979030485621 0.029302108031145212 0 0.14439971879481289 0.045921381088831488 0 0.12487160826149971 0.046854995956776793 0 0.1143244993671204 0.029974646495577021 0 0.13663979030485621 0.029302108031145212 0 0.12487160826149971 0.046854995956776793 0 0.14439971879481289 0.045921381088831488 0 0.1293758291093475 0.06785088342292106 0 0.1293758291093475 0.06785088342292106 0 0.15538657851540971 0.081425817106405896 0 0.13892725032128031 0.083098452352854485 0 0.1593413629472184 0.061191087002269141 0 0.1293758291093475 0.06785088342292106 0 0.15538657851540971 0.081425817106405896 0 0.1293758291093475 0.06785088342292106 0 0.15538657851540971 0.081425817106405896 0 0.15376085846027329 0.089743844828961389 0 0.15538657851540971 0.081425817106405896 0 0.13892725032128031 0.083098452352854485 0 0.15376085846027329 0.089743844828961389 0 0.15538657851540971 0.081425817106405896 0 0.15376085846027329 0.089743844828961389 0 0.13892725032128031 0.083098452352854485 0 0.14065056149545879 0.094830475533675102 0 0.1293758291093475 0.06785088342292106 0 0.13892725032128031 0.083098452352854485 0 0.1250839813190904 0.093164354471990701 0 0.13892725032128031 0.083098452352854485 0 0.1250839813190904 0.093164354471990701 0 0.14065056149545879 0.094830475533675102 0 0.11902016168324191 0.1197027187353239 0 0.1250839813190904 0.093164354471990701 0 0.13567515934187929 0.10588374180086579 0 0.1250839813190904 0.093164354471990701 0 0.13567515934187929 0.10588374180086579 0 0.14065056149545879 0.094830475533675102 0 0.11902016168324191 0.1197027187353239 0 0.13567515934187929 0.10588374180086579 0 0.1444084766398315 0.12015304776429481 0 0.1444084766398315 0.12015304776429481 0 0.14980555803477091 0.1022619842137031 0 0.15931736149128001 0.1113103989984342 0 0.15887636782960801 0.13335845630356591 0 0.1444084766398315 0.12015304776429481 0 0.15931736149128001 0.1113103989984342 0 0.13567515934187929 0.10588374180086579 0 0.1444084766398315 0.12015304776429481 0 0.14980555803477091 0.1022619842137031 0 0.15376085846027329 0.089743844828961389 0 0.14065056149545879 0.094830475533675102 0 0.14980555803477091 0.1022619842137031 0 0.13567515934187929 0.10588374180086579 0 0.14065056149545879 0.094830475533675102 0 0.14980555803477091 0.1022619842137031 0 0.15376085846027329 0.089743844828961389 0 0.14980555803477091 0.1022619842137031 0 0.15975835515295189 0.089262341693302438 0 0.15931736149128001 0.1113103989984342 0 0.15975835515295189 0.089262341693302438 0 0.16051066703240319 0.091336706138721316 0 0.16746685685727361 0.10177478855101051 0 0.15931736149128001 0.1113103989984342 0 0.16051066703240319 0.091336706138721316 0 0.14980555803477091 0.1022619842137031 0 0.15931736149128001 0.1113103989984342 0 0.15975835515295189 0.089262341693302438 0 0.15931736149128001 0.1113103989984342 0 0.15975835515295189 0.089262341693302438 0 0.16746685685727361 0.10177478855101051 0 0.16666299684991889 0.094773572717260723 0 0.17187627122124291 0.090031739275281866 0 0.16746685685727361 0.10177478855101051 0 0.16666299684991889 0.094773572717260723 0 0.16051066703240319 0.091336706138721316 0 0.15887636782960801 0.13335845630356591 0 0.15931736149128001 0.1113103989984342 0 0.16746685685727361 0.10177478855101051 0 0.15931736149128001 0.1113103989984342 0 0.1711843195139528 0.12020169681432739 0 0.15887636782960801 0.13335845630356591 0 0.15931736149128001 0.1113103989984342 0 0.1711843195139528 0.12020169681432739 0 0.16746685685727361 0.10177478855101051 0 0.1711843195139528 0.12020169681432739 0 0.1811408062163839 0.1103560152403481 0 0.19425118651422699 0.1056361426311495 0 0.1811408062163839 0.1103560152403481 0 0.18585489536986491 0.12232632229339301 0 0.1711843195139528 0.12020169681432739 0 0.1811408062163839 0.1103560152403481 0 0.18585489536986491 0.12232632229339301 0 0.16746685685727361 0.10177478855101051 0 0.18373151532936299 0.097501428738130974 0 0.17187627122124291 0.090031739275281866 0 0.16746685685727361 0.10177478855101051 0 0.1811408062163839 0.1103560152403481 0 0.18373151532936299 0.097501428738130974 0 0.19425118651422699 0.1056361426311495 0 0.1811408062163839 0.1103560152403481 0 0.18373151532936299 0.097501428738130974 0 0.18373151532936299 0.097501428738130974 0 0.18595415123664311 0.086275706070766747 0 0.17187627122124291 0.090031739275281866 0 0.18020518043002201 0.070582537251580341 0 0.16510331451866861 0.086496953074268551 0 0.17187627122124291 0.090031739275281866 0 0.18020518043002201 0.070582537251580341 0 0.16510331451866861 0.086496953074268551 0 0.18595415123664311 0.086275706070766747 0 0.17187627122124291 0.090031739275281866 0 0.18020518043002201 0.070582537251580341 0 0.17445514210188401 0.055527462751279309 0 0.18020518043002201 0.070582537251580341 0 0.166235221277134 0.072390385457504119 0 0.17445514210188401 0.055527462751279309 0 0.1593413629472184 0.061191087002269141 0 0.166235221277134 0.072390385457504119 0 0.1593413629472184 0.061191087002269141 0 0.15538657851540971 0.081425817106405896 0 0.1593413629472184 0.061191087002269141 0 0.15538657851540971 0.081425817106405896 0 0.166235221277134 0.072390385457504119 0 0.18020518043002201 0.070582537251580341 0 0.166235221277134 0.072390385457504119 0 0.16510331451866861 0.086496953074268551 0 0.15538657851540971 0.081425817106405896 0 0.166235221277134 0.072390385457504119 0 0.16510331451866861 0.086496953074268551 0 0.15538657851540971 0.081425817106405896 0 0.16510331451866861 0.086496953074268551 0 0.15538657851540971 0.081425817106405896 0 0.15975835515295189 0.089262341693302438 0 0.16510331451866861 0.086496953074268551 0 0.15376085846027329 0.089743844828961389 0 0.15538657851540971 0.081425817106405896 0 0.15975835515295189 0.089262341693302438 0 0.15975835515295189 0.089262341693302438 0 0.16051066703240319 0.091336706138721316 0 0.16510331451866861 0.086496953074268551 0 0.16051066703240319 0.091336706138721316 0 0.16510331451866861 0.086496953074268551 0 0.16666299684991889 0.094773572717260723 0 0.17187627122124291 0.090031739275281866 0 0.16510331451866861 0.086496953074268551 0 0.16666299684991889 0.094773572717260723 0 0.16051066703240319 0.091336706138721316 0 0.16510331451866861 0.086496953074268551 0 0.17187627122124291 0.090031739275281866 0 0.16510331451866861 0.086496953074268551 0 0.104173692269454 0.47230182477788141 0 0.08435001180317897 0.46684800325002901 0 0.104173692269454 0.47230182477788141 0 0.1045724807944118 0.49198767373773561 0 0.089291402725418856 0.47921414732458673 0 0.1045724807944118 0.49198767373773561 0 0.1197345792227095 0.50000000000000022 0 0.089759591953427642 0.5 0 0.1045724807944118 0.49198767373773561 0 0.12399494187461731 0.49057829056642988 0 0.1223150243434533 0.48484687527057319 0 0.1045724807944118 0.49198767373773561 0 0.1280234546636442 0.49751198108980688 0 0.1045724807944118 0.49198767373773561 0 0.1197345792227095 0.50000000000000022 0 0.1280234546636442 0.49751198108980688 0 0.1045724807944118 0.49198767373773561 0 0.12399494187461731 0.49057829056642988 0 0.1280234546636442 0.49751198108980688 0 0.1197345792227095 0.50000000000000022 0 0.1280234546636442 0.49751198108980688 0 0.104173692269454 0.47230182477788141 0 0.1045724807944118 0.49198767373773561 0 0.1223150243434533 0.48484687527057319 0 0.104173692269454 0.47230182477788141 0 0.12399737273572981 0.47775564630573131 0 0.1144163600767318 0.4588698326846341 0 0.1223150243434533 0.48484687527057319 0 0.12399737273572981 0.47775564630573131 0 0.104173692269454 0.47230182477788141 0 0.1223150243434533 0.48484687527057319 0 0.12399737273572981 0.47775564630573131 0 0.104173692269454 0.47230182477788141 0 0.12399737273572981 0.47775564630573131 0 0.12399737273572981 0.47775564630573131 0 0.1144163600767318 0.4588698326846341 0 0.12949417625326881 0.45458619311957571 0 0.1144163600767318 0.4588698326846341 0 0.1148277021490783 0.43752099839664532 0 0.099588856976128168 0.45218450082333672 0 0.1144163600767318 0.4588698326846341 0 0.1148277021490783 0.43752099839664532 0 0.12949417625326881 0.45458619311957571 0 0.1148277021490783 0.43752099839664532 0 0.099588856976128168 0.45218450082333672 0 0.1062600234509164 0.42978265652096331 0 0.099588856976128168 0.45218450082333672 0 0.082453499579805578 0.43670781707197459 0 0.1062600234509164 0.42978265652096331 0 0.1148277021490783 0.43752099839664532 0 0.099588856976128168 0.45218450082333672 0 0.104173692269454 0.47230182477788141 0 0.1144163600767318 0.4588698326846341 0 0.099588856976128168 0.45218450082333672 0 0.104173692269454 0.47230182477788141 0 0.099588856976128168 0.45218450082333672 0 0.08435001180317897 0.46684800325002901 0 0.099588856976128168 0.45218450082333672 0 0.08435001180317897 0.46684800325002901 0 0.078156449922092058 0.45222043602487061 0 0.099588856976128168 0.45218450082333672 0 0.08435001180317897 0.46684800325002901 0 0.099588856976128168 0.45218450082333672 0 0.078156449922092058 0.45222043602487061 0 0.082453499579805578 0.43670781707197459 0 0.078156449922092058 0.45222043602487061 0 0.065742905542653718 0.46172888135602802 0 0.058646975708694711 0.44363297762298592 0 0.078156449922092058 0.45222043602487061 0 0.058646975708694711 0.44363297762298592 0 0.082453499579805578 0.43670781707197459 0 0.058646975708694711 0.44363297762298592 0 0.082453499579805578 0.43670781707197459 0 0.08435001180317897 0.46684800325002901 0 0.065742905542653718 0.46172888135602802 0 0.065465172300707447 0.47283489556314279 0 0.08435001180317897 0.46684800325002901 0 0.065742905542653718 0.46172888135602802 0 0.08435001180317897 0.46684800325002901 0 0.078156449922092058 0.45222043602487061 0 0.065742905542653718 0.46172888135602802 0 0.08435001180317897 0.46684800325002901 0 0.065465172300707447 0.47283489556314279 0 0.062684526240552235 0.48769550819659252 0 0.08435001180317897 0.46684800325002901 0 0.062684526240552235 0.48769550819659252 0 0.08435001180317897 0.46684800325002901 0 0.077232188732753532 0.48225057769220192 0 0.062684526240552235 0.48769550819659252 0 0.104173692269454 0.47230182477788141 0 0.08435001180317897 0.46684800325002901 0 0.089291402725418856 0.47921414732458673 0 0.08435001180317897 0.46684800325002901 0 0.077232188732753532 0.48225057769220192 0 0.089291402725418856 0.47921414732458673 0 0.077232188732753532 0.48225057769220192 0 0.089291402725418856 0.47921414732458673 0 0.081121506925179457 0.48646336638566418 0 0.1045724807944118 0.49198767373773561 0 0.089759591953427642 0.5 0 0.081121506925179457 0.48646336638566418 0 0.1045724807944118 0.49198767373773561 0 0.089291402725418856 0.47921414732458673 0 0.081121506925179457 0.48646336638566418 0 0.1045724807944118 0.49198767373773561 0 0.081121506925179457 0.48646336638566418 0 0.089759591953427642 0.5 0 0.081121506925179457 0.48646336638566418 0 0.073555874651691305 0.49115571022419913 0 0.089759591953427642 0.5 0 0.073555874651691305 0.49115571022419913 0 0.059784604684145932 0.5 0 0.077232188732753532 0.48225057769220192 0 0.073555874651691305 0.49115571022419913 0 0.062684526240552235 0.48769550819659252 0 0.077232188732753532 0.48225057769220192 0 0.081121506925179457 0.48646336638566418 0 0.073555874651691305 0.49115571022419913 0 0.077232188732753532 0.48225057769220192 0 0.062684526240552235 0.48769550819659252 0 0.073555874651691305 0.49115571022419913 0 0.062684526240552235 0.48769550819659252 0 0.059784604684145932 0.5 0 0.062684526240552235 0.48769550819659252 0 0.049083245616445649 0.47506718944992249 0 0.04624707182770825 0.49384775409829651 0 0.059784604684145932 0.5 0 0.052107689541811837 0.49787301632391451 0 0.029809617414864199 0.50000000000000033 0 0.062684526240552235 0.48769550819659252 0 0.052107689541811837 0.49787301632391451 0 0.062684526240552235 0.48769550819659252 0 0.052107689541811837 0.49787301632391451 0 0.04624707182770825 0.49384775409829651 0 0.062684526240552235 0.48769550819659252 0 0.04624707182770825 0.49384775409829651 0 0.062684526240552235 0.48769550819659252 0 0.059784604684145932 0.5 0 0.052107689541811837 0.49787301632391451 0 0.065742905542653718 0.46172888135602802 0 0.065465172300707447 0.47283489556314279 0 0.049083245616445649 0.47506718944992249 0 0.065465172300707447 0.47283489556314279 0 0.062684526240552235 0.48769550819659252 0 0.049083245616445649 0.47506718944992249 0 0.049083245616445649 0.47506718944992249 0 0.034422877963013021 0.4875424300026075 0 0.030524717334934549 0.47484291950642082 0 0.049083245616445649 0.47506718944992249 0 0.030524717334934549 0.47484291950642082 0 0.036193923734251912 0.46332454135669232 0 0.049083245616445649 0.47506718944992249 0 0.04624707182770825 0.49384775409829651 0 0.034422877963013021 0.4875424300026075 0 0.04624707182770825 0.49384775409829651 0 0.034422877963013021 0.4875424300026075 0 0.029809617414864199 0.50000000000000033 0 0.052107689541811837 0.49787301632391451 0 0.04624707182770825 0.49384775409829651 0 0.029809617414864199 0.50000000000000033 0 0.04624707182770825 0.49384775409829651 0 0.029809617414864199 0.50000000000000033 0 0.029809617414864199 0.50000000000000033 0 0.021134310174901399 0.48648187114338243 0 0.012478220870660641 0.5 0 0.034422877963013021 0.4875424300026075 0 0.029809617414864199 0.50000000000000033 0 0.021134310174901399 0.48648187114338243 0 0.034422877963013021 0.4875424300026075 0 0.021134310174901399 0.48648187114338243 0 0.030524717334934549 0.47484291950642082 0 0.030524717334934549 0.47484291950642082 0 0.016979544456617261 0.47331069974555079 0 0.025914513065972089 0.46390391950153398 0 0.021134310174901399 0.48648187114338243 0 0.030524717334934549 0.47484291950642082 0 0.016979544456617261 0.47331069974555079 0 0.021134310174901399 0.48648187114338243 0 0.016979544456617261 0.47331069974555079 0 0.0031183794832156681 0.47875215537605292 0 0.016979544456617261 0.47331069974555079 0 0.0031183794832156681 0.47875215537605292 0 0.01103392796647293 0.45748329872500848 0 -0.0048531756735428356 0.50000000000000155 0 0.0031183794832156681 0.47875215537605292 0 0.012478220870660641 0.5 0 0.021134310174901399 0.48648187114338243 0 0.0031183794832156681 0.47875215537605292 0 0.012478220870660641 0.5 0 0.008781183360903267 0.44639036507688562 0 0.011754658961338239 0.45038022688675272 0 0.01754945067289259 0.44848413174450652 0 0.008781183360903267 0.44639036507688562 0 0.0090199922427461228 0.45226318684985128 0 0.011754658961338239 0.45038022688675272 0 0.0090199922427461228 0.45226318684985128 0 0.011754658961338239 0.45038022688675272 0 0.012039485837669169 0.45497332201598328 0 0.011754658961338239 0.45038022688675272 0 0.012039485837669169 0.45497332201598328 0 0.01754945067289259 0.44848413174450652 0 0.008781183360903267 0.44639036507688562 0 0.01754945067289259 0.44848413174450652 0 0.020428211978650291 0.44027227795959439 0 0.008781183360903267 0.44639036507688562 0 0.020428211978650291 0.44027227795959439 0 0.0064994183822872304 0.43621874368984381 0 0.008781183360903267 0.44639036507688562 0 0.00013786979739127789 0.44340215130982891 0 0.0064994183822872304 0.43621874368984381 0 -0.0047437967268179572 0.43600941659475068 0 0.00013786979739127789 0.44340215130982891 0 0.0064994183822872304 0.43621874368984381 0 0.008781183360903267 0.44639036507688562 0 0.00013786979739127789 0.44340215130982891 0 0.00158744369902884 0.45224239293530732 0 0.008781183360903267 0.44639036507688562 0 0.0090199922427461228 0.45226318684985128 0 0.00158744369902884 0.45224239293530732 0 0.0031183794832156681 0.47875215537605292 0 0.01103392796647293 0.45748329872500848 0 -0.0059791835823989562 0.46022442924751211 0 0.00158744369902884 0.45224239293530732 0 0.01103392796647293 0.45748329872500848 0 0.0090199922427461228 0.45226318684985128 0 0.00158744369902884 0.45224239293530732 0 0.01103392796647293 0.45748329872500848 0 -0.0059791835823989562 0.46022442924751211 0 0.0031183794832156681 0.47875215537605292 0 0.01103392796647293 0.45748329872500848 0 0.0090199922427461228 0.45226318684985128 0 0.01103392796647293 0.45748329872500848 0 0.012039485837669169 0.45497332201598328 0 0.01103392796647293 0.45748329872500848 0 0.012039485837669169 0.45497332201598328 0 0.01103392796647293 0.45748329872500848 0 0.012039485837669169 0.45497332201598328 0 0.034840451837583823 0.4505581381739972 0 0.016979544456617261 0.47331069974555079 0 0.01103392796647293 0.45748329872500848 0 0.025914513065972089 0.46390391950153398 0 0.01103392796647293 0.45748329872500848 0 0.025914513065972089 0.46390391950153398 0 0.034840451837583823 0.4505581381739972 0 0.01103392796647293 0.45748329872500848 0 0.034840451837583823 0.4505581381739972 0 0.030524717334934549 0.47484291950642082 0 0.025914513065972089 0.46390391950153398 0 0.036193923734251912 0.46332454135669232 0 0.012039485837669169 0.45497332201598328 0 0.01754945067289259 0.44848413174450652 0 0.034840451837583823 0.4505581381739972 0 0.01754945067289259 0.44848413174450652 0 0.020428211978650291 0.44027227795959439 0 0.034840451837583823 0.4505581381739972 0 0.034840451837583823 0.4505581381739972 0 0.058646975708694711 0.44363297762298592 0 0.034840451837583823 0.4505581381739972 0 0.058646975708694711 0.44363297762298592 0 0.038853526866079353 0.43670809260870802 0 0.034840451837583823 0.4505581381739972 0 0.047135799282129201 0.45660975946202448 0 0.058646975708694711 0.44363297762298592 0 0.020428211978650291 0.44027227795959439 0 0.034840451837583823 0.4505581381739972 0 0.038853526866079353 0.43670809260870802 0 0.049083245616445649 0.47506718944992249 0 0.036193923734251912 0.46332454135669232 0 0.047135799282129201 0.45660975946202448 0 0.025914513065972089 0.46390391950153398 0 0.034840451837583823 0.4505581381739972 0 0.036193923734251912 0.46332454135669232 0 0.034840451837583823 0.4505581381739972 0 0.036193923734251912 0.46332454135669232 0 0.047135799282129201 0.45660975946202448 0 0.065742905542653718 0.46172888135602802 0 0.049083245616445649 0.47506718944992249 0 0.047135799282129201 0.45660975946202448 0 0.065742905542653718 0.46172888135602802 0 0.047135799282129201 0.45660975946202448 0 0.058646975708694711 0.44363297762298592 0 0.065742905542653718 0.46172888135602802 0 0.047135799282129201 0.45660975946202448 0 0.051700025354219137 0.42860833204981241 0 0.055067182715385257 0.4170856142849676 0 0.069386429991233317 0.42046808994950891 0 0.058646975708694711 0.44363297762298592 0 0.051700025354219137 0.42860833204981241 0 0.069386429991233317 0.42046808994950891 0 0.058646975708694711 0.44363297762298592 0 0.051700025354219137 0.42860833204981241 0 0.038853526866079353 0.43670809260870802 0 0.055067182715385257 0.4170856142849676 0 0.0606532542417208 0.39572766866416142 0 0.069386429991233317 0.42046808994950891 0 0.051700025354219137 0.42860833204981241 0 0.055067182715385257 0.4170856142849676 0 0.036882902189399228 0.41792226356365908 0 0.055067182715385257 0.4170856142849676 0 0.036882902189399228 0.41792226356365908 0 0.043542804319318978 0.40366974433994002 0 0.036882902189399228 0.41792226356365908 0 0.029255625158746919 0.40117618003380928 0 0.043542804319318978 0.40366974433994002 0 0.051700025354219137 0.42860833204981241 0 0.036882902189399228 0.41792226356365908 0 0.038853526866079353 0.43670809260870802 0 0.036882902189399228 0.41792226356365908 0 0.038853526866079353 0.43670809260870802 0 0.01737835197887674 0.42326633358830118 0 0.020428211978650291 0.44027227795959439 0 0.038853526866079353 0.43670809260870802 0 0.01737835197887674 0.42326633358830118 0 0.038853526866079353 0.43670809260870802 0 0.01737835197887674 0.42326633358830118 0 0.036882902189399228 0.41792226356365908 0 0.01737835197887674 0.42326633358830118 0 0.015891380888359851 0.40773277151533699 0 0.036882902189399228 0.41792226356365908 0 0.015891380888359851 0.40773277151533699 0 0.029255625158746919 0.40117618003380928 0 -0.0040968229083259266 0.40982457456789462 0 0.01737835197887674 0.42326633358830118 0 0.015891380888359851 0.40773277151533699 0 -0.0009658409520053999 0.42618781485431828 0 -0.0040968229083259266 0.40982457456789462 0 0.01737835197887674 0.42326633358830118 0 -0.0040968229083259266 0.40982457456789462 0 0.01737835197887674 0.42326633358830118 0 0.020428211978650291 0.44027227795959439 0 0.01737835197887674 0.42326633358830118 0 0.0064994183822872304 0.43621874368984381 0 -0.0009658409520053999 0.42618781485431828 0 0.01737835197887674 0.42326633358830118 0 0.0064994183822872304 0.43621874368984381 0 -0.0047437967268179572 0.43600941659475068 0 -0.0009658409520053999 0.42618781485431828 0 0.0064994183822872304 0.43621874368984381 0 -0.0085562506476948019 0.37815234602365572 0 0.0062520788255263577 0.39546140282883258 0 0.0058591024644449544 0.37408789411368543 0 0.0062520788255263577 0.39546140282883258 0 0.016600980559377681 0.38109823108976981 0 0.0058591024644449544 0.37408789411368543 0 0.0062520788255263577 0.39546140282883258 0 0.016600980559377681 0.38109823108976981 0 -0.0040968229083259266 0.40982457456789462 0 0.015891380888359851 0.40773277151533699 0 0.0062520788255263577 0.39546140282883258 0 -0.0040968229083259266 0.40982457456789462 0 0.0062520788255263577 0.39546140282883258 0 0.0062520788255263577 0.39546140282883258 0 0.029255625158746919 0.40117618003380928 0 0.016600980559377681 0.38109823108976981 0 0.015891380888359851 0.40773277151533699 0 0.0062520788255263577 0.39546140282883258 0 0.029255625158746919 0.40117618003380928 0 0.016600980559377681 0.38109823108976981 0 0.035855057291342723 0.38643699515310209 0 0.023228151465099389 0.36371584655455158 0 0.029255625158746919 0.40117618003380928 0 0.016600980559377681 0.38109823108976981 0 0.035855057291342723 0.38643699515310209 0 0.029255625158746919 0.40117618003380928 0 0.035855057291342723 0.38643699515310209 0 0.043542804319318978 0.40366974433994002 0 0.035855057291342723 0.38643699515310209 0 0.043542804319318978 0.40366974433994002 0 0.0606532542417208 0.39572766866416142 0 0.055067182715385257 0.4170856142849676 0 0.043542804319318978 0.40366974433994002 0 0.0606532542417208 0.39572766866416142 0 0.035855057291342723 0.38643699515310209 0 0.0606532542417208 0.39572766866416142 0 0.046521482503905087 0.37302639703879148 0 0.0606532542417208 0.39572766866416142 0 0.067978611024093069 0.37365595718194877 0 0.046521482503905087 0.37302639703879148 0 0.0606532542417208 0.39572766866416142 0 0.077290433699474054 0.39815457572370549 0 0.067978611024093069 0.37365595718194877 0 0.085110894662824232 0.38364167891477863 0 0.077290433699474054 0.39815457572370549 0 0.067978611024093069 0.37365595718194877 0 0.085110894662824232 0.38364167891477863 0 0.1007284001587969 0.38123240955222859 0 0.088907954818365331 0.36621380890532063 0 0.085110894662824232 0.38364167891477863 0 0.1007284001587969 0.38123240955222859 0 0.094542679980424663 0.39811300736757549 0 0.085110894662824232 0.38364167891477863 0 0.077290433699474054 0.39815457572370549 0 0.094542679980424663 0.39811300736757549 0 0.077290433699474054 0.39815457572370549 0 0.089472550714269475 0.41609663494237142 0 0.094542679980424663 0.39811300736757549 0 0.0606532542417208 0.39572766866416142 0 0.077290433699474054 0.39815457572370549 0 0.069386429991233317 0.42046808994950891 0 0.058646975708694711 0.44363297762298592 0 0.069386429991233317 0.42046808994950891 0 0.082453499579805578 0.43670781707197459 0 0.082453499579805578 0.43670781707197459 0 0.089472550714269475 0.41609663494237142 0 0.1062600234509164 0.42978265652096331 0 0.069386429991233317 0.42046808994950891 0 0.082453499579805578 0.43670781707197459 0 0.089472550714269475 0.41609663494237142 0 0.077290433699474054 0.39815457572370549 0 0.069386429991233317 0.42046808994950891 0 0.089472550714269475 0.41609663494237142 0 0.089472550714269475 0.41609663494237142 0 0.1039204827286177 0.41286103804110102 0 0.094542679980424663 0.39811300736757549 0 0.089472550714269475 0.41609663494237142 0 0.1039204827286177 0.41286103804110102 0 0.1062600234509164 0.42978265652096331 0 0.082453499579805578 0.43670781707197459 0 0.1062600234509164 0.42978265652096331 0 0.1148277021490783 0.43752099839664532 0 0.1062600234509164 0.42978265652096331 0 0.13006654732202749 0.42285749596995309 0 0.1062600234509164 0.42978265652096331 0 0.13006654732202749 0.42285749596995309 0 0.1148277021490783 0.43752099839664532 0 0.13006654732202749 0.42285749596995309 0 0.1039204827286177 0.41286103804110102 0 0.11863032453419441 0.41105505496290839 0 0.11132391139386449 0.39647913457955131 0 0.1039204827286177 0.41286103804110102 0 0.1062600234509164 0.42978265652096331 0 0.11863032453419441 0.41105505496290839 0 0.1062600234509164 0.42978265652096331 0 0.11863032453419441 0.41105505496290839 0 0.13006654732202749 0.42285749596995309 0 0.11863032453419441 0.41105505496290839 0 0.11132391139386449 0.39647913457955131 0 0.12602346773345141 0.39612981579421691 0 0.11132391139386449 0.39647913457955131 0 0.1183512057316847 0.38001481425709371 0 0.12602346773345141 0.39612981579421691 0 0.11132391139386449 0.39647913457955131 0 0.1183512057316847 0.38001481425709371 0 0.1007284001587969 0.38123240955222859 0 0.1183512057316847 0.38001481425709371 0 0.1007284001587969 0.38123240955222859 0 0.10822443172333431 0.36406418860636969 0 0.11132391139386449 0.39647913457955131 0 0.1007284001587969 0.38123240955222859 0 0.094542679980424663 0.39811300736757549 0 0.1039204827286177 0.41286103804110102 0 0.11132391139386449 0.39647913457955131 0 0.094542679980424663 0.39811300736757549 0 0.099073888850625888 0.34424407043418881 0 0.10822443172333431 0.36406418860636969 0 0.088907954818365331 0.36621380890532063 0 0.1007284001587969 0.38123240955222859 0 0.10822443172333431 0.36406418860636969 0 0.088907954818365331 0.36621380890532063 0 0.1183512057316847 0.38001481425709371 0 0.10822443172333431 0.36406418860636969 0 0.12775583683182609 0.36413153113398378 0 0.10822443172333431 0.36406418860636969 0 0.12263557940378179 0.34183301238719033 0 0.12775583683182609 0.36413153113398378 0 0.099073888850625888 0.34424407043418881 0 0.10822443172333431 0.36406418860636969 0 0.12263557940378179 0.34183301238719033 0 0.099073888850625888 0.34424407043418881 0 0.12263557940378179 0.34183301238719033 0 0.1143258868739228 0.3171376600907575 0 0.12263557940378179 0.34183301238719033 0 0.1143258868739228 0.3171376600907575 0 0.1143258868739228 0.3171376600907575 0 0.085506561690516902 0.32348168040438419 0 0.097639241145144495 0.30900678551477367 0 0.099073888850625888 0.34424407043418881 0 0.1143258868739228 0.3171376600907575 0 0.085506561690516902 0.32348168040438419 0 0.099073888850625888 0.34424407043418881 0 0.085506561690516902 0.32348168040438419 0 0.076339798356206495 0.35088693066305338 0 0.085506561690516902 0.32348168040438419 0 0.067513275849598833 0.33482331650481928 0 0.058584698363700602 0.31804728477285737 0 0.085506561690516902 0.32348168040438419 0 0.067513275849598833 0.33482331650481928 0 0.076339798356206495 0.35088693066305338 0 0.076339798356206495 0.35088693066305338 0 0.049622044987971389 0.34687737017898262 0 0.076339798356206495 0.35088693066305338 0 0.067978611024093069 0.37365595718194877 0 0.049622044987971389 0.34687737017898262 0 0.067513275849598833 0.33482331650481928 0 0.076339798356206495 0.35088693066305338 0 0.049622044987971389 0.34687737017898262 0 0.099073888850625888 0.34424407043418881 0 0.076339798356206495 0.35088693066305338 0 0.088907954818365331 0.36621380890532063 0 0.085110894662824232 0.38364167891477863 0 0.088907954818365331 0.36621380890532063 0 0.067978611024093069 0.37365595718194877 0 0.076339798356206495 0.35088693066305338 0 0.088907954818365331 0.36621380890532063 0 0.067978611024093069 0.37365595718194877 0 0.067978611024093069 0.37365595718194877 0 0.049622044987971389 0.34687737017898262 0 0.046521482503905087 0.37302639703879148 0 0.049622044987971389 0.34687737017898262 0 0.022904291619736509 0.34286780969491187 0 0.049622044987971389 0.34687737017898262 0 0.023228151465099389 0.36371584655455158 0 0.022904291619736509 0.34286780969491187 0 0.049622044987971389 0.34687737017898262 0 0.046521482503905087 0.37302639703879148 0 0.023228151465099389 0.36371584655455158 0 0.035855057291342723 0.38643699515310209 0 0.046521482503905087 0.37302639703879148 0 0.023228151465099389 0.36371584655455158 0 0.023228151465099389 0.36371584655455158 0 0.0081135051517422351 0.35189782535478159 0 0.022904291619736509 0.34286780969491187 0 -0.003813461748498483 0.33885824921084112 0 0.0081135051517422351 0.35189782535478159 0 0.022904291619736509 0.34286780969491187 0 0.023228151465099389 0.36371584655455158 0 0.0081135051517422351 0.35189782535478159 0 0.0045562057832190537 0.36086632368490462 0 -0.0063076613608452911 0.35318089762869892 0 0.0081135051517422351 0.35189782535478159 0 0.0045562057832190537 0.36086632368490462 0 0.016600980559377681 0.38109823108976981 0 0.023228151465099389 0.36371584655455158 0 0.0058591024644449544 0.37408789411368543 0 -0.0061059733122382949 0.36543146842299112 0 0.0045562057832190537 0.36086632368490462 0 0.0058591024644449544 0.37408789411368543 0 0.023228151465099389 0.36371584655455158 0 0.0045562057832190537 0.36086632368490462 0 0.0058591024644449544 0.37408789411368543 0 -0.0037735911627670279 0.30794855218137251 0 -0.0044533889397110581 0.32576312122417461 0 0.01793622693432766 0.32038322597199032 0 -0.0044533889397110581 0.32576312122417461 0 0.0088090841012910311 0.33167821612479892 0 0.01793622693432766 0.32038322597199032 0 -0.003813461748498483 0.33885824921084112 0 -0.0044533889397110581 0.32576312122417461 0 0.0088090841012910311 0.33167821612479892 0 -0.003813461748498483 0.33885824921084112 0 0.0088090841012910311 0.33167821612479892 0 0.022904291619736509 0.34286780969491187 0 -0.003813461748498483 0.33885824921084112 0 0.022904291619736509 0.34286780969491187 0 0.0088090841012910311 0.33167821612479892 0 0.022904291619736509 0.34286780969491187 0 0.01793622693432766 0.32038322597199032 0 0.022904291619736509 0.34286780969491187 0 0.01793622693432766 0.32038322597199032 0 0.037986358569834212 0.31825650308249648 0 0.01793622693432766 0.32038322597199032 0 0.037986358569834212 0.31825650308249648 0 0.024406811462010829 0.30467570092013602 0 0.049622044987971389 0.34687737017898262 0 0.022904291619736509 0.34286780969491187 0 0.037986358569834212 0.31825650308249648 0 0.067513275849598833 0.33482331650481928 0 0.049622044987971389 0.34687737017898262 0 0.058584698363700602 0.31804728477285737 0 0.049622044987971389 0.34687737017898262 0 0.037986358569834212 0.31825650308249648 0 0.058584698363700602 0.31804728477285737 0 0.037986358569834212 0.31825650308249648 0 0.058584698363700602 0.31804728477285737 0 0.055662061002891818 0.2990848139087191 0 0.055662061002891818 0.2990848139087191 0 0.037224774829707957 0.29542204712394199 0 0.051450849646120879 0.280765013667992 0 0.055662061002891818 0.2990848139087191 0 0.051450849646120879 0.280765013667992 0 0.076229613622977713 0.29449452218725508 0 0.037986358569834212 0.31825650308249648 0 0.055662061002891818 0.2990848139087191 0 0.037224774829707957 0.29542204712394199 0 0.037986358569834212 0.31825650308249648 0 0.037224774829707957 0.29542204712394199 0 0.024406811462010829 0.30467570092013602 0 0.01793622693432766 0.32038322597199032 0 0.024406811462010829 0.30467570092013602 0 0.0096261698459933452 0.29852546523973278 0 0.024406811462010829 0.30467570092013602 0 0.021355243345425889 0.28869237195402442 0 0.0096261698459933452 0.29852546523973278 0 0.037224774829707957 0.29542204712394199 0 0.024406811462010829 0.30467570092013602 0 0.021355243345425889 0.28869237195402442 0 0.037224774829707957 0.29542204712394199 0 0.021355243345425889 0.28869237195402442 0 0.026672085669265041 0.26703550514872693 0 -0.0044384574811734646 0.28591032600112909 0 0.0096261698459933452 0.29852546523973278 0 0.0092827741316595554 0.27736587233164778 0 0.021355243345425889 0.28869237195402442 0 0.0096261698459933452 0.29852546523973278 0 0.0092827741316595554 0.27736587233164778 0 -0.0037735911627670279 0.30794855218137251 0 0.01793622693432766 0.32038322597199032 0 0.0096261698459933452 0.29852546523973278 0 -0.0037735911627670279 0.30794855218137251 0 -0.0044384574811734646 0.28591032600112909 0 0.0096261698459933452 0.29852546523973278 0 0.0076893730913138083 0.25651749406871249 0 0.0092827741316595554 0.27736587233164778 0 0.026672085669265041 0.26703550514872693 0 -0.0054096679889618672 0.2673344168405476 0 0.0076893730913138083 0.25651749406871249 0 0.0092827741316595554 0.27736587233164778 0 0.021355243345425889 0.28869237195402442 0 0.0092827741316595554 0.27736587233164778 0 0.026672085669265041 0.26703550514872693 0 0.018126541503550891 0.2440481467159111 0 0.0076893730913138083 0.25651749406871249 0 0.026672085669265041 0.26703550514872693 0 0.018126541503550891 0.2440481467159111 0 0.026672085669265041 0.26703550514872693 0 0.0076893730913138083 0.25651749406871249 0 0.026672085669265041 0.26703550514872693 0 0.018126541503550891 0.2440481467159111 0 0.034398217230692203 0.24559588675362751 0 0.026672085669265041 0.26703550514872693 0 0.034398217230692203 0.24559588675362751 0 0.026672085669265041 0.26703550514872693 0 0.045757355071819557 0.26430871915386622 0 0.034398217230692203 0.24559588675362751 0 0.045757355071819557 0.26430871915386622 0 0.055703069679041879 0.25302763321249938 0 0.026672085669265041 0.26703550514872693 0 0.051450849646120879 0.280765013667992 0 0.037224774829707957 0.29542204712394199 0 0.026672085669265041 0.26703550514872693 0 0.026672085669265041 0.26703550514872693 0 0.045757355071819557 0.26430871915386622 0 0.051450849646120879 0.280765013667992 0 0.037224774829707957 0.29542204712394199 0 0.026672085669265041 0.26703550514872693 0 0.051450849646120879 0.280765013667992 0 0.045757355071819557 0.26430871915386622 0 0.051450849646120879 0.280765013667992 0 0.070078572781205578 0.26991197510446852 0 0.045757355071819557 0.26430871915386622 0 0.055703069679041879 0.25302763321249938 0 0.070078572781205578 0.26991197510446852 0 0.078571154590758807 0.25070859306122478 0 0.084972958378271055 0.26347323951421048 0 0.070078572781205578 0.26991197510446852 0 0.055703069679041879 0.25302763321249938 0 0.078571154590758807 0.25070859306122478 0 0.070078572781205578 0.26991197510446852 0 0.078571154590758807 0.25070859306122478 0 0.084972958378271055 0.26347323951421048 0 0.095569813203880638 0.25234178504612109 0 0.084972958378271055 0.26347323951421048 0 0.095569813203880638 0.25234178504612109 0 0.097706501814205052 0.26774695549789179 0 0.084972958378271055 0.26347323951421048 0 0.089560248428267986 0.28273757279847439 0 0.097706501814205052 0.26774695549789179 0 0.084972958378271055 0.26347323951421048 0 0.070078572781205578 0.26991197510446852 0 0.089560248428267986 0.28273757279847439 0 0.051450849646120879 0.280765013667992 0 0.070078572781205578 0.26991197510446852 0 0.076229613622977713 0.29449452218725508 0 0.051450849646120879 0.280765013667992 0 0.076229613622977713 0.29449452218725508 0 0.085506561690516902 0.32348168040438419 0 0.058584698363700602 0.31804728477285737 0 0.076229613622977713 0.29449452218725508 0 0.058584698363700602 0.31804728477285737 0 0.055662061002891818 0.2990848139087191 0 0.076229613622977713 0.29449452218725508 0 0.076229613622977713 0.29449452218725508 0 0.092361324385113533 0.29467029707370701 0 0.097639241145144495 0.30900678551477367 0 0.085506561690516902 0.32348168040438419 0 0.076229613622977713 0.29449452218725508 0 0.097639241145144495 0.30900678551477367 0 0.076229613622977713 0.29449452218725508 0 0.092361324385113533 0.29467029707370701 0 0.089560248428267986 0.28273757279847439 0 0.070078572781205578 0.26991197510446852 0 0.076229613622977713 0.29449452218725508 0 0.089560248428267986 0.28273757279847439 0 0.092361324385113533 0.29467029707370701 0 0.089560248428267986 0.28273757279847439 0 0.1060161943440639 0.29244230779432462 0 0.089560248428267986 0.28273757279847439 0 0.1060161943440639 0.29244230779432462 0 0.1028069883212661 0.28290495451199182 0 0.1060161943440639 0.29244230779432462 0 0.1028069883212661 0.28290495451199182 0 0.092361324385113533 0.29467029707370701 0 0.1060161943440639 0.29244230779432462 0 0.097639241145144495 0.30900678551477367 0 0.1143258868739228 0.3171376600907575 0 0.1060161943440639 0.29244230779432462 0 0.097639241145144495 0.30900678551477367 0 0.1143258868739228 0.3171376600907575 0 0.1060161943440639 0.29244230779432462 0 0.1143258868739228 0.3171376600907575 0 0.1060161943440639 0.29244230779432462 0 0.1206857031853656 0.30168612318626181 0 0.1143258868739228 0.3171376600907575 0 0.1206857031853656 0.30168612318626181 0 0.13642635663190841 0.3068329239855585 0 0.1028069883212661 0.28290495451199182 0 0.12912369913183361 0.28996660786397721 0 0.1028069883212661 0.28290495451199182 0 0.1191572715258729 0.27224139615177978 0 0.12912369913183361 0.28996660786397721 0 0.1060161943440639 0.29244230779432462 0 0.1028069883212661 0.28290495451199182 0 0.12912369913183361 0.28996660786397721 0 0.1060161943440639 0.29244230779432462 0 0.1206857031853656 0.30168612318626181 0 0.12912369913183361 0.28996660786397721 0 0.1028069883212661 0.28290495451199182 0 0.1191572715258729 0.27224139615177978 0 0.10717212831668201 0.27092911668210629 0 0.1191572715258729 0.27224139615177978 0 0.1115015149216548 0.25856139005678669 0 0.10717212831668201 0.27092911668210629 0 0.1194572647376068 0.24349155720862209 0 0.1115015149216548 0.25856139005678669 0 0.1306917988367528 0.25442861185416249 0 0.1191572715258729 0.27224139615177978 0 0.1115015149216548 0.25856139005678669 0 0.1306917988367528 0.25442861185416249 0 0.1194572647376068 0.24349155720862209 0 0.10834741414862201 0.24821867857208851 0 0.1115015149216548 0.25856139005678669 0 0.10834741414862201 0.24821867857208851 0 0.1115015149216548 0.25856139005678669 0 0.095569813203880638 0.25234178504612109 0 0.1115015149216548 0.25856139005678669 0 0.095569813203880638 0.25234178504612109 0 0.097706501814205052 0.26774695549789179 0 0.089560248428267986 0.28273757279847439 0 0.1028069883212661 0.28290495451199182 0 0.097706501814205052 0.26774695549789179 0 0.1028069883212661 0.28290495451199182 0 0.097706501814205052 0.26774695549789179 0 0.1028069883212661 0.28290495451199182 0 0.097706501814205052 0.26774695549789179 0 0.10717212831668201 0.27092911668210629 0 0.1115015149216548 0.25856139005678669 0 0.097706501814205052 0.26774695549789179 0 0.10717212831668201 0.27092911668210629 0 0.13995262860966801 0.27322622603571339 0 0.1552264085109557 0.29710027015411872 0 0.15972234007626671 0.26630474974326968 0 0.14539957929797409 0.26020032256952391 0 0.13995262860966801 0.27322622603571339 0 0.15972234007626671 0.26630474974326968 0 0.15123154966920899 0.2468417026449499 0 0.14539957929797409 0.26020032256952391 0 0.1306917988367528 0.25442861185416249 0 0.15123154966920899 0.2468417026449499 0 0.14539957929797409 0.26020032256952391 0 0.15972234007626671 0.26630474974326968 0 0.14539957929797409 0.26020032256952391 0 0.1306917988367528 0.25442861185416249 0 0.13995262860966801 0.27322622603571339 0 0.1191572715258729 0.27224139615177978 0 0.1306917988367528 0.25442861185416249 0 0.13995262860966801 0.27322622603571339 0 0.1191572715258729 0.27224139615177978 0 0.13995262860966801 0.27322622603571339 0 0.12912369913183361 0.28996660786397721 0 0.12912369913183361 0.28996660786397721 0 0.13642635663190841 0.3068329239855585 0 0.1552264085109557 0.29710027015411872 0 0.1206857031853656 0.30168612318626181 0 0.12912369913183361 0.28996660786397721 0 0.13642635663190841 0.3068329239855585 0 0.13642635663190841 0.3068329239855585 0 0.1552264085109557 0.29710027015411872 0 0.15120428654893461 0.31357175424692468 0 0.13995262860966801 0.27322622603571339 0 0.12912369913183361 0.28996660786397721 0 0.1552264085109557 0.29710027015411872 0 0.12912369913183361 0.28996660786397721 0 0.1552264085109557 0.29710027015411872 0 0.1552264085109557 0.29710027015411872 0 0.18132911789007791 0.30423393244426028 0 0.17306529277079219 0.28406478426697213 0 0.1552264085109557 0.29710027015411872 0 0.17306529277079219 0.28406478426697213 0 0.15972234007626671 0.26630474974326968 0 0.1552264085109557 0.29710027015411872 0 0.1676408548804684 0.31309391716094298 0 0.15120428654893461 0.31357175424692468 0 0.1552264085109557 0.29710027015411872 0 0.18132911789007791 0.30423393244426028 0 0.1676408548804684 0.31309391716094298 0 0.1552264085109557 0.29710027015411872 0 0.18132911789007791 0.30423393244426028 0 0.18132911789007791 0.30423393244426028 0 0.18240754693120059 0.30600713428909848 0 0.1908152889333829 0.28192974668255749 0 0.18132911789007791 0.30423393244426028 0 0.18240754693120059 0.30600713428909848 0 0.1676408548804684 0.31309391716094298 0 0.18240754693120059 0.30600713428909848 0 0.1868225740701438 0.30746005258492559 0 0.19150061212310721 0.30004806309158649 0 0.18240754693120059 0.30600713428909848 0 0.1868225740701438 0.30746005258492559 0 0.1843900381567164 0.31590289268586641 0 0.1868225740701438 0.30746005258492559 0 0.1898598666468837 0.30974714814521859 0 0.1843900381567164 0.31590289268586641 0 0.18240754693120059 0.30600713428909848 0 0.1908152889333829 0.28192974668255749 0 0.18132911789007791 0.30423393244426028 0 0.17306529277079219 0.28406478426697213 0 0.1908152889333829 0.28192974668255749 0 0.17306529277079219 0.28406478426697213 0 0.18175223777608171 0.26541634027232291 0 0.1908152889333829 0.28192974668255749 0 0.17306529277079219 0.28406478426697213 0 0.15972234007626671 0.26630474974326968 0 0.18175223777608171 0.26541634027232291 0 0.15123154966920899 0.2468417026449499 0 0.17713505718559289 0.2389565407261868 0 0.15972234007626671 0.26630474974326968 0 0.17713505718559289 0.2389565407261868 0 0.15972234007626671 0.26630474974326968 0 0.18175223777608171 0.26541634027232291 0 0.17713505718559289 0.2389565407261868 0 0.18175223777608171 0.26541634027232291 0 0.19663366196222959 0.25391388438766499 0 0.18175223777608171 0.26541634027232291 0 0.19663366196222959 0.25391388438766499 0 0.20099846389744941 0.2714456304252873 0 0.18175223777608171 0.26541634027232291 0 0.20099846389744941 0.2714456304252873 0 0.1908152889333829 0.28192974668255749 0 0.20099846389744941 0.2714456304252873 0 0.20685442077207911 0.28841562099067458 0 0.1908152889333829 0.28192974668255749 0 0.20099846389744941 0.2714456304252873 0 0.2144662012357797 0.27678304844605078 0 0.20685442077207911 0.28841562099067458 0 0.20099846389744941 0.2714456304252873 0 0.2144662012357797 0.27678304844605078 0 0.21225711306466369 0.26236351634125948 0 0.2144662012357797 0.27678304844605078 0 0.21225711306466369 0.26236351634125948 0 0.2271213674200892 0.27081757146120689 0 0.19663366196222959 0.25391388438766499 0 0.20099846389744941 0.2714456304252873 0 0.21225711306466369 0.26236351634125948 0 0.2118089964261817 0.24811216407671691 0 0.19663366196222959 0.25391388438766499 0 0.21225711306466369 0.26236351634125948 0 0.2118089964261817 0.24811216407671691 0 0.21225711306466369 0.26236351634125948 0 0.22374275107647101 0.25592796074431778 0 0.2373121946882093 0.2491729402658398 0 0.22943575549951339 0.24954153298696269 0 0.233452237156481 0.2550837431804151 0 0.22943575549951339 0.24954153298696269 0 0.22374275107647101 0.25592796074431778 0 0.233452237156481 0.2550837431804151 0 0.22374275107647101 0.25592796074431778 0 0.2271213674200892 0.27081757146120689 0 0.23592246948150219 0.26376440382127181 0 0.22374275107647101 0.25592796074431778 0 0.233452237156481 0.2550837431804151 0 0.23592246948150219 0.26376440382127181 0 0.21225711306466369 0.26236351634125948 0 0.22374275107647101 0.25592796074431778 0 0.2271213674200892 0.27081757146120689 0 0.2144662012357797 0.27678304844605078 0 0.2271213674200892 0.27081757146120689 0 0.22382460682785019 0.28160357817592241 0 0.2271213674200892 0.27081757146120689 0 0.23928646987201629 0.27130685800910193 0 0.23441008929038629 0.2787622881839239 0 0.2271213674200892 0.27081757146120689 0 0.23441008929038629 0.2787622881839239 0 0.22382460682785019 0.28160357817592241 0 0.2271213674200892 0.27081757146120689 0 0.23928646987201629 0.27130685800910193 0 0.23592246948150219 0.26376440382127181 0 0.23928646987201629 0.27130685800910193 0 0.24564154107359429 0.26435658486121189 0 0.23592246948150219 0.26376440382127181 0 0.23928646987201629 0.27130685800910193 0 0.23441008929038629 0.2787622881839239 0 0.2423112974001197 0.27805779241179213 0 0.23441008929038629 0.2787622881839239 0 0.2423112974001197 0.27805779241179213 0 0.2395397193012393 0.28525569375530319 0 0.23928646987201629 0.27130685800910193 0 0.2423112974001197 0.27805779241179213 0 0.24946214105173969 0.27307760343335341 0 0.2423112974001197 0.27805779241179213 0 0.24946214105173969 0.27307760343335341 0 0.24885806748521691 0.28188651867727799 0 0.23928646987201629 0.27130685800910193 0 0.24946214105173969 0.27307760343335341 0 0.24564154107359429 0.26435658486121189 0 0.24946214105173969 0.27307760343335341 0 0.24564154107359429 0.26435658486121189 0 0.25408234079549741 0.26515186640474309 0 0.24564154107359429 0.26435658486121189 0 0.24922957066550369 0.25696010310009199 0 0.24122239088455191 0.25669888365397819 0 0.24564154107359429 0.26435658486121189 0 0.24922957066550369 0.25696010310009199 0 0.25408234079549741 0.26515186640474309 0 0.24552209241342421 0.24938586441016569 0 0.24922957066550369 0.25696010310009199 0 0.24122239088455191 0.25669888365397819 0 0.24552209241342421 0.24938586441016569 0 0.24922957066550369 0.25696010310009199 0 0.25423555326891639 0.24942618361914939 0 0.24552209241342421 0.24938586441016569 0 0.2373121946882093 0.2491729402658398 0 0.24122239088455191 0.25669888365397819 0 0.2373121946882093 0.2491729402658398 0 0.233452237156481 0.2550837431804151 0 0.24122239088455191 0.25669888365397819 0 0.233452237156481 0.2550837431804151 0 0.24122239088455191 0.25669888365397819 0 0.23592246948150219 0.26376440382127181 0 0.24564154107359429 0.26435658486121189 0 0.24122239088455191 0.25669888365397819 0 0.23592246948150219 0.26376440382127181 0 0.24120923340546921 0.29853264869933233 0 0.2363508812501498 0.30507587978683098 0 0.2468421475835044 0.30296286057387017 0 0.24120923340546921 0.29853264869933233 0 0.2363508812501498 0.30507587978683098 0 0.23439177395017241 0.29395530948733439 0 0.2363508812501498 0.30507587978683098 0 0.24382559661091169 0.31009225374499821 0 0.23811908110234181 0.3156480823287246 0 0.24382559661091169 0.31009225374499821 0 0.2468421475835044 0.30296286057387017 0 0.25251238686667982 0.30771573563745053 0 0.2363508812501498 0.30507587978683098 0 0.24382559661091169 0.31009225374499821 0 0.2468421475835044 0.30296286057387017 0 0.24382559661091169 0.31009225374499821 0 0.24893864919030859 0.31594094937848233 0 0.25251238686667982 0.30771573563745053 0 0.2468421475835044 0.30296286057387017 0 0.24725213083804989 0.2921365449492937 0 0.25291198300887707 0.29853049589907638 0 0.24120923340546921 0.29853264869933233 0 0.2468421475835044 0.30296286057387017 0 0.24725213083804989 0.2921365449492937 0 0.24725213083804989 0.2921365449492937 0 0.24885806748521691 0.28188651867727799 0 0.2395397193012393 0.28525569375530319 0 0.2423112974001197 0.27805779241179213 0 0.24885806748521691 0.28188651867727799 0 0.2395397193012393 0.28525569375530319 0 0.23441008929038629 0.2787622881839239 0 0.2395397193012393 0.28525569375530319 0 0.2296599616815497 0.2874072229940407 0 0.2395397193012393 0.28525569375530319 0 0.23439177395017241 0.29395530948733439 0 0.2296599616815497 0.2874072229940407 0 0.24725213083804989 0.2921365449492937 0 0.2395397193012393 0.28525569375530319 0 0.23439177395017241 0.29395530948733439 0 0.24120923340546921 0.29853264869933233 0 0.24725213083804989 0.2921365449492937 0 0.23439177395017241 0.29395530948733439 0 0.23439177395017241 0.29395530948733439 0 0.22316541899362319 0.29286179307461208 0 0.22797988169261749 0.29966695757484191 0 0.23439177395017241 0.29395530948733439 0 0.2296599616815497 0.2874072229940407 0 0.22316541899362319 0.29286179307461208 0 0.23441008929038629 0.2787622881839239 0 0.2296599616815497 0.2874072229940407 0 0.22382460682785019 0.28160357817592241 0 0.22382460682785019 0.28160357817592241 0 0.22316541899362319 0.29286179307461208 0 0.2165532253029924 0.28734858083837378 0 0.2296599616815497 0.2874072229940407 0 0.22382460682785019 0.28160357817592241 0 0.22316541899362319 0.29286179307461208 0 0.2215974833968142 0.30329659078197502 0 0.22797988169261749 0.29966695757484191 0 0.22836718854102281 0.30916803800131137 0 0.22316541899362319 0.29286179307461208 0 0.2215974833968142 0.30329659078197502 0 0.22797988169261749 0.29966695757484191 0 0.22316541899362319 0.29286179307461208 0 0.2215974833968142 0.30329659078197502 0 0.21445547868562961 0.29707886350460933 0 0.2363508812501498 0.30507587978683098 0 0.22797988169261749 0.29966695757484191 0 0.22836718854102281 0.30916803800131137 0 0.2363508812501498 0.30507587978683098 0 0.23439177395017241 0.29395530948733439 0 0.22797988169261749 0.29966695757484191 0 0.2363508812501498 0.30507587978683098 0 0.22836718854102281 0.30916803800131137 0 0.23811908110234181 0.3156480823287246 0 0.2215974833968142 0.30329659078197502 0 0.21503282592594161 0.30691175591125408 0 0.2210591502223847 0.31430747940483172 0 0.2215974833968142 0.30329659078197502 0 0.22836718854102281 0.30916803800131137 0 0.2210591502223847 0.31430747940483172 0 0.21503282592594161 0.30691175591125408 0 0.21279070707100459 0.31386696254574892 0 0.2210591502223847 0.31430747940483172 0 0.21503282592594161 0.30691175591125408 0 0.20801899447076999 0.30971669770567012 0 0.21279070707100459 0.31386696254574892 0 0.21503282592594161 0.30691175591125408 0 0.21445547868562961 0.29707886350460933 0 0.20925465085027251 0.30447723459631421 0 0.2215974833968142 0.30329659078197502 0 0.21503282592594161 0.30691175591125408 0 0.21445547868562961 0.29707886350460933 0 0.20925465085027251 0.30447723459631421 0 0.20752714322851959 0.29800906306922059 0 0.2025824705519311 0.30609351601613582 0 0.20752714322851959 0.29800906306922059 0 0.2025824705519311 0.30609351601613582 0 0.2005459507090806 0.29764843245102768 0 0.21445547868562961 0.29707886350460933 0 0.20925465085027251 0.30447723459631421 0 0.20752714322851959 0.29800906306922059 0 0.20801899447076999 0.30971669770567012 0 0.2025824705519311 0.30609351601613582 0 0.20444511111437261 0.31513142654931248 0 0.20925465085027251 0.30447723459631421 0 0.20801899447076999 0.30971669770567012 0 0.2025824705519311 0.30609351601613582 0 0.21503282592594161 0.30691175591125408 0 0.20925465085027251 0.30447723459631421 0 0.20801899447076999 0.30971669770567012 0 0.2144662012357797 0.27678304844605078 0 0.22382460682785019 0.28160357817592241 0 0.2165532253029924 0.28734858083837378 0 0.2144662012357797 0.27678304844605078 0 0.2165532253029924 0.28734858083837378 0 0.20685442077207911 0.28841562099067458 0 0.22316541899362319 0.29286179307461208 0 0.21445547868562961 0.29707886350460933 0 0.2165532253029924 0.28734858083837378 0 0.21445547868562961 0.29707886350460933 0 0.2165532253029924 0.28734858083837378 0 0.20685442077207911 0.28841562099067458 0 0.20752714322851959 0.29800906306922059 0 0.20685442077207911 0.28841562099067458 0 0.2005459507090806 0.29764843245102768 0 0.21445547868562961 0.29707886350460933 0 0.20752714322851959 0.29800906306922059 0 0.20685442077207911 0.28841562099067458 0 0.18240754693120059 0.30600713428909848 0 0.1908152889333829 0.28192974668255749 0 0.19150061212310721 0.30004806309158649 0 0.1908152889333829 0.28192974668255749 0 0.2005459507090806 0.29764843245102768 0 0.19150061212310721 0.30004806309158649 0 0.20685442077207911 0.28841562099067458 0 0.1908152889333829 0.28192974668255749 0 0.2005459507090806 0.29764843245102768 0 0.2025824705519311 0.30609351601613582 0 0.19768942955887811 0.31363789100290101 0 0.20444511111437261 0.31513142654931248 0 0.1954250697917044 0.30798577328908111 0 0.2025824705519311 0.30609351601613582 0 0.19708599319535799 0.30277255147163251 0 0.1954250697917044 0.30798577328908111 0 0.19295570790365149 0.31251614591018628 0 0.19768942955887811 0.31363789100290101 0 0.1954250697917044 0.30798577328908111 0 0.2025824705519311 0.30609351601613582 0 0.19768942955887811 0.31363789100290101 0 0.2025824705519311 0.30609351601613582 0 0.2005459507090806 0.29764843245102768 0 0.19708599319535799 0.30277255147163251 0 0.2005459507090806 0.29764843245102768 0 0.19708599319535799 0.30277255147163251 0 0.19150061212310721 0.30004806309158649 0 0.19708599319535799 0.30277255147163251 0 0.19150061212310721 0.30004806309158649 0 0.1922114025294647 0.30552388934863778 0 0.1868225740701438 0.30746005258492559 0 0.19150061212310721 0.30004806309158649 0 0.1922114025294647 0.30552388934863778 0 0.1868225740701438 0.30746005258492559 0 0.1922114025294647 0.30552388934863778 0 0.1898598666468837 0.30974714814521859 0 0.1954250697917044 0.30798577328908111 0 0.19708599319535799 0.30277255147163251 0 0.1922114025294647 0.30552388934863778 0 0.1954250697917044 0.30798577328908111 0 0.1922114025294647 0.30552388934863778 0 0.1898598666468837 0.30974714814521859 0 0.1954250697917044 0.30798577328908111 0 0.1898598666468837 0.30974714814521859 0 0.19295570790365149 0.31251614591018628 0 0.1898598666468837 0.30974714814521859 0 0.188902827178766 0.3150956153181389 0 0.19295570790365149 0.31251614591018628 0 0.188902827178766 0.3150956153181389 0 0.19323703713405421 0.31761579990591049 0 0.1887318110038162 0.32418213772728172 0 0.1898598666468837 0.30974714814521859 0 0.188902827178766 0.3150956153181389 0 0.1843900381567164 0.31590289268586641 0 0.188902827178766 0.3150956153181389 0 0.19295570790365149 0.31251614591018628 0 0.19323703713405421 0.31761579990591049 0 0.19295570790365149 0.31251614591018628 0 0.19323703713405421 0.31761579990591049 0 0.19768942955887811 0.31363789100290101 0 0.19323703713405421 0.31761579990591049 0 0.1887318110038162 0.32418213772728172 0 0.1979054100251591 0.32264720957104448 0 0.1887318110038162 0.32418213772728172 0 0.1979054100251591 0.32264720957104448 0 0.195184646474137 0.33076183180535818 0 0.1979054100251591 0.32264720957104448 0 0.20276263689529311 0.3316683228328573 0 0.20735436149420031 0.32367310510392722 0 0.1979054100251591 0.32264720957104448 0 0.19768942955887811 0.31363789100290101 0 0.20444511111437261 0.31513142654931248 0 0.19323703713405421 0.31761579990591049 0 0.1979054100251591 0.32264720957104448 0 0.19768942955887811 0.31363789100290101 0 0.1881623293400573 0.33624964848705441 0 0.1983610451063593 0.33906184040855258 0 0.19196213954145841 0.34684628281598651 0 0.1887318110038162 0.32418213772728172 0 0.1881623293400573 0.33624964848705441 0 0.195184646474137 0.33076183180535818 0 0.1881623293400573 0.33624964848705441 0 0.195184646474137 0.33076183180535818 0 0.1983610451063593 0.33906184040855258 0 0.1979054100251591 0.32264720957104448 0 0.195184646474137 0.33076183180535818 0 0.20276263689529311 0.3316683228328573 0 0.195184646474137 0.33076183180535818 0 0.20276263689529311 0.3316683228328573 0 0.1983610451063593 0.33906184040855258 0 0.1983610451063593 0.33906184040855258 0 0.2087957539687241 0.34063042700800822 0 0.2021532410032513 0.34796049492331971 0 0.20276263689529311 0.3316683228328573 0 0.1983610451063593 0.33906184040855258 0 0.2087957539687241 0.34063042700800822 0 0.20276263689529311 0.3316683228328573 0 0.21514421416173199 0.33180006429535602 0 0.20735436149420031 0.32367310510392722 0 0.20276263689529311 0.3316683228328573 0 0.2087957539687241 0.34063042700800822 0 0.21514421416173199 0.33180006429535602 0 0.2087957539687241 0.34063042700800822 0 0.21514421416173199 0.33180006429535602 0 0.21877781948939909 0.34544208110515989 0 0.20444511111437261 0.31513142654931248 0 0.20735436149420031 0.32367310510392722 0 0.21279070707100459 0.31386696254574892 0 0.20801899447076999 0.30971669770567012 0 0.20444511111437261 0.31513142654931248 0 0.21279070707100459 0.31386696254574892 0 0.1979054100251591 0.32264720957104448 0 0.20444511111437261 0.31513142654931248 0 0.20735436149420031 0.32367310510392722 0 0.21514421416173199 0.33180006429535602 0 0.21559963473954469 0.3218087345353024 0 0.22540247286953219 0.32653802843538399 0 0.21514421416173199 0.33180006429535602 0 0.20735436149420031 0.32367310510392722 0 0.21559963473954469 0.3218087345353024 0 0.20735436149420031 0.32367310510392722 0 0.21559963473954469 0.3218087345353024 0 0.21279070707100459 0.31386696254574892 0 0.21559963473954469 0.3218087345353024 0 0.21279070707100459 0.31386696254574892 0 0.2210591502223847 0.31430747940483172 0 0.22836718854102281 0.30916803800131137 0 0.2210591502223847 0.31430747940483172 0 0.22981846930027741 0.31821335973701831 0 0.2210591502223847 0.31430747940483172 0 0.22981846930027741 0.31821335973701831 0 0.22540247286953219 0.32653802843538399 0 0.22836718854102281 0.30916803800131137 0 0.22981846930027741 0.31821335973701831 0 0.23811908110234181 0.3156480823287246 0 0.22981846930027741 0.31821335973701831 0 0.22540247286953219 0.32653802843538399 0 0.23614445376610579 0.3254051705148393 0 0.21559963473954469 0.3218087345353024 0 0.2210591502223847 0.31430747940483172 0 0.22540247286953219 0.32653802843538399 0 0.21514421416173199 0.33180006429535602 0 0.22540247286953219 0.32653802843538399 0 0.22671544967489721 0.33907868134061608 0 0.21514421416173199 0.33180006429535602 0 0.22671544967489721 0.33907868134061608 0 0.21877781948939909 0.34544208110515989 0 0.22671544967489721 0.33907868134061608 0 0.23505797195209691 0.33545244249784761 0 0.23586656747819801 0.34693474473596642 0 0.22540247286953219 0.32653802843538399 0 0.22671544967489721 0.33907868134061608 0 0.23505797195209691 0.33545244249784761 0 0.22540247286953219 0.32653802843538399 0 0.23505797195209691 0.33545244249784761 0 0.23614445376610579 0.3254051705148393 0 0.23505797195209691 0.33545244249784761 0 0.2440697518618784 0.33296775494587461 0 0.23614445376610579 0.3254051705148393 0 0.23505797195209691 0.33545244249784761 0 0.24214913606197011 0.3417902750144059 0 0.23586656747819801 0.34693474473596642 0 0.23505797195209691 0.33545244249784761 0 0.24214913606197011 0.3417902750144059 0 0.2440697518618784 0.33296775494587461 0 0.24214913606197011 0.3417902750144059 0 0.24438037716319541 0.34845989730607663 0 0.25127893477613811 0.34041357370461328 0 0.24214913606197011 0.3417902750144059 0 0.2440697518618784 0.33296775494587461 0 0.25127893477613811 0.34041357370461328 0 0.2440697518618784 0.33296775494587461 0 0.2457116025576585 0.3236052478594541 0 0.25606395296601869 0.33142741492329331 0 0.2457116025576585 0.3236052478594541 0 0.24893864919030859 0.31594094937848233 0 0.23811908110234181 0.3156480823287246 0 0.2457116025576585 0.3236052478594541 0 0.24893864919030859 0.31594094937848233 0 0.25526367536650069 0.32053136070375321 0 0.24382559661091169 0.31009225374499821 0 0.24893864919030859 0.31594094937848233 0 0.23811908110234181 0.3156480823287246 0 0.22981846930027741 0.31821335973701831 0 0.23811908110234181 0.3156480823287246 0 0.23614445376610579 0.3254051705148393 0 0.2440697518618784 0.33296775494587461 0 0.2457116025576585 0.3236052478594541 0 0.23614445376610579 0.3254051705148393 0 0.2457116025576585 0.3236052478594541 0 0.23811908110234181 0.3156480823287246 0 0.23614445376610579 0.3254051705148393 0 0.23976862891184331 0.37515390902029222 0 0.25335459622779249 0.35202689044311691 0 0.25030429400542209 0.36146110213964461 0 0.23950653599059071 0.35902382322439352 0 0.22563836989198699 0.36639749931024662 0 0.23976862891184331 0.37515390902029222 0 0.23950653599059071 0.35902382322439352 0 0.23976862891184331 0.37515390902029222 0 0.25335459622779249 0.35202689044311691 0 0.23976862891184331 0.37515390902029222 0 0.25335459622779249 0.35202689044311691 0 0.24896054609932669 0.37109941323554652 0 0.23976862891184331 0.37515390902029222 0 0.25142039725092957 0.37655114140978863 0 0.24896054609932669 0.37109941323554652 0 0.23976862891184331 0.37515390902029222 0 0.25030429400542209 0.36146110213964461 0 0.24438037716319541 0.34845989730607663 0 0.23950653599059071 0.35902382322439352 0 0.25335459622779249 0.35202689044311691 0 0.24438037716319541 0.34845989730607663 0 0.25335459622779249 0.35202689044311691 0 0.25127893477613811 0.34041357370461328 0 0.24438037716319541 0.34845989730607663 0 0.23586656747819801 0.34693474473596642 0 0.23950653599059071 0.35902382322439352 0 0.24214913606197011 0.3417902750144059 0 0.24438037716319541 0.34845989730607663 0 0.23586656747819801 0.34693474473596642 0 0.23586656747819801 0.34693474473596642 0 0.23950653599059071 0.35902382322439352 0 0.22818265288206421 0.35290599427680092 0 0.22671544967489721 0.33907868134061608 0 0.23586656747819801 0.34693474473596642 0 0.22818265288206421 0.35290599427680092 0 0.22671544967489721 0.33907868134061608 0 0.22818265288206421 0.35290599427680092 0 0.21877781948939909 0.34544208110515989 0 0.22818265288206421 0.35290599427680092 0 0.21877781948939909 0.34544208110515989 0 0.2170010905073983 0.35675504493255322 0 0.22818265288206421 0.35290599427680092 0 0.22563836989198699 0.36639749931024662 0 0.2170010905073983 0.35675504493255322 0 0.23950653599059071 0.35902382322439352 0 0.22818265288206421 0.35290599427680092 0 0.22563836989198699 0.36639749931024662 0 0.22563836989198699 0.36639749931024662 0 0.20958420966145561 0.3690727478166857 0 0.21707085021338379 0.38563618542249528 0 0.22563836989198699 0.36639749931024662 0 0.20958420966145561 0.3690727478166857 0 0.2170010905073983 0.35675504493255322 0 0.20958420966145561 0.3690727478166857 0 0.2170010905073983 0.35675504493255322 0 0.2051033450076781 0.35744900187584838 0 0.21877781948939909 0.34544208110515989 0 0.21182274937537501 0.34952329805212567 0 0.2170010905073983 0.35675504493255322 0 0.2087957539687241 0.34063042700800822 0 0.21877781948939909 0.34544208110515989 0 0.21182274937537501 0.34952329805212567 0 0.21182274937537501 0.34952329805212567 0 0.2170010905073983 0.35675504493255322 0 0.2051033450076781 0.35744900187584838 0 0.21182274937537501 0.34952329805212567 0 0.2051033450076781 0.35744900187584838 0 0.2021532410032513 0.34796049492331971 0 0.2087957539687241 0.34063042700800822 0 0.21182274937537501 0.34952329805212567 0 0.2021532410032513 0.34796049492331971 0 0.1983610451063593 0.33906184040855258 0 0.2021532410032513 0.34796049492331971 0 0.19196213954145841 0.34684628281598651 0 0.2021532410032513 0.34796049492331971 0 0.19606243560273409 0.35532871252323678 0 0.19196213954145841 0.34684628281598651 0 0.2051033450076781 0.35744900187584838 0 0.2021532410032513 0.34796049492331971 0 0.19606243560273409 0.35532871252323678 0 0.19606243560273409 0.35532871252323678 0 0.19399634389585441 0.36605371300716938 0 0.1864350595606066 0.35657090884451909 0 0.19606243560273409 0.35532871252323678 0 0.19196213954145841 0.34684628281598651 0 0.1864350595606066 0.35657090884451909 0 0.20958420966145561 0.3690727478166857 0 0.19399634389585441 0.36605371300716938 0 0.19809889071802789 0.3822329464751465 0 0.2051033450076781 0.35744900187584838 0 0.19606243560273409 0.35532871252323678 0 0.19399634389585441 0.36605371300716938 0 0.20958420966145561 0.3690727478166857 0 0.2051033450076781 0.35744900187584838 0 0.19399634389585441 0.36605371300716938 0 0.19399634389585441 0.36605371300716938 0 0.17907653271713539 0.3656896362973277 0 0.18478805485125169 0.37780761378499622 0 0.19399634389585441 0.36605371300716938 0 0.17907653271713539 0.3656896362973277 0 0.1864350595606066 0.35657090884451909 0 0.16223553361817919 0.36377405711045241 0 0.16559206292683559 0.35416190950218052 0 0.17048506057484519 0.38265463871146338 0 0.17907653271713539 0.3656896362973277 0 0.16559206292683559 0.35416190950218052 0 0.17048506057484519 0.38265463871146338 0 0.16223553361817919 0.36377405711045241 0 0.15691987385492301 0.37383580890646068 0 0.17048506057484519 0.38265463871146338 0 0.16559206292683559 0.35416190950218052 0 0.17048506057484519 0.38265463871146338 0 0.16223553361817919 0.36377405711045241 0 0.1515072584129121 0.36394795517825351 0 0.15563703537985479 0.35248203336011341 0 0.16223553361817919 0.36377405711045241 0 0.15691987385492301 0.37383580890646068 0 0.1515072584129121 0.36394795517825351 0 0.16559206292683559 0.35416190950218052 0 0.16327446980716359 0.34066618399269388 0 0.15563703537985479 0.35248203336011341 0 0.16223553361817919 0.36377405711045241 0 0.16559206292683559 0.35416190950218052 0 0.15563703537985479 0.35248203336011341 0 0.16223553361817919 0.36377405711045241 0 0.16559206292683559 0.35416190950218052 0 0.16559206292683559 0.35416190950218052 0 0.16327446980716359 0.34066618399269388 0 0.17907653271713539 0.3656896362973277 0 0.16559206292683559 0.35416190950218052 0 0.17790521129607831 0.35554467260761041 0 0.16559206292683559 0.35416190950218052 0 0.17790521129607831 0.35554467260761041 0 0.18050237370446609 0.34657641524460409 0 0.17790521129607831 0.35554467260761041 0 0.1864350595606066 0.35657090884451909 0 0.18050237370446609 0.34657641524460409 0 0.17907653271713539 0.3656896362973277 0 0.17790521129607831 0.35554467260761041 0 0.1864350595606066 0.35657090884451909 0 0.19196213954145841 0.34684628281598651 0 0.1864350595606066 0.35657090884451909 0 0.18050237370446609 0.34657641524460409 0 0.16559206292683559 0.35416190950218052 0 0.18050237370446609 0.34657641524460409 0 0.1739998049290182 0.33008452189563953 0 0.1881623293400573 0.33624964848705441 0 0.18050237370446609 0.34657641524460409 0 0.1739998049290182 0.33008452189563953 0 0.1881623293400573 0.33624964848705441 0 0.19196213954145841 0.34684628281598651 0 0.18050237370446609 0.34657641524460409 0 0.1887318110038162 0.32418213772728172 0 0.1881623293400573 0.33624964848705441 0 0.1739998049290182 0.33008452189563953 0 0.18240754693120059 0.30600713428909848 0 0.1739998049290182 0.33008452189563953 0 0.18240754693120059 0.30600713428909848 0 0.1739998049290182 0.33008452189563953 0 0.1843900381567164 0.31590289268586641 0 0.18240754693120059 0.30600713428909848 0 0.1739998049290182 0.33008452189563953 0 0.1676408548804684 0.31309391716094298 0 0.188902827178766 0.3150956153181389 0 0.1887318110038162 0.32418213772728172 0 0.1843900381567164 0.31590289268586641 0 0.1887318110038162 0.32418213772728172 0 0.1739998049290182 0.33008452189563953 0 0.1843900381567164 0.31590289268586641 0 0.1739998049290182 0.33008452189563953 0 0.1676408548804684 0.31309391716094298 0 0.15758149881797051 0.32670602629416479 0 0.1676408548804684 0.31309391716094298 0 0.15758149881797051 0.32670602629416479 0 0.15120428654893461 0.31357175424692468 0 0.1739998049290182 0.33008452189563953 0 0.15758149881797051 0.32670602629416479 0 0.16327446980716359 0.34066618399269388 0 0.16559206292683559 0.35416190950218052 0 0.1739998049290182 0.33008452189563953 0 0.16559206292683559 0.35416190950218052 0 0.1739998049290182 0.33008452189563953 0 0.16327446980716359 0.34066618399269388 0 0.15758149881797051 0.32670602629416479 0 0.14787646327679649 0.33856874116509961 0 0.13914631390337001 0.32412563363983821 0 0.15758149881797051 0.32670602629416479 0 0.16327446980716359 0.34066618399269388 0 0.14787646327679649 0.33856874116509961 0 0.15758149881797051 0.32670602629416479 0 0.15120428654893461 0.31357175424692468 0 0.13914631390337001 0.32412563363983821 0 0.13642635663190841 0.3068329239855585 0 0.15120428654893461 0.31357175424692468 0 0.13914631390337001 0.32412563363983821 0 0.12263557940378179 0.34183301238719033 0 0.1143258868739228 0.3171376600907575 0 0.13914631390337001 0.32412563363983821 0 0.1143258868739228 0.3171376600907575 0 0.13642635663190841 0.3068329239855585 0 0.13914631390337001 0.32412563363983821 0 0.12263557940378179 0.34183301238719033 0 0.14787646327679649 0.33856874116509961 0 0.13914631390337001 0.32412563363983821 0 0.12263557940378179 0.34183301238719033 0 0.14787646327679649 0.33856874116509961 0 0.14133107558362251 0.35351222454483788 0 0.12263557940378179 0.34183301238719033 0 0.12775583683182609 0.36413153113398378 0 0.14133107558362251 0.35351222454483788 0 0.1183512057316847 0.38001481425709371 0 0.12775583683182609 0.36413153113398378 0 0.13648260327173831 0.38041495385187368 0 0.12775583683182609 0.36413153113398378 0 0.14040119901147441 0.36615083424102302 0 0.13648260327173831 0.38041495385187368 0 0.12775583683182609 0.36413153113398378 0 0.14040119901147441 0.36615083424102302 0 0.14133107558362251 0.35351222454483788 0 0.14040119901147441 0.36615083424102302 0 0.1515072584129121 0.36394795517825351 0 0.14133107558362251 0.35351222454483788 0 0.14040119901147441 0.36615083424102302 0 0.14793237244236479 0.37349423506241458 0 0.13648260327173831 0.38041495385187368 0 0.14040119901147441 0.36615083424102302 0 0.14793237244236479 0.37349423506241458 0 0.1515072584129121 0.36394795517825351 0 0.15691987385492301 0.37383580890646068 0 0.14793237244236479 0.37349423506241458 0 0.1515072584129121 0.36394795517825351 0 0.1515072584129121 0.36394795517825351 0 0.15563703537985479 0.35248203336011341 0 0.14133107558362251 0.35351222454483788 0 0.16327446980716359 0.34066618399269388 0 0.14787646327679649 0.33856874116509961 0 0.15563703537985479 0.35248203336011341 0 0.14787646327679649 0.33856874116509961 0 0.15563703537985479 0.35248203336011341 0 0.14133107558362251 0.35351222454483788 0 0.14118908879126621 0.39657912497492342 0 0.14048778328834929 0.40824728674726513 0 0.1582115129316034 0.40634564266249579 0 0.14118908879126621 0.39657912497492342 0 0.15243914422631369 0.38530815846971939 0 0.1582115129316034 0.40634564266249579 0 0.14793237244236479 0.37349423506241458 0 0.15243914422631369 0.38530815846971939 0 0.13648260327173831 0.38041495385187368 0 0.14118908879126621 0.39657912497492342 0 0.15243914422631369 0.38530815846971939 0 0.13648260327173831 0.38041495385187368 0 0.15691987385492301 0.37383580890646068 0 0.14793237244236479 0.37349423506241458 0 0.15243914422631369 0.38530815846971939 0 0.1183512057316847 0.38001481425709371 0 0.13648260327173831 0.38041495385187368 0 0.12602346773345141 0.39612981579421691 0 0.14118908879126621 0.39657912497492342 0 0.13648260327173831 0.38041495385187368 0 0.12602346773345141 0.39612981579421691 0 0.14118908879126621 0.39657912497492342 0 0.13052367326695541 0.40985579963459118 0 0.14048778328834929 0.40824728674726513 0 0.14118908879126621 0.39657912497492342 0 0.12602346773345141 0.39612981579421691 0 0.13052367326695541 0.40985579963459118 0 0.11863032453419441 0.41105505496290839 0 0.12602346773345141 0.39612981579421691 0 0.13052367326695541 0.40985579963459118 0 0.11863032453419441 0.41105505496290839 0 0.13052367326695541 0.40985579963459118 0 0.13006654732202749 0.42285749596995309 0 0.13052367326695541 0.40985579963459118 0 0.1335825758083497 0.41947421517299388 0 0.13006654732202749 0.42285749596995309 0 0.1335825758083497 0.41947421517299388 0 0.13006654732202749 0.42285749596995309 0 0.1335825758083497 0.41947421517299388 0 0.1374535156338785 0.4210369602639174 0 0.14048778328834929 0.40824728674726513 0 0.1374535156338785 0.4210369602639174 0 0.14048778328834929 0.40824728674726513 0 0.1335825758083497 0.41947421517299388 0 0.1374535156338785 0.4210369602639174 0 0.13006654732202749 0.42285749596995309 0 0.13052367326695541 0.40985579963459118 0 0.1335825758083497 0.41947421517299388 0 0.14048778328834929 0.40824728674726513 0 0.1148277021490783 0.43752099839664532 0 0.13006654732202749 0.42285749596995309 0 0.13499097977080901 0.43141673993342039 0 0.1374535156338785 0.4210369602639174 0 0.13499097977080901 0.43141673993342039 0 0.14836537524781801 0.42035817951377458 0 0.1374535156338785 0.4210369602639174 0 0.13006654732202749 0.42285749596995309 0 0.13499097977080901 0.43141673993342039 0 0.1374535156338785 0.4210369602639174 0 0.13499097977080901 0.43141673993342039 0 0.1374535156338785 0.4210369602639174 0 0.13006654732202749 0.42285749596995309 0 0.13499097977080901 0.43141673993342039 0 0.14998327882495349 0.4339171104817599 0 0.14468268900952189 0.44695531132883959 0 0.13499097977080901 0.43141673993342039 0 0.14998327882495349 0.4339171104817599 0 0.14836537524781801 0.42035817951377458 0 0.14998327882495349 0.4339171104817599 0 0.14836537524781801 0.42035817951377458 0 0.15815332142337479 0.42186411774393168 0 0.14048778328834929 0.40824728674726513 0 0.14836537524781801 0.42035817951377458 0 0.1582115129316034 0.40634564266249579 0 0.1374535156338785 0.4210369602639174 0 0.14048778328834929 0.40824728674726513 0 0.14836537524781801 0.42035817951377458 0 0.14836537524781801 0.42035817951377458 0 0.1582115129316034 0.40634564266249579 0 0.15815332142337479 0.42186411774393168 0 0.1582115129316034 0.40634564266249579 0 0.15815332142337479 0.42186411774393168 0 0.17537805822285499 0.41114736792074619 0 0.15815332142337479 0.42186411774393168 0 0.1648884137911717 0.43475809958949541 0 0.17537805822285499 0.41114736792074619 0 0.14998327882495349 0.4339171104817599 0 0.15815332142337479 0.42186411774393168 0 0.1648884137911717 0.43475809958949541 0 0.17537805822285499 0.41114736792074619 0 0.19748525170102221 0.4342891516886192 0 0.18027105587086489 0.43964009713002888 0 0.17537805822285499 0.41114736792074619 0 0.18027105587086489 0.43964009713002888 0 0.1648884137911717 0.43475809958949541 0 0.17537805822285499 0.41114736792074619 0 0.18027105587086489 0.43964009713002888 0 0.17537805822285499 0.41114736792074619 0 0.1858831225294828 0.39062391934913382 0 0.2006655482804342 0.3992770298533167 0 0.17537805822285499 0.41114736792074619 0 0.17048506057484519 0.38265463871146338 0 0.1858831225294828 0.39062391934913382 0 0.17537805822285499 0.41114736792074619 0 0.17048506057484519 0.38265463871146338 0 0.15243914422631369 0.38530815846971939 0 0.1582115129316034 0.40634564266249579 0 0.17048506057484519 0.38265463871146338 0 0.1582115129316034 0.40634564266249579 0 0.17537805822285499 0.41114736792074619 0 0.17048506057484519 0.38265463871146338 0 0.15691987385492301 0.37383580890646068 0 0.15243914422631369 0.38530815846971939 0 0.17048506057484519 0.38265463871146338 0 0.17907653271713539 0.3656896362973277 0 0.17048506057484519 0.38265463871146338 0 0.18478805485125169 0.37780761378499622 0 0.17048506057484519 0.38265463871146338 0 0.1858831225294828 0.39062391934913382 0 0.18478805485125169 0.37780761378499622 0 0.19399634389585441 0.36605371300716938 0 0.18478805485125169 0.37780761378499622 0 0.19809889071802789 0.3822329464751465 0 0.1858831225294828 0.39062391934913382 0 0.18478805485125169 0.37780761378499622 0 0.19809889071802789 0.3822329464751465 0 0.1858831225294828 0.39062391934913382 0 0.19809889071802789 0.3822329464751465 0 0.2006655482804342 0.3992770298533167 0 0.2006655482804342 0.3992770298533167 0 0.21707085021338379 0.38563618542249528 0 0.22379155082869329 0.40605829525062559 0 0.19809889071802789 0.3822329464751465 0 0.2006655482804342 0.3992770298533167 0 0.21707085021338379 0.38563618542249528 0 0.20958420966145561 0.3690727478166857 0 0.19809889071802789 0.3822329464751465 0 0.21707085021338379 0.38563618542249528 0 0.22563836989198699 0.36639749931024662 0 0.21707085021338379 0.38563618542249528 0 0.23976862891184331 0.37515390902029222 0 0.21707085021338379 0.38563618542249528 0 0.245295227055075 0.38280585108560827 0 0.21707085021338379 0.38563618542249528 0 0.245295227055075 0.38280585108560827 0 0.23976862891184331 0.37515390902029222 0 0.21707085021338379 0.38563618542249528 0 0.22379155082869329 0.40605829525062559 0 0.24085279226627429 0.39779374087732788 0 0.24085279226627429 0.39779374087732788 0 0.25815048972283039 0.41271244370208671 0 0.25007708032583348 0.39237551745951882 0 0.22379155082869329 0.40605829525062559 0 0.24085279226627429 0.39779374087732788 0 0.24248843447532109 0.41326986217469119 0 0.24085279226627429 0.39779374087732788 0 0.25815048972283039 0.41271244370208671 0 0.24085279226627429 0.39779374087732788 0 0.245295227055075 0.38280585108560827 0 0.25007708032583348 0.39237551745951882 0 0.21707085021338379 0.38563618542249528 0 0.24085279226627429 0.39779374087732788 0 0.245295227055075 0.38280585108560827 0 0.245295227055075 0.38280585108560827 0 0.23976862891184331 0.37515390902029222 0 0.25142039725092957 0.37655114140978863 0 0.24248843447532109 0.41326986217469119 0 0.22944085842868331 0.42367934957135212 0 0.251688116757742 0.43543122577928522 0 0.22944085842868331 0.42367934957135212 0 0.22792804633609751 0.44323130503172198 0 0.251688116757742 0.43543122577928522 0 0.24085279226627429 0.39779374087732788 0 0.24248843447532109 0.41326986217469119 0 0.25815048972283039 0.41271244370208671 0 0.22379155082869329 0.40605829525062559 0 0.22944085842868331 0.42367934957135212 0 0.20737049334925001 0.41818024961701272 0 0.22379155082869329 0.40605829525062559 0 0.24248843447532109 0.41326986217469119 0 0.22944085842868331 0.42367934957135212 0 0.22944085842868331 0.42367934957135212 0 0.2132785251459012 0.43408228803857291 0 0.22792804633609751 0.44323130503172198 0 0.17537805822285499 0.41114736792074619 0 0.20737049334925001 0.41818024961701272 0 0.19748525170102221 0.4342891516886192 0 0.22944085842868331 0.42367934957135212 0 0.2132785251459012 0.43408228803857291 0 0.20737049334925001 0.41818024961701272 0 0.2132785251459012 0.43408228803857291 0 0.20737049334925001 0.41818024961701272 0 0.19748525170102221 0.4342891516886192 0 0.17537805822285499 0.41114736792074619 0 0.2006655482804342 0.3992770298533167 0 0.20737049334925001 0.41818024961701272 0 0.2006655482804342 0.3992770298533167 0 0.22379155082869329 0.40605829525062559 0 0.20737049334925001 0.41818024961701272 0 0.19748525170102221 0.4342891516886192 0 0.1905830472447872 0.44594802415985052 0 0.18027105587086489 0.43964009713002888 0 0.19748525170102221 0.4342891516886192 0 0.1905830472447872 0.44594802415985052 0 0.2041679759144531 0.45103138428415868 0 0.1905830472447872 0.44594802415985052 0 0.2041679759144531 0.45103138428415868 0 0.18040790549280869 0.45883146353659532 0 0.19635025645705961 0.46558085508497632 0 0.2041679759144531 0.45103138428415868 0 0.18040790549280869 0.45883146353659532 0 0.2041679759144531 0.45103138428415868 0 0.18040790549280869 0.45883146353659532 0 0.19635025645705961 0.46558085508497632 0 0.2041679759144531 0.45103138428415868 0 0.2233613020060673 0.46312072572562368 0 0.19635025645705961 0.46558085508497632 0 0.2233613020060673 0.46312072572562368 0 0.19635025645705961 0.46558085508497632 0 0.2233613020060673 0.46312072572562368 0 0.20834822817508569 0.4734014057919177 0 0.2132785251459012 0.43408228803857291 0 0.2041679759144531 0.45103138428415868 0 0.22792804633609751 0.44323130503172198 0 0.2041679759144531 0.45103138428415868 0 0.22792804633609751 0.44323130503172198 0 0.2132785251459012 0.43408228803857291 0 0.19748525170102221 0.4342891516886192 0 0.2041679759144531 0.45103138428415868 0 0.2041679759144531 0.45103138428415868 0 0.22792804633609751 0.44323130503172198 0 0.2233613020060673 0.46312072572562368 0 0.22792804633609751 0.44323130503172198 0 0.2233613020060673 0.46312072572562368 0 0.2503723475550752 0.46066059636627121 0 0.2233613020060673 0.46312072572562368 0 0.23849415256474141 0.47975794299772068 0 0.2503723475550752 0.46066059636627121 0 0.2233613020060673 0.46312072572562368 0 0.2503723475550752 0.46066059636627121 0 0.22792804633609751 0.44323130503172198 0 0.2503723475550752 0.46066059636627121 0 0.251688116757742 0.43543122577928522 0 0.22792804633609751 0.44323130503172198 0 0.251688116757742 0.43543122577928522 0 0.24829513684728141 0.5 0 0.23849415256474141 0.47975794299772068 0 0.25760507754760792 0.47840190179457859 0 0.24829513684728141 0.5 0 0.23849415256474141 0.47975794299772068 0 0.22086765892750651 0.5 0 0.23849415256474141 0.47975794299772068 0 0.25760507754760792 0.47840190179457859 0 0.2503723475550752 0.46066059636627121 0 0.2233613020060673 0.46312072572562368 0 0.23849415256474141 0.47975794299772068 0 0.2217169799621824 0.479759105376109 0 0.23849415256474141 0.47975794299772068 0 0.2217169799621824 0.479759105376109 0 0.22086765892750651 0.5 0 0.22086765892750651 0.5 0 0.21070947456461789 0.48775669027385682 0 0.1934401810077315 0.5 0 0.2217169799621824 0.479759105376109 0 0.22086765892750651 0.5 0 0.21070947456461789 0.48775669027385682 0 0.2233613020060673 0.46312072572562368 0 0.2217169799621824 0.479759105376109 0 0.20834822817508569 0.4734014057919177 0 0.2217169799621824 0.479759105376109 0 0.21070947456461789 0.48775669027385682 0 0.20834822817508569 0.4734014057919177 0 0.21070947456461789 0.48775669027385682 0 0.20834822817508569 0.4734014057919177 0 0.19870206383309541 0.4856486379029975 0 0.19635025645705961 0.46558085508497632 0 0.20834822817508569 0.4734014057919177 0 0.18157330367127189 0.48143826422454739 0 0.20834822817508569 0.4734014057919177 0 0.18157330367127189 0.48143826422454739 0 0.20834822817508569 0.4734014057919177 0 0.19870206383309541 0.4856486379029975 0 0.18157330367127189 0.48143826422454739 0 0.21070947456461789 0.48775669027385682 0 0.1934401810077315 0.5 0 0.19870206383309541 0.4856486379029975 0 0.1934401810077315 0.5 0 0.19870206383309541 0.4856486379029975 0 0.18157330367127189 0.48143826422454739 0 0.1934401810077315 0.5 0 0.1660127030879566 0.5 0 0.18157330367127189 0.48143826422454739 0 0.1660127030879566 0.5 0 0.15991701174573841 0.48793869534084888 0 0.18157330367127189 0.48143826422454739 0 0.15991701174573841 0.48793869534084888 0 0.18157330367127189 0.48143826422454739 0 0.15991701174573841 0.48793869534084888 0 0.15479837916745809 0.48947512265717719 0 0.1660127030879566 0.5 0 0.15991701174573841 0.48793869534084888 0 0.15479837916745809 0.48947512265717719 0 0.15991701174573841 0.48793869534084888 0 0.18157330367127189 0.48143826422454739 0 0.16933921090805179 0.4680409844443289 0 0.15991701174573841 0.48793869534084888 0 0.15760257922700929 0.47229036712288369 0 0.16933921090805179 0.4680409844443289 0 0.19635025645705961 0.46558085508497632 0 0.18157330367127189 0.48143826422454739 0 0.16933921090805179 0.4680409844443289 0 0.19635025645705961 0.46558085508497632 0 0.18040790549280869 0.45883146353659532 0 0.16933921090805179 0.4680409844443289 0 0.19635025645705961 0.46558085508497632 0 0.16933921090805179 0.4680409844443289 0 0.18040790549280869 0.45883146353659532 0 0.16933921090805179 0.4680409844443289 0 0.16722796812219021 0.45424717905054313 0 0.18040790549280869 0.45883146353659532 0 0.18027105587086489 0.43964009713002888 0 0.16722796812219021 0.45424717905054313 0 0.1905830472447872 0.44594802415985052 0 0.18040790549280869 0.45883146353659532 0 0.18027105587086489 0.43964009713002888 0 0.1648884137911717 0.43475809958949541 0 0.18027105587086489 0.43964009713002888 0 0.16722796812219021 0.45424717905054313 0 0.1648884137911717 0.43475809958949541 0 0.16722796812219021 0.45424717905054313 0 0.15596375934835791 0.44591522530571959 0 0.16722796812219021 0.45424717905054313 0 0.15316733771388419 0.45613747271325739 0 0.15596375934835791 0.44591522530571959 0 0.14998327882495349 0.4339171104817599 0 0.1648884137911717 0.43475809958949541 0 0.15596375934835791 0.44591522530571959 0 0.16933921090805179 0.4680409844443289 0 0.16722796812219021 0.45424717905054313 0 0.1597272275620516 0.46388834356144482 0 0.16722796812219021 0.45424717905054313 0 0.1597272275620516 0.46388834356144482 0 0.15316733771388419 0.45613747271325739 0 0.15760257922700929 0.47229036712288369 0 0.16933921090805179 0.4680409844443289 0 0.1597272275620516 0.46388834356144482 0 0.15760257922700929 0.47229036712288369 0 0.1597272275620516 0.46388834356144482 0 0.15014176598683779 0.46509218911365341 0 0.1597272275620516 0.46388834356144482 0 0.15014176598683779 0.46509218911365341 0 0.15316733771388419 0.45613747271325739 0 0.15014176598683779 0.46509218911365341 0 0.15316733771388419 0.45613747271325739 0 0.141824790353967 0.45863882471793121 0 0.15316733771388419 0.45613747271325739 0 0.141824790353967 0.45863882471793121 0 0.14468268900952189 0.44695531132883959 0 0.15014176598683779 0.46509218911365341 0 0.141824790353967 0.45863882471793121 0 0.13712348052998749 0.46912215481768388 0 0.14998327882495349 0.4339171104817599 0 0.15596375934835791 0.44591522530571959 0 0.14468268900952189 0.44695531132883959 0 0.15316733771388419 0.45613747271325739 0 0.15596375934835791 0.44591522530571959 0 0.14468268900952189 0.44695531132883959 0 0.1148277021490783 0.43752099839664532 0 0.13499097977080901 0.43141673993342039 0 0.12949417625326881 0.45458619311957571 0 0.13499097977080901 0.43141673993342039 0 0.12949417625326881 0.45458619311957571 0 0.13499097977080901 0.43141673993342039 0 0.14468268900952189 0.44695531132883959 0 0.12949417625326881 0.45458619311957571 0 0.12399737273572981 0.47775564630573131 0 0.12949417625326881 0.45458619311957571 0 0.13712348052998749 0.46912215481768388 0 0.12399737273572981 0.47775564630573131 0 0.12949417625326881 0.45458619311957571 0 0.141824790353967 0.45863882471793121 0 0.12949417625326881 0.45458619311957571 0 0.13712348052998749 0.46912215481768388 0 0.141824790353967 0.45863882471793121 0 0.14468268900952189 0.44695531132883959 0 0.12949417625326881 0.45458619311957571 0 0.12399737273572981 0.47775564630573131 0 0.1419079572256062 0.48268314357009851 0 0.12399737273572981 0.47775564630573131 0 0.13277921588729349 0.48736211967693699 0 0.1419079572256062 0.48268314357009851 0 0.12399737273572981 0.47775564630573131 0 0.13712348052998749 0.46912215481768388 0 0.1419079572256062 0.48268314357009851 0 0.1223150243434533 0.48484687527057319 0 0.12399737273572981 0.47775564630573131 0 0.13277921588729349 0.48736211967693699 0 0.12399494187461731 0.49057829056642988 0 0.13277921588729349 0.48736211967693699 0 0.1280234546636442 0.49751198108980688 0 0.1197345792227095 0.50000000000000022 0 0.1280234546636442 0.49751198108980688 0 0.13858522516818181 0.50000000000000022 0 0.12399494187461731 0.49057829056642988 0 0.1223150243434533 0.48484687527057319 0 0.13277921588729349 0.48736211967693699 0 0.1280234546636442 0.49751198108980688 0 0.13858522516818181 0.50000000000000022 0 0.15479837916745809 0.48947512265717719 0 0.13277921588729349 0.48736211967693699 0 0.1280234546636442 0.49751198108980688 0 0.15479837916745809 0.48947512265717719 0 0.1280234546636442 0.49751198108980688 0 0.13858522516818181 0.50000000000000022 0 0.1280234546636442 0.49751198108980688 0 0.15479837916745809 0.48947512265717719 0 0.13277921588729349 0.48736211967693699 0 0.15479837916745809 0.48947512265717719 0 0.1419079572256062 0.48268314357009851 0 0.1660127030879566 0.5 0 0.13858522516818181 0.50000000000000022 0 0.15479837916745809 0.48947512265717719 0 0.15991701174573841 0.48793869534084888 0 0.1419079572256062 0.48268314357009851 0 0.15991701174573841 0.48793869534084888 0 0.15479837916745809 0.48947512265717719 0 0.1419079572256062 0.48268314357009851 0 0.15991701174573841 0.48793869534084888 0 0.15760257922700929 0.47229036712288369 0 0.14887248800612529 0.47518494768971131 0 0.15991701174573841 0.48793869534084888 0 0.14887248800612529 0.47518494768971131 0 0.1419079572256062 0.48268314357009851 0 0.15760257922700929 0.47229036712288369 0 0.15014176598683779 0.46509218911365341 0 0.14887248800612529 0.47518494768971131 0 0.13712348052998749 0.46912215481768388 0 0.14887248800612529 0.47518494768971131 0 0.1419079572256062 0.48268314357009851 0 0.15014176598683779 0.46509218911365341 0 0.13712348052998749 0.46912215481768388 0 0.14887248800612529 0.47518494768971131 0 0.35263846407814059 0.48368543870321068 0 0.36903060901715601 0.5 0 0.32769763283348291 0.5 0 0.35263846407814059 0.48368543870321068 0 0.34553963170071372 0.4721154286718468 0 0.36439821132078892 0.47232405788500409 0 0.35263846407814059 0.48368543870321068 0 0.34553963170071372 0.4721154286718468 0 0.33633607026664541 0.48175602694167469 0 0.35263846407814059 0.48368543870321068 0 0.36903060901715601 0.5 0 0.36439821132078892 0.47232405788500409 0 0.36903060901715601 0.5 0 0.36439821132078892 0.47232405788500409 0 0.38276930030154988 0.47710752476068918 0 0.36439821132078892 0.47232405788500409 0 0.37472264026712959 0.46185703892081009 0 0.38276930030154988 0.47710752476068918 0 0.36439821132078892 0.47232405788500409 0 0.37472264026712959 0.46185703892081009 0 0.36464005111105913 0.45635270584987031 0 0.36439821132078892 0.47232405788500409 0 0.36464005111105913 0.45635270584987031 0 0.35282819386335562 0.46128182411974011 0 0.37472264026712959 0.46185703892081009 0 0.36464005111105913 0.45635270584987031 0 0.37627041262828298 0.44695832522674428 0 0.36343206925918642 0.44390988699626921 0 0.37156008541952368 0.43516143078289199 0 0.37627041262828298 0.44695832522674428 0 0.36464005111105913 0.45635270584987031 0 0.36343206925918642 0.44390988699626921 0 0.37627041262828298 0.44695832522674428 0 0.36464005111105913 0.45635270584987031 0 0.36343206925918642 0.44390988699626921 0 0.35618877932761139 0.45178510195065419 0 0.36343206925918642 0.44390988699626921 0 0.36152889598394711 0.43391893951818389 0 0.37156008541952368 0.43516143078289199 0 0.34851204990070939 0.45214291423709763 0 0.34363336442483822 0.46000475597635371 0 0.33948218256285728 0.44335645859440859 0 0.36343206925918642 0.44390988699626921 0 0.35222552074897989 0.4425644811531203 0 0.36152889598394711 0.43391893951818389 0 0.36343206925918642 0.44390988699626921 0 0.35222552074897989 0.4425644811531203 0 0.35618877932761139 0.45178510195065419 0 0.35222552074897989 0.4425644811531203 0 0.35618877932761139 0.45178510195065419 0 0.34851204990070939 0.45214291423709763 0 0.35222552074897989 0.4425644811531203 0 0.34851204990070939 0.45214291423709763 0 0.33948218256285728 0.44335645859440859 0 0.35222552074897989 0.4425644811531203 0 0.33948218256285728 0.44335645859440859 0 0.34916694671533127 0.43042675248831341 0 0.34553963170071372 0.4721154286718468 0 0.36439821132078892 0.47232405788500409 0 0.35282819386335562 0.46128182411974011 0 0.35618877932761139 0.45178510195065419 0 0.34851204990070939 0.45214291423709763 0 0.35282819386335562 0.46128182411974011 0 0.36464005111105913 0.45635270584987031 0 0.35618877932761139 0.45178510195065419 0 0.35282819386335562 0.46128182411974011 0 0.34851204990070939 0.45214291423709763 0 0.35282819386335562 0.46128182411974011 0 0.34363336442483822 0.46000475597635371 0 0.34553963170071372 0.4721154286718468 0 0.35282819386335562 0.46128182411974011 0 0.34363336442483822 0.46000475597635371 0 0.33948218256285728 0.44335645859440859 0 0.33356973843395971 0.47059914708505762 0 0.34553963170071372 0.4721154286718468 0 0.34363336442483822 0.46000475597635371 0 0.33356973843395971 0.47059914708505762 0 0.34363336442483822 0.46000475597635371 0 0.33948218256285728 0.44335645859440859 0 0.33356973843395971 0.47059914708505762 0 0.33948218256285728 0.44335645859440859 0 0.32150652785547629 0.46735497097653522 0 0.33948218256285728 0.44335645859440859 0 0.32150652785547629 0.46735497097653522 0 0.33356973843395971 0.47059914708505762 0 0.33948218256285728 0.44335645859440859 0 0.32495171500007258 0.44306470341757698 0 0.34140965013187979 0.43447529246175698 0 0.32495171500007258 0.44306470341757698 0 0.34140965013187979 0.43447529246175698 0 0.33948218256285728 0.44335645859440859 0 0.32495171500007258 0.44306470341757698 0 0.3210317331692486 0.46250470898946328 0 0.33948218256285728 0.44335645859440859 0 0.34140965013187979 0.43447529246175698 0 0.32495171500007258 0.44306470341757698 0 0.3210317331692486 0.46250470898946328 0 0.30915370085112859 0.44187241092927732 0 0.32495171500007258 0.44306470341757698 0 0.30915370085112859 0.44187241092927732 0 0.31532519964112737 0.42757557554631448 0 0.3210317331692486 0.46250470898946328 0 0.30915370085112859 0.44187241092927732 0 0.33948218256285728 0.44335645859440859 0 0.3210317331692486 0.46250470898946328 0 0.32150652785547629 0.46735497097653522 0 0.3210317331692486 0.46250470898946328 0 0.32150652785547629 0.46735497097653522 0 0.30007559445408882 0.4488714862540461 0 0.32150652785547629 0.46735497097653522 0 0.32376963668124409 0.46930682891118342 0 0.32709366503836051 0.47734375208107133 0 0.32376963668124409 0.46930682891118342 0 0.30928044149865602 0.48367748548827022 0 0.32150652785547629 0.46735497097653522 0 0.30928044149865602 0.48367748548827022 0 0.32709366503836051 0.47734375208107133 0 0.32603382596799868 0.48553766285521882 0 0.30928044149865602 0.48367748548827022 0 0.32150652785547629 0.46735497097653522 0 0.32376963668124409 0.46930682891118342 0 0.30928044149865602 0.48367748548827022 0 0.32150652785547629 0.46735497097653522 0 0.32376963668124409 0.46930682891118342 0 0.33356973843395971 0.47059914708505762 0 0.32709366503836051 0.47734375208107133 0 0.32376963668124409 0.46930682891118342 0 0.33356973843395971 0.47059914708505762 0 0.32709366503836051 0.47734375208107133 0 0.33633607026664541 0.48175602694167469 0 0.32603382596799868 0.48553766285521882 0 0.32709366503836051 0.47734375208107133 0 0.33356973843395971 0.47059914708505762 0 0.33633607026664541 0.48175602694167469 0 0.34553963170071372 0.4721154286718468 0 0.33356973843395971 0.47059914708505762 0 0.33633607026664541 0.48175602694167469 0 0.35263846407814059 0.48368543870321068 0 0.33633607026664541 0.48175602694167469 0 0.32769763283348291 0.5 0 0.33633607026664541 0.48175602694167469 0 0.32769763283348291 0.5 0 0.32603382596799868 0.48553766285521882 0 0.32769763283348291 0.5 0 0.32603382596799868 0.48553766285521882 0 0.30928044149865602 0.48367748548827022 0 0.29705435514183282 0.500000000000003 0 0.30928044149865602 0.48367748548827022 0 0.32769763283348291 0.5 0 0.29705435514183282 0.500000000000003 0 0.30928044149865602 0.48367748548827022 0 0.29705435514183282 0.500000000000003 0 0.30928044149865602 0.48367748548827022 0 0.29103792898816339 0.48592144532293202 0 0.30928044149865602 0.48367748548827022 0 0.29643560333766589 0.46913374061586449 0 0.29103792898816339 0.48592144532293202 0 0.32150652785547629 0.46735497097653522 0 0.30928044149865602 0.48367748548827022 0 0.29643560333766589 0.46913374061586449 0 0.29643560333766589 0.46913374061586449 0 0.29103792898816339 0.48592144532293202 0 0.27669663019560481 0.47679600051051979 0 0.29705435514183282 0.500000000000003 0 0.29103792898816339 0.48592144532293202 0 0.27572261476705628 0.50000000000000133 0 0.27572261476705628 0.50000000000000133 0 0.27669663019560481 0.47679600051051979 0 0.25760507754760792 0.47840190179457859 0 0.29103792898816339 0.48592144532293202 0 0.27572261476705628 0.50000000000000133 0 0.27669663019560481 0.47679600051051979 0 0.27572261476705628 0.50000000000000133 0 0.27669663019560481 0.47679600051051979 0 0.27669663019560481 0.47679600051051979 0 0.25760507754760792 0.47840190179457859 0 0.27767064562415322 0.45359200102103819 0 0.24829513684728141 0.5 0 0.27572261476705628 0.50000000000000133 0 0.25760507754760792 0.47840190179457859 0 0.2503723475550752 0.46066059636627121 0 0.27767064562415322 0.45359200102103819 0 0.26668446615578989 0.44102389028441302 0 0.2503723475550752 0.46066059636627121 0 0.26668446615578989 0.44102389028441302 0 0.251688116757742 0.43543122577928522 0 0.25760507754760792 0.47840190179457859 0 0.2503723475550752 0.46066059636627121 0 0.27767064562415322 0.45359200102103819 0 0.27669663019560481 0.47679600051051979 0 0.27767064562415322 0.45359200102103819 0 0.27767064562415322 0.45359200102103819 0 0.27864466105270153 0.43038800153155682 0 0.27767064562415322 0.45359200102103819 0 0.26668446615578989 0.44102389028441302 0 0.27864466105270153 0.43038800153155682 0 0.30007559445408882 0.4488714862540461 0 0.29492551134899953 0.43344335466547279 0 0.27864466105270153 0.43038800153155682 0 0.27767064562415322 0.45359200102103819 0 0.30007559445408882 0.4488714862540461 0 0.27864466105270153 0.43038800153155682 0 0.30007559445408882 0.4488714862540461 0 0.27864466105270153 0.43038800153155682 0 0.29643560333766589 0.46913374061586449 0 0.27767064562415322 0.45359200102103819 0 0.30007559445408882 0.4488714862540461 0 0.29643560333766589 0.46913374061586449 0 0.27669663019560481 0.47679600051051979 0 0.27767064562415322 0.45359200102103819 0 0.32150652785547629 0.46735497097653522 0 0.30007559445408882 0.4488714862540461 0 0.32150652785547629 0.46735497097653522 0 0.29643560333766589 0.46913374061586449 0 0.30007559445408882 0.4488714862540461 0 0.3210317331692486 0.46250470898946328 0 0.30007559445408882 0.4488714862540461 0 0.30915370085112859 0.44187241092927732 0 0.30007559445408882 0.4488714862540461 0 0.30915370085112859 0.44187241092927732 0 0.29492551134899953 0.43344335466547279 0 0.30915370085112859 0.44187241092927732 0 0.29727566853300852 0.42124011286909119 0 0.29492551134899953 0.43344335466547279 0 0.30915370085112859 0.44187241092927732 0 0.29727566853300852 0.42124011286909119 0 0.31532519964112737 0.42757557554631448 0 0.30915370085112859 0.44187241092927732 0 0.29727566853300852 0.42124011286909119 0 0.31097331250974652 0.41174786302432442 0 0.29727566853300852 0.42124011286909119 0 0.29979739280685253 0.40439478968912362 0 0.31097331250974652 0.41174786302432442 0 0.29727566853300852 0.42124011286909119 0 0.31532519964112737 0.42757557554631448 0 0.29727566853300852 0.42124011286909119 0 0.28539763621488839 0.40060781480890512 0 0.29979739280685253 0.40439478968912362 0 0.29727566853300852 0.42124011286909119 0 0.28539763621488839 0.40060781480890512 0 0.28571486580708788 0.42124117882993162 0 0.27943607946475879 0.41153401637783971 0 0.28539763621488839 0.40060781480890512 0 0.29727566853300852 0.42124011286909119 0 0.28571486580708788 0.42124117882993162 0 0.28539763621488839 0.40060781480890512 0 0.28571486580708788 0.42124117882993162 0 0.27864466105270153 0.43038800153155682 0 0.27943607946475879 0.41153401637783971 0 0.28571486580708788 0.42124117882993162 0 0.29492551134899953 0.43344335466547279 0 0.27864466105270153 0.43038800153155682 0 0.29727566853300852 0.42124011286909119 0 0.28571486580708788 0.42124117882993162 0 0.29492551134899953 0.43344335466547279 0 0.26668446615578989 0.44102389028441302 0 0.27864466105270153 0.43038800153155682 0 0.27544818717938579 0.42763114652684642 0 0.27864466105270153 0.43038800153155682 0 0.27544818717938579 0.42763114652684642 0 0.27943607946475879 0.41153401637783971 0 0.27864466105270153 0.43038800153155682 0 0.27544818717938579 0.42763114652684642 0 0.27544818717938579 0.42763114652684642 0 0.27943607946475879 0.41153401637783971 0 0.27254169443777959 0.4183685499920321 0 0.27544818717938579 0.42763114652684642 0 0.27254169443777959 0.4183685499920321 0 0.25815048972283039 0.41271244370208671 0 0.27544818717938579 0.42763114652684642 0 0.25815048972283039 0.41271244370208671 0 0.27864466105270153 0.43038800153155682 0 0.27943607946475879 0.41153401637783971 0 0.27943607946475879 0.41153401637783971 0 0.27078196806366123 0.41050017349077528 0 0.27021985131433729 0.4021722006486671 0 0.27943607946475879 0.41153401637783971 0 0.27078196806366123 0.41050017349077528 0 0.27254169443777959 0.4183685499920321 0 0.27078196806366123 0.41050017349077528 0 0.25815048972283039 0.41271244370208671 0 0.27021985131433729 0.4021722006486671 0 0.27078196806366123 0.41050017349077528 0 0.27254169443777959 0.4183685499920321 0 0.25815048972283039 0.41271244370208671 0 0.24248843447532109 0.41326986217469119 0 0.25815048972283039 0.41271244370208671 0 0.251688116757742 0.43543122577928522 0 0.27544818717938579 0.42763114652684642 0 0.251688116757742 0.43543122577928522 0 0.26668446615578989 0.44102389028441302 0 0.27544818717938579 0.42763114652684642 0 0.251688116757742 0.43543122577928522 0 0.27544818717938579 0.42763114652684642 0 0.25815048972283039 0.41271244370208671 0 0.251688116757742 0.43543122577928522 0 0.245295227055075 0.38280585108560827 0 0.26066345712785771 0.39391605678605002 0 0.27351960389676611 0.37997551674872021 0 0.245295227055075 0.38280585108560827 0 0.26239491884529309 0.37692961956979082 0 0.27351960389676611 0.37997551674872021 0 0.245295227055075 0.38280585108560827 0 0.26239491884529309 0.37692961956979082 0 0.25142039725092957 0.37655114140978863 0 0.245295227055075 0.38280585108560827 0 0.27351960389676611 0.37997551674872021 0 0.26239491884529309 0.37692961956979082 0 0.25142039725092957 0.37655114140978863 0 0.25834993716373061 0.37418453293975129 0 0.245295227055075 0.38280585108560827 0 0.25007708032583348 0.39237551745951882 0 0.26066345712785771 0.39391605678605002 0 0.25815048972283039 0.41271244370208671 0 0.26066345712785771 0.39391605678605002 0 0.27021985131433729 0.4021722006486671 0 0.25815048972283039 0.41271244370208671 0 0.25007708032583348 0.39237551745951882 0 0.26066345712785771 0.39391605678605002 0 0.27943607946475879 0.41153401637783971 0 0.27021985131433729 0.4021722006486671 0 0.28068272691517548 0.39241795546242098 0 0.26066345712785771 0.39391605678605002 0 0.27166114124435758 0.39208992565366318 0 0.27021985131433729 0.4021722006486671 0 0.27943607946475879 0.41153401637783971 0 0.28068272691517548 0.39241795546242098 0 0.27166114124435758 0.39208992565366318 0 0.27021985131433729 0.4021722006486671 0 0.28068272691517548 0.39241795546242098 0 0.28068272691517548 0.39241795546242098 0 0.27351960389676611 0.37997551674872021 0 0.28781678709037539 0.38801973720523952 0 0.28068272691517548 0.39241795546242098 0 0.27351960389676611 0.37997551674872021 0 0.27166114124435758 0.39208992565366318 0 0.28068272691517548 0.39241795546242098 0 0.27351960389676611 0.37997551674872021 0 0.26066345712785771 0.39391605678605002 0 0.27166114124435758 0.39208992565366318 0 0.27351960389676611 0.37997551674872021 0 0.26239491884529309 0.37692961956979082 0 0.26917928519803269 0.37724862686579541 0 0.27351960389676611 0.37997551674872021 0 0.26239491884529309 0.37692961956979082 0 0.26917928519803269 0.37724862686579541 0 0.26830797942023471 0.37389423251938941 0 0.27249463862983708 0.37819513862528159 0 0.27351960389676611 0.37997551674872021 0 0.26917928519803269 0.37724862686579541 0 0.27249463862983708 0.37819513862528159 0 0.27351960389676611 0.37997551674872021 0 0.26917928519803269 0.37724862686579541 0 0.27249463862983708 0.37819513862528159 0 0.26830797942023471 0.37389423251938941 0 0.27249463862983708 0.37819513862528159 0 0.27351960389676611 0.37997551674872021 0 0.2801954278592354 0.36788226301559329 0 0.27351960389676611 0.37997551674872021 0 0.29567686667290638 0.37775359128342262 0 0.2801954278592354 0.36788226301559329 0 0.27351960389676611 0.37997551674872021 0 0.29567686667290638 0.37775359128342262 0 0.29567686667290638 0.37775359128342262 0 0.28781678709037539 0.38801973720523952 0 0.29594530071756492 0.39374922287009728 0 0.27351960389676611 0.37997551674872021 0 0.29567686667290638 0.37775359128342262 0 0.28781678709037539 0.38801973720523952 0 0.27943607946475879 0.41153401637783971 0 0.28068272691517548 0.39241795546242098 0 0.28539763621488839 0.40060781480890512 0 0.28068272691517548 0.39241795546242098 0 0.28539763621488839 0.40060781480890512 0 0.28068272691517548 0.39241795546242098 0 0.28781678709037539 0.38801973720523952 0 0.28539763621488839 0.40060781480890512 0 0.28781678709037539 0.38801973720523952 0 0.28539763621488839 0.40060781480890512 0 0.29594530071756492 0.39374922287009728 0 0.28539763621488839 0.40060781480890512 0 0.29594530071756492 0.39374922287009728 0 0.29979739280685253 0.40439478968912362 0 0.31097331250974652 0.41174786302432442 0 0.29979739280685253 0.40439478968912362 0 0.31002954998428639 0.39491585739063673 0 0.29594530071756492 0.39374922287009728 0 0.29979739280685253 0.40439478968912362 0 0.31002954998428639 0.39491585739063673 0 0.29567686667290638 0.37775359128342262 0 0.31002954998428639 0.39491585739063673 0 0.31783412944904649 0.37553166581812392 0 0.29567686667290638 0.37775359128342262 0 0.31783412944904649 0.37553166581812392 0 0.29567686667290638 0.37775359128342262 0 0.29594530071756492 0.39374922287009728 0 0.31002954998428639 0.39491585739063673 0 0.31002954998428639 0.39491585739063673 0 0.31783412944904649 0.37553166581812392 0 0.33189046331220601 0.39476307917841702 0 0.31783412944904649 0.37553166581812392 0 0.33189046331220601 0.39476307917841702 0 0.33999139222518671 0.37330974035282533 0 0.33189046331220601 0.39476307917841702 0 0.35177940500103699 0.386694713826921 0 0.33999139222518671 0.37330974035282533 0 0.33189046331220601 0.39476307917841702 0 0.32190137555126708 0.40658460228003301 0 0.33200455357330882 0.41570387710326667 0 0.33189046331220601 0.39476307917841702 0 0.3465945275664587 0.4105850031443391 0 0.35177940500103699 0.386694713826921 0 0.31002954998428639 0.39491585739063673 0 0.33189046331220601 0.39476307917841702 0 0.32190137555126708 0.40658460228003301 0 0.31097331250974652 0.41174786302432442 0 0.31002954998428639 0.39491585739063673 0 0.32190137555126708 0.40658460228003301 0 0.31097331250974652 0.41174786302432442 0 0.32217232403792739 0.41864308367512942 0 0.32190137555126708 0.40658460228003301 0 0.31097331250974652 0.41174786302432442 0 0.32217232403792739 0.41864308367512942 0 0.31532519964112737 0.42757557554631448 0 0.32217232403792739 0.41864308367512942 0 0.32805898084011381 0.42917220187992522 0 0.33200455357330882 0.41570387710326667 0 0.32217232403792739 0.41864308367512942 0 0.32190137555126708 0.40658460228003301 0 0.33200455357330882 0.41570387710326667 0 0.32217232403792739 0.41864308367512942 0 0.31532519964112737 0.42757557554631448 0 0.32805898084011381 0.42917220187992522 0 0.32495171500007258 0.44306470341757698 0 0.31532519964112737 0.42757557554631448 0 0.32805898084011381 0.42917220187992522 0 0.32805898084011381 0.42917220187992522 0 0.34140965013187979 0.43447529246175698 0 0.33200455357330882 0.41570387710326667 0 0.32495171500007258 0.44306470341757698 0 0.32805898084011381 0.42917220187992522 0 0.34140965013187979 0.43447529246175698 0 0.33948218256285728 0.44335645859440859 0 0.34140965013187979 0.43447529246175698 0 0.34916694671533127 0.43042675248831341 0 0.33189046331220601 0.39476307917841702 0 0.33200455357330882 0.41570387710326667 0 0.3465945275664587 0.4105850031443391 0 0.34140965013187979 0.43447529246175698 0 0.33200455357330882 0.41570387710326667 0 0.3465945275664587 0.4105850031443391 0 0.35752449792488461 0.41521426553254559 0 0.3465945275664587 0.4105850031443391 0 0.3625374519891561 0.40146012812044191 0 0.35752449792488461 0.41521426553254559 0 0.3465945275664587 0.4105850031443391 0 0.34916694671533127 0.43042675248831341 0 0.34140965013187979 0.43447529246175698 0 0.3465945275664587 0.4105850031443391 0 0.34140965013187979 0.43447529246175698 0 0.3465945275664587 0.4105850031443391 0 0.34916694671533127 0.43042675248831341 0 0.33948218256285728 0.44335645859440859 0 0.34916694671533127 0.43042675248831341 0 0.34140965013187979 0.43447529246175698 0 0.34916694671533127 0.43042675248831341 0 0.35222552074897989 0.4425644811531203 0 0.34916694671533127 0.43042675248831341 0 0.36152889598394711 0.43391893951818389 0 0.34916694671533127 0.43042675248831341 0 0.36152889598394711 0.43391893951818389 0 0.37151639960737531 0.41876255318323158 0 0.36152889598394711 0.43391893951818389 0 0.37156008541952368 0.43516143078289199 0 0.37151639960737531 0.41876255318323158 0 0.34916694671533127 0.43042675248831341 0 0.37151639960737531 0.41876255318323158 0 0.37151639960737531 0.41876255318323158 0 0.3625374519891561 0.40146012812044191 0 0.37798391607034459 0.40349356389224378 0 0.35752449792488461 0.41521426553254559 0 0.34916694671533127 0.43042675248831341 0 0.37151639960737531 0.41876255318323158 0 0.35752449792488461 0.41521426553254559 0 0.37151639960737531 0.41876255318323158 0 0.3625374519891561 0.40146012812044191 0 0.3625374519891561 0.40146012812044191 0 0.37435230135160857 0.39153951262079129 0 0.37798391607034459 0.40349356389224378 0 0.3625374519891561 0.40146012812044191 0 0.37435230135160857 0.39153951262079129 0 0.36570750737500418 0.38172864816563712 0 0.37435230135160857 0.39153951262079129 0 0.36570750737500418 0.38172864816563712 0 0.37827907591097348 0.37394343728619989 0 0.3625374519891561 0.40146012812044191 0 0.36570750737500418 0.38172864816563712 0 0.35177940500103699 0.386694713826921 0 0.36570750737500418 0.38172864816563712 0 0.35177940500103699 0.386694713826921 0 0.35696428243561529 0.3628044245095029 0 0.3465945275664587 0.4105850031443391 0 0.3625374519891561 0.40146012812044191 0 0.35177940500103699 0.386694713826921 0 0.3465945275664587 0.4105850031443391 0 0.35177940500103699 0.386694713826921 0 0.35696428243561529 0.3628044245095029 0 0.36025280546379612 0.33517156888256711 0 0.33734715662538162 0.34967196336228162 0 0.35177940500103699 0.386694713826921 0 0.35696428243561529 0.3628044245095029 0 0.33999139222518671 0.37330974035282533 0 0.35696428243561529 0.3628044245095029 0 0.33734715662538162 0.34967196336228162 0 0.33999139222518671 0.37330974035282533 0 0.35177940500103699 0.386694713826921 0 0.35696428243561529 0.3628044245095029 0 0.36570750737500418 0.38172864816563712 0 0.35696428243561529 0.3628044245095029 0 0.37827907591097348 0.37394343728619989 0 0.35696428243561529 0.3628044245095029 0 0.37150169921618531 0.35137921658423282 0 0.37827907591097348 0.37394343728619989 0 0.35696428243561529 0.3628044245095029 0 0.37150169921618531 0.35137921658423282 0 0.36025280546379612 0.33517156888256711 0 0.37150169921618531 0.35137921658423282 0 0.36025280546379612 0.33517156888256711 0 0.38270513771793641 0.33215206621442112 0 0.36025280546379612 0.33517156888256711 0 0.35685820307866872 0.30945761889153489 0 0.37724880867256738 0.30797586350392542 0 0.36025280546379612 0.33517156888256711 0 0.37724880867256738 0.30797586350392542 0 0.38270513771793641 0.33215206621442112 0 0.36025280546379612 0.33517156888256711 0 0.34186684640199583 0.32887830075810931 0 0.35685820307866872 0.30945761889153489 0 0.36025280546379612 0.33517156888256711 0 0.34186684640199583 0.32887830075810931 0 0.33734715662538162 0.34967196336228162 0 0.34186684640199583 0.32887830075810931 0 0.31950117804325229 0.33406547842574608 0 0.33734715662538162 0.34967196336228162 0 0.34186684640199583 0.32887830075810931 0 0.32802778303437907 0.31527737662774841 0 0.35685820307866872 0.30945761889153489 0 0.34186684640199583 0.32887830075810931 0 0.32802778303437907 0.31527737662774841 0 0.31950117804325229 0.33406547842574608 0 0.32802778303437907 0.31527737662774841 0 0.29919736299008959 0.32109713436396192 0 0.32802778303437907 0.31527737662774841 0 0.31950117804325229 0.33406547842574608 0 0.29919736299008959 0.32109713436396192 0 0.31950117804325229 0.33406547842574608 0 0.31338769626685697 0.35043594600498718 0 0.33734715662538162 0.34967196336228162 0 0.31338769626685697 0.35043594600498718 0 0.33734715662538162 0.34967196336228162 0 0.32640958814472332 0.3622218159436032 0 0.31783412944904649 0.37553166581812392 0 0.33999139222518671 0.37330974035282533 0 0.33734715662538162 0.34967196336228162 0 0.33999139222518671 0.37330974035282533 0 0.32640958814472332 0.3622218159436032 0 0.31783412944904649 0.37553166581812392 0 0.33999139222518671 0.37330974035282533 0 0.32640958814472332 0.3622218159436032 0 0.31783412944904649 0.37553166581812392 0 0.32640958814472332 0.3622218159436032 0 0.30564303300851298 0.36554901587939159 0 0.31338769626685697 0.35043594600498718 0 0.32640958814472332 0.3622218159436032 0 0.30564303300851298 0.36554901587939159 0 0.29567686667290638 0.37775359128342262 0 0.30564303300851298 0.36554901587939159 0 0.29335608332756968 0.35568458483854348 0 0.29567686667290638 0.37775359128342262 0 0.31783412944904649 0.37553166581812392 0 0.30564303300851298 0.36554901587939159 0 0.31338769626685697 0.35043594600498718 0 0.29335608332756968 0.35568458483854348 0 0.29718022294081109 0.33903214943738852 0 0.31338769626685697 0.35043594600498718 0 0.30564303300851298 0.36554901587939159 0 0.29335608332756968 0.35568458483854348 0 0.29335608332756968 0.35568458483854348 0 0.28194994668015738 0.34438764150439399 0 0.29718022294081109 0.33903214943738852 0 0.29335608332756968 0.35568458483854348 0 0.28194994668015738 0.34438764150439399 0 0.28025773426081291 0.35580044610356337 0 0.29567686667290638 0.37775359128342262 0 0.29335608332756968 0.35568458483854348 0 0.2801954278592354 0.36788226301559329 0 0.29335608332756968 0.35568458483854348 0 0.2801954278592354 0.36788226301559329 0 0.28025773426081291 0.35580044610356337 0 0.27249463862983708 0.37819513862528159 0 0.2801954278592354 0.36788226301559329 0 0.27293956575688322 0.36874112332497921 0 0.27249463862983708 0.37819513862528159 0 0.27293956575688322 0.36874112332497921 0 0.26830797942023471 0.37389423251938941 0 0.27293956575688322 0.36874112332497921 0 0.26726488907382773 0.36951693215802828 0 0.26830797942023471 0.37389423251938941 0 0.26726488907382773 0.36951693215802828 0 0.26830797942023471 0.37389423251938941 0 0.26192927255472359 0.37062351937439297 0 0.27293956575688322 0.36874112332497921 0 0.27350538574587052 0.36047677003542222 0 0.2646933406860964 0.36191625852985088 0 0.27293956575688322 0.36874112332497921 0 0.26726488907382773 0.36951693215802828 0 0.2646933406860964 0.36191625852985088 0 0.2801954278592354 0.36788226301559329 0 0.27350538574587052 0.36047677003542222 0 0.28025773426081291 0.35580044610356337 0 0.2801954278592354 0.36788226301559329 0 0.27293956575688322 0.36874112332497921 0 0.27350538574587052 0.36047677003542222 0 0.27350538574587052 0.36047677003542222 0 0.28025773426081291 0.35580044610356337 0 0.27228182769123133 0.35057097112386398 0 0.27228182769123133 0.35057097112386398 0 0.2646933406860964 0.36191625852985088 0 0.2612742502626878 0.34195882196054928 0 0.28194994668015738 0.34438764150439399 0 0.27228182769123133 0.35057097112386398 0 0.2730344821003558 0.33862398375575919 0 0.28194994668015738 0.34438764150439399 0 0.28025773426081291 0.35580044610356337 0 0.27228182769123133 0.35057097112386398 0 0.27350538574587052 0.36047677003542222 0 0.27228182769123133 0.35057097112386398 0 0.2646933406860964 0.36191625852985088 0 0.25335459622779249 0.35202689044311691 0 0.25030429400542209 0.36146110213964461 0 0.2612742502626878 0.34195882196054928 0 0.25030429400542209 0.36146110213964461 0 0.2646933406860964 0.36191625852985088 0 0.2612742502626878 0.34195882196054928 0 0.25030429400542209 0.36146110213964461 0 0.2612742502626878 0.34195882196054928 0 0.25030429400542209 0.36146110213964461 0 0.2646933406860964 0.36191625852985088 0 0.25800736091712723 0.36670202101566518 0 0.25030429400542209 0.36146110213964461 0 0.25447401943894438 0.36957141166756902 0 0.25800736091712723 0.36670202101566518 0 0.24896054609932669 0.37109941323554652 0 0.25030429400542209 0.36146110213964461 0 0.25447401943894438 0.36957141166756902 0 0.24896054609932669 0.37109941323554652 0 0.25142039725092957 0.37655114140978863 0 0.25447401943894438 0.36957141166756902 0 0.25142039725092957 0.37655114140978863 0 0.25447401943894438 0.36957141166756902 0 0.25834993716373061 0.37418453293975129 0 0.26726488907382773 0.36951693215802828 0 0.26192927255472359 0.37062351937439297 0 0.2646933406860964 0.36191625852985088 0 0.25447401943894438 0.36957141166756902 0 0.26192927255472359 0.37062351937439297 0 0.25800736091712723 0.36670202101566518 0 0.26239491884529309 0.37692961956979082 0 0.25834993716373061 0.37418453293975129 0 0.26192927255472359 0.37062351937439297 0 0.25447401943894438 0.36957141166756902 0 0.25834993716373061 0.37418453293975129 0 0.26192927255472359 0.37062351937439297 0 0.26239491884529309 0.37692961956979082 0 0.26830797942023471 0.37389423251938941 0 0.26192927255472359 0.37062351937439297 0 0.26192927255472359 0.37062351937439297 0 0.2646933406860964 0.36191625852985088 0 0.25800736091712723 0.36670202101566518 0 0.25526367536650069 0.32053136070375321 0 0.25606395296601869 0.33142741492329331 0 0.26829524191285459 0.31860013410602961 0 0.25606395296601869 0.33142741492329331 0 0.26829524191285459 0.31860013410602961 0 0.25606395296601869 0.33142741492329331 0 0.26694056354374168 0.3288998718659415 0 0.26829524191285459 0.31860013410602961 0 0.25911307558366442 0.31320357626744072 0 0.26829524191285459 0.31860013410602961 0 0.26422323395388653 0.30807458031033508 0 0.25911307558366442 0.31320357626744072 0 0.25526367536650069 0.32053136070375321 0 0.26829524191285459 0.31860013410602961 0 0.24893864919030859 0.31594094937848233 0 0.25911307558366442 0.31320357626744072 0 0.25526367536650069 0.32053136070375321 0 0.2457116025576585 0.3236052478594541 0 0.25526367536650069 0.32053136070375321 0 0.25606395296601869 0.33142741492329331 0 0.25606395296601869 0.33142741492329331 0 0.25127893477613811 0.34041357370461328 0 0.26694056354374168 0.3288998718659415 0 0.25335459622779249 0.35202689044311691 0 0.25127893477613811 0.34041357370461328 0 0.26694056354374168 0.3288998718659415 0 0.25335459622779249 0.35202689044311691 0 0.26694056354374168 0.3288998718659415 0 0.2440697518618784 0.33296775494587461 0 0.25606395296601869 0.33142741492329331 0 0.25127893477613811 0.34041357370461328 0 0.25335459622779249 0.35202689044311691 0 0.2612742502626878 0.34195882196054928 0 0.26694056354374168 0.3288998718659415 0 0.2612742502626878 0.34195882196054928 0 0.2698871000911684 0.32664698237283429 0 0.2612742502626878 0.34195882196054928 0 0.2730344821003558 0.33862398375575919 0 0.2698871000911684 0.32664698237283429 0 0.2612742502626878 0.34195882196054928 0 0.26694056354374168 0.3288998718659415 0 0.2698871000911684 0.32664698237283429 0 0.27228182769123133 0.35057097112386398 0 0.2612742502626878 0.34195882196054928 0 0.2730344821003558 0.33862398375575919 0 0.28194994668015738 0.34438764150439399 0 0.2730344821003558 0.33862398375575919 0 0.28413793133136162 0.33391737895558149 0 0.2730344821003558 0.33862398375575919 0 0.2698871000911684 0.32664698237283429 0 0.28413793133136162 0.33391737895558149 0 0.26694056354374168 0.3288998718659415 0 0.27224420651995351 0.32245654178145389 0 0.2805265308596907 0.30577285328876591 0 0.26694056354374168 0.3288998718659415 0 0.26829524191285459 0.31860013410602961 0 0.2805265308596907 0.30577285328876591 0 0.27224420651995351 0.32245654178145389 0 0.28219498452177122 0.31318237028840851 0 0.28321416277721961 0.30295426160235872 0 0.26694056354374168 0.3288998718659415 0 0.2805265308596907 0.30577285328876591 0 0.27224420651995351 0.32245654178145389 0 0.28321416277721961 0.30295426160235872 0 0.2698871000911684 0.32664698237283429 0 0.27224420651995351 0.32245654178145389 0 0.28316704925797248 0.31792699956179082 0 0.26694056354374168 0.3288998718659415 0 0.2698871000911684 0.32664698237283429 0 0.27224420651995351 0.32245654178145389 0 0.2698871000911684 0.32664698237283429 0 0.27224420651995351 0.32245654178145389 0 0.27224420651995351 0.32245654178145389 0 0.28316704925797248 0.31792699956179082 0 0.28219498452177122 0.31318237028840851 0 0.2698871000911684 0.32664698237283429 0 0.29919736299008959 0.32109713436396192 0 0.28316704925797248 0.31792699956179082 0 0.28219498452177122 0.31318237028840851 0 0.29015451953193888 0.30939167820803049 0 0.2698871000911684 0.32664698237283429 0 0.28413793133136162 0.33391737895558149 0 0.29919736299008959 0.32109713436396192 0 0.2698871000911684 0.32664698237283429 0 0.28316704925797248 0.31792699956179082 0 0.29919736299008959 0.32109713436396192 0 0.28316704925797248 0.31792699956179082 0 0.29919736299008959 0.32109713436396192 0 0.29015451953193888 0.30939167820803049 0 0.28413793133136162 0.33391737895558149 0 0.29718022294081109 0.33903214943738852 0 0.29919736299008959 0.32109713436396192 0 0.28194994668015738 0.34438764150439399 0 0.28413793133136162 0.33391737895558149 0 0.29718022294081109 0.33903214943738852 0 0.31950117804325229 0.33406547842574608 0 0.29718022294081109 0.33903214943738852 0 0.29919736299008959 0.32109713436396192 0 0.31950117804325229 0.33406547842574608 0 0.31338769626685697 0.35043594600498718 0 0.29718022294081109 0.33903214943738852 0 0.32802778303437907 0.31527737662774841 0 0.29919736299008959 0.32109713436396192 0 0.30981635111461642 0.3065395168645037 0 0.29919736299008959 0.32109713436396192 0 0.30981635111461642 0.3065395168645037 0 0.29920314177399632 0.30498030282098748 0 0.30981635111461642 0.3065395168645037 0 0.30353997395512627 0.29603837313795051 0 0.31911349381949039 0.29530439737187009 0 0.29784761896864342 0.29759622574888328 0 0.29920314177399632 0.30498030282098748 0 0.30353997395512627 0.29603837313795051 0 0.30981635111461642 0.3065395168645037 0 0.29920314177399632 0.30498030282098748 0 0.30353997395512627 0.29603837313795051 0 0.30984802019540519 0.28761311508632809 0 0.29641925913436168 0.28910572283197039 0 0.30962435549150352 0.27525718406158167 0 0.30984802019540519 0.28761311508632809 0 0.30353997395512627 0.29603837313795051 0 0.31911349381949039 0.29530439737187009 0 0.30984802019540519 0.28761311508632809 0 0.30353997395512627 0.29603837313795051 0 0.29641925913436168 0.28910572283197039 0 0.29784761896864342 0.29759622574888328 0 0.30353997395512627 0.29603837313795051 0 0.29641925913436168 0.28910572283197039 0 0.29641925913436168 0.28910572283197039 0 0.30962435549150352 0.27525718406158167 0 0.29641925913436168 0.28910572283197039 0 0.30015400292998878 0.28034708690549009 0 0.30962435549150352 0.27525718406158167 0 0.29140708011148297 0.28838897386648871 0 0.29641925913436168 0.28910572283197039 0 0.30015400292998878 0.28034708690549009 0 0.28941025286646821 0.28461294843607993 0 0.28938563945081658 0.29069223634044938 0 0.2919794491567923 0.28121843359307991 0 0.29140708011148297 0.28838897386648871 0 0.29851027786041562 0.27576097887558332 0 0.28938563945081658 0.29069223634044938 0 0.2919794491567923 0.28121843359307991 0 0.29851027786041562 0.27576097887558332 0 0.28938563945081658 0.29069223634044938 0 0.29851027786041562 0.27576097887558332 0 0.29140708011148297 0.28838897386648871 0 0.28938563945081658 0.29069223634044938 0 0.29851027786041562 0.27576097887558332 0 0.29140708011148297 0.28838897386648871 0 0.30015400292998878 0.28034708690549009 0 0.29851027786041562 0.27576097887558332 0 0.28941025286646821 0.28461294843607993 0 0.2919794491567923 0.28121843359307991 0 0.28959759121843048 0.28054344322512531 0 0.29784761896864342 0.29759622574888328 0 0.29641925913436168 0.28910572283197039 0 0.29222810101108931 0.30026050420462519 0 0.29641925913436168 0.28910572283197039 0 0.28321416277721961 0.30295426160235872 0 0.29140708011148297 0.28838897386648871 0 0.29641925913436168 0.28910572283197039 0 0.28321416277721961 0.30295426160235872 0 0.29140708011148297 0.28838897386648871 0 0.28321416277721961 0.30295426160235872 0 0.28938563945081658 0.29069223634044938 0 0.28500175483514989 0.29385124616225949 0 0.2805265308596907 0.30577285328876591 0 0.29140708011148297 0.28838897386648871 0 0.28938563945081658 0.29069223634044938 0 0.28321416277721961 0.30295426160235872 0 0.28209321125599218 0.29655074951119442 0 0.28253593249777198 0.29353978318545948 0 0.27944390847968448 0.29279266607126803 0 0.28209321125599218 0.29655074951119442 0 0.28253593249777198 0.29353978318545948 0 0.28500175483514989 0.29385124616225949 0 0.28500175483514989 0.29385124616225949 0 0.2836048554202612 0.29096447099711609 0 0.28662230493640162 0.2890125505153921 0 0.28253593249777198 0.29353978318545948 0 0.28500175483514989 0.29385124616225949 0 0.2836048554202612 0.29096447099711609 0 0.2836048554202612 0.29096447099711609 0 0.28126722504441859 0.28890735401930451 0 0.27944390847968448 0.29279266607126803 0 0.28253593249777198 0.29353978318545948 0 0.2836048554202612 0.29096447099711609 0 0.27944390847968448 0.29279266607126803 0 0.28938563945081658 0.29069223634044938 0 0.28500175483514989 0.29385124616225949 0 0.28662230493640162 0.2890125505153921 0 0.28941025286646821 0.28461294843607993 0 0.28938563945081658 0.29069223634044938 0 0.28833997242290033 0.28736296948293638 0 0.28938563945081658 0.29069223634044938 0 0.28833997242290033 0.28736296948293638 0 0.28662230493640162 0.2890125505153921 0 0.28833997242290033 0.28736296948293638 0 0.28693449694773221 0.28561694186610459 0 0.28662230493640162 0.2890125505153921 0 0.28941025286646821 0.28461294843607993 0 0.28833997242290033 0.28736296948293638 0 0.28693449694773221 0.28561694186610459 0 0.28693449694773221 0.28561694186610459 0 0.28409394682323857 0.28703203254725801 0 0.28448229638524031 0.28436095797444227 0 0.28693449694773221 0.28561694186610459 0 0.28662230493640162 0.2890125505153921 0 0.28409394682323857 0.28703203254725801 0 0.2836048554202612 0.29096447099711609 0 0.28126722504441859 0.28890735401930451 0 0.28409394682323857 0.28703203254725801 0 0.2836048554202612 0.29096447099711609 0 0.28662230493640162 0.2890125505153921 0 0.28409394682323857 0.28703203254725801 0 0.28126722504441859 0.28890735401930451 0 0.28409394682323857 0.28703203254725801 0 0.28090825696695781 0.28514214383721581 0 0.28409394682323857 0.28703203254725801 0 0.28448229638524031 0.28436095797444227 0 0.28090825696695781 0.28514214383721581 0 0.28448229638524031 0.28436095797444227 0 0.28366701105559589 0.28144624318939498 0 0.28090825696695781 0.28514214383721581 0 0.28448229638524031 0.28436095797444227 0 0.28366701105559589 0.28144624318939498 0 0.28680777013267678 0.28256742843223809 0 0.28941025286646821 0.28461294843607993 0 0.28680777013267678 0.28256742843223809 0 0.28959759121843048 0.28054344322512531 0 0.28693449694773221 0.28561694186610459 0 0.28448229638524031 0.28436095797444227 0 0.28680777013267678 0.28256742843223809 0 0.28941025286646821 0.28461294843607993 0 0.28693449694773221 0.28561694186610459 0 0.28680777013267678 0.28256742843223809 0 0.29919736299008959 0.32109713436396192 0 0.29920314177399632 0.30498030282098748 0 0.29015451953193888 0.30939167820803049 0 0.29920314177399632 0.30498030282098748 0 0.29015451953193888 0.30939167820803049 0 0.29222810101108931 0.30026050420462519 0 0.29784761896864342 0.29759622574888328 0 0.29920314177399632 0.30498030282098748 0 0.29222810101108931 0.30026050420462519 0 0.29641925913436168 0.28910572283197039 0 0.29222810101108931 0.30026050420462519 0 0.28321416277721961 0.30295426160235872 0 0.28938563945081658 0.29069223634044938 0 0.2805265308596907 0.30577285328876591 0 0.28938563945081658 0.29069223634044938 0 0.28321416277721961 0.30295426160235872 0 0.2805265308596907 0.30577285328876591 0 0.29015451953193888 0.30939167820803049 0 0.29222810101108931 0.30026050420462519 0 0.28321416277721961 0.30295426160235872 0 0.28209321125599218 0.29655074951119442 0 0.28500175483514989 0.29385124616225949 0 0.2805265308596907 0.30577285328876591 0 0.28321416277721961 0.30295426160235872 0 0.2805265308596907 0.30577285328876591 0 0.28219498452177122 0.31318237028840851 0 0.29015451953193888 0.30939167820803049 0 0.28321416277721961 0.30295426160235872 0 0.27224420651995351 0.32245654178145389 0 0.28321416277721961 0.30295426160235872 0 0.2805265308596907 0.30577285328876591 0 0.2805265308596907 0.30577285328876591 0 0.27156842467170389 0.30897262368546902 0 0.27528413935121482 0.30382544488093272 0 0.26829524191285459 0.31860013410602961 0 0.2805265308596907 0.30577285328876591 0 0.27156842467170389 0.30897262368546902 0 0.26829524191285459 0.31860013410602961 0 0.2805265308596907 0.30577285328876591 0 0.26829524191285459 0.31860013410602961 0 0.27156842467170389 0.30897262368546902 0 0.26422323395388653 0.30807458031033508 0 0.27156842467170389 0.30897262368546902 0 0.27034652026731409 0.30337713881935691 0 0.27528413935121482 0.30382544488093272 0 0.27156842467170389 0.30897262368546902 0 0.27034652026731409 0.30337713881935691 0 0.26422323395388653 0.30807458031033508 0 0.26964601490358769 0.2976768527696102 0 0.26387116689879142 0.29425163607354432 0 0.26445263044544037 0.3003880350366363 0 0.27034652026731409 0.30337713881935691 0 0.26964601490358769 0.2976768527696102 0 0.26445263044544037 0.3003880350366363 0 0.27034652026731409 0.30337713881935691 0 0.26422323395388653 0.30807458031033508 0 0.26445263044544037 0.3003880350366363 0 0.26964601490358769 0.2976768527696102 0 0.27476493374151278 0.29975039123946301 0 0.27413064477214999 0.29522187747406847 0 0.27034652026731409 0.30337713881935691 0 0.26964601490358769 0.2976768527696102 0 0.27476493374151278 0.29975039123946301 0 0.27476493374151278 0.29975039123946301 0 0.27770960021611008 0.29709607833170087 0 0.27413064477214999 0.29522187747406847 0 0.28209321125599218 0.29655074951119442 0 0.2805265308596907 0.30577285328876591 0 0.27832272699229521 0.30059800695756922 0 0.27476493374151278 0.29975039123946301 0 0.27770960021611008 0.29709607833170087 0 0.27832272699229521 0.30059800695756922 0 0.27476493374151278 0.29975039123946301 0 0.27528413935121482 0.30382544488093272 0 0.27832272699229521 0.30059800695756922 0 0.27034652026731409 0.30337713881935691 0 0.27476493374151278 0.29975039123946301 0 0.27528413935121482 0.30382544488093272 0 0.2805265308596907 0.30577285328876591 0 0.27528413935121482 0.30382544488093272 0 0.27832272699229521 0.30059800695756922 0 0.28209321125599218 0.29655074951119442 0 0.27770960021611008 0.29709607833170087 0 0.27832272699229521 0.30059800695756922 0 0.28209321125599218 0.29655074951119442 0 0.27770960021611008 0.29709607833170087 0 0.27944390847968448 0.29279266607126803 0 0.28126722504441859 0.28890735401930451 0 0.27944390847968448 0.29279266607126803 0 0.2782851575319511 0.28860545664366433 0 0.27944390847968448 0.29279266607126803 0 0.27409117204476208 0.29080606830489902 0 0.27413064477214999 0.29522187747406847 0 0.27944390847968448 0.29279266607126803 0 0.27409117204476208 0.29080606830489902 0 0.2782851575319511 0.28860545664366433 0 0.27770960021611008 0.29709607833170087 0 0.27944390847968448 0.29279266607126803 0 0.27413064477214999 0.29522187747406847 0 0.28090825696695781 0.28514214383721581 0 0.27532393804107458 0.28563115220907498 0 0.27840897411708992 0.28037884552198628 0 0.28366701105559589 0.28144624318939498 0 0.28090825696695781 0.28514214383721581 0 0.27840897411708992 0.28037884552198628 0 0.28090825696695781 0.28514214383721581 0 0.2782851575319511 0.28860545664366433 0 0.27532393804107458 0.28563115220907498 0 0.28126722504441859 0.28890735401930451 0 0.28090825696695781 0.28514214383721581 0 0.2782851575319511 0.28860545664366433 0 0.27409117204476208 0.29080606830489902 0 0.2782851575319511 0.28860545664366433 0 0.27532393804107458 0.28563115220907498 0 0.27532393804107458 0.28563115220907498 0 0.27158428355968112 0.2812793106196102 0 0.27840897411708992 0.28037884552198628 0 0.27532393804107458 0.28563115220907498 0 0.27158428355968112 0.2812793106196102 0 0.26996314054930232 0.28660768003988191 0 0.27409117204476208 0.29080606830489902 0 0.27532393804107458 0.28563115220907498 0 0.26996314054930232 0.28660768003988191 0 0.26996314054930232 0.28660768003988191 0 0.26619702804327672 0.28220708392203209 0 0.26329211319188589 0.2883080645925597 0 0.26996314054930232 0.28660768003988191 0 0.26916570872674661 0.2921453632090939 0 0.26329211319188589 0.2883080645925597 0 0.27158428355968112 0.2812793106196102 0 0.26996314054930232 0.28660768003988191 0 0.26619702804327672 0.28220708392203209 0 0.26964601490358769 0.2976768527696102 0 0.27413064477214999 0.29522187747406847 0 0.26916570872674661 0.2921453632090939 0 0.27409117204476208 0.29080606830489902 0 0.26996314054930232 0.28660768003988191 0 0.26916570872674661 0.2921453632090939 0 0.27409117204476208 0.29080606830489902 0 0.27413064477214999 0.29522187747406847 0 0.26916570872674661 0.2921453632090939 0 0.26964601490358769 0.2976768527696102 0 0.26916570872674661 0.2921453632090939 0 0.26387116689879142 0.29425163607354432 0 0.26387116689879142 0.29425163607354432 0 0.26329211319188589 0.2883080645925597 0 0.25595534788311608 0.2919185536130785 0 0.26387116689879142 0.29425163607354432 0 0.25595534788311608 0.2919185536130785 0 0.25922681826092858 0.29769779923383299 0 0.26916570872674661 0.2921453632090939 0 0.26387116689879142 0.29425163607354432 0 0.26329211319188589 0.2883080645925597 0 0.26329211319188589 0.2883080645925597 0 0.25521062939157718 0.28554733585488562 0 0.25595534788311608 0.2919185536130785 0 0.26329211319188589 0.2883080645925597 0 0.26086416433664789 0.28310999173961238 0 0.25521062939157718 0.28554733585488562 0 0.26619702804327672 0.28220708392203209 0 0.26329211319188589 0.2883080645925597 0 0.26086416433664789 0.28310999173961238 0 0.24725213083804989 0.2921365449492937 0 0.24885806748521691 0.28188651867727799 0 0.25521062939157718 0.28554733585488562 0 0.26086416433664789 0.28310999173961238 0 0.25521062939157718 0.28554733585488562 0 0.25617015701118329 0.27942219511084121 0 0.24885806748521691 0.28188651867727799 0 0.25521062939157718 0.28554733585488562 0 0.25617015701118329 0.27942219511084121 0 0.24725213083804989 0.2921365449492937 0 0.25521062939157718 0.28554733585488562 0 0.25595534788311608 0.2919185536130785 0 0.24725213083804989 0.2921365449492937 0 0.25595534788311608 0.2919185536130785 0 0.25291198300887707 0.29853049589907638 0 0.25595534788311608 0.2919185536130785 0 0.25291198300887707 0.29853049589907638 0 0.25922681826092858 0.29769779923383299 0 0.2468421475835044 0.30296286057387017 0 0.25291198300887707 0.29853049589907638 0 0.25251238686667982 0.30771573563745053 0 0.25291198300887707 0.29853049589907638 0 0.25251238686667982 0.30771573563745053 0 0.25894296306841802 0.30340027554682958 0 0.25291198300887707 0.29853049589907638 0 0.25922681826092858 0.29769779923383299 0 0.25894296306841802 0.30340027554682958 0 0.25911307558366442 0.31320357626744072 0 0.25251238686667982 0.30771573563745053 0 0.25894296306841802 0.30340027554682958 0 0.24893864919030859 0.31594094937848233 0 0.25911307558366442 0.31320357626744072 0 0.25251238686667982 0.30771573563745053 0 0.25911307558366442 0.31320357626744072 0 0.26422323395388653 0.30807458031033508 0 0.25894296306841802 0.30340027554682958 0 0.26422323395388653 0.30807458031033508 0 0.26445263044544037 0.3003880350366363 0 0.25894296306841802 0.30340027554682958 0 0.26387116689879142 0.29425163607354432 0 0.26445263044544037 0.3003880350366363 0 0.25922681826092858 0.29769779923383299 0 0.26445263044544037 0.3003880350366363 0 0.25922681826092858 0.29769779923383299 0 0.25894296306841802 0.30340027554682958 0 0.2592285574020774 0.26287283465097477 0 0.25408234079549741 0.26515186640474309 0 0.26268703273566713 0.26720862553161268 0 0.26395008498089778 0.26077561591840459 0 0.26162222527153961 0.2546469959406813 0 0.25619477109624739 0.25835523074913869 0 0.2592285574020774 0.26287283465097477 0 0.26395008498089778 0.26077561591840459 0 0.25619477109624739 0.25835523074913869 0 0.26395008498089778 0.26077561591840459 0 0.26268703273566713 0.26720862553161268 0 0.2697129764883423 0.26378050597191899 0 0.2592285574020774 0.26287283465097477 0 0.26395008498089778 0.26077561591840459 0 0.26268703273566713 0.26720862553161268 0 0.26395008498089778 0.26077561591840459 0 0.26162222527153961 0.2546469959406813 0 0.26856392226194759 0.25755774934894421 0 0.26162222527153961 0.2546469959406813 0 0.27032403842469399 0.25101019468977348 0 0.26089251030042121 0.24810771000014839 0 0.26162222527153961 0.2546469959406813 0 0.26089251030042121 0.24810771000014839 0 0.25423555326891639 0.24942618361914939 0 0.24922957066550369 0.25696010310009199 0 0.25619477109624739 0.25835523074913869 0 0.25423555326891639 0.24942618361914939 0 0.26162222527153961 0.2546469959406813 0 0.25619477109624739 0.25835523074913869 0 0.25423555326891639 0.24942618361914939 0 0.24922957066550369 0.25696010310009199 0 0.25619477109624739 0.25835523074913869 0 0.25408234079549741 0.26515186640474309 0 0.2592285574020774 0.26287283465097477 0 0.25619477109624739 0.25835523074913869 0 0.25408234079549741 0.26515186640474309 0 0.24946214105173969 0.27307760343335341 0 0.25408234079549741 0.26515186640474309 0 0.2585275612638897 0.27224477759685972 0 0.24946214105173969 0.27307760343335341 0 0.25617015701118329 0.27942219511084121 0 0.2585275612638897 0.27224477759685972 0 0.24946214105173969 0.27307760343335341 0 0.24885806748521691 0.28188651867727799 0 0.25617015701118329 0.27942219511084121 0 0.26086416433664789 0.28310999173961238 0 0.25617015701118329 0.27942219511084121 0 0.26254098131980019 0.27741951710146651 0 0.25617015701118329 0.27942219511084121 0 0.26254098131980019 0.27741951710146651 0 0.2585275612638897 0.27224477759685972 0 0.26254098131980019 0.27741951710146651 0 0.2585275612638897 0.27224477759685972 0 0.26622271466945102 0.27118885799914161 0 0.26619702804327672 0.28220708392203209 0 0.26086416433664789 0.28310999173961238 0 0.26254098131980019 0.27741951710146651 0 0.25408234079549741 0.26515186640474309 0 0.2585275612638897 0.27224477759685972 0 0.26268703273566713 0.26720862553161268 0 0.2585275612638897 0.27224477759685972 0 0.26268703273566713 0.26720862553161268 0 0.26622271466945102 0.27118885799914161 0 0.26268703273566713 0.26720862553161268 0 0.26622271466945102 0.27118885799914161 0 0.2697129764883423 0.26378050597191899 0 0.26622271466945102 0.27118885799914161 0 0.27212940081087428 0.27060178393738848 0 0.2697129764883423 0.26378050597191899 0 0.26622271466945102 0.27118885799914161 0 0.27212940081087428 0.27060178393738848 0 0.26882630754950498 0.2762996363796526 0 0.27212940081087428 0.27060178393738848 0 0.2751318660078193 0.26584584631136909 0 0.2697129764883423 0.26378050597191899 0 0.27158428355968112 0.2812793106196102 0 0.26619702804327672 0.28220708392203209 0 0.26882630754950498 0.2762996363796526 0 0.26619702804327672 0.28220708392203209 0 0.26254098131980019 0.27741951710146651 0 0.26882630754950498 0.2762996363796526 0 0.26254098131980019 0.27741951710146651 0 0.26622271466945102 0.27118885799914161 0 0.26882630754950498 0.2762996363796526 0 0.27212940081087428 0.27060178393738848 0 0.26882630754950498 0.2762996363796526 0 0.27473036346549601 0.27575429432218213 0 0.27158428355968112 0.2812793106196102 0 0.26882630754950498 0.2762996363796526 0 0.27473036346549601 0.27575429432218213 0 0.27158428355968112 0.2812793106196102 0 0.27473036346549601 0.27575429432218213 0 0.27840897411708992 0.28037884552198628 0 0.27473036346549601 0.27575429432218213 0 0.27959085449468768 0.27491190772239987 0 0.27717208629301793 0.27056794107955001 0 0.27473036346549601 0.27575429432218213 0 0.27959085449468768 0.27491190772239987 0 0.27840897411708992 0.28037884552198628 0 0.27959085449468768 0.27491190772239987 0 0.27840897411708992 0.28037884552198628 0 0.28311762811889091 0.27736916371416931 0 0.27212940081087428 0.27060178393738848 0 0.2751318660078193 0.26584584631136909 0 0.27717208629301793 0.27056794107955001 0 0.27212940081087428 0.27060178393738848 0 0.27473036346549601 0.27575429432218213 0 0.27717208629301793 0.27056794107955001 0 0.27959085449468768 0.27491190772239987 0 0.27717208629301793 0.27056794107955001 0 0.28113869245895701 0.27063859988805861 0 0.27717208629301793 0.27056794107955001 0 0.28113869245895701 0.27063859988805861 0 0.28078870425490099 0.2657875642003466 0 0.2751318660078193 0.26584584631136909 0 0.27717208629301793 0.27056794107955001 0 0.28078870425490099 0.2657875642003466 0 0.2751318660078193 0.26584584631136909 0 0.28078870425490099 0.2657875642003466 0 0.27671294313430278 0.25840051631706101 0 0.28078870425490099 0.2657875642003466 0 0.27671294313430278 0.25840051631706101 0 0.28447185085267668 0.25957189210251569 0 0.2751318660078193 0.26584584631136909 0 0.27671294313430278 0.25840051631706101 0 0.2697129764883423 0.26378050597191899 0 0.27671294313430278 0.25840051631706101 0 0.2697129764883423 0.26378050597191899 0 0.26856392226194759 0.25755774934894421 0 0.26395008498089778 0.26077561591840459 0 0.2697129764883423 0.26378050597191899 0 0.26856392226194759 0.25755774934894421 0 0.27671294313430278 0.25840051631706101 0 0.27032403842469399 0.25101019468977348 0 0.26856392226194759 0.25755774934894421 0 0.26162222527153961 0.2546469959406813 0 0.27032403842469399 0.25101019468977348 0 0.26856392226194759 0.25755774934894421 0 0.27671294313430278 0.25840051631706101 0 0.27032403842469399 0.25101019468977348 0 0.28096781835121032 0.25150032781063802 0 0.27671294313430278 0.25840051631706101 0 0.28096781835121032 0.25150032781063802 0 0.28447185085267668 0.25957189210251569 0 0.28096781835121032 0.25150032781063802 0 0.28447185085267668 0.25957189210251569 0 0.29061403765979082 0.25300935222949777 0 0.28447185085267668 0.25957189210251569 0 0.29039249588189908 0.26221078951263721 0 0.29061403765979082 0.25300935222949777 0 0.28078870425490099 0.2657875642003466 0 0.28447185085267668 0.25957189210251569 0 0.2858565022084309 0.26472911297152729 0 0.28447185085267668 0.25957189210251569 0 0.2858565022084309 0.26472911297152729 0 0.29039249588189908 0.26221078951263721 0 0.2858565022084309 0.26472911297152729 0 0.29039249588189908 0.26221078951263721 0 0.28905042176905121 0.26733111394543929 0 0.29039249588189908 0.26221078951263721 0 0.29589532938272489 0.25917539095374642 0 0.29061403765979082 0.25300935222949777 0 0.29039249588189908 0.26221078951263721 0 0.28905042176905121 0.26733111394543929 0 0.29478549441296698 0.26645979127347191 0 0.29039249588189908 0.26221078951263721 0 0.29589532938272489 0.25917539095374642 0 0.29478549441296698 0.26645979127347191 0 0.29589532938272489 0.25917539095374642 0 0.29061403765979082 0.25300935222949777 0 0.30343372429700188 0.25314302137966899 0 0.28680777013267678 0.28256742843223809 0 0.28673198923757609 0.27914052402666722 0 0.28959759121843048 0.28054344322512531 0 0.28673198923757609 0.27914052402666722 0 0.2894621955866904 0.27699573524859661 0 0.28959759121843048 0.28054344322512531 0 0.28366701105559589 0.28144624318939498 0 0.28680777013267678 0.28256742843223809 0 0.28673198923757609 0.27914052402666722 0 0.28366701105559589 0.28144624318939498 0 0.28673198923757609 0.27914052402666722 0 0.28311762811889091 0.27736916371416931 0 0.28366701105559589 0.28144624318939498 0 0.27840897411708992 0.28037884552198628 0 0.28311762811889091 0.27736916371416931 0 0.27959085449468768 0.27491190772239987 0 0.28311762811889091 0.27736916371416931 0 0.28356277896855148 0.27318138134129838 0 0.28311762811889091 0.27736916371416931 0 0.28681503729577201 0.27508168785764608 0 0.28356277896855148 0.27318138134129838 0 0.28681503729577201 0.27508168785764608 0 0.29056659073278518 0.27301794497743842 0 0.2894621955866904 0.27699573524859661 0 0.28673198923757609 0.27914052402666722 0 0.28311762811889091 0.27736916371416931 0 0.28681503729577201 0.27508168785764608 0 0.28673198923757609 0.27914052402666722 0 0.28681503729577201 0.27508168785764608 0 0.2894621955866904 0.27699573524859661 0 0.28764270608733089 0.27122565084064371 0 0.28356277896855148 0.27318138134129838 0 0.28457903828362657 0.26874420509669789 0 0.28681503729577201 0.27508168785764608 0 0.28764270608733089 0.27122565084064371 0 0.28356277896855148 0.27318138134129838 0 0.28681503729577201 0.27508168785764608 0 0.28764270608733089 0.27122565084064371 0 0.29056659073278518 0.27301794497743842 0 0.27959085449468768 0.27491190772239987 0 0.28113869245895701 0.27063859988805861 0 0.28356277896855148 0.27318138134129838 0 0.28113869245895701 0.27063859988805861 0 0.28356277896855148 0.27318138134129838 0 0.28457903828362657 0.26874420509669789 0 0.28078870425490099 0.2657875642003466 0 0.2858565022084309 0.26472911297152729 0 0.28457903828362657 0.26874420509669789 0 0.28113869245895701 0.27063859988805861 0 0.28078870425490099 0.2657875642003466 0 0.28457903828362657 0.26874420509669789 0 0.28764270608733089 0.27122565084064371 0 0.28457903828362657 0.26874420509669789 0 0.28905042176905121 0.26733111394543929 0 0.2858565022084309 0.26472911297152729 0 0.28457903828362657 0.26874420509669789 0 0.28905042176905121 0.26733111394543929 0 0.28905042176905121 0.26733111394543929 0 0.29478549441296698 0.26645979127347191 0 0.2913532459301264 0.26992317919971859 0 0.28764270608733089 0.27122565084064371 0 0.28905042176905121 0.26733111394543929 0 0.2913532459301264 0.26992317919971859 0 0.29478549441296698 0.26645979127347191 0 0.29412207167225479 0.27112078731792189 0 0.2913532459301264 0.26992317919971859 0 0.29478549441296698 0.26645979127347191 0 0.29412207167225479 0.27112078731792189 0 0.2968406833282608 0.27050851103595591 0 0.29412207167225479 0.27112078731792189 0 0.2968406833282608 0.27050851103595591 0 0.29640182561144512 0.27324579307670172 0 0.29412207167225479 0.27112078731792189 0 0.29640182561144512 0.27324579307670172 0 0.29340451330306022 0.27376039234354282 0 0.29412207167225479 0.27112078731792189 0 0.29056659073278518 0.27301794497743842 0 0.29340451330306022 0.27376039234354282 0 0.29412207167225479 0.27112078731792189 0 0.2913532459301264 0.26992317919971859 0 0.29056659073278518 0.27301794497743842 0 0.28764270608733089 0.27122565084064371 0 0.2913532459301264 0.26992317919971859 0 0.29056659073278518 0.27301794497743842 0 0.29056659073278518 0.27301794497743842 0 0.2894621955866904 0.27699573524859661 0 0.29208436892033562 0.27562780383883262 0 0.2894621955866904 0.27699573524859661 0 0.29208436892033562 0.27562780383883262 0 0.29140318759947692 0.2782632453561692 0 0.29208436892033562 0.27562780383883262 0 0.29393308836621868 0.2764620266371326 0 0.29140318759947692 0.2782632453561692 0 0.29056659073278518 0.27301794497743842 0 0.29208436892033562 0.27562780383883262 0 0.29340451330306022 0.27376039234354282 0 0.29640182561144512 0.27324579307670172 0 0.29340451330306022 0.27376039234354282 0 0.29393308836621868 0.2764620266371326 0 0.29640182561144512 0.27324579307670172 0 0.29393308836621868 0.2764620266371326 0 0.29851027786041562 0.27576097887558332 0 0.29208436892033562 0.27562780383883262 0 0.29340451330306022 0.27376039234354282 0 0.29393308836621868 0.2764620266371326 0 0.29393308836621868 0.2764620266371326 0 0.2919794491567923 0.28121843359307991 0 0.29851027786041562 0.27576097887558332 0 0.29393308836621868 0.2764620266371326 0 0.2919794491567923 0.28121843359307991 0 0.29140318759947692 0.2782632453561692 0 0.2894621955866904 0.27699573524859661 0 0.29140318759947692 0.2782632453561692 0 0.28959759121843048 0.28054344322512531 0 0.2919794491567923 0.28121843359307991 0 0.29140318759947692 0.2782632453561692 0 0.28959759121843048 0.28054344322512531 0 0.30015400292998878 0.28034708690549009 0 0.30371932246684907 0.27515986763679079 0 0.30962435549150352 0.27525718406158167 0 0.30015400292998878 0.28034708690549009 0 0.29851027786041562 0.27576097887558332 0 0.29959999744574678 0.27382368613061892 0 0.29640182561144512 0.27324579307670172 0 0.29851027786041562 0.27576097887558332 0 0.29959999744574678 0.27382368613061892 0 0.29851027786041562 0.27576097887558332 0 0.29959999744574678 0.27382368613061892 0 0.30015400292998878 0.28034708690549009 0 0.29959999744574678 0.27382368613061892 0 0.30371932246684907 0.27515986763679079 0 0.29959999744574678 0.27382368613061892 0 0.29918024662811321 0.26849240046696737 0 0.30611110277138542 0.26977498904189162 0 0.29959999744574678 0.27382368613061892 0 0.30371932246684907 0.27515986763679079 0 0.30611110277138542 0.26977498904189162 0 0.2968406833282608 0.27050851103595591 0 0.29959999744574678 0.27382368613061892 0 0.29918024662811321 0.26849240046696737 0 0.2968406833282608 0.27050851103595591 0 0.29640182561144512 0.27324579307670172 0 0.29959999744574678 0.27382368613061892 0 0.29478549441296698 0.26645979127347191 0 0.29918024662811321 0.26849240046696737 0 0.30144310323746099 0.26337350063550707 0 0.29478549441296698 0.26645979127347191 0 0.2968406833282608 0.27050851103595591 0 0.29918024662811321 0.26849240046696737 0 0.29918024662811321 0.26849240046696737 0 0.30611110277138542 0.26977498904189162 0 0.30144310323746099 0.26337350063550707 0 0.30611110277138542 0.26977498904189162 0 0.30962435549150352 0.27525718406158167 0 0.31597146555746131 0.27031763972809197 0 0.30611110277138542 0.26977498904189162 0 0.31125283698277589 0.26181136947145478 0 0.31597146555746131 0.27031763972809197 0 0.30371932246684907 0.27515986763679079 0 0.30611110277138542 0.26977498904189162 0 0.30962435549150352 0.27525718406158167 0 0.29589532938272489 0.25917539095374642 0 0.30343372429700188 0.25314302137966899 0 0.30144310323746099 0.26337350063550707 0 0.29589532938272489 0.25917539095374642 0 0.29478549441296698 0.26645979127347191 0 0.30144310323746099 0.26337350063550707 0 0.30343372429700188 0.25314302137966899 0 0.30144310323746099 0.26337350063550707 0 0.31125283698277589 0.26181136947145478 0 0.30611110277138542 0.26977498904189162 0 0.30144310323746099 0.26337350063550707 0 0.31125283698277589 0.26181136947145478 0 0.30343372429700188 0.25314302137966899 0 0.31125283698277589 0.26181136947145478 0 0.31828467619276729 0.25309829935819061 0 0.31828467619276729 0.25309829935819061 0 0.33927815850956361 0.25562047078272843 0 0.32282158622527302 0.24177072913176681 0 0.31828467619276729 0.25309829935819061 0 0.32364157804106908 0.26330086734874852 0 0.33927815850956361 0.25562047078272843 0 0.31125283698277589 0.26181136947145478 0 0.31828467619276729 0.25309829935819061 0 0.32364157804106908 0.26330086734874852 0 0.31125283698277589 0.26181136947145478 0 0.32364157804106908 0.26330086734874852 0 0.31597146555746131 0.27031763972809197 0 0.32364157804106908 0.26330086734874852 0 0.33927815850956361 0.25562047078272843 0 0.33355502901055889 0.26821925557325071 0 0.33927815850956361 0.25562047078272843 0 0.34370097534282201 0.26666284465229573 0 0.33355502901055889 0.26821925557325071 0 0.34007526523134018 0.27440046405859447 0 0.33084790162268379 0.27816162056221111 0 0.33894721423047552 0.28602663026038921 0 0.34007526523134018 0.27440046405859447 0 0.33894721423047552 0.28602663026038921 0 0.34677191413850811 0.27929759992471148 0 0.34007526523134018 0.27440046405859447 0 0.34370097534282201 0.26666284465229573 0 0.33355502901055889 0.26821925557325071 0 0.33355502901055889 0.26821925557325071 0 0.33084790162268379 0.27816162056221111 0 0.32462313773066692 0.27226386073721121 0 0.34007526523134018 0.27440046405859447 0 0.33355502901055889 0.26821925557325071 0 0.33084790162268379 0.27816162056221111 0 0.33084790162268379 0.27816162056221111 0 0.32462313773066692 0.27226386073721121 0 0.31983173937078258 0.28081694227700182 0 0.32364157804106908 0.26330086734874852 0 0.33355502901055889 0.26821925557325071 0 0.32462313773066692 0.27226386073721121 0 0.32364157804106908 0.26330086734874852 0 0.32462313773066692 0.27226386073721121 0 0.31597146555746131 0.27031763972809197 0 0.30962435549150352 0.27525718406158167 0 0.31597146555746131 0.27031763972809197 0 0.31983173937078258 0.28081694227700182 0 0.32462313773066692 0.27226386073721121 0 0.31597146555746131 0.27031763972809197 0 0.31983173937078258 0.28081694227700182 0 0.30984802019540519 0.28761311508632809 0 0.30962435549150352 0.27525718406158167 0 0.31983173937078258 0.28081694227700182 0 0.30984802019540519 0.28761311508632809 0 0.31983173937078258 0.28081694227700182 0 0.31911349381949039 0.29530439737187009 0 0.33084790162268379 0.27816162056221111 0 0.31983173937078258 0.28081694227700182 0 0.32895221427525029 0.28689026025031888 0 0.31983173937078258 0.28081694227700182 0 0.31911349381949039 0.29530439737187009 0 0.32895221427525029 0.28689026025031888 0 0.32802778303437907 0.31527737662774841 0 0.31911349381949039 0.29530439737187009 0 0.33688406795824011 0.29714361825107632 0 0.32802778303437907 0.31527737662774841 0 0.30981635111461642 0.3065395168645037 0 0.31911349381949039 0.29530439737187009 0 0.32802778303437907 0.31527737662774841 0 0.33688406795824011 0.29714361825107632 0 0.35685820307866872 0.30945761889153489 0 0.32802778303437907 0.31527737662774841 0 0.35685820307866872 0.30945761889153489 0 0.31911349381949039 0.29530439737187009 0 0.33688406795824011 0.29714361825107632 0 0.32895221427525029 0.28689026025031888 0 0.33084790162268379 0.27816162056221111 0 0.32895221427525029 0.28689026025031888 0 0.33894721423047552 0.28602663026038921 0 0.33688406795824011 0.29714361825107632 0 0.32895221427525029 0.28689026025031888 0 0.33894721423047552 0.28602663026038921 0 0.33688406795824011 0.29714361825107632 0 0.33894721423047552 0.28602663026038921 0 0.34950450683702788 0.29024968154851361 0 0.34950450683702788 0.29024968154851361 0 0.34677191413850811 0.27929759992471148 0 0.35672871189033989 0.28070826738004673 0 0.33894721423047552 0.28602663026038921 0 0.34950450683702788 0.29024968154851361 0 0.34677191413850811 0.27929759992471148 0 0.34950450683702788 0.29024968154851361 0 0.36309812400869618 0.29484034657829922 0 0.35672871189033989 0.28070826738004673 0 0.33688406795824011 0.29714361825107632 0 0.34950450683702788 0.29024968154851361 0 0.35685820307866872 0.30945761889153489 0 0.34950450683702788 0.29024968154851361 0 0.35685820307866872 0.30945761889153489 0 0.36309812400869618 0.29484034657829922 0 0.35685820307866872 0.30945761889153489 0 0.36309812400869618 0.29484034657829922 0 0.37724880867256738 0.30797586350392542 0 0.36309812400869618 0.29484034657829922 0 0.37515038956487701 0.2858103015674755 0 0.37724880867256738 0.30797586350392542 0 0.36309812400869618 0.29484034657829922 0 0.35672871189033989 0.28070826738004673 0 0.37515038956487701 0.2858103015674755 0 0.37302112077521848 0.26824512542230278 0 0.35573473079385431 0.26947021243369013 0 0.37515038956487701 0.2858103015674755 0 0.35573473079385431 0.26947021243369013 0 0.37515038956487701 0.2858103015674755 0 0.35672871189033989 0.28070826738004673 0 0.35573473079385431 0.26947021243369013 0 0.37515038956487701 0.2858103015674755 0 0.37302112077521848 0.26824512542230278 0 0.36563027200280418 0.25685232300665939 0 0.35573473079385431 0.26947021243369013 0 0.37302112077521848 0.26824512542230278 0 0.36563027200280418 0.25685232300665939 0 0.37966042738449107 0.26020509756065002 0 0.36563027200280418 0.25685232300665939 0 0.37966042738449107 0.26020509756065002 0 0.37552581321175271 0.24423443357962751 0 0.36563027200280418 0.25685232300665939 0 0.37552581321175271 0.24423443357962751 0 0.36563027200280418 0.25685232300665939 0 0.35573473079385431 0.26947021243369013 0 0.36563027200280418 0.25685232300665939 0 0.35573473079385431 0.26947021243369013 0 0.35484810687583412 0.24832752908365241 0 0.33927815850956361 0.25562047078272843 0 0.34370097534282201 0.26666284465229573 0 0.35573473079385431 0.26947021243369013 0 0.33927815850956361 0.25562047078272843 0 0.35573473079385431 0.26947021243369013 0 0.35484810687583412 0.24832752908365241 0 0.33927815850956361 0.25562047078272843 0 0.35573473079385431 0.26947021243369013 0 0.34370097534282201 0.26666284465229573 0 0.34863697883849448 0.2706618606641924 0 0.35573473079385431 0.26947021243369013 0 0.34007526523134018 0.27440046405859447 0 0.34370097534282201 0.26666284465229573 0 0.34863697883849448 0.2706618606641924 0 0.34007526523134018 0.27440046405859447 0 0.34863697883849448 0.2706618606641924 0 0.34677191413850811 0.27929759992471148 0 0.34863697883849448 0.2706618606641924 0 0.34677191413850811 0.27929759992471148 0 0.3517200502713515 0.27588480986167829 0 0.34677191413850811 0.27929759992471148 0 0.35672871189033989 0.28070826738004673 0 0.3517200502713515 0.27588480986167829 0 0.35672871189033989 0.28070826738004673 0 0.3517200502713515 0.27588480986167829 0 0.35573473079385431 0.26947021243369013 0 0.34863697883849448 0.2706618606641924 0 0.3517200502713515 0.27588480986167829 0 0.35573473079385431 0.26947021243369013 0 0.39823428396211052 0.27238043953858693 0 0.39678095229401122 0.26151068958850388 0 0.41803609137626968 0.27878694559738021 0 0.39823428396211052 0.27238043953858693 0 0.39678095229401122 0.26151068958850388 0 0.38602303424348949 0.27163284586704511 0 0.39823428396211052 0.27238043953858693 0 0.38602303424348949 0.27163284586704511 0 0.39382510341564242 0.28247904640850008 0 0.39823428396211052 0.27238043953858693 0 0.40409433253949678 0.27933681257980708 0 0.39382510341564242 0.28247904640850008 0 0.39678095229401122 0.26151068958850388 0 0.4035467433890203 0.24879642155089371 0 0.39282457790793851 0.24453511317029389 0 0.39678095229401122 0.26151068958850388 0 0.409932017837072 0.25666666905022772 0 0.4035467433890203 0.24879642155089371 0 0.39678095229401122 0.26151068958850388 0 0.37966042738449107 0.26020509756065002 0 0.38602303424348949 0.27163284586704511 0 0.39678095229401122 0.26151068958850388 0 0.37966042738449107 0.26020509756065002 0 0.37552581321175271 0.24423443357962751 0 0.39678095229401122 0.26151068958850388 0 0.39282457790793851 0.24453511317029389 0 0.37552581321175271 0.24423443357962751 0 0.39678095229401122 0.26151068958850388 0 0.37552581321175271 0.24423443357962751 0 0.38602303424348949 0.27163284586704511 0 0.37515038956487701 0.2858103015674755 0 0.39382510341564242 0.28247904640850008 0 0.37302112077521848 0.26824512542230278 0 0.37966042738449107 0.26020509756065002 0 0.38602303424348949 0.27163284586704511 0 0.37302112077521848 0.26824512542230278 0 0.38602303424348949 0.27163284586704511 0 0.37515038956487701 0.2858103015674755 0 0.37515038956487701 0.2858103015674755 0 0.39484665555546861 0.29864460550244443 0 0.39382510341564242 0.28247904640850008 0 0.37515038956487701 0.2858103015674755 0 0.37724880867256738 0.30797586350392542 0 0.39484665555546861 0.29864460550244443 0 0.37724880867256738 0.30797586350392542 0 0.39484665555546861 0.29864460550244443 0 0.39600136558546051 0.31624834407928498 0 0.39484665555546861 0.29864460550244443 0 0.40944173941441703 0.30206530627503803 0 0.39600136558546051 0.31624834407928498 0 0.39484665555546861 0.29864460550244443 0 0.39382510341564242 0.28247904640850008 0 0.40381505216864622 0.28935282794027961 0 0.39484665555546861 0.29864460550244443 0 0.40381505216864622 0.28935282794027961 0 0.40944173941441703 0.30206530627503803 0 0.40409433253949678 0.27933681257980708 0 0.39382510341564242 0.28247904640850008 0 0.40381505216864622 0.28935282794027961 0 0.40381505216864622 0.28935282794027961 0 0.41386659920870728 0.28155071532667703 0 0.41377151413388091 0.29462707211321598 0 0.40409433253949678 0.27933681257980708 0 0.40381505216864622 0.28935282794027961 0 0.41386659920870728 0.28155071532667703 0 0.41386659920870728 0.28155071532667703 0 0.41377151413388091 0.29462707211321598 0 0.4279626657437533 0.30553943891086938 0 0.41386659920870728 0.28155071532667703 0 0.4279626657437533 0.30553943891086938 0 0.40381505216864622 0.28935282794027961 0 0.41377151413388091 0.29462707211321598 0 0.40944173941441703 0.30206530627503803 0 0.41386659920870728 0.28155071532667703 0 0.42559545952662969 0.29119991042176763 0 0.41803609137626968 0.27878694559738021 0 0.41377151413388091 0.29462707211321598 0 0.40944173941441703 0.30206530627503803 0 0.4279626657437533 0.30553943891086938 0 0.40944173941441703 0.30206530627503803 0 0.4279626657437533 0.30553943891086938 0 0.41261006283318802 0.32111581269245992 0 0.4279626657437533 0.30553943891086938 0 0.4392912304585288 0.29606320160625588 0 0.44209183777797573 0.3109208484452175 0 0.4279626657437533 0.30553943891086938 0 0.42559545952662969 0.29119991042176763 0 0.4392912304585288 0.29606320160625588 0 0.42559545952662969 0.29119991042176763 0 0.41803609137626968 0.27878694559738021 0 0.4392912304585288 0.29606320160625588 0 0.42461162414780068 0.27636493532824158 0 0.4392912304585288 0.29606320160625588 0 0.41803609137626968 0.27878694559738021 0 0.4392912304585288 0.29606320160625588 0 0.42461162414780068 0.27636493532824158 0 0.41803609137626968 0.27878694559738021 0 0.4392912304585288 0.29606320160625588 0 0.41386659920870728 0.28155071532667703 0 0.4279626657437533 0.30553943891086938 0 0.42559545952662969 0.29119991042176763 0 0.43429885329067242 0.27900848703404801 0 0.42461162414780068 0.27636493532824158 0 0.4392912304585288 0.29606320160625588 0 0.42909672067747578 0.26913114838404278 0 0.43560869262857549 0.2564393994542285 0 0.43851836228343682 0.27228237046632331 0 0.43429885329067242 0.27900848703404801 0 0.42909672067747578 0.26913114838404278 0 0.43851836228343682 0.27228237046632331 0 0.42909672067747578 0.26913114838404278 0 0.42461162414780068 0.27636493532824158 0 0.4228219285561059 0.26237973290948258 0 0.43429885329067242 0.27900848703404801 0 0.42909672067747578 0.26913114838404278 0 0.42461162414780068 0.27636493532824158 0 0.39823428396211052 0.27238043953858693 0 0.40409433253949678 0.27933681257980708 0 0.41803609137626968 0.27878694559738021 0 0.39678095229401122 0.26151068958850388 0 0.41803609137626968 0.27878694559738021 0 0.42461162414780068 0.27636493532824158 0 0.409932017837072 0.25666666905022772 0 0.42461162414780068 0.27636493532824158 0 0.41803609137626968 0.27878694559738021 0 0.409932017837072 0.25666666905022772 0 0.39678095229401122 0.26151068958850388 0 0.41803609137626968 0.27878694559738021 0 0.409932017837072 0.25666666905022772 0 0.40409433253949678 0.27933681257980708 0 0.41386659920870728 0.28155071532667703 0 0.41803609137626968 0.27878694559738021 0 0.409932017837072 0.25666666905022772 0 0.4228219285561059 0.26237973290948258 0 0.41989800424463281 0.24573313419056031 0 0.42461162414780068 0.27636493532824158 0 0.409932017837072 0.25666666905022772 0 0.4228219285561059 0.26237973290948258 0 0.409932017837072 0.25666666905022772 0 0.4035467433890203 0.24879642155089371 0 0.41989800424463281 0.24573313419056031 0 0.4228219285561059 0.26237973290948258 0 0.43560869262857549 0.2564393994542285 0 0.41989800424463281 0.24573313419056031 0 0.42909672067747578 0.26913114838404278 0 0.4228219285561059 0.26237973290948258 0 0.43560869262857549 0.2564393994542285 0 0.43560869262857549 0.2564393994542285 0 0.450500719019438 0.25885823736601521 0 0.45527223529045641 0.27794256692665192 0 0.43560869262857549 0.2564393994542285 0 0.450500719019438 0.25885823736601521 0 0.4463133982418781 0.24425703200430729 0 0.43851836228343682 0.27228237046632331 0 0.45527223529045641 0.27794256692665192 0 0.44213796586928861 0.28137144256706631 0 0.43560869262857549 0.2564393994542285 0 0.45527223529045641 0.27794256692665192 0 0.43560869262857549 0.2564393994542285 0 0.43851836228343682 0.27228237046632331 0 0.45527223529045641 0.27794256692665192 0 0.43429885329067242 0.27900848703404801 0 0.43851836228343682 0.27228237046632331 0 0.44213796586928861 0.28137144256706631 0 0.45871758996705198 0.26716983550850582 0 0.46445396802279248 0.25705747116404148 0 0.46969487298756379 0.27825160278155869 0 0.46445396802279248 0.25705747116404148 0 0.46969487298756379 0.27825160278155869 0 0.450500719019438 0.25885823736601521 0 0.45527223529045641 0.27794256692665192 0 0.45871758996705198 0.26716983550850582 0 0.45527223529045641 0.27794256692665192 0 0.45871758996705198 0.26716983550850582 0 0.46969487298756379 0.27825160278155869 0 0.46445396802279248 0.25705747116404148 0 0.4463133982418781 0.24425703200430729 0 0.450500719019438 0.25885823736601521 0 0.46445396802279248 0.25705747116404148 0 0.4463133982418781 0.24425703200430729 0 0.450500719019438 0.25885823736601521 0 0.45871758996705198 0.26716983550850582 0 0.46445396802279248 0.25705747116404148 0 0.46445396802279248 0.25705747116404148 0 0.48222698401139669 0.26959855518701498 0 0.46445396802279248 0.25705747116404148 0 0.4740428095428143 0.25555989095164361 0 0.48222698401139669 0.26959855518701498 0 0.4740428095428143 0.25555989095164361 0 0.47946762869715293 0.2491729055490467 0 0.47128113352388479 0.2453957623995362 0 0.46445396802279248 0.25705747116404148 0 0.4740428095428143 0.25555989095164361 0 0.47128113352388479 0.2453957623995362 0 0.49020039362354628 0.26370273374452807 0 0.47946762869715293 0.2491729055490467 0 0.48040078724709362 0.24675025558424191 0 0.48124197569364707 0.25942675544670157 0 0.49020039362354628 0.26370273374452807 0 0.47946762869715293 0.2491729055490467 0 0.4740428095428143 0.25555989095164361 0 0.48124197569364707 0.25942675544670157 0 0.47946762869715293 0.2491729055490467 0 0.4740428095428143 0.25555989095164361 0 0.48124197569364707 0.25942675544670157 0 0.48222698401139669 0.26959855518701498 0 0.46445396802279248 0.25705747116404148 0 0.46969487298756379 0.27825160278155869 0 0.48222698401139669 0.26959855518701498 0 0.46969487298756379 0.27825160278155869 0 0.48222698401139669 0.26959855518701498 0 0.48413339671147548 0.28576117232047282 0 0.48222698401139669 0.26959855518701498 0 0.49999999999999961 0.28065521190481407 0 0.49020039362354628 0.26370273374452807 0 0.48222698401139669 0.26959855518701498 0 0.50000000000000022 0.28213963920998941 0 0.48413339671147548 0.28576117232047282 0 0.48222698401139669 0.26959855518701498 0 0.50000000000000022 0.28213963920998941 0 0.49999999999999961 0.28065521190481407 0 0.49020039362354628 0.26370273374452807 0 0.48222698401139669 0.26959855518701498 0 0.49999999999999961 0.28065521190481407 0 0.50000000000000022 0.28213963920998941 0 0.49999999999999961 0.28065521190481407 0 0.5 0.25239251493620218 0 0.49020039362354628 0.26370273374452807 0 0.5 0.25239251493620218 0 0.49020039362354628 0.26370273374452807 0 0.48040078724709362 0.24675025558424191 0 0.49020039362354628 0.26370273374452807 0 0.48040078724709362 0.24675025558424191 0 0.48124197569364707 0.25942675544670157 0 0.48222698401139669 0.26959855518701498 0 0.49020039362354628 0.26370273374452807 0 0.5 0.30322893114751731 0 0.4917163058522846 0.31987783529741992 0 0.4877261471724893 0.31343270796250289 0 0.48795516926650068 0.29925729451656752 0 0.5 0.30322893114751731 0 0.4877261471724893 0.31343270796250289 0 0.48795516926650068 0.29925729451656752 0 0.5 0.30322893114751731 0 0.49302214149449408 0.29259675929863671 0 0.5 0.30322893114751731 0 0.50000000000000022 0.28213963920998941 0 0.49302214149449408 0.29259675929863671 0 0.50000000000000022 0.28213963920998941 0 0.49302214149449408 0.29259675929863671 0 0.48413339671147548 0.28576117232047282 0 0.48795516926650068 0.29925729451656752 0 0.49302214149449408 0.29259675929863671 0 0.48413339671147548 0.28576117232047282 0 0.46969487298756379 0.27825160278155869 0 0.48413339671147548 0.28576117232047282 0 0.47493577795233699 0.29944573439907529 0 0.46969487298756379 0.27825160278155869 0 0.47493577795233699 0.29944573439907529 0 0.48795516926650068 0.29925729451656752 0 0.48413339671147548 0.28576117232047282 0 0.47493577795233699 0.29944573439907529 0 0.46878287087496823 0.30749873987317677 0 0.45952748697235252 0.31251130607836192 0 0.47872144415021212 0.31475490489482938 0 0.48795516926650068 0.29925729451656752 0 0.47493577795233699 0.29944573439907529 0 0.4877261471724893 0.31343270796250289 0 0.47493577795233699 0.29944573439907529 0 0.47872144415021212 0.31475490489482938 0 0.4877261471724893 0.31343270796250289 0 0.47493577795233699 0.29944573439907529 0 0.4877261471724893 0.31343270796250289 0 0.47493577795233699 0.29944573439907529 0 0.47872144415021212 0.31475490489482938 0 0.47493577795233699 0.29944573439907529 0 0.46878287087496823 0.30749873987317677 0 0.47872144415021212 0.31475490489482938 0 0.47493577795233699 0.29944573439907529 0 0.46180587930330119 0.302601877754617 0 0.45710011217369712 0.2943819252656984 0 0.46878287087496823 0.30749873987317677 0 0.46180587930330119 0.302601877754617 0 0.45952748697235252 0.31251130607836192 0 0.47493577795233699 0.29944573439907529 0 0.46878287087496823 0.30749873987317677 0 0.46180587930330119 0.302601877754617 0 0.46180587930330119 0.302601877754617 0 0.45325953538303598 0.29875085548903102 0 0.45952748697235252 0.31251130607836192 0 0.46180587930330119 0.302601877754617 0 0.45325953538303598 0.29875085548903102 0 0.45710011217369712 0.2943819252656984 0 0.45527223529045641 0.27794256692665192 0 0.46969487298756379 0.27825160278155869 0 0.47493577795233699 0.29944573439907529 0 0.45527223529045641 0.27794256692665192 0 0.47493577795233699 0.29944573439907529 0 0.45710011217369712 0.2943819252656984 0 0.45527223529045641 0.27794256692665192 0 0.45710011217369712 0.2943819252656984 0 0.4485729680073004 0.28819596674022158 0 0.45527223529045641 0.27794256692665192 0 0.47493577795233699 0.29944573439907529 0 0.43429885329067242 0.27900848703404801 0 0.4392912304585288 0.29606320160625588 0 0.44213796586928861 0.28137144256706631 0 0.45527223529045641 0.27794256692665192 0 0.4485729680073004 0.28819596674022158 0 0.44213796586928861 0.28137144256706631 0 0.45325953538303598 0.29875085548903102 0 0.45710011217369712 0.2943819252656984 0 0.4485729680073004 0.28819596674022158 0 0.45325953538303598 0.29875085548903102 0 0.4485729680073004 0.28819596674022158 0 0.4392912304585288 0.29606320160625588 0 0.4485729680073004 0.28819596674022158 0 0.4392912304585288 0.29606320160625588 0 0.44213796586928861 0.28137144256706631 0 0.4392912304585288 0.29606320160625588 0 0.45952748697235252 0.31251130607836192 0 0.4392912304585288 0.29606320160625588 0 0.44209183777797573 0.3109208484452175 0 0.4555287851367652 0.31785204723230831 0 0.4392912304585288 0.29606320160625588 0 0.45952748697235252 0.31251130607836192 0 0.4555287851367652 0.31785204723230831 0 0.4392912304585288 0.29606320160625588 0 0.4555287851367652 0.31785204723230831 0 0.45325953538303598 0.29875085548903102 0 0.4392912304585288 0.29606320160625588 0 0.45952748697235252 0.31251130607836192 0 0.44209183777797573 0.3109208484452175 0 0.44801795737901051 0.32110548400522648 0 0.44205873227879922 0.32952816249506189 0 0.45119991263492099 0.32567255272828022 0 0.44801795737901051 0.32110548400522648 0 0.44205873227879922 0.32952816249506189 0 0.45119991263492099 0.32567255272828022 0 0.44801795737901051 0.32110548400522648 0 0.4555287851367652 0.31785204723230831 0 0.44209183777797573 0.3109208484452175 0 0.44801795737901051 0.32110548400522648 0 0.4555287851367652 0.31785204723230831 0 0.44205873227879922 0.32952816249506189 0 0.45728607704497959 0.33348719698846357 0 0.45615479881384507 0.3535168860792543 0 0.44205873227879922 0.32952816249506189 0 0.45615479881384507 0.3535168860792543 0 0.45119991263492099 0.32567255272828022 0 0.44205873227879922 0.32952816249506189 0 0.45728607704497959 0.33348719698846357 0 0.4555287851367652 0.31785204723230831 0 0.47176633981500088 0.33964089285836108 0 0.4555287851367652 0.31785204723230831 0 0.47065523248236368 0.32985061358653961 0 0.47176633981500088 0.33964089285836108 0 0.45728607704497959 0.33348719698846357 0 0.4555287851367652 0.31785204723230831 0 0.47176633981500088 0.33964089285836108 0 0.45728607704497959 0.33348719698846357 0 0.47176633981500088 0.33964089285836108 0 0.45615479881384507 0.3535168860792543 0 0.45119991263492099 0.32567255272828022 0 0.45728607704497959 0.33348719698846357 0 0.4555287851367652 0.31785204723230831 0 0.45952748697235252 0.31251130607836192 0 0.4665246458222847 0.32256595445142611 0 0.47976374348617667 0.32895941055046718 0 0.45952748697235252 0.31251130607836192 0 0.4555287851367652 0.31785204723230831 0 0.4665246458222847 0.32256595445142611 0 0.4555287851367652 0.31785204723230831 0 0.4665246458222847 0.32256595445142611 0 0.47065523248236368 0.32985061358653961 0 0.45952748697235252 0.31251130607836192 0 0.47872144415021212 0.31475490489482938 0 0.47976374348617667 0.32895941055046718 0 0.45952748697235252 0.31251130607836192 0 0.47976374348617667 0.32895941055046718 0 0.47872144415021212 0.31475490489482938 0 0.4877261471724893 0.31343270796250289 0 0.48485489855974612 0.32119166733868382 0 0.47872144415021212 0.31475490489482938 0 0.48250711034808719 0.33006407539058319 0 0.47872144415021212 0.31475490489482938 0 0.47976374348617667 0.32895941055046718 0 0.48250711034808719 0.33006407539058319 0 0.47872144415021212 0.31475490489482938 0 0.48250711034808719 0.33006407539058319 0 0.48485489855974612 0.32119166733868382 0 0.4665246458222847 0.32256595445142611 0 0.47065523248236368 0.32985061358653961 0 0.47976374348617667 0.32895941055046718 0 0.47065523248236368 0.32985061358653961 0 0.47176633981500088 0.33964089285836108 0 0.47669493178853012 0.33511922693071289 0 0.47065523248236368 0.32985061358653961 0 0.47976374348617667 0.32895941055046718 0 0.47669493178853012 0.33511922693071289 0 0.47176633981500088 0.33964089285836108 0 0.47669493178853012 0.33511922693071289 0 0.48459441137057913 0.34202599072748358 0 0.47976374348617667 0.32895941055046718 0 0.47669493178853012 0.33511922693071289 0 0.48459441137057913 0.34202599072748358 0 0.5 0.32431822308504499 0 0.49133815321282609 0.32744870270046722 0 0.50000000000000067 0.34540751502257278 0 0.47976374348617667 0.32895941055046718 0 0.48459441137057913 0.34202599072748358 0 0.50000000000000067 0.34540751502257278 0 0.48250711034808719 0.33006407539058319 0 0.49133815321282609 0.32744870270046722 0 0.50000000000000067 0.34540751502257278 0 0.47976374348617667 0.32895941055046718 0 0.48250711034808719 0.33006407539058319 0 0.50000000000000067 0.34540751502257278 0 0.47976374348617667 0.32895941055046718 0 0.50000000000000067 0.34540751502257278 0 0.5 0.32431822308504499 0 0.4917163058522846 0.31987783529741992 0 0.49133815321282609 0.32744870270046722 0 0.5 0.30322893114751731 0 0.5 0.32431822308504499 0 0.4917163058522846 0.31987783529741992 0 0.4917163058522846 0.31987783529741992 0 0.4877261471724893 0.31343270796250289 0 0.48485489855974612 0.32119166733868382 0 0.48250711034808719 0.33006407539058319 0 0.48672191827711608 0.32574195783986248 0 0.49133815321282609 0.32744870270046722 0 0.4917163058522846 0.31987783529741992 0 0.48485489855974612 0.32119166733868382 0 0.48672191827711608 0.32574195783986248 0 0.48250711034808719 0.33006407539058319 0 0.48485489855974612 0.32119166733868382 0 0.48672191827711608 0.32574195783986248 0 0.4917163058522846 0.31987783529741992 0 0.48672191827711608 0.32574195783986248 0 0.49133815321282609 0.32744870270046722 0 0.5 0.37109490242676441 0 0.48800389449323661 0.36142973848441379 0 0.4843008702602476 0.3783030001328167 0 0.5 0.37109490242676441 0 0.48800389449323661 0.36142973848441379 0 0.50000000000000067 0.34540751502257278 0 0.48459441137057913 0.34202599072748358 0 0.48800389449323661 0.36142973848441379 0 0.50000000000000067 0.34540751502257278 0 0.47176633981500088 0.33964089285836108 0 0.48459441137057913 0.34202599072748358 0 0.48800389449323661 0.36142973848441379 0 0.47176633981500088 0.33964089285836108 0 0.48800389449323661 0.36142973848441379 0 0.47231116644482052 0.35741082878253683 0 0.47176633981500088 0.33964089285836108 0 0.48800389449323661 0.36142973848441379 0 0.48800389449323661 0.36142973848441379 0 0.47804855035452792 0.36829568236969712 0 0.4843008702602476 0.3783030001328167 0 0.47231116644482052 0.35741082878253683 0 0.47804855035452792 0.36829568236969712 0 0.46757827021980708 0.37603916207902099 0 0.48800389449323661 0.36142973848441379 0 0.47231116644482052 0.35741082878253683 0 0.47804855035452792 0.36829568236969712 0 0.47804855035452792 0.36829568236969712 0 0.46757827021980708 0.37603916207902099 0 0.4843008702602476 0.3783030001328167 0 0.47231116644482052 0.35741082878253683 0 0.45615479881384507 0.3535168860792543 0 0.46757827021980708 0.37603916207902099 0 0.45615479881384507 0.3535168860792543 0 0.4490765811844637 0.37900430322903322 0 0.46757827021980708 0.37603916207902099 0 0.47176633981500088 0.33964089285836108 0 0.47231116644482052 0.35741082878253683 0 0.45615479881384507 0.3535168860792543 0 0.44205873227879922 0.32952816249506189 0 0.45615479881384507 0.3535168860792543 0 0.43473990769231319 0.34957261869759548 0 0.45615479881384507 0.3535168860792543 0 0.43812604865828142 0.36616339482633031 0 0.43473990769231319 0.34957261869759548 0 0.45615479881384507 0.3535168860792543 0 0.43812604865828142 0.36616339482633031 0 0.4490765811844637 0.37900430322903322 0 0.43812604865828142 0.36616339482633031 0 0.42551358760119418 0.36537646812703811 0 0.43473990769231319 0.34957261869759548 0 0.43812604865828142 0.36616339482633031 0 0.42551358760119418 0.36537646812703811 0 0.4299254386316731 0.3803786502327931 0 0.42551358760119418 0.36537646812703811 0 0.41246220195229721 0.3506278298569771 0 0.41231434107140641 0.38013984702149428 0 0.41246220195229721 0.3506278298569771 0 0.40114352225198108 0.36744524850132809 0 0.41231434107140641 0.38013984702149428 0 0.41246220195229721 0.3506278298569771 0 0.41231434107140641 0.38013984702149428 0 0.42551358760119418 0.36537646812703811 0 0.41246220195229721 0.3506278298569771 0 0.43473990769231319 0.34957261869759548 0 0.41246220195229721 0.3506278298569771 0 0.43473990769231319 0.34957261869759548 0 0.42588866899440297 0.33427069067667792 0 0.44205873227879922 0.32952816249506189 0 0.42588866899440297 0.33427069067667792 0 0.42713003246253589 0.32261352619376732 0 0.44205873227879922 0.32952816249506189 0 0.43473990769231319 0.34957261869759548 0 0.42588866899440297 0.33427069067667792 0 0.4279626657437533 0.30553943891086938 0 0.44205873227879922 0.32952816249506189 0 0.4279626657437533 0.30553943891086938 0 0.44205873227879922 0.32952816249506189 0 0.42713003246253589 0.32261352619376732 0 0.4279626657437533 0.30553943891086938 0 0.44209183777797573 0.3109208484452175 0 0.44205873227879922 0.32952816249506189 0 0.4279626657437533 0.30553943891086938 0 0.42713003246253589 0.32261352619376732 0 0.41261006283318802 0.32111581269245992 0 0.42588866899440297 0.33427069067667792 0 0.42713003246253589 0.32261352619376732 0 0.41261006283318802 0.32111581269245992 0 0.41246220195229721 0.3506278298569771 0 0.41261006283318802 0.32111581269245992 0 0.39915578931918572 0.33553641028742148 0 0.41246220195229721 0.3506278298569771 0 0.41261006283318802 0.32111581269245992 0 0.41246220195229721 0.3506278298569771 0 0.42588866899440297 0.33427069067667792 0 0.41261006283318802 0.32111581269245992 0 0.40944173941441703 0.30206530627503803 0 0.41261006283318802 0.32111581269245992 0 0.39600136558546051 0.31624834407928498 0 0.41261006283318802 0.32111581269245992 0 0.39915578931918572 0.33553641028742148 0 0.39600136558546051 0.31624834407928498 0 0.39915578931918572 0.33553641028742148 0 0.39600136558546051 0.31624834407928498 0 0.38270513771793641 0.33215206621442112 0 0.37724880867256738 0.30797586350392542 0 0.39600136558546051 0.31624834407928498 0 0.38270513771793641 0.33215206621442112 0 0.39915578931918572 0.33553641028742148 0 0.38270513771793641 0.33215206621442112 0 0.3877622844562843 0.35615631786364083 0 0.37150169921618531 0.35137921658423282 0 0.38270513771793641 0.33215206621442112 0 0.3877622844562843 0.35615631786364083 0 0.3877622844562843 0.35615631786364083 0 0.37827907591097348 0.37394343728619989 0 0.39584772940739771 0.38382550569260332 0 0.37150169921618531 0.35137921658423282 0 0.3877622844562843 0.35615631786364083 0 0.37827907591097348 0.37394343728619989 0 0.3877622844562843 0.35615631786364083 0 0.39584772940739771 0.38382550569260332 0 0.3877622844562843 0.35615631786364083 0 0.40114352225198108 0.36744524850132809 0 0.39584772940739771 0.38382550569260332 0 0.41246220195229721 0.3506278298569771 0 0.39915578931918572 0.33553641028742148 0 0.3877622844562843 0.35615631786364083 0 0.41246220195229721 0.3506278298569771 0 0.3877622844562843 0.35615631786364083 0 0.40114352225198108 0.36744524850132809 0 0.39584772940739771 0.38382550569260332 0 0.39386585249941908 0.40709835387814941 0 0.40393317435851123 0.41149469352156581 0 0.40571417877250748 0.39625995706159162 0 0.39584772940739771 0.38382550569260332 0 0.40393317435851123 0.41149469352156581 0 0.39584772940739771 0.38382550569260332 0 0.38616903859001972 0.39367463056651009 0 0.39386585249941908 0.40709835387814941 0 0.39584772940739771 0.38382550569260332 0 0.40393317435851123 0.41149469352156581 0 0.40571417877250748 0.39625995706159162 0 0.39584772940739771 0.38382550569260332 0 0.41231434107140641 0.38013984702149428 0 0.40114352225198108 0.36744524850132809 0 0.39584772940739771 0.38382550569260332 0 0.41231434107140641 0.38013984702149428 0 0.37435230135160857 0.39153951262079129 0 0.37827907591097348 0.37394343728619989 0 0.38616903859001972 0.39367463056651009 0 0.37827907591097348 0.37394343728619989 0 0.39584772940739771 0.38382550569260332 0 0.38616903859001972 0.39367463056651009 0 0.38616903859001972 0.39367463056651009 0 0.37798391607034459 0.40349356389224378 0 0.39386585249941908 0.40709835387814941 0 0.37435230135160857 0.39153951262079129 0 0.38616903859001972 0.39367463056651009 0 0.37798391607034459 0.40349356389224378 0 0.37151639960737531 0.41876255318323158 0 0.39386585249941908 0.40709835387814941 0 0.37151639960737531 0.41876255318323158 0 0.39386585249941908 0.40709835387814941 0 0.39237840329809492 0.41915211363747851 0 0.37151639960737531 0.41876255318323158 0 0.37798391607034459 0.40349356389224378 0 0.39386585249941908 0.40709835387814941 0 0.37151639960737531 0.41876255318323158 0 0.38505264961882668 0.43225744899003149 0 0.39237840329809492 0.41915211363747851 0 0.37156008541952368 0.43516143078289199 0 0.37151639960737531 0.41876255318323158 0 0.38505264961882668 0.43225744899003149 0 0.38505264961882668 0.43225744899003149 0 0.39568144026521929 0.43652402566315451 0 0.38970610171148068 0.44327750396765431 0 0.38505264961882668 0.43225744899003149 0 0.39568144026521929 0.43652402566315451 0 0.39801285309994189 0.42777668469282037 0 0.39801285309994189 0.42777668469282037 0 0.39237840329809492 0.41915211363747851 0 0.40007875783013158 0.42152441471476032 0 0.38505264961882668 0.43225744899003149 0 0.39801285309994189 0.42777668469282037 0 0.39237840329809492 0.41915211363747851 0 0.39801285309994189 0.42777668469282037 0 0.40366602594471079 0.42696371216638868 0 0.40007875783013158 0.42152441471476032 0 0.39568144026521929 0.43652402566315451 0 0.39801285309994189 0.42777668469282037 0 0.40428672512534453 0.43485888655226901 0 0.39801285309994189 0.42777668469282037 0 0.40366602594471079 0.42696371216638868 0 0.40428672512534453 0.43485888655226901 0 0.39386585249941908 0.40709835387814941 0 0.39237840329809492 0.41915211363747851 0 0.40393317435851123 0.41149469352156581 0 0.39237840329809492 0.41915211363747851 0 0.40007875783013158 0.42152441471476032 0 0.40393317435851123 0.41149469352156581 0 0.40366602594471079 0.42696371216638868 0 0.40007875783013158 0.42152441471476032 0 0.40393317435851123 0.41149469352156581 0 0.41216648019051549 0.40965186418601141 0 0.41857657278051569 0.4217646138347273 0 0.41486991095899262 0.43195540679153299 0 0.40393317435851123 0.41149469352156581 0 0.41216648019051549 0.40965186418601141 0 0.41201861930962458 0.43916388135052842 0 0.41216648019051549 0.40965186418601141 0 0.41857657278051569 0.4217646138347273 0 0.421365176617915 0.41446171113154068 0 0.41216648019051549 0.40965186418601141 0 0.421365176617915 0.41446171113154068 0 0.42076519487991648 0.4068826326242953 0 0.41216648019051549 0.40965186418601141 0 0.41486991095899262 0.43195540679153299 0 0.41201861930962458 0.43916388135052842 0 0.41216648019051549 0.40965186418601141 0 0.41201861930962458 0.43916388135052842 0 0.40366602594471079 0.42696371216638868 0 0.40393317435851123 0.41149469352156581 0 0.41201861930962458 0.43916388135052842 0 0.40393317435851123 0.41149469352156581 0 0.41201861930962458 0.43916388135052842 0 0.40366602594471079 0.42696371216638868 0 0.40428672512534453 0.43485888655226901 0 0.41201861930962458 0.43916388135052842 0 0.41857657278051569 0.4217646138347273 0 0.41486991095899262 0.43195540679153299 0 0.42388377578790809 0.42955806622728487 0 0.41486991095899262 0.43195540679153299 0 0.42388377578790809 0.42955806622728487 0 0.41958588215837239 0.43773227861000857 0 0.41486991095899262 0.43195540679153299 0 0.41548707834818521 0.43706187025445892 0 0.41958588215837239 0.43773227861000857 0 0.41486991095899262 0.43195540679153299 0 0.41548707834818521 0.43706187025445892 0 0.41201861930962458 0.43916388135052842 0 0.42788829566844178 0.43707297026652953 0 0.43764556320604953 0.42711346122130572 0 0.43474400622717368 0.44762831711216328 0 0.42788829566844178 0.43707297026652953 0 0.42388377578790809 0.42955806622728487 0 0.41958588215837239 0.43773227861000857 0 0.41857657278051569 0.4217646138347273 0 0.42388377578790809 0.42955806622728487 0 0.42593216479801321 0.42123099486673338 0 0.42388377578790809 0.42955806622728487 0 0.42593216479801321 0.42123099486673338 0 0.43764556320604953 0.42711346122130572 0 0.42788829566844178 0.43707297026652953 0 0.42388377578790809 0.42955806622728487 0 0.43764556320604953 0.42711346122130572 0 0.421365176617915 0.41446171113154068 0 0.42076519487991648 0.4068826326242953 0 0.43058120528355048 0.41229977837306431 0 0.421365176617915 0.41446171113154068 0 0.42593216479801321 0.42123099486673338 0 0.43058120528355048 0.41229977837306431 0 0.41857657278051569 0.4217646138347273 0 0.421365176617915 0.41446171113154068 0 0.42593216479801321 0.42123099486673338 0 0.42593216479801321 0.42123099486673338 0 0.43058120528355048 0.41229977837306431 0 0.43764556320604953 0.42711346122130572 0 0.42076519487991648 0.4068826326242953 0 0.42110095915452977 0.39494024865565991 0 0.43824192471650891 0.39337696829873547 0 0.42076519487991648 0.4068826326242953 0 0.43058120528355048 0.41229977837306431 0 0.43824192471650891 0.39337696829873547 0 0.41216648019051549 0.40965186418601141 0 0.42076519487991648 0.4068826326242953 0 0.42110095915452977 0.39494024865565991 0 0.40571417877250748 0.39625995706159162 0 0.41216648019051549 0.40965186418601141 0 0.41231434107140641 0.38013984702149428 0 0.41216648019051549 0.40965186418601141 0 0.41231434107140641 0.38013984702149428 0 0.41216648019051549 0.40965186418601141 0 0.42110095915452977 0.39494024865565991 0 0.41231434107140641 0.38013984702149428 0 0.40571417877250748 0.39625995706159162 0 0.40393317435851123 0.41149469352156581 0 0.41216648019051549 0.40965186418601141 0 0.42110095915452977 0.39494024865565991 0 0.41231434107140641 0.38013984702149428 0 0.4299254386316731 0.3803786502327931 0 0.42551358760119418 0.36537646812703811 0 0.41231434107140641 0.38013984702149428 0 0.4299254386316731 0.3803786502327931 0 0.42110095915452977 0.39494024865565991 0 0.4299254386316731 0.3803786502327931 0 0.43824192471650891 0.39337696829873547 0 0.4299254386316731 0.3803786502327931 0 0.4490765811844637 0.37900430322903322 0 0.43824192471650891 0.39337696829873547 0 0.43812604865828142 0.36616339482633031 0 0.4299254386316731 0.3803786502327931 0 0.4490765811844637 0.37900430322903322 0 0.43824192471650891 0.39337696829873547 0 0.45882794981100611 0.40307453794420622 0 0.4490765811844637 0.37900430322903322 0 0.43824192471650891 0.39337696829873547 0 0.45882794981100611 0.40307453794420622 0 0.43058120528355048 0.41229977837306431 0 0.43824192471650891 0.39337696829873547 0 0.44519597037238817 0.41233995057263573 0 0.43824192471650891 0.39337696829873547 0 0.45882794981100611 0.40307453794420622 0 0.44519597037238817 0.41233995057263573 0 0.45882794981100611 0.40307453794420622 0 0.46757827021980708 0.37603916207902099 0 0.47621199910751738 0.39403309023356659 0 0.4490765811844637 0.37900430322903322 0 0.45882794981100611 0.40307453794420622 0 0.46757827021980708 0.37603916207902099 0 0.46757827021980708 0.37603916207902099 0 0.4843008702602476 0.3783030001328167 0 0.47621199910751738 0.39403309023356659 0 0.45882794981100611 0.40307453794420622 0 0.47621199910751738 0.39403309023356659 0 0.47941397490550308 0.41277210758967681 0 0.47621199910751738 0.39403309023356659 0 0.5 0.39678228983095593 0 0.47941397490550308 0.41277210758967681 0 0.4843008702602476 0.3783030001328167 0 0.47621199910751738 0.39403309023356659 0 0.5 0.39678228983095593 0 0.5 0.37109490242676441 0 0.4843008702602476 0.3783030001328167 0 0.5 0.39678228983095593 0 0.50000000000000022 0.4224696772351475 0 0.46068320884482628 0.42583500702586691 0 0.45497646240178419 0.45382805712076041 0 0.50000000000000022 0.4224696772351475 0 0.47941397490550308 0.41277210758967681 0 0.46068320884482628 0.42583500702586691 0 0.5 0.39678228983095593 0 0.50000000000000022 0.4224696772351475 0 0.47941397490550308 0.41277210758967681 0 0.50000000000000022 0.4224696772351475 0 0.47941397490550308 0.41277210758967681 0 0.45882794981100611 0.40307453794420622 0 0.47941397490550308 0.41277210758967681 0 0.45882794981100611 0.40307453794420622 0 0.47941397490550308 0.41277210758967681 0 0.46068320884482628 0.42583500702586691 0 0.45882794981100611 0.40307453794420622 0 0.46068320884482628 0.42583500702586691 0 0.44519597037238817 0.41233995057263573 0 0.46068320884482628 0.42583500702586691 0 0.44519597037238817 0.41233995057263573 0 0.43764556320604953 0.42711346122130572 0 0.43058120528355048 0.41229977837306431 0 0.44519597037238817 0.41233995057263573 0 0.43764556320604953 0.42711346122130572 0 0.46068320884482628 0.42583500702586691 0 0.43764556320604953 0.42711346122130572 0 0.45497646240178419 0.45382805712076041 0 0.50000000000000022 0.4224696772351475 0 0.5 0.5 0 0.45497646240178419 0.45382805712076041 0 0.5 0.5 0 0.45497646240178419 0.45382805712076041 0 0.42478734457643569 0.5 0 0.43764556320604953 0.42711346122130572 0 0.45497646240178419 0.45382805712076041 0 0.43474400622717368 0.44762831711216328 0 0.42478734457643569 0.5 0 0.42200961191344027 0.47079791428829998 0 0.40362052340265608 0.46661217345573869 0 0.45497646240178419 0.45382805712076041 0 0.42478734457643569 0.5 0 0.42200961191344027 0.47079791428829998 0 0.45497646240178419 0.45382805712076041 0 0.42200961191344027 0.47079791428829998 0 0.43474400622717368 0.44762831711216328 0 0.42200961191344027 0.47079791428829998 0 0.43474400622717368 0.44762831711216328 0 0.41849420806161047 0.45295310575748488 0 0.43474400622717368 0.44762831711216328 0 0.4243636224466979 0.44403244129040648 0 0.41849420806161047 0.45295310575748488 0 0.42788829566844178 0.43707297026652953 0 0.43474400622717368 0.44762831711216328 0 0.4243636224466979 0.44403244129040648 0 0.42788829566844178 0.43707297026652953 0 0.4243636224466979 0.44403244129040648 0 0.41958588215837239 0.43773227861000857 0 0.41547390096575099 0.43939591426576519 0 0.41958588215837239 0.43773227861000857 0 0.41708400714708738 0.44377592463240828 0 0.41548707834818521 0.43706187025445892 0 0.41547390096575099 0.43939591426576519 0 0.41958588215837239 0.43773227861000857 0 0.41548707834818521 0.43706187025445892 0 0.41547390096575099 0.43939591426576519 0 0.41201861930962458 0.43916388135052842 0 0.4243636224466979 0.44403244129040648 0 0.41958588215837239 0.43773227861000857 0 0.41708400714708738 0.44377592463240828 0 0.41547390096575099 0.43939591426576519 0 0.41708400714708738 0.44377592463240828 0 0.41260886430160282 0.44118375776387297 0 0.4243636224466979 0.44403244129040648 0 0.41708400714708738 0.44377592463240828 0 0.41849420806161047 0.45295310575748488 0 0.41708400714708738 0.44377592463240828 0 0.41849420806161047 0.45295310575748488 0 0.41197756494848992 0.44735805010691199 0 0.40676471562492911 0.45228847529768013 0 0.41197756494848992 0.44735805010691199 0 0.40694605687331109 0.44382944901953492 0 0.41849420806161047 0.45295310575748488 0 0.40676471562492911 0.45228847529768013 0 0.41197756494848992 0.44735805010691199 0 0.41197756494848992 0.44735805010691199 0 0.40948133139943932 0.44243369369099528 0 0.41201861930962458 0.43916388135052842 0 0.41197756494848992 0.44735805010691199 0 0.41201861930962458 0.43916388135052842 0 0.41260886430160282 0.44118375776387297 0 0.41197756494848992 0.44735805010691199 0 0.41201861930962458 0.43916388135052842 0 0.41708400714708738 0.44377592463240828 0 0.41197756494848992 0.44735805010691199 0 0.41260886430160282 0.44118375776387297 0 0.40694605687331109 0.44382944901953492 0 0.40948133139943932 0.44243369369099528 0 0.40698308446633152 0.43938339428700568 0 0.41197756494848992 0.44735805010691199 0 0.40694605687331109 0.44382944901953492 0 0.40948133139943932 0.44243369369099528 0 0.40428672512534453 0.43485888655226901 0 0.40698308446633152 0.43938339428700568 0 0.41201861930962458 0.43916388135052842 0 0.40948133139943932 0.44243369369099528 0 0.40698308446633152 0.43938339428700568 0 0.41201861930962458 0.43916388135052842 0 0.41201861930962458 0.43916388135052842 0 0.41260886430160282 0.44118375776387297 0 0.41547390096575099 0.43939591426576519 0 0.41201861930962458 0.43916388135052842 0 0.41260886430160282 0.44118375776387297 0 0.42200961191344027 0.47079791428829998 0 0.41272226475065898 0.46066291719980101 0 0.40362052340265608 0.46661217345573869 0 0.42200961191344027 0.47079791428829998 0 0.41849420806161047 0.45295310575748488 0 0.41272226475065898 0.46066291719980101 0 0.40676471562492911 0.45228847529768013 0 0.41272226475065898 0.46066291719980101 0 0.40362052340265608 0.46661217345573869 0 0.41849420806161047 0.45295310575748488 0 0.40676471562492911 0.45228847529768013 0 0.41272226475065898 0.46066291719980101 0 0.40362052340265608 0.46661217345573869 0 0.38711720682763628 0.45762413034329369 0 0.38276930030154988 0.47710752476068918 0 0.40362052340265608 0.46661217345573869 0 0.39661141373206021 0.45122203721990101 0 0.38711720682763628 0.45762413034329369 0 0.40676471562492911 0.45228847529768013 0 0.40362052340265608 0.46661217345573869 0 0.39661141373206021 0.45122203721990101 0 0.39568144026521929 0.43652402566315451 0 0.40428672512534453 0.43485888655226901 0 0.40063484626483498 0.44249904619565839 0 0.40428672512534453 0.43485888655226901 0 0.40698308446633152 0.43938339428700568 0 0.40063484626483498 0.44249904619565839 0 0.40694605687331109 0.44382944901953492 0 0.40698308446633152 0.43938339428700568 0 0.40063484626483498 0.44249904619565839 0 0.40676471562492911 0.45228847529768013 0 0.40694605687331109 0.44382944901953492 0 0.40063484626483498 0.44249904619565839 0 0.40676471562492911 0.45228847529768013 0 0.40063484626483498 0.44249904619565839 0 0.39661141373206021 0.45122203721990101 0 0.39661141373206021 0.45122203721990101 0 0.38970610171148068 0.44327750396765431 0 0.38711720682763628 0.45762413034329369 0 0.40063484626483498 0.44249904619565839 0 0.39661141373206021 0.45122203721990101 0 0.38970610171148068 0.44327750396765431 0 0.39568144026521929 0.43652402566315451 0 0.40063484626483498 0.44249904619565839 0 0.38970610171148068 0.44327750396765431 0 0.38505264961882668 0.43225744899003149 0 0.38970610171148068 0.44327750396765431 0 0.37627041262828298 0.44695832522674428 0 0.38970610171148068 0.44327750396765431 0 0.37627041262828298 0.44695832522674428 0 0.38711720682763628 0.45762413034329369 0 0.37156008541952368 0.43516143078289199 0 0.38505264961882668 0.43225744899003149 0 0.37627041262828298 0.44695832522674428 0 0.37472264026712959 0.46185703892081009 0 0.38711720682763628 0.45762413034329369 0 0.38276930030154988 0.47710752476068918 0 0.37472264026712959 0.46185703892081009 0 0.37627041262828298 0.44695832522674428 0 0.38711720682763628 0.45762413034329369 0 0.36903060901715601 0.5 0 0.42478734457643569 0.5 0 0.38276930030154988 0.47710752476068918 0 0.42478734457643569 0.5 0 0.40362052340265608 0.46661217345573869 0 0.38276930030154988 0.47710752476068918 0 0.32459897064356619 0.084640749277851021 0 0.35273665705428559 0.085678113706387754 0 0.339125529483771 0.070199482391870224 0 0.32459897064356619 0.084640749277851021 0 0.35273665705428559 0.085678113706387754 0 0.32459897064356619 0.084640749277851021 0 0.3359223047517243 0.098921809231400995 0 0.35273665705428559 0.085678113706387754 0 0.339125529483771 0.070199482391870224 0 0.32459897064356619 0.084640749277851021 0 0.31104274252274328 0.070217789934621383 0 0.339125529483771 0.070199482391870224 0 0.32105097642383662 0.053140661040651821 0 0.31104274252274328 0.070217789934621383 0 0.32459897064356619 0.084640749277851021 0 0.3168868060317338 0.10228912566811441 0 0.29646128423284701 0.083603384849314274 0 0.32459897064356619 0.084640749277851021 0 0.3168868060317338 0.10228912566811441 0 0.3359223047517243 0.098921809231400995 0 0.3168868060317338 0.10228912566811441 0 0.31427324526771122 0.1213708439436044 0 0.33272431375805822 0.1132488711592755 0 0.31427324526771122 0.1213708439436044 0 0.33272431375805822 0.1132488711592755 0 0.32978372129040701 0.13486821785425909 0 0.31427324526771122 0.1213708439436044 0 0.33272431375805822 0.1132488711592755 0 0.3168868060317338 0.10228912566811441 0 0.33272431375805822 0.1132488711592755 0 0.3359223047517243 0.098921809231400995 0 0.33272431375805822 0.1132488711592755 0 0.3359223047517243 0.098921809231400995 0 0.35266477627097759 0.1087521863453763 0 0.35266477627097759 0.1087521863453763 0 0.36456973871010367 0.1003771057836885 0 0.35273665705428559 0.085678113706387754 0 0.3359223047517243 0.098921809231400995 0 0.35266477627097759 0.1087521863453763 0 0.35273665705428559 0.085678113706387754 0 0.35266477627097759 0.1087521863453763 0 0.3488808109854532 0.12791011145999631 0 0.36411093596175798 0.12690374318287939 0 0.33272431375805822 0.1132488711592755 0 0.35266477627097759 0.1087521863453763 0 0.3488808109854532 0.12791011145999631 0 0.35266477627097759 0.1087521863453763 0 0.37024669518420877 0.1151536679212747 0 0.36411093596175798 0.12690374318287939 0 0.37024669518420877 0.1151536679212747 0 0.36411093596175798 0.12690374318287939 0 0.37633887699913299 0.1296709172031929 0 0.35266477627097759 0.1087521863453763 0 0.37024669518420877 0.1151536679212747 0 0.36456973871010367 0.1003771057836885 0 0.37024669518420877 0.1151536679212747 0 0.37556051932460721 0.1009345730281008 0 0.37024669518420877 0.1151536679212747 0 0.36456973871010367 0.1003771057836885 0 0.37556051932460721 0.1009345730281008 0 0.36456973871010367 0.1003771057836885 0 0.36843531463850038 0.093426317663276012 0 0.37556051932460721 0.1009345730281008 0 0.35273665705428559 0.085678113706387754 0 0.38087434346500482 0.086715478134926777 0 0.36843531463850038 0.093426317663276012 0 0.38087434346500482 0.086715478134926777 0 0.37556051932460721 0.1009345730281008 0 0.36456973871010367 0.1003771057836885 0 0.36843531463850038 0.093426317663276012 0 0.35273665705428559 0.085678113706387754 0 0.3696377925119913 0.080804975754819389 0 0.35273665705428559 0.085678113706387754 0 0.38087434346500482 0.086715478134926777 0 0.36843531463850038 0.093426317663276012 0 0.35273665705428559 0.085678113706387754 0 0.38087434346500482 0.086715478134926777 0 0.339125529483771 0.070199482391870224 0 0.35273665705428559 0.085678113706387754 0 0.36329866283310219 0.066163661003796836 0 0.3696377925119913 0.080804975754819389 0 0.35273665705428559 0.085678113706387754 0 0.36329866283310219 0.066163661003796836 0 0.3696377925119913 0.080804975754819389 0 0.36329866283310219 0.066163661003796836 0 0.38164150669557162 0.084662650174165882 0 0.36329866283310219 0.066163661003796836 0 0.38164150669557162 0.084662650174165882 0 0.36329866283310219 0.066163661003796836 0 0.34495581897063332 0.047664671833427437 0 0.37558052902725658 0.0450699776536828 0 0.35660074465772951 0.028908256510907771 0 0.3791310270837307 0.024659175924217729 0 0.37558052902725658 0.0450699776536828 0 0.34495581897063332 0.047664671833427437 0 0.35660074465772951 0.028908256510907771 0 0.37558052902725658 0.0450699776536828 0 0.339125529483771 0.070199482391870224 0 0.36329866283310219 0.066163661003796836 0 0.34495581897063332 0.047664671833427437 0 0.36329866283310219 0.066163661003796836 0 0.34495581897063332 0.047664671833427437 0 0.36082271584702019 0.0074572906701818112 0 0.37003255214226072 0.0037635888938520922 0 0.3791310270837307 0.024659175924217729 0 0.36082271584702019 0.0074572906701818112 0 0.36062521711878898 0.0006066021732962501 0 0.37003255214226072 0.0037635888938520922 0 0.36062521711878898 0.0006066021732962501 0 0.37003255214226072 0.0037635888938520922 0 0.36886835747302382 -0.0031896416934029249 0 0.37003255214226072 0.0037635888938520922 0 0.37995136004431668 0.003477639248481944 0 0.36886835747302382 -0.0031896416934029249 0 0.36082271584702019 0.0074572906701818112 0 0.3791310270837307 0.024659175924217729 0 0.36082271584702019 0.0074572906701818112 0 0.35660074465772951 0.028908256510907771 0 0.3791310270837307 0.024659175924217729 0 0.36082271584702019 0.0074572906701818112 0 0.35660074465772951 0.028908256510907771 0 0.3416103771385664 0.013133709647199831 0 0.36082271584702019 0.0074572906701818112 0 0.3416103771385664 0.013133709647199831 0 0.34251440461031052 -0.00974459458385484 0 0.3416103771385664 0.013133709647199831 0 0.32539226792800302 0.0004610494544162614 0 0.34251440461031052 -0.00974459458385484 0 0.3416103771385664 0.013133709647199831 0 0.32661297510816423 0.02916568266305803 0 0.32539226792800302 0.0004610494544162614 0 0.35660074465772951 0.028908256510907771 0 0.3416103771385664 0.013133709647199831 0 0.32661297510816423 0.02916568266305803 0 0.32661297510816423 0.02916568266305803 0 0.30827013124569591 0.01066669349268779 0 0.31131700194320622 0.024560209601648311 0 0.32661297510816423 0.02916568266305803 0 0.30297642336390229 0.036081839689433473 0 0.31131700194320622 0.024560209601648311 0 0.32661297510816423 0.02916568266305803 0 0.30827013124569591 0.01066669349268779 0 0.32661297510816423 0.02916568266305803 0 0.32539226792800302 0.0004610494544162614 0 0.30827013124569591 0.01066669349268779 0 0.32539226792800302 0.0004610494544162614 0 0.30827013124569591 0.01066669349268779 0 0.32539226792800302 0.0004610494544162614 0 0.30827013124569591 0.01066669349268779 0 0.30626763640331711 -0.0069586591564612874 0 0.339125529483771 0.070199482391870224 0 0.34495581897063332 0.047664671833427437 0 0.32105097642383662 0.053140661040651821 0 0.339125529483771 0.070199482391870224 0 0.32105097642383662 0.053140661040651821 0 0.34495581897063332 0.047664671833427437 0 0.32661297510816423 0.02916568266305803 0 0.32105097642383662 0.053140661040651821 0 0.34495581897063332 0.047664671833427437 0 0.32661297510816423 0.02916568266305803 0 0.34495581897063332 0.047664671833427437 0 0.35660074465772951 0.028908256510907771 0 0.32661297510816423 0.02916568266305803 0 0.32661297510816423 0.02916568266305803 0 0.32105097642383662 0.053140661040651821 0 0.30297642336390229 0.036081839689433473 0 0.32105097642383662 0.053140661040651821 0 0.30297642336390229 0.036081839689433473 0 0.29360991984897888 0.059964065934719209 0 0.32105097642383662 0.053140661040651821 0 0.29360991984897888 0.059964065934719209 0 0.31104274252274328 0.070217789934621383 0 0.32105097642383662 0.053140661040651821 0 0.30297642336390229 0.036081839689433473 0 0.30297642336390229 0.036081839689433473 0 0.29360991984897888 0.059964065934719209 0 0.28055063866122781 0.040574695532535003 0 0.30297642336390229 0.036081839689433473 0 0.28490187030396802 0.01902301833821517 0 0.28055063866122781 0.040574695532535003 0 0.29360991984897888 0.059964065934719209 0 0.27026956287213427 0.05699063941888851 0 0.28055063866122781 0.040574695532535003 0 0.30827013124569591 0.01066669349268779 0 0.29362878847169321 -0.0040992851879733828 0 0.30827013124569591 0.01066669349268779 0 0.29584586053809708 0.0048266698578377266 0 0.29362878847169321 -0.0040992851879733828 0 0.30827013124569591 0.01066669349268779 0 0.29482212921718531 0.0092067100560863542 0 0.29584586053809708 0.0048266698578377266 0 0.30827013124569591 0.01066669349268779 0 0.3005457147968284 0.01527082942170211 0 0.29482212921718531 0.0092067100560863542 0 0.30827013124569591 0.01066669349268779 0 0.3005457147968284 0.01527082942170211 0 0.30297642336390229 0.036081839689433473 0 0.3005457147968284 0.01527082942170211 0 0.29379592977530827 0.01814565937361079 0 0.30297642336390229 0.036081839689433473 0 0.3005457147968284 0.01527082942170211 0 0.31131700194320622 0.024560209601648311 0 0.30827013124569591 0.01066669349268779 0 0.3005457147968284 0.01527082942170211 0 0.31131700194320622 0.024560209601648311 0 0.30297642336390229 0.036081839689433473 0 0.28490187030396802 0.01902301833821517 0 0.30297642336390229 0.036081839689433473 0 0.28490187030396802 0.01902301833821517 0 0.29379592977530827 0.01814565937361079 0 0.28490187030396802 0.01902301833821517 0 0.29379592977530827 0.01814565937361079 0 0.28832330241349807 0.011426634941197261 0 0.28666239321781428 0.0035325610705503451 0 0.26682731724403391 0.0019641969869965701 0 0.29362878847169321 -0.0040992851879733828 0 0.29482212921718531 0.0092067100560863542 0 0.28832330241349807 0.011426634941197261 0 0.28666239321781428 0.0035325610705503451 0 0.3005457147968284 0.01527082942170211 0 0.29379592977530827 0.01814565937361079 0 0.29482212921718531 0.0092067100560863542 0 0.29379592977530827 0.01814565937361079 0 0.29482212921718531 0.0092067100560863542 0 0.28832330241349807 0.011426634941197261 0 0.28490187030396802 0.01902301833821517 0 0.28832330241349807 0.011426634941197261 0 0.28143418955321481 0.007225225867523658 0 0.28832330241349807 0.011426634941197261 0 0.28143418955321481 0.007225225867523658 0 0.28666239321781428 0.0035325610705503451 0 0.29482212921718531 0.0092067100560863542 0 0.28666239321781428 0.0035325610705503451 0 0.29584586053809708 0.0048266698578377266 0 0.28666239321781428 0.0035325610705503451 0 0.29584586053809708 0.0048266698578377266 0 0.29362878847169321 -0.0040992851879733828 0 0.28490187030396802 0.01902301833821517 0 0.28143418955321481 0.007225225867523658 0 0.26682731724403391 0.0019641969869965701 0 0.28490187030396802 0.01902301833821517 0 0.26682731724403391 0.0019641969869965701 0 0.26805678875890893 0.017726063824607639 0 0.28490187030396802 0.01902301833821517 0 0.26682731724403391 0.0019641969869965701 0 0.28143418955321481 0.007225225867523658 0 0.28666239321781428 0.0035325610705503451 0 0.26682731724403391 0.0019641969869965701 0 0.28490187030396802 0.01902301833821517 0 0.27175918104286079 0.029257275147333239 0 0.28055063866122781 0.040574695532535003 0 0.28490187030396802 0.01902301833821517 0 0.27175918104286079 0.029257275147333239 0 0.26805678875890893 0.017726063824607639 0 0.27175918104286079 0.029257275147333239 0 0.26805678875890893 0.017726063824607639 0 0.25577337963678798 0.027212692525896549 0 0.26805678875890893 0.017726063824607639 0 0.25577337963678798 0.027212692525896549 0 0.25418737821655463 0.015399963457620141 0 0.2442639786172042 0.0070688571158914679 0 0.26682731724403391 0.0019641969869965701 0 0.2442639786172042 0.0070688571158914679 0 0.26682731724403391 0.0019641969869965701 0 0.25418737821655463 0.015399963457620141 0 0.2442639786172042 0.0070688571158914679 0 0.26682731724403391 0.0019641969869965701 0 0.26205797115204887 -0.0025371272048387711 0 0.26682731724403391 0.0019641969869965701 0 0.26805678875890893 0.017726063824607639 0 0.25418737821655463 0.015399963457620141 0 0.27026956287213427 0.05699063941888851 0 0.28055063866122781 0.040574695532535003 0 0.26198110274896208 0.043557872009436539 0 0.27175918104286079 0.029257275147333239 0 0.28055063866122781 0.040574695532535003 0 0.26198110274896208 0.043557872009436539 0 0.27175918104286079 0.029257275147333239 0 0.25577337963678798 0.027212692525896549 0 0.26198110274896208 0.043557872009436539 0 0.23768776443311579 0.043688008318092109 0 0.25577337963678798 0.027212692525896549 0 0.26198110274896208 0.043557872009436539 0 0.23768776443311579 0.043688008318092109 0 0.26198110274896208 0.043557872009436539 0 0.25208002729542178 0.064527904360886248 0 0.27026956287213427 0.05699063941888851 0 0.26198110274896208 0.043557872009436539 0 0.25208002729542178 0.064527904360886248 0 0.24644776461963311 0.089106363291110768 0 0.25208002729542178 0.064527904360886248 0 0.27078163830953422 0.080239385276048888 0 0.27026956287213427 0.05699063941888851 0 0.25208002729542178 0.064527904360886248 0 0.27078163830953422 0.080239385276048888 0 0.24644776461963311 0.089106363291110768 0 0.27078163830953422 0.080239385276048888 0 0.26374747289525657 0.095196675322374691 0 0.27078163830953422 0.080239385276048888 0 0.27834864504377949 0.099235072999047894 0 0.26374747289525657 0.095196675322374691 0 0.29360991984897888 0.059964065934719209 0 0.27026956287213427 0.05699063941888851 0 0.27078163830953422 0.080239385276048888 0 0.29360991984897888 0.059964065934719209 0 0.27078163830953422 0.080239385276048888 0 0.29646128423284701 0.083603384849314274 0 0.27078163830953422 0.080239385276048888 0 0.29646128423284701 0.083603384849314274 0 0.27834864504377949 0.099235072999047894 0 0.32459897064356619 0.084640749277851021 0 0.29646128423284701 0.083603384849314274 0 0.31104274252274328 0.070217789934621383 0 0.32459897064356619 0.084640749277851021 0 0.29646128423284701 0.083603384849314274 0 0.29360991984897888 0.059964065934719209 0 0.29646128423284701 0.083603384849314274 0 0.31104274252274328 0.070217789934621383 0 0.3168868060317338 0.10228912566811441 0 0.31427324526771122 0.1213708439436044 0 0.29673894651680699 0.1065564182854849 0 0.31427324526771122 0.1213708439436044 0 0.29673894651680699 0.1065564182854849 0 0.29582217677736422 0.12949281672793331 0 0.3168868060317338 0.10228912566811441 0 0.29646128423284701 0.083603384849314274 0 0.29673894651680699 0.1065564182854849 0 0.29646128423284701 0.083603384849314274 0 0.29673894651680699 0.1065564182854849 0 0.27834864504377949 0.099235072999047894 0 0.29673894651680699 0.1065564182854849 0 0.28201408738318567 0.1171756832833751 0 0.27834864504377949 0.099235072999047894 0 0.29673894651680699 0.1065564182854849 0 0.28201408738318567 0.1171756832833751 0 0.29582217677736422 0.12949281672793331 0 0.28201408738318567 0.1171756832833751 0 0.27834864504377949 0.099235072999047894 0 0.26190943645332521 0.11336057640168661 0 0.28201408738318567 0.1171756832833751 0 0.26190943645332521 0.11336057640168661 0 0.27737110828701739 0.1376147895122625 0 0.27834864504377949 0.099235072999047894 0 0.26374747289525657 0.095196675322374691 0 0.26190943645332521 0.11336057640168661 0 0.24644776461963311 0.089106363291110768 0 0.26190943645332521 0.11336057640168661 0 0.24644776461963311 0.089106363291110768 0 0.26374747289525657 0.095196675322374691 0 0.26190943645332521 0.11336057640168661 0 0.2407900118549258 0.1224227284823214 0 0.26190943645332521 0.11336057640168661 0 0.25724954753185281 0.13102681759278989 0 0.24082077887232661 0.13822745745909271 0 0.25724954753185281 0.13102681759278989 0 0.25314426042736299 0.14827920166102929 0 0.26190943645332521 0.11336057640168661 0 0.25724954753185281 0.13102681759278989 0 0.27737110828701739 0.1376147895122625 0 0.25724954753185281 0.13102681759278989 0 0.27737110828701739 0.1376147895122625 0 0.25314426042736299 0.14827920166102929 0 0.26190943645332521 0.11336057640168661 0 0.27737110828701739 0.1376147895122625 0 0.27737110828701739 0.1376147895122625 0 0.27389285165032701 0.15136518207865421 0 0.29241755080354342 0.16121764612939821 0 0.27737110828701739 0.1376147895122625 0 0.27389285165032701 0.15136518207865421 0 0.26216225783781522 0.15209211462621691 0 0.27737110828701739 0.1376147895122625 0 0.26216225783781522 0.15209211462621691 0 0.25314426042736299 0.14827920166102929 0 0.27737110828701739 0.1376147895122625 0 0.25314426042736299 0.14827920166102929 0 0.26216225783781522 0.15209211462621691 0 0.25314426042736299 0.14827920166102929 0 0.25040386024834022 0.15833548980136 0 0.2491144448195933 0.16826536546051801 0 0.25040386024834022 0.15833548980136 0 0.25868092558922018 0.1640971534492395 0 0.26216225783781522 0.15209211462621691 0 0.25040386024834022 0.15833548980136 0 0.25868092558922018 0.1640971534492395 0 0.2491144448195933 0.16826536546051801 0 0.25868092558922018 0.1640971534492395 0 0.26180322687967378 0.17551786778706649 0 0.25868092558922018 0.1640971534492395 0 0.26180322687967378 0.17551786778706649 0 0.26881699930175729 0.1670435218419746 0 0.26216225783781522 0.15209211462621691 0 0.25868092558922018 0.1640971534492395 0 0.26881699930175729 0.1670435218419746 0 0.2491144448195933 0.16826536546051801 0 0.25167137028295861 0.17663220115905981 0 0.26180322687967378 0.17551786778706649 0 0.25352284263599512 0.1850986446351863 0 0.25167137028295861 0.17663220115905981 0 0.26180322687967378 0.17551786778706649 0 0.25352284263599512 0.1850986446351863 0 0.26180322687967378 0.17551786778706649 0 0.263359315694985 0.18931254124208949 0 0.26180322687967378 0.17551786778706649 0 0.27201182318509343 0.1834258476609105 0 0.263359315694985 0.18931254124208949 0 0.26180322687967378 0.17551786778706649 0 0.27440853736769472 0.17530106004628679 0 0.26881699930175729 0.1670435218419746 0 0.26180322687967378 0.17551786778706649 0 0.27201182318509343 0.1834258476609105 0 0.27440853736769472 0.17530106004628679 0 0.27440853736769472 0.17530106004628679 0 0.28483496891260263 0.17052057841689899 0 0.28202086836253393 0.18257761201819689 0 0.27201182318509343 0.1834258476609105 0 0.28202086836253393 0.18257761201819689 0 0.27801586280998519 0.18956109449012129 0 0.27201182318509343 0.1834258476609105 0 0.27440853736769472 0.17530106004628679 0 0.28202086836253393 0.18257761201819689 0 0.27440853736769472 0.17530106004628679 0 0.26881699930175729 0.1670435218419746 0 0.28483496891260263 0.17052057841689899 0 0.26216225783781522 0.15209211462621691 0 0.28483496891260263 0.17052057841689899 0 0.26216225783781522 0.15209211462621691 0 0.26881699930175729 0.1670435218419746 0 0.28483496891260263 0.17052057841689899 0 0.27389285165032701 0.15136518207865421 0 0.26216225783781522 0.15209211462621691 0 0.28483496891260263 0.17052057841689899 0 0.27389285165032701 0.15136518207865421 0 0.29241755080354342 0.16121764612939821 0 0.28483496891260263 0.17052057841689899 0 0.29241755080354342 0.16121764612939821 0 0.30155235058850682 0.17554710435940449 0 0.27389285165032701 0.15136518207865421 0 0.28483496891260263 0.17052057841689899 0 0.29241755080354342 0.16121764612939821 0 0.28483496891260263 0.17052057841689899 0 0.29321072782398733 0.18515995551533221 0 0.30750767998739009 0.1889490422075811 0 0.28483496891260263 0.17052057841689899 0 0.30750767998739009 0.1889490422075811 0 0.28202086836253393 0.18257761201819689 0 0.29321072782398733 0.18515995551533221 0 0.2878844033820997 0.19251019759147969 0 0.28483496891260263 0.17052057841689899 0 0.28202086836253393 0.18257761201819689 0 0.29321072782398733 0.18515995551533221 0 0.30155235058850682 0.17554710435940449 0 0.31068715037347061 0.18987656258941071 0 0.31887606476485519 0.1752897536159399 0 0.28483496891260263 0.17052057841689899 0 0.30155235058850682 0.17554710435940449 0 0.30750767998739009 0.1889490422075811 0 0.30155235058850682 0.17554710435940449 0 0.31068715037347061 0.18987656258941071 0 0.30155235058850682 0.17554710435940449 0 0.31068715037347061 0.18987656258941071 0 0.30750767998739009 0.1889490422075811 0 0.29241755080354342 0.16121764612939821 0 0.31055069816591108 0.16007077111000781 0 0.30135676112932291 0.15272719464239731 0 0.29241755080354342 0.16121764612939821 0 0.31055069816591108 0.16007077111000781 0 0.31887606476485519 0.1752897536159399 0 0.29241755080354342 0.16121764612939821 0 0.30155235058850682 0.17554710435940449 0 0.31887606476485519 0.1752897536159399 0 0.29241755080354342 0.16121764612939821 0 0.31887606476485519 0.1752897536159399 0 0.29241755080354342 0.16121764612939821 0 0.30155235058850682 0.17554710435940449 0 0.31055069816591108 0.16007077111000781 0 0.30135676112932291 0.15272719464239731 0 0.31690436447805698 0.14984981901748459 0 0.30135676112932291 0.15272719464239731 0 0.3087734872663036 0.13873507601808241 0 0.29450065465495989 0.14410156392281559 0 0.30135676112932291 0.15272719464239731 0 0.3087734872663036 0.13873507601808241 0 0.31690436447805698 0.14984981901748459 0 0.31427324526771122 0.1213708439436044 0 0.29582217677736422 0.12949281672793331 0 0.31427324526771122 0.1213708439436044 0 0.3087734872663036 0.13873507601808241 0 0.29582217677736422 0.12949281672793331 0 0.3087734872663036 0.13873507601808241 0 0.29582217677736422 0.12949281672793331 0 0.29450065465495989 0.14410156392281559 0 0.27737110828701739 0.1376147895122625 0 0.29582217677736422 0.12949281672793331 0 0.28201408738318567 0.1171756832833751 0 0.27737110828701739 0.1376147895122625 0 0.29582217677736422 0.12949281672793331 0 0.27737110828701739 0.1376147895122625 0 0.29582217677736422 0.12949281672793331 0 0.29450065465495989 0.14410156392281559 0 0.29241755080354342 0.16121764612939821 0 0.30135676112932291 0.15272719464239731 0 0.29450065465495989 0.14410156392281559 0 0.27737110828701739 0.1376147895122625 0 0.29241755080354342 0.16121764612939821 0 0.29450065465495989 0.14410156392281559 0 0.27737110828701739 0.1376147895122625 0 0.29241755080354342 0.16121764612939821 0 0.27032403842469399 0.25101019468977348 0 0.28096781835121032 0.25150032781063802 0 0.27680362970064581 0.24330272308228651 0 0.27680362970064581 0.24330272308228651 0 0.27087513658918583 0.23336308227471211 0 0.28387528678617568 0.23203127263236811 0 0.27680362970064581 0.24330272308228651 0 0.26483337672556923 0.24260958630106361 0 0.27087513658918583 0.23336308227471211 0 0.27032403842469399 0.25101019468977348 0 0.27680362970064581 0.24330272308228651 0 0.26483337672556923 0.24260958630106361 0 0.26483337672556923 0.24260958630106361 0 0.26089251030042121 0.24810771000014839 0 0.25614657990104461 0.24278038359189899 0 0.27032403842469399 0.25101019468977348 0 0.26483337672556923 0.24260958630106361 0 0.26089251030042121 0.24810771000014839 0 0.26089251030042121 0.24810771000014839 0 0.25423555326891639 0.24942618361914939 0 0.25614657990104461 0.24278038359189899 0 0.24900361558079781 0.24088944576215021 0 0.25423555326891639 0.24942618361914939 0 0.25614657990104461 0.24278038359189899 0 0.24900361558079781 0.24088944576215021 0 0.25614657990104461 0.24278038359189899 0 0.2572121397024596 0.234773379395813 0 0.24651796552036409 0.23110242665056199 0 0.24900361558079781 0.24088944576215021 0 0.2572121397024596 0.234773379395813 0 0.26483337672556923 0.24260958630106361 0 0.2572121397024596 0.234773379395813 0 0.27087513658918583 0.23336308227471211 0 0.26483337672556923 0.24260958630106361 0 0.25614657990104461 0.24278038359189899 0 0.2572121397024596 0.234773379395813 0 0.2572121397024596 0.234773379395813 0 0.26442441436682351 0.22159190193844919 0 0.27087513658918583 0.23336308227471211 0 0.2572121397024596 0.234773379395813 0 0.25315194677898373 0.22493079252654741 0 0.26442441436682351 0.22159190193844919 0 0.24651796552036409 0.23110242665056199 0 0.2572121397024596 0.234773379395813 0 0.25315194677898373 0.22493079252654741 0 0.25315194677898373 0.22493079252654741 0 0.26442441436682351 0.22159190193844919 0 0.2519799366662534 0.21517004449020219 0 0.2456252776390182 0.2220162101577105 0 0.25315194677898373 0.22493079252654741 0 0.2519799366662534 0.21517004449020219 0 0.26442441436682351 0.22159190193844919 0 0.27087513658918583 0.23336308227471211 0 0.27547162196129582 0.2227807368515706 0 0.27087513658918583 0.23336308227471211 0 0.27547162196129582 0.2227807368515706 0 0.28387528678617568 0.23203127263236811 0 0.27547162196129582 0.2227807368515706 0 0.27213467759196652 0.20880254044037011 0 0.28488557674244008 0.2144659966254705 0 0.27213467759196652 0.20880254044037011 0 0.28054080374397072 0.20111749908660739 0 0.28488557674244008 0.2144659966254705 0 0.26442441436682351 0.22159190193844919 0 0.27547162196129582 0.2227807368515706 0 0.27213467759196652 0.20880254044037011 0 0.26442441436682351 0.22159190193844919 0 0.27213467759196652 0.20880254044037011 0 0.26013859644790588 0.20809763340879281 0 0.26442441436682351 0.22159190193844919 0 0.2519799366662534 0.21517004449020219 0 0.26013859644790588 0.20809763340879281 0 0.2478987992535544 0.20483769197021839 0 0.2519799366662534 0.21517004449020219 0 0.26013859644790588 0.20809763340879281 0 0.27213467759196652 0.20880254044037011 0 0.26013859644790588 0.20809763340879281 0 0.26457211674712222 0.1995180417235872 0 0.26013859644790588 0.20809763340879281 0 0.26457211674712222 0.1995180417235872 0 0.25535634550368269 0.19617232584258071 0 0.2478987992535544 0.20483769197021839 0 0.26013859644790588 0.20809763340879281 0 0.25535634550368269 0.19617232584258071 0 0.2460804663796631 0.19159688976212991 0 0.25352284263599512 0.1850986446351863 0 0.25535634550368269 0.19617232584258071 0 0.25352284263599512 0.1850986446351863 0 0.25535634550368269 0.19617232584258071 0 0.263359315694985 0.18931254124208949 0 0.26457211674712222 0.1995180417235872 0 0.25535634550368269 0.19617232584258071 0 0.263359315694985 0.18931254124208949 0 0.26457211674712222 0.1995180417235872 0 0.263359315694985 0.18931254124208949 0 0.2725987473808737 0.1959204962463745 0 0.27201182318509343 0.1834258476609105 0 0.263359315694985 0.18931254124208949 0 0.2725987473808737 0.1959204962463745 0 0.27213467759196652 0.20880254044037011 0 0.26457211674712222 0.1995180417235872 0 0.2725987473808737 0.1959204962463745 0 0.2725987473808737 0.1959204962463745 0 0.28054080374397072 0.20111749908660739 0 0.27801586280998519 0.18956109449012129 0 0.27213467759196652 0.20880254044037011 0 0.2725987473808737 0.1959204962463745 0 0.28054080374397072 0.20111749908660739 0 0.27201182318509343 0.1834258476609105 0 0.2725987473808737 0.1959204962463745 0 0.27801586280998519 0.18956109449012129 0 0.28202086836253393 0.18257761201819689 0 0.27801586280998519 0.18956109449012129 0 0.2878844033820997 0.19251019759147969 0 0.28054080374397072 0.20111749908660739 0 0.27801586280998519 0.18956109449012129 0 0.2878844033820997 0.19251019759147969 0 0.28054080374397072 0.20111749908660739 0 0.2878844033820997 0.19251019759147969 0 0.29032941138383261 0.20283468195237561 0 0.2878844033820997 0.19251019759147969 0 0.29032941138383261 0.20283468195237561 0 0.29438004356894287 0.19613703201090599 0 0.29032941138383261 0.20283468195237561 0 0.29438004356894287 0.19613703201090599 0 0.29759047163522612 0.2010533192504034 0 0.2878844033820997 0.19251019759147969 0 0.29438004356894287 0.19613703201090599 0 0.29660684583479152 0.19162574474956101 0 0.29321072782398733 0.18515995551533221 0 0.2878844033820997 0.19251019759147969 0 0.29660684583479152 0.19162574474956101 0 0.29660684583479152 0.19162574474956101 0 0.30750767998739009 0.1889490422075811 0 0.30005137441153762 0.1953724964225059 0 0.29321072782398733 0.18515995551533221 0 0.29660684583479152 0.19162574474956101 0 0.30750767998739009 0.1889490422075811 0 0.30750767998739009 0.1889490422075811 0 0.30412463819907848 0.20025868210362671 0 0.31295221582279192 0.20975639367669791 0 0.30750767998739009 0.1889490422075811 0 0.30412463819907848 0.20025868210362671 0 0.30005137441153762 0.1953724964225059 0 0.29438004356894287 0.19613703201090599 0 0.29660684583479152 0.19162574474956101 0 0.30005137441153762 0.1953724964225059 0 0.30412463819907848 0.20025868210362671 0 0.30005137441153762 0.1953724964225059 0 0.29759047163522612 0.2010533192504034 0 0.29438004356894287 0.19613703201090599 0 0.30005137441153762 0.1953724964225059 0 0.29759047163522612 0.2010533192504034 0 0.30412463819907848 0.20025868210362671 0 0.29759047163522612 0.2010533192504034 0 0.29940755759425969 0.20821426907635271 0 0.29940755759425969 0.20821426907635271 0 0.30636501394098231 0.22792098748080511 0 0.31295221582279192 0.20975639367669791 0 0.30412463819907848 0.20025868210362671 0 0.29940755759425969 0.20821426907635271 0 0.31295221582279192 0.20975639367669791 0 0.29940755759425969 0.20821426907635271 0 0.28488557674244008 0.2144659966254705 0 0.29439369573710911 0.22446429203193291 0 0.29032941138383261 0.20283468195237561 0 0.29940755759425969 0.20821426907635271 0 0.28488557674244008 0.2144659966254705 0 0.29032941138383261 0.20283468195237561 0 0.29759047163522612 0.2010533192504034 0 0.29940755759425969 0.20821426907635271 0 0.28054080374397072 0.20111749908660739 0 0.29032941138383261 0.20283468195237561 0 0.28488557674244008 0.2144659966254705 0 0.28488557674244008 0.2144659966254705 0 0.28387528678617568 0.23203127263236811 0 0.29439369573710911 0.22446429203193291 0 0.27547162196129582 0.2227807368515706 0 0.28488557674244008 0.2144659966254705 0 0.28387528678617568 0.23203127263236811 0 0.28387528678617568 0.23203127263236811 0 0.29439369573710911 0.22446429203193291 0 0.29743504362168749 0.23968893434466809 0 0.29940755759425969 0.20821426907635271 0 0.29439369573710911 0.22446429203193291 0 0.30636501394098231 0.22792098748080511 0 0.29439369573710911 0.22446429203193291 0 0.30636501394098231 0.22792098748080511 0 0.29743504362168749 0.23968893434466809 0 0.30636501394098231 0.22792098748080511 0 0.29743504362168749 0.23968893434466809 0 0.30928017310092082 0.24294333803477611 0 0.30343372429700188 0.25314302137966899 0 0.31828467619276729 0.25309829935819061 0 0.30928017310092082 0.24294333803477611 0 0.30343372429700188 0.25314302137966899 0 0.29743504362168749 0.23968893434466809 0 0.30928017310092082 0.24294333803477611 0 0.29061403765979082 0.25300935222949777 0 0.30343372429700188 0.25314302137966899 0 0.29743504362168749 0.23968893434466809 0 0.29061403765979082 0.25300935222949777 0 0.29743504362168749 0.23968893434466809 0 0.28620809096997329 0.24384959814069221 0 0.28387528678617568 0.23203127263236811 0 0.29743504362168749 0.23968893434466809 0 0.28620809096997329 0.24384959814069221 0 0.27680362970064581 0.24330272308228651 0 0.28387528678617568 0.23203127263236811 0 0.28620809096997329 0.24384959814069221 0 0.28096781835121032 0.25150032781063802 0 0.27680362970064581 0.24330272308228651 0 0.28620809096997329 0.24384959814069221 0 0.28096781835121032 0.25150032781063802 0 0.29061403765979082 0.25300935222949777 0 0.28620809096997329 0.24384959814069221 0 0.33927815850956361 0.25562047078272843 0 0.33946815320913559 0.23932538479030999 0 0.32282158622527302 0.24177072913176681 0 0.33946815320913559 0.23932538479030999 0 0.32282158622527302 0.24177072913176681 0 0.32753981229804241 0.22510222516445691 0 0.33927815850956361 0.25562047078272843 0 0.32282158622527302 0.24177072913176681 0 0.30636501394098231 0.22792098748080511 0 0.30928017310092082 0.24294333803477611 0 0.32282158622527302 0.24177072913176681 0 0.30636501394098231 0.22792098748080511 0 0.32282158622527302 0.24177072913176681 0 0.31828467619276729 0.25309829935819061 0 0.30928017310092082 0.24294333803477611 0 0.32282158622527302 0.24177072913176681 0 0.30636501394098231 0.22792098748080511 0 0.32282158622527302 0.24177072913176681 0 0.32753981229804241 0.22510222516445691 0 0.30636501394098231 0.22792098748080511 0 0.32753981229804241 0.22510222516445691 0 0.31295221582279192 0.20975639367669791 0 0.33946815320913559 0.23932538479030999 0 0.32753981229804241 0.22510222516445691 0 0.35285310213696508 0.2258059697889454 0 0.32753981229804241 0.22510222516445691 0 0.33018039106217761 0.20737750599826321 0 0.35285310213696508 0.2258059697889454 0 0.33018039106217761 0.20737750599826321 0 0.35285310213696508 0.2258059697889454 0 0.32753981229804241 0.22510222516445691 0 0.33018039106217761 0.20737750599826321 0 0.31295221582279192 0.20975639367669791 0 0.31068715037347061 0.18987656258941071 0 0.33018039106217761 0.20737750599826321 0 0.32626954623166748 0.190476420826524 0 0.30750767998739009 0.1889490422075811 0 0.33018039106217761 0.20737750599826321 0 0.31295221582279192 0.20975639367669791 0 0.31068715037347061 0.18987656258941071 0 0.30750767998739009 0.1889490422075811 0 0.33018039106217761 0.20737750599826321 0 0.30750767998739009 0.1889490422075811 0 0.33018039106217761 0.20737750599826321 0 0.33018039106217761 0.20737750599826321 0 0.32626954623166748 0.190476420826524 0 0.3453345787261668 0.18936186110248199 0 0.33018039106217761 0.20737750599826321 0 0.3453345787261668 0.18936186110248199 0 0.36022936817491408 0.20519769474681551 0 0.3453345787261668 0.18936186110248199 0 0.36022936817491408 0.20519769474681551 0 0.36253611872238878 0.18529756162784591 0 0.36022936817491408 0.20519769474681551 0 0.38218543468674221 0.2100400042310562 0 0.37802822460218483 0.19176540931237129 0 0.36022936817491408 0.20519769474681551 0 0.36253611872238878 0.18529756162784591 0 0.37802822460218483 0.19176540931237129 0 0.36022936817491408 0.20519769474681551 0 0.35285310213696508 0.2258059697889454 0 0.37184227675346532 0.222614804896549 0 0.36022936817491408 0.20519769474681551 0 0.37184227675346532 0.222614804896549 0 0.38218543468674221 0.2100400042310562 0 0.33018039106217761 0.20737750599826321 0 0.36022936817491408 0.20519769474681551 0 0.35285310213696508 0.2258059697889454 0 0.35285310213696508 0.2258059697889454 0 0.37184227675346532 0.222614804896549 0 0.37552581321175271 0.24423443357962751 0 0.35285310213696508 0.2258059697889454 0 0.37552581321175271 0.24423443357962751 0 0.36563027200280418 0.25685232300665939 0 0.35484810687583412 0.24832752908365241 0 0.37552581321175271 0.24423443357962751 0 0.35285310213696508 0.2258059697889454 0 0.35484810687583412 0.24832752908365241 0 0.37552581321175271 0.24423443357962751 0 0.33927815850956361 0.25562047078272843 0 0.33946815320913559 0.23932538479030999 0 0.35484810687583412 0.24832752908365241 0 0.33946815320913559 0.23932538479030999 0 0.35285310213696508 0.2258059697889454 0 0.35484810687583412 0.24832752908365241 0 0.33131337817090789 0.15022733177554681 0 0.32978372129040701 0.13486821785425909 0 0.34792663058868167 0.14878562112196331 0 0.33131337817090789 0.15022733177554681 0 0.33859505257741179 0.1683156226007495 0 0.34792663058868167 0.14878562112196331 0 0.33272431375805822 0.1132488711592755 0 0.32978372129040701 0.13486821785425909 0 0.3488808109854532 0.12791011145999631 0 0.32978372129040701 0.13486821785425909 0 0.34792663058868167 0.14878562112196331 0 0.3488808109854532 0.12791011145999631 0 0.31427324526771122 0.1213708439436044 0 0.3087734872663036 0.13873507601808241 0 0.32978372129040701 0.13486821785425909 0 0.3087734872663036 0.13873507601808241 0 0.32978372129040701 0.13486821785425909 0 0.31690436447805698 0.14984981901748459 0 0.33131337817090789 0.15022733177554681 0 0.32978372129040701 0.13486821785425909 0 0.31690436447805698 0.14984981901748459 0 0.33131337817090789 0.15022733177554681 0 0.31690436447805698 0.14984981901748459 0 0.32321241089851283 0.1610642655153007 0 0.31055069816591108 0.16007077111000781 0 0.31690436447805698 0.14984981901748459 0 0.32321241089851283 0.1610642655153007 0 0.32321241089851283 0.1610642655153007 0 0.31887606476485519 0.1752897536159399 0 0.33859505257741179 0.1683156226007495 0 0.31055069816591108 0.16007077111000781 0 0.32321241089851283 0.1610642655153007 0 0.31887606476485519 0.1752897536159399 0 0.31068715037347061 0.18987656258941071 0 0.32626954623166748 0.190476420826524 0 0.31887606476485519 0.1752897536159399 0 0.3453345787261668 0.18936186110248199 0 0.31887606476485519 0.1752897536159399 0 0.33859505257741179 0.1683156226007495 0 0.3453345787261668 0.18936186110248199 0 0.31887606476485519 0.1752897536159399 0 0.32626954623166748 0.190476420826524 0 0.3453345787261668 0.18936186110248199 0 0.31887606476485519 0.1752897536159399 0 0.33131337817090789 0.15022733177554681 0 0.32321241089851283 0.1610642655153007 0 0.33859505257741179 0.1683156226007495 0 0.33859505257741179 0.1683156226007495 0 0.35605414142567932 0.17031678688630961 0 0.34792663058868167 0.14878562112196331 0 0.35605414142567932 0.17031678688630961 0 0.36717712842408512 0.15533418292102261 0 0.34792663058868167 0.14878562112196331 0 0.3453345787261668 0.18936186110248199 0 0.35605414142567932 0.17031678688630961 0 0.36253611872238878 0.18529756162784591 0 0.3453345787261668 0.18936186110248199 0 0.33859505257741179 0.1683156226007495 0 0.35605414142567932 0.17031678688630961 0 0.35605414142567932 0.17031678688630961 0 0.36253611872238878 0.18529756162784591 0 0.37488564378793021 0.17518138798350891 0 0.36253611872238878 0.18529756162784591 0 0.37488564378793021 0.17518138798350891 0 0.37802822460218483 0.19176540931237129 0 0.37488564378793021 0.17518138798350891 0 0.36717712842408512 0.15533418292102261 0 0.38232168458587051 0.16049297802692869 0 0.35605414142567932 0.17031678688630961 0 0.37488564378793021 0.17518138798350891 0 0.36717712842408512 0.15533418292102261 0 0.36717712842408512 0.15533418292102261 0 0.36477533418230379 0.13860894457638681 0 0.3795578266745665 0.14455804438472919 0 0.36717712842408512 0.15533418292102261 0 0.34792663058868167 0.14878562112196331 0 0.36477533418230379 0.13860894457638681 0 0.34792663058868167 0.14878562112196331 0 0.3488808109854532 0.12791011145999631 0 0.36477533418230379 0.13860894457638681 0 0.3488808109854532 0.12791011145999631 0 0.36411093596175798 0.12690374318287939 0 0.36477533418230379 0.13860894457638681 0 0.36477533418230379 0.13860894457638681 0 0.37633887699913299 0.1296709172031929 0 0.3795578266745665 0.14455804438472919 0 0.36411093596175798 0.12690374318287939 0 0.36477533418230379 0.13860894457638681 0 0.37633887699913299 0.1296709172031929 0 0.37633887699913299 0.1296709172031929 0 0.392148204934473 0.13359833999259349 0 0.38643837966719741 0.1170012986435769 0 0.37633887699913299 0.1296709172031929 0 0.392148204934473 0.13359833999259349 0 0.3795578266745665 0.14455804438472919 0 0.392148204934473 0.13359833999259349 0 0.41080701416179871 0.13877182551072129 0 0.40156428246908449 0.1210181057817573 0 0.392148204934473 0.13359833999259349 0 0.3945857309215336 0.14964290358825089 0 0.41080701416179871 0.13877182551072129 0 0.3945857309215336 0.14964290358825089 0 0.41080701416179871 0.13877182551072129 0 0.40894047137084549 0.15497622861417881 0 0.3945857309215336 0.14964290358825089 0 0.39741382692646382 0.16404699095314559 0 0.40894047137084549 0.15497622861417881 0 0.392148204934473 0.13359833999259349 0 0.3945857309215336 0.14964290358825089 0 0.3795578266745665 0.14455804438472919 0 0.36717712842408512 0.15533418292102261 0 0.3795578266745665 0.14455804438472919 0 0.38232168458587051 0.16049297802692869 0 0.3945857309215336 0.14964290358825089 0 0.3795578266745665 0.14455804438472919 0 0.38232168458587051 0.16049297802692869 0 0.37488564378793021 0.17518138798350891 0 0.38232168458587051 0.16049297802692869 0 0.39447887505558699 0.179614182418462 0 0.37488564378793021 0.17518138798350891 0 0.39447887505558699 0.179614182418462 0 0.37802822460218483 0.19176540931237129 0 0.39447887505558699 0.179614182418462 0 0.39741382692646382 0.16404699095314559 0 0.41538678119726069 0.17411391994604511 0 0.38232168458587051 0.16049297802692869 0 0.39447887505558699 0.179614182418462 0 0.39741382692646382 0.16404699095314559 0 0.3945857309215336 0.14964290358825089 0 0.38232168458587051 0.16049297802692869 0 0.39741382692646382 0.16404699095314559 0 0.39741382692646382 0.16404699095314559 0 0.41538678119726069 0.17411391994604511 0 0.40894047137084549 0.15497622861417881 0 0.41538678119726069 0.17411391994604511 0 0.42590349582027398 0.15299215228851551 0 0.40894047137084549 0.15497622861417881 0 0.39447887505558699 0.179614182418462 0 0.41538678119726069 0.17411391994604511 0 0.41420137024734549 0.19491889924964181 0 0.41538678119726069 0.17411391994604511 0 0.43234116209288842 0.16881104005916589 0 0.4360776926859401 0.1887892259674131 0 0.41538678119726069 0.17411391994604511 0 0.41420137024734549 0.19491889924964181 0 0.4360776926859401 0.1887892259674131 0 0.41538678119726069 0.17411391994604511 0 0.43234116209288842 0.16881104005916589 0 0.42590349582027398 0.15299215228851551 0 0.42590349582027398 0.15299215228851551 0 0.43516771131317972 0.13864450200566489 0 0.41080701416179871 0.13877182551072129 0 0.43516771131317972 0.13864450200566489 0 0.41803959074485181 0.12137057658395931 0 0.43516771131317972 0.13864450200566489 0 0.44333049959965298 0.1222226742459452 0 0.41803959074485181 0.12137057658395931 0 0.41080701416179871 0.13877182551072129 0 0.41803959074485181 0.12137057658395931 0 0.40156428246908449 0.1210181057817573 0 0.43516771131317972 0.13864450200566489 0 0.41080701416179871 0.13877182551072129 0 0.41803959074485181 0.12137057658395931 0 0.42590349582027398 0.15299215228851551 0 0.41080701416179871 0.13877182551072129 0 0.40894047137084549 0.15497622861417881 0 0.40339280741137917 0.237420071492107 0 0.39282457790793851 0.24453511317029389 0 0.38841766555695217 0.2277959221363004 0 0.4035467433890203 0.24879642155089371 0 0.40339280741137917 0.237420071492107 0 0.39282457790793851 0.24453511317029389 0 0.39282457790793851 0.24453511317029389 0 0.37552581321175271 0.24423443357962751 0 0.38841766555695217 0.2277959221363004 0 0.37552581321175271 0.24423443357962751 0 0.38841766555695217 0.2277959221363004 0 0.37184227675346532 0.222614804896549 0 0.38841766555695217 0.2277959221363004 0 0.38218543468674221 0.2100400042310562 0 0.37184227675346532 0.222614804896549 0 0.37552581321175271 0.24423443357962751 0 0.38841766555695217 0.2277959221363004 0 0.38841766555695217 0.2277959221363004 0 0.40130951790214892 0.21135741069297109 0 0.38841766555695217 0.2277959221363004 0 0.40210482355155119 0.22526404605995029 0 0.40130951790214892 0.21135741069297109 0 0.40339280741137917 0.237420071492107 0 0.38841766555695217 0.2277959221363004 0 0.40210482355155119 0.22526404605995029 0 0.40339280741137917 0.237420071492107 0 0.40210482355155119 0.22526404605995029 0 0.41272014446971489 0.2317059996544065 0 0.38841766555695217 0.2277959221363004 0 0.40130951790214892 0.21135741069297109 0 0.38218543468674221 0.2100400042310562 0 0.40130951790214892 0.21135741069297109 0 0.38218543468674221 0.2100400042310562 0 0.39404068449880159 0.1975391811809005 0 0.40210482355155119 0.22526404605995029 0 0.40130951790214892 0.21135741069297109 0 0.41003225868004822 0.2186561536848409 0 0.38218543468674221 0.2100400042310562 0 0.37802822460218483 0.19176540931237129 0 0.39404068449880159 0.1975391811809005 0 0.39447887505558699 0.179614182418462 0 0.37802822460218483 0.19176540931237129 0 0.39404068449880159 0.1975391811809005 0 0.39447887505558699 0.179614182418462 0 0.39404068449880159 0.1975391811809005 0 0.41420137024734549 0.19491889924964181 0 0.40130951790214892 0.21135741069297109 0 0.39404068449880159 0.1975391811809005 0 0.41420137024734549 0.19491889924964181 0 0.41420137024734549 0.19491889924964181 0 0.4360776926859401 0.1887892259674131 0 0.43104064038701689 0.2065489828153704 0 0.43104064038701689 0.2065489828153704 0 0.4254979172482215 0.21759211019865121 0 0.44193948792807891 0.2224742195134248 0 0.43104064038701689 0.2065489828153704 0 0.4254979172482215 0.21759211019865121 0 0.41630437078500032 0.20882460213504539 0 0.4254979172482215 0.21759211019865121 0 0.41630437078500032 0.20882460213504539 0 0.41003225868004822 0.2186561536848409 0 0.40130951790214892 0.21135741069297109 0 0.41420137024734549 0.19491889924964181 0 0.41420137024734549 0.19491889924964181 0 0.43104064038701689 0.2065489828153704 0 0.41630437078500032 0.20882460213504539 0 0.40130951790214892 0.21135741069297109 0 0.41420137024734549 0.19491889924964181 0 0.41630437078500032 0.20882460213504539 0 0.40130951790214892 0.21135741069297109 0 0.41630437078500032 0.20882460213504539 0 0.41003225868004822 0.2186561536848409 0 0.41003225868004822 0.2186561536848409 0 0.42817282846096322 0.23145659284457409 0 0.41003225868004822 0.2186561536848409 0 0.41272014446971489 0.2317059996544065 0 0.42817282846096322 0.23145659284457409 0 0.4254979172482215 0.21759211019865121 0 0.41003225868004822 0.2186561536848409 0 0.42817282846096322 0.23145659284457409 0 0.40210482355155119 0.22526404605995029 0 0.41003225868004822 0.2186561536848409 0 0.41272014446971489 0.2317059996544065 0 0.4254979172482215 0.21759211019865121 0 0.42817282846096322 0.23145659284457409 0 0.44193948792807891 0.2224742195134248 0 0.43560869262857549 0.2564393994542285 0 0.41989800424463281 0.24573313419056031 0 0.4463133982418781 0.24425703200430729 0 0.42817282846096322 0.23145659284457409 0 0.4463133982418781 0.24425703200430729 0 0.42817282846096322 0.23145659284457409 0 0.41989800424463281 0.24573313419056031 0 0.4463133982418781 0.24425703200430729 0 0.40339280741137917 0.237420071492107 0 0.41272014446971489 0.2317059996544065 0 0.41989800424463281 0.24573313419056031 0 0.4035467433890203 0.24879642155089371 0 0.40339280741137917 0.237420071492107 0 0.41989800424463281 0.24573313419056031 0 0.41272014446971489 0.2317059996544065 0 0.42817282846096322 0.23145659284457409 0 0.41989800424463281 0.24573313419056031 0 0.46445396802279248 0.25705747116404148 0 0.4463133982418781 0.24425703200430729 0 0.45820805841382622 0.2317991176519501 0 0.46445396802279248 0.25705747116404148 0 0.45820805841382622 0.2317991176519501 0 0.47128113352388479 0.2453957623995362 0 0.46445396802279248 0.25705747116404148 0 0.45820805841382622 0.2317991176519501 0 0.45820805841382622 0.2317991176519501 0 0.47208346231995091 0.23236199714172051 0 0.47128113352388479 0.2453957623995362 0 0.44193948792807891 0.2224742195134248 0 0.45820805841382622 0.2317991176519501 0 0.45196214880486141 0.2065407641398582 0 0.4463133982418781 0.24425703200430729 0 0.44193948792807891 0.2224742195134248 0 0.45820805841382622 0.2317991176519501 0 0.42817282846096322 0.23145659284457409 0 0.4463133982418781 0.24425703200430729 0 0.44193948792807891 0.2224742195134248 0 0.45820805841382622 0.2317991176519501 0 0.46376613739280848 0.217973738699199 0 0.45196214880486141 0.2065407641398582 0 0.45820805841382622 0.2317991176519501 0 0.45196214880486141 0.2065407641398582 0 0.45820805841382622 0.2317991176519501 0 0.46376613739280848 0.217973738699199 0 0.47208346231995091 0.23236199714172051 0 0.46376613739280848 0.217973738699199 0 0.47208346231995091 0.23236199714172051 0 0.46376613739280848 0.217973738699199 0 0.46540710403382651 0.20446951216288631 0 0.47565348830025322 0.21807599586872611 0 0.46376613739280848 0.217973738699199 0 0.46540710403382651 0.20446951216288631 0 0.45196214880486141 0.2065407641398582 0 0.43104064038701689 0.2065489828153704 0 0.44193948792807891 0.2224742195134248 0 0.45196214880486141 0.2065407641398582 0 0.4360776926859401 0.1887892259674131 0 0.43104064038701689 0.2065489828153704 0 0.45196214880486141 0.2065407641398582 0 0.4360776926859401 0.1887892259674131 0 0.45196214880486141 0.2065407641398582 0 0.45481882329013518 0.19081444930143529 0 0.46540710403382651 0.20446951216288631 0 0.45196214880486141 0.2065407641398582 0 0.45481882329013518 0.19081444930143529 0 0.46540710403382651 0.20446951216288631 0 0.45481882329013518 0.19081444930143529 0 0.47053389557721342 0.18465038223464211 0 0.50000000000000033 0.19586712099897841 0 0.4806170310199348 0.20525000803684251 0 0.47053389557721342 0.18465038223464211 0 0.46540710403382651 0.20446951216288631 0 0.4806170310199348 0.20525000803684251 0 0.47053389557721342 0.18465038223464211 0 0.50000000000000033 0.19586712099897841 0 0.49020039362354723 0.2213086882916101 0 0.5 0.22412981796759041 0 0.50000000000000033 0.19586712099897841 0 0.4806170310199348 0.20525000803684251 0 0.49020039362354723 0.2213086882916101 0 0.50000000000000033 0.19586712099897841 0 0.49020039362354723 0.2213086882916101 0 0.4806170310199348 0.20525000803684251 0 0.47565348830025322 0.21807599586872611 0 0.49020039362354723 0.2213086882916101 0 0.46540710403382651 0.20446951216288631 0 0.4806170310199348 0.20525000803684251 0 0.47565348830025322 0.21807599586872611 0 0.47565348830025322 0.21807599586872611 0 0.47208346231995091 0.23236199714172051 0 0.49020039362354723 0.2213086882916101 0 0.47208346231995091 0.23236199714172051 0 0.49020039362354723 0.2213086882916101 0 0.48040078724709362 0.24675025558424191 0 0.46376613739280848 0.217973738699199 0 0.47565348830025322 0.21807599586872611 0 0.47208346231995091 0.23236199714172051 0 0.49020039362354723 0.2213086882916101 0 0.5 0.22412981796759041 0 0.49345640133408769 0.23826116645189621 0 0.49020039362354723 0.2213086882916101 0 0.48040078724709362 0.24675025558424191 0 0.5 0.25239251493620218 0 0.49345640133408769 0.23826116645189621 0 0.48040078724709362 0.24675025558424191 0 0.5 0.25239251493620218 0 0.5 0.22412981796759041 0 0.49345640133408769 0.23826116645189621 0 0.49020039362354723 0.2213086882916101 0 0.49345640133408769 0.23826116645189621 0 0.48040078724709362 0.24675025558424191 0 0.47946762869715293 0.2491729055490467 0 0.48040078724709362 0.24675025558424191 0 0.47128113352388479 0.2453957623995362 0 0.47946762869715293 0.2491729055490467 0 0.48040078724709362 0.24675025558424191 0 0.47208346231995091 0.23236199714172051 0 0.48040078724709362 0.24675025558424191 0 0.47128113352388479 0.2453957623995362 0 0.47208346231995091 0.23236199714172051 0 0.48040078724709362 0.24675025558424191 0 0.46171333421340111 0.13171995534526851 0 0.45489410806192587 0.15920007844951281 0 0.47744705403096338 0.1495891168398597 0 0.45489410806192587 0.15920007844951281 0 0.47744705403096338 0.1495891168398597 0 0.43516771131317972 0.13864450200566489 0 0.46171333421340111 0.13171995534526851 0 0.44333049959965298 0.1222226742459452 0 0.43516771131317972 0.13864450200566489 0 0.46171333421340111 0.13171995534526851 0 0.45489410806192587 0.15920007844951281 0 0.42590349582027398 0.15299215228851551 0 0.43516771131317972 0.13864450200566489 0 0.45489410806192587 0.15920007844951281 0 0.43234116209288842 0.16881104005916589 0 0.45489410806192587 0.15920007844951281 0 0.43234116209288842 0.16881104005916589 0 0.42590349582027398 0.15299215228851551 0 0.45489410806192587 0.15920007844951281 0 0.43234116209288842 0.16881104005916589 0 0.44771935057795131 0.17701271268464661 0 0.45489410806192587 0.15920007844951281 0 0.4360776926859401 0.1887892259674131 0 0.45481882329013518 0.19081444930143529 0 0.44771935057795131 0.17701271268464661 0 0.43234116209288842 0.16881104005916589 0 0.4360776926859401 0.1887892259674131 0 0.44771935057795131 0.17701271268464661 0 0.44771935057795131 0.17701271268464661 0 0.45489410806192587 0.15920007844951281 0 0.47053389557721342 0.18465038223464211 0 0.45481882329013518 0.19081444930143529 0 0.44771935057795131 0.17701271268464661 0 0.47053389557721342 0.18465038223464211 0 0.45489410806192587 0.15920007844951281 0 0.48115516540284659 0.16876009306950771 0 0.47053389557721342 0.18465038223464211 0 0.45489410806192587 0.15920007844951281 0 0.48115516540284659 0.16876009306950771 0 0.47744705403096338 0.1495891168398597 0 0.50000000000000033 0.19586712099897841 0 0.48115516540284659 0.16876009306950771 0 0.47053389557721342 0.18465038223464211 0 0.50000000000000033 0.19586712099897841 0 0.48115516540284659 0.16876009306950771 0 0.5 0.16792263811459229 0 0.48115516540284659 0.16876009306950771 0 0.5 0.16792263811459229 0 0.47744705403096338 0.1495891168398597 0 0.5 0.16792263811459229 0 0.47744705403096338 0.1495891168398597 0 0.50000000000000078 0.13997815523020629 0 0.47744705403096338 0.1495891168398597 0 0.48358356620006049 0.13555515446509511 0 0.50000000000000078 0.13997815523020629 0 0.47744705403096338 0.1495891168398597 0 0.50000000000000078 0.13997815523020629 0 0.46171333421340111 0.13171995534526851 0 0.48358356620006049 0.13555515446509511 0 0.47875744275593818 0.1182648694536072 0 0.46171333421340111 0.13171995534526851 0 0.47744705403096338 0.1495891168398597 0 0.48358356620006049 0.13555515446509511 0 0.48358356620006049 0.13555515446509511 0 0.500000000000002 0.13822367545653391 0 0.47875744275593818 0.1182648694536072 0 0.48358356620006049 0.13555515446509511 0 0.500000000000002 0.13822367545653391 0 0.50000000000000078 0.13997815523020629 0 0.500000000000002 0.13822367545653391 0 0.47875744275593818 0.1182648694536072 0 0.500000000000002 0.13822367545653391 0 0.5 0.11056670339080429 0 0.47875744275593818 0.1182648694536072 0 0.5 0.11056670339080429 0 0.48297248409307553 0.096738217357939513 0 0.47875744275593818 0.1182648694536072 0 0.5 0.11056670339080429 0 0.48297248409307553 0.096738217357939513 0 0.5 0.082909731325074731 0 0.48297248409307553 0.096738217357939513 0 0.47875744275593818 0.1182648694536072 0 0.45751488551187353 0.098306063450681436 0 0.5 0.082909731325074731 0 0.4749531063222564 0.075117097466960367 0 0.5 0.055252759259345141 0 0.48297248409307553 0.096738217357939513 0 0.5 0.082909731325074731 0 0.4749531063222564 0.075117097466960367 0 0.48297248409307553 0.096738217357939513 0 0.4749531063222564 0.075117097466960367 0 0.45751488551187353 0.098306063450681436 0 0.4749531063222564 0.075117097466960367 0 0.45571047004153292 0.077665389413580893 0 0.45518956980138542 0.055689457719082867 0 0.4749531063222564 0.075117097466960367 0 0.45571047004153292 0.077665389413580893 0 0.45751488551187353 0.098306063450681436 0 0.45571047004153292 0.077665389413580893 0 0.45751488551187353 0.098306063450681436 0 0.43627232826780982 0.078347257447754587 0 0.45751488551187353 0.098306063450681436 0 0.43627232826780982 0.078347257447754587 0 0.42951842890224978 0.086436623909606936 0 0.45751488551187353 0.098306063450681436 0 0.43627232826780982 0.078347257447754587 0 0.45571047004153292 0.077665389413580893 0 0.43627232826780982 0.078347257447754587 0 0.45518956980138542 0.055689457719082867 0 0.43627232826780982 0.078347257447754587 0 0.45518956980138542 0.055689457719082867 0 0.43627232826780982 0.078347257447754587 0 0.4349201761408803 0.056382578001145073 0 0.45518956980138542 0.055689457719082867 0 0.46171333421340111 0.13171995534526851 0 0.45751488551187353 0.098306063450681436 0 0.44333049959965298 0.1222226742459452 0 0.46171333421340111 0.13171995534526851 0 0.47875744275593818 0.1182648694536072 0 0.45751488551187353 0.098306063450681436 0 0.47875744275593818 0.1182648694536072 0 0.45751488551187353 0.098306063450681436 0 0.45751488551187353 0.098306063450681436 0 0.43491492659001102 0.10671555560088759 0 0.42951842890224978 0.086436623909606936 0 0.45751488551187353 0.098306063450681436 0 0.44333049959965298 0.1222226742459452 0 0.43491492659001102 0.10671555560088759 0 0.44333049959965298 0.1222226742459452 0 0.41803959074485181 0.12137057658395931 0 0.43491492659001102 0.10671555560088759 0 0.41803959074485181 0.12137057658395931 0 0.40156428246908449 0.1210181057817573 0 0.40091147017652401 0.10409665116225381 0 0.41803959074485181 0.12137057658395931 0 0.40091147017652401 0.10409665116225381 0 0.41803959074485181 0.12137057658395931 0 0.41797750745288897 0.09721137997296983 0 0.40091147017652401 0.10409665116225381 0 0.41797750745288897 0.09721137997296983 0 0.40576005662602138 0.085043972118203276 0 0.40091147017652401 0.10409665116225381 0 0.41797750745288897 0.09721137997296983 0 0.43491492659001102 0.10671555560088759 0 0.42951842890224978 0.086436623909606936 0 0.41803959074485181 0.12137057658395931 0 0.41797750745288897 0.09721137997296983 0 0.43491492659001102 0.10671555560088759 0 0.41797750745288897 0.09721137997296983 0 0.42951842890224978 0.086436623909606936 0 0.41872057167767629 0.079604900462908273 0 0.43627232826780982 0.078347257447754587 0 0.42951842890224978 0.086436623909606936 0 0.41872057167767629 0.079604900462908273 0 0.43627232826780982 0.078347257447754587 0 0.42951842890224978 0.086436623909606936 0 0.43627232826780982 0.078347257447754587 0 0.4169289459519141 0.060172853554305579 0 0.43627232826780982 0.078347257447754587 0 0.4169289459519141 0.060172853554305579 0 0.4349201761408803 0.056382578001145073 0 0.43627232826780982 0.078347257447754587 0 0.41872057167767629 0.079604900462908273 0 0.4169289459519141 0.060172853554305579 0 0.40784434728041802 0.071091474651996625 0 0.41872057167767629 0.079604900462908273 0 0.4169289459519141 0.060172853554305579 0 0.41797750745288897 0.09721137997296983 0 0.41872057167767629 0.079604900462908273 0 0.40576005662602138 0.085043972118203276 0 0.40784434728041802 0.071091474651996625 0 0.41872057167767629 0.079604900462908273 0 0.40576005662602138 0.085043972118203276 0 0.40576005662602138 0.085043972118203276 0 0.39486784526866131 0.085273133156918327 0 0.40091147017652401 0.10409665116225381 0 0.39486784526866131 0.085273133156918327 0 0.38378334960819599 0.086822725740548251 0 0.40091147017652401 0.10409665116225381 0 0.40576005662602138 0.085043972118203276 0 0.39486784526866131 0.085273133156918327 0 0.39944626994985633 0.077021649788870258 0 0.39486784526866131 0.085273133156918327 0 0.39944626994985633 0.077021649788870258 0 0.39009643268261052 0.076412881285407061 0 0.39486784526866131 0.085273133156918327 0 0.39009643268261052 0.076412881285407061 0 0.38810315628182718 0.082767154917978758 0 0.40784434728041802 0.071091474651996625 0 0.39812314033946428 0.067745908090823426 0 0.40387366142478393 0.054889595264491622 0 0.40784434728041802 0.071091474651996625 0 0.39944626994985633 0.077021649788870258 0 0.39812314033946428 0.067745908090823426 0 0.40784434728041802 0.071091474651996625 0 0.40576005662602138 0.085043972118203276 0 0.39944626994985633 0.077021649788870258 0 0.39944626994985633 0.077021649788870258 0 0.39812314033946428 0.067745908090823426 0 0.39009643268261052 0.076412881285407061 0 0.39812314033946428 0.067745908090823426 0 0.38954694441776272 0.063508738005841489 0 0.39009643268261052 0.076412881285407061 0 0.38954694441776272 0.063508738005841489 0 0.38164150669557162 0.084662650174165882 0 0.36329866283310219 0.066163661003796836 0 0.38954694441776272 0.063508738005841489 0 0.38164150669557162 0.084662650174165882 0 0.38954694441776272 0.063508738005841489 0 0.39009643268261052 0.076412881285407061 0 0.38164150669557162 0.084662650174165882 0 0.39486784526866131 0.085273133156918327 0 0.38378334960819599 0.086822725740548251 0 0.38810315628182718 0.082767154917978758 0 0.39009643268261052 0.076412881285407061 0 0.38810315628182718 0.082767154917978758 0 0.38164150669557162 0.084662650174165882 0 0.38378334960819599 0.086822725740548251 0 0.38810315628182718 0.082767154917978758 0 0.38164150669557162 0.084662650174165882 0 0.38164150669557162 0.084662650174165882 0 0.38087434346500482 0.086715478134926777 0 0.38378334960819599 0.086822725740548251 0 0.38164150669557162 0.084662650174165882 0 0.3696377925119913 0.080804975754819389 0 0.38164150669557162 0.084662650174165882 0 0.38087434346500482 0.086715478134926777 0 0.38378334960819599 0.086822725740548251 0 0.38087434346500482 0.086715478134926777 0 0.37556051932460721 0.1009345730281008 0 0.38378334960819599 0.086822725740548251 0 0.38164150669557162 0.084662650174165882 0 0.38087434346500482 0.086715478134926777 0 0.38378334960819599 0.086822725740548251 0 0.38087434346500482 0.086715478134926777 0 0.37556051932460721 0.1009345730281008 0 0.38643837966719741 0.1170012986435769 0 0.40091147017652401 0.10409665116225381 0 0.38087434346500482 0.086715478134926777 0 0.37556051932460721 0.1009345730281008 0 0.38378334960819599 0.086822725740548251 0 0.37556051932460721 0.1009345730281008 0 0.40091147017652401 0.10409665116225381 0 0.37024669518420877 0.1151536679212747 0 0.37633887699913299 0.1296709172031929 0 0.38643837966719741 0.1170012986435769 0 0.37024669518420877 0.1151536679212747 0 0.37556051932460721 0.1009345730281008 0 0.38643837966719741 0.1170012986435769 0 0.392148204934473 0.13359833999259349 0 0.38643837966719741 0.1170012986435769 0 0.40156428246908449 0.1210181057817573 0 0.38643837966719741 0.1170012986435769 0 0.40156428246908449 0.1210181057817573 0 0.40091147017652401 0.10409665116225381 0 0.38378334960819599 0.086822725740548251 0 0.40091147017652401 0.10409665116225381 0 0.39669151796167018 0.013552844812989229 0 0.3791310270837307 0.024659175924217729 0 0.39758556363602138 0.041998449660853553 0 0.40547915374878668 0.020876240137977072 0 0.39669151796167018 0.013552844812989229 0 0.39758556363602138 0.041998449660853553 0 0.39669151796167018 0.013552844812989229 0 0.39758556363602138 0.041998449660853553 0 0.40547915374878668 0.020876240137977072 0 0.39669151796167018 0.013552844812989229 0 0.41337274386155098 -0.00024596938489981901 0 0.39669151796167018 0.013552844812989229 0 0.37995136004431668 0.003477639248481944 0 0.3791310270837307 0.024659175924217729 0 0.37003255214226072 0.0037635888938520922 0 0.37995136004431668 0.003477639248481944 0 0.3791310270837307 0.024659175924217729 0 0.39669151796167018 0.013552844812989229 0 0.37995136004431668 0.003477639248481944 0 0.38433325765117909 -0.0078990557892637588 0 0.3791310270837307 0.024659175924217729 0 0.37558052902725658 0.0450699776536828 0 0.39758556363602138 0.041998449660853553 0 0.3791310270837307 0.024659175924217729 0 0.39758556363602138 0.041998449660853553 0 0.36329866283310219 0.066163661003796836 0 0.38954694441776272 0.063508738005841489 0 0.37558052902725658 0.0450699776536828 0 0.38954694441776272 0.063508738005841489 0 0.37558052902725658 0.0450699776536828 0 0.39758556363602138 0.041998449660853553 0 0.40387366142478393 0.054889595264491622 0 0.39758556363602138 0.041998449660853553 0 0.4169289459519141 0.060172853554305579 0 0.39812314033946428 0.067745908090823426 0 0.39758556363602138 0.041998449660853553 0 0.39812314033946428 0.067745908090823426 0 0.40387366142478393 0.054889595264491622 0 0.39758556363602138 0.041998449660853553 0 0.39812314033946428 0.067745908090823426 0 0.38954694441776272 0.063508738005841489 0 0.39758556363602138 0.041998449660853553 0 0.38954694441776272 0.063508738005841489 0 0.39758556363602138 0.041998449660853553 0 0.40547915374878668 0.020876240137977072 0 0.39758556363602138 0.041998449660853553 0 0.4095666966814393 0.034438748197309042 0 0.40547915374878668 0.020876240137977072 0 0.39758556363602138 0.041998449660853553 0 0.39758556363602138 0.041998449660853553 0 0.4095666966814393 0.034438748197309042 0 0.41104260146427418 0.043804006940638733 0 0.4095666966814393 0.034438748197309042 0 0.41104260146427418 0.043804006940638733 0 0.42008919958772128 0.038605976350086398 0 0.4095666966814393 0.034438748197309042 0 0.42008919958772128 0.038605976350086398 0 0.41540229663658501 0.026316087897222881 0 0.41104260146427418 0.043804006940638733 0 0.42008919958772128 0.038605976350086398 0 0.4169289459519141 0.060172853554305579 0 0.40784434728041802 0.071091474651996625 0 0.40387366142478393 0.054889595264491622 0 0.4169289459519141 0.060172853554305579 0 0.39758556363602138 0.041998449660853553 0 0.4169289459519141 0.060172853554305579 0 0.39758556363602138 0.041998449660853553 0 0.41104260146427418 0.043804006940638733 0 0.4169289459519141 0.060172853554305579 0 0.42008919958772128 0.038605976350086398 0 0.4169289459519141 0.060172853554305579 0 0.4349201761408803 0.056382578001145073 0 0.42008919958772128 0.038605976350086398 0 0.42765751691990578 0.021837857762226149 0 0.44002217430849883 0.036278712198876233 0 0.42008919958772128 0.038605976350086398 0 0.4349201761408803 0.056382578001145073 0 0.44002217430849883 0.036278712198876233 0 0.42765751691990578 0.021837857762226149 0 0.44450244254881799 0.01408760497532351 0 0.44002217430849883 0.036278712198876233 0 0.42008919958772128 0.038605976350086398 0 0.42765751691990578 0.021837857762226149 0 0.41540229663658501 0.026316087897222881 0 0.42765751691990578 0.021837857762226149 0 0.41540229663658501 0.026316087897222881 0 0.41806394303582839 0.01469747430978012 0 0.40547915374878668 0.020876240137977072 0 0.41540229663658501 0.026316087897222881 0 0.41806394303582839 0.01469747430978012 0 0.40547915374878668 0.020876240137977072 0 0.4095666966814393 0.034438748197309042 0 0.41540229663658501 0.026316087897222881 0 0.40547915374878668 0.020876240137977072 0 0.41337274386155098 -0.00024596938489981901 0 0.40547915374878668 0.020876240137977072 0 0.41806394303582839 0.01469747430978012 0 0.41337274386155098 -0.00024596938489981901 0 0.41806394303582839 0.01469747430978012 0 0.42840800401231388 0.0047031551363743099 0 0.41337274386155098 -0.00024596938489981901 0 0.42765751691990578 0.021837857762226149 0 0.42840800401231388 0.0047031551363743099 0 0.44450244254881799 0.01408760497532351 0 0.42765751691990578 0.021837857762226149 0 0.41806394303582839 0.01469747430978012 0 0.42840800401231388 0.0047031551363743099 0 0.42840800401231388 0.0047031551363743099 0 0.44450244254881799 0.01408760497532351 0 0.44555966035318101 -0.0086069465346454242 0 0.44450244254881799 0.01408760497532351 0 0.46856222715242568 0.0094419697021327301 0 0.44555966035318101 -0.0086069465346454242 0 0.44450244254881799 0.01408760497532351 0 0.45650358610497521 0.028398249898805929 0 0.44002217430849883 0.036278712198876233 0 0.44450244254881799 0.01408760497532351 0 0.45650358610497521 0.028398249898805929 0 0.46856222715242568 0.0094419697021327301 0 0.45650358610497521 0.028398249898805929 0 0.46856222715242568 0.0094419697021327301 0 0.47410681133496091 0.033031657990411079 0 0.4349201761408803 0.056382578001145073 0 0.44002217430849883 0.036278712198876233 0 0.45518956980138542 0.055689457719082867 0 0.45650358610497521 0.028398249898805929 0 0.44002217430849883 0.036278712198876233 0 0.45518956980138542 0.055689457719082867 0 0.45650358610497521 0.028398249898805929 0 0.45518956980138542 0.055689457719082867 0 0.47410681133496091 0.033031657990411079 0 0.45518956980138542 0.055689457719082867 0 0.47410681133496091 0.033031657990411079 0 0.45518956980138542 0.055689457719082867 0 0.47840480263017943 0.05332578129967401 0 0.47410681133496091 0.033031657990411079 0 0.4749531063222564 0.075117097466960367 0 0.45518956980138542 0.055689457719082867 0 0.47840480263017943 0.05332578129967401 0 0.47840480263017943 0.05332578129967401 0 0.47410681133496091 0.033031657990411079 0 0.4881279034912851 0.042301496435761449 0 0.47410681133496091 0.033031657990411079 0 0.4881279034912851 0.042301496435761449 0 0.5 0.027595787193615551 0 0.4881279034912851 0.042301496435761449 0 0.5 0.055252759259345141 0 0.5 0.027595787193615551 0 0.4749531063222564 0.075117097466960367 0 0.47840480263017943 0.05332578129967401 0 0.5 0.055252759259345141 0 0.47840480263017943 0.05332578129967401 0 0.4881279034912851 0.042301496435761449 0 0.5 0.055252759259345141 0 0.46856222715242568 0.0094419697021327301 0 0.49302405286853629 0.010373858261739319 0 0.48330946377534573 -0.0040510560023657386 0 0.46856222715242568 0.0094419697021327301 0 0.47410681133496091 0.033031657990411079 0 0.49302405286853629 0.010373858261739319 0 0.47410681133496091 0.033031657990411079 0 0.49302405286853629 0.010373858261739319 0 0.47410681133496091 0.033031657990411079 0 0.5 0.027595787193615551 0 0.49302405286853629 0.010373858261739319 0 0.5 0.027595787193615551 0 0.49302405286853629 0.010373858261739319 0 0.5 -6.1184872114095068e-05 0 0.49302405286853629 0.010373858261739319 0 0.5 -6.1184872114095068e-05 0 0.48330946377534573 -0.0040510560023657386 0 0.5 -6.1184872114095068e-05 0 0.49208095248142719 -0.013071370892070571 0 0.48330946377534573 -0.0040510560023657386 0 0.49208095248142719 -0.013071370892070571 0 0.48330946377534573 -0.0040510560023657386 0 0.4850143461503631 -0.020455085755958651 0 0.5 -6.1184872114095068e-05 0 0.49208095248142719 -0.013071370892070571 0 0.5 -0.0277181569378438 0 0.46856222715242568 0.0094419697021327301 0 0.48330946377534573 -0.0040510560023657386 0 0.46866645578272897 -0.01424122051150689 0 0.48330946377534573 -0.0040510560023657386 0 0.4850143461503631 -0.020455085755958651 0 0.46866645578272897 -0.01424122051150689 0 0.4850143461503631 -0.020455085755958651 0 0.47437474210913783 -0.031327293021014148 0 0.46866645578272897 -0.01424122051150689 0 0.4850143461503631 -0.020455085755958651 0 0.48693307515783191 -0.035668000266931343 0 0.47437474210913783 -0.031327293021014148 0 0.4850143461503631 -0.020455085755958651 0 0.5 -0.0277181569378438 0 0.48693307515783191 -0.035668000266931343 0 0.49208095248142719 -0.013071370892070571 0 0.4850143461503631 -0.020455085755958651 0 0.5 -0.0277181569378438 0 0.49813222133702029 -0.044765763279818432 0 0.48693307515783191 -0.035668000266931343 0 0.4699960624998033 -0.054801281202251258 0 0.5 -0.0277181569378438 0 0.49813222133702029 -0.044765763279818432 0 0.48693307515783191 -0.035668000266931343 0 0.5 -0.0277181569378438 0 0.49813222133702029 -0.044765763279818432 0 0.5 -0.055375129003573553 0 0.5 -0.055375129003573553 0 0.4699960624998033 -0.054801281202251258 0 0.48475497493349301 -0.070759313019251091 0 0.49813222133702029 -0.044765763279818432 0 0.5 -0.055375129003573553 0 0.4699960624998033 -0.054801281202251258 0 0.49813222133702029 -0.044765763279818432 0 0.4699960624998033 -0.054801281202251258 0 0.48693307515783191 -0.035668000266931343 0 0.4699960624998033 -0.054801281202251258 0 0.47437474210913783 -0.031327293021014148 0 0.4699960624998033 -0.054801281202251258 0 0.47437474210913783 -0.031327293021014148 0 0.45513370413048537 -0.031185077481102028 0 0.4699960624998033 -0.054801281202251258 0 0.44492587465037042 -0.046410287578278343 0 0.45513370413048537 -0.031185077481102028 0 0.4699960624998033 -0.054801281202251258 0 0.44185990366258632 -0.064836799124684097 0 0.4699960624998033 -0.054801281202251258 0 0.44492587465037042 -0.046410287578278343 0 0.44185990366258632 -0.064836799124684097 0 0.44492587465037042 -0.046410287578278343 0 0.45513370413048537 -0.031185077481102028 0 0.43343356261908489 -0.031158496193341319 0 0.44555966035318101 -0.0086069465346454242 0 0.45513370413048537 -0.031185077481102028 0 0.43343356261908489 -0.031158496193341319 0 0.46856222715242568 0.0094419697021327301 0 0.44555966035318101 -0.0086069465346454242 0 0.46866645578272897 -0.01424122051150689 0 0.44555966035318101 -0.0086069465346454242 0 0.46866645578272897 -0.01424122051150689 0 0.45513370413048537 -0.031185077481102028 0 0.47437474210913783 -0.031327293021014148 0 0.46866645578272897 -0.01424122051150689 0 0.45513370413048537 -0.031185077481102028 0 0.47326801494301479 -0.11422845771805409 0 0.5 -0.11068907313503309 0 0.4866320036825022 -0.12620170068426859 0 0.47326801494301479 -0.11422845771805409 0 0.5 -0.11068907313503309 0 0.4847026055787349 -0.096255503935799708 0 0.5 -0.11068907313503309 0 0.4847026055787349 -0.096255503935799708 0 0.5 -0.083032101069303366 0 0.47326801494301479 -0.11422845771805409 0 0.4847026055787349 -0.096255503935799708 0 0.46734324226795398 -0.084346183002301872 0 0.4847026055787349 -0.096255503935799708 0 0.48475497493349301 -0.070759313019251091 0 0.46734324226795398 -0.084346183002301872 0 0.4847026055787349 -0.096255503935799708 0 0.5 -0.083032101069303366 0 0.48475497493349301 -0.070759313019251091 0 0.5 -0.055375129003573553 0 0.5 -0.083032101069303366 0 0.48475497493349301 -0.070759313019251091 0 0.4699960624998033 -0.054801281202251258 0 0.48475497493349301 -0.070759313019251091 0 0.46734324226795398 -0.084346183002301872 0 0.4699960624998033 -0.054801281202251258 0 0.44185990366258632 -0.064836799124684097 0 0.46734324226795398 -0.084346183002301872 0 0.44185990366258632 -0.064836799124684097 0 0.44453922508151039 -0.085583584646918065 0 0.4303713627275001 -0.081465869733928387 0 0.44453922508151039 -0.085583584646918065 0 0.46734324226795398 -0.084346183002301872 0 0.44669579213863803 -0.1049875196552482 0 0.44185990366258632 -0.064836799124684097 0 0.44453922508151039 -0.085583584646918065 0 0.46734324226795398 -0.084346183002301872 0 0.47326801494301479 -0.11422845771805409 0 0.46734324226795398 -0.084346183002301872 0 0.44669579213863803 -0.1049875196552482 0 0.44453922508151039 -0.085583584646918065 0 0.44669579213863803 -0.1049875196552482 0 0.43257759990510469 -0.093108897807177862 0 0.44669579213863803 -0.1049875196552482 0 0.43425522192389399 -0.12532418806616721 0 0.45479980567330403 -0.1261647600576756 0 0.47326801494301479 -0.11422845771805409 0 0.44669579213863803 -0.1049875196552482 0 0.45479980567330403 -0.1261647600576756 0 0.41546343126495938 -0.121497802527544 0 0.40815004741602789 -0.1050333694180795 0 0.3955567173094644 -0.11819618925973201 0 0.41546343126495938 -0.121497802527544 0 0.42539562965790068 -0.10815452286444829 0 0.40815004741602789 -0.1050333694180795 0 0.44669579213863803 -0.1049875196552482 0 0.42539562965790068 -0.10815452286444829 0 0.43425522192389399 -0.12532418806616721 0 0.41546343126495938 -0.121497802527544 0 0.42539562965790068 -0.10815452286444829 0 0.43425522192389399 -0.12532418806616721 0 0.42539562965790068 -0.10815452286444829 0 0.41723222781004538 -0.089341423088119959 0 0.43257759990510469 -0.093108897807177862 0 0.44669579213863803 -0.1049875196552482 0 0.42539562965790068 -0.10815452286444829 0 0.43257759990510469 -0.093108897807177862 0 0.42539562965790068 -0.10815452286444829 0 0.40815004741602789 -0.1050333694180795 0 0.41723222781004538 -0.089341423088119959 0 0.40815004741602789 -0.1050333694180795 0 0.41723222781004538 -0.089341423088119959 0 0.40332319190634869 -0.090172565554934844 0 0.41723222781004538 -0.089341423088119959 0 0.4303713627275001 -0.081465869733928387 0 0.41372374482536922 -0.074872317047116957 0 0.41723222781004538 -0.089341423088119959 0 0.41372374482536922 -0.074872317047116957 0 0.40332319190634869 -0.090172565554934844 0 0.41723222781004538 -0.089341423088119959 0 0.43257759990510469 -0.093108897807177862 0 0.4303713627275001 -0.081465869733928387 0 0.44453922508151039 -0.085583584646918065 0 0.43257759990510469 -0.093108897807177862 0 0.4303713627275001 -0.081465869733928387 0 0.44185990366258632 -0.064836799124684097 0 0.41859815833738678 -0.062605336860081656 0 0.41372374482536922 -0.074872317047116957 0 0.44185990366258632 -0.064836799124684097 0 0.41372374482536922 -0.074872317047116957 0 0.44185990366258632 -0.064836799124684097 0 0.4303713627275001 -0.081465869733928387 0 0.41372374482536922 -0.074872317047116957 0 0.41859815833738678 -0.062605336860081656 0 0.41372374482536922 -0.074872317047116957 0 0.4052298310059515 -0.068320346354506525 0 0.39444805688532331 -0.071371804282791163 0 0.4052298310059515 -0.068320346354506525 0 0.40797117185313481 -0.054927437884087701 0 0.4052298310059515 -0.068320346354506525 0 0.38558758598815179 -0.084907834969548568 0 0.41372374482536922 -0.074872317047116957 0 0.4052298310059515 -0.068320346354506525 0 0.38558758598815179 -0.084907834969548568 0 0.39444805688532331 -0.071371804282791163 0 0.4052298310059515 -0.068320346354506525 0 0.38558758598815179 -0.084907834969548568 0 0.39444805688532331 -0.071371804282791163 0 0.37692366058349552 -0.06956858971040486 0 0.38558758598815179 -0.084907834969548568 0 0.39444805688532331 -0.071371804282791163 0 0.37692366058349552 -0.06956858971040486 0 0.38561201702549552 -0.059162176666530647 0 0.37692366058349552 -0.06956858971040486 0 0.38558758598815179 -0.084907834969548568 0 0.3724389763665491 -0.07899487238330867 0 0.38558758598815179 -0.084907834969548568 0 0.3724389763665491 -0.07899487238330867 0 0.36792295458853658 -0.091208400943376511 0 0.38558758598815179 -0.084907834969548568 0 0.36792295458853658 -0.091208400943376511 0 0.38558758598815179 -0.084907834969548568 0 0.38308266881021352 -0.097483111087933477 0 0.37055329063471543 -0.097604000951811293 0 0.38558758598815179 -0.084907834969548568 0 0.37055329063471543 -0.097604000951811293 0 0.38558758598815179 -0.084907834969548568 0 0.39157602709819977 -0.093839175150645174 0 0.38308266881021352 -0.097483111087933477 0 0.41372374482536922 -0.074872317047116957 0 0.38558758598815179 -0.084907834969548568 0 0.40332319190634869 -0.090172565554934844 0 0.38558758598815179 -0.084907834969548568 0 0.40332319190634869 -0.090172565554934844 0 0.39157602709819977 -0.093839175150645174 0 0.41372374482536922 -0.074872317047116957 0 0.38558758598815179 -0.084907834969548568 0 0.40815004741602789 -0.1050333694180795 0 0.40332319190634869 -0.090172565554934844 0 0.39223007095766882 -0.1039502748481341 0 0.40815004741602789 -0.1050333694180795 0 0.39223007095766882 -0.1039502748481341 0 0.3955567173094644 -0.11819618925973201 0 0.40332319190634869 -0.090172565554934844 0 0.39223007095766882 -0.1039502748481341 0 0.39157602709819977 -0.093839175150645174 0 0.39223007095766882 -0.1039502748481341 0 0.38308266881021352 -0.097483111087933477 0 0.37645122036474982 -0.1119446778725184 0 0.39223007095766882 -0.1039502748481341 0 0.39157602709819977 -0.093839175150645174 0 0.38308266881021352 -0.097483111087933477 0 0.38308266881021352 -0.097483111087933477 0 0.37645122036474982 -0.1119446778725184 0 0.37055329063471543 -0.097604000951811293 0 0.37645122036474982 -0.1119446778725184 0 0.3955567173094644 -0.11819618925973201 0 0.38234915009478337 -0.12628535479322589 0 0.39223007095766882 -0.1039502748481341 0 0.37645122036474982 -0.1119446778725184 0 0.3955567173094644 -0.11819618925973201 0 0.37645122036474982 -0.1119446778725184 0 0.38234915009478337 -0.12628535479322589 0 0.41546343126495938 -0.121497802527544 0 0.3955567173094644 -0.11819618925973201 0 0.40135576793102579 -0.13294379327452499 0 0.42430916979281358 -0.01469937339559082 0 0.41321032131798519 -0.032998922025339633 0 0.39594369760288778 -0.01475537155227102 0 0.41337274386155098 -0.00024596938489981901 0 0.42430916979281358 -0.01469937339559082 0 0.39594369760288778 -0.01475537155227102 0 0.42840800401231388 0.0047031551363743099 0 0.41337274386155098 -0.00024596938489981901 0 0.42430916979281358 -0.01469937339559082 0 0.42840800401231388 0.0047031551363743099 0 0.44555966035318101 -0.0086069465346454242 0 0.42430916979281358 -0.01469937339559082 0 0.44555966035318101 -0.0086069465346454242 0 0.42430916979281358 -0.01469937339559082 0 0.43343356261908489 -0.031158496193341319 0 0.42430916979281358 -0.01469937339559082 0 0.43343356261908489 -0.031158496193341319 0 0.41321032131798519 -0.032998922025339633 0 0.43343356261908489 -0.031158496193341319 0 0.42420614033989201 -0.050069783890012959 0 0.41321032131798519 -0.032998922025339633 0 0.44492587465037042 -0.046410287578278343 0 0.43343356261908489 -0.031158496193341319 0 0.42420614033989201 -0.050069783890012959 0 0.44185990366258632 -0.064836799124684097 0 0.41859815833738678 -0.062605336860081656 0 0.42420614033989201 -0.050069783890012959 0 0.44492587465037042 -0.046410287578278343 0 0.44185990366258632 -0.064836799124684097 0 0.42420614033989201 -0.050069783890012959 0 0.41859815833738678 -0.062605336860081656 0 0.42420614033989201 -0.050069783890012959 0 0.40797117185313481 -0.054927437884087701 0 0.41859815833738678 -0.062605336860081656 0 0.4052298310059515 -0.068320346354506525 0 0.40797117185313481 -0.054927437884087701 0 0.42420614033989201 -0.050069783890012959 0 0.40797117185313481 -0.054927437884087701 0 0.41321032131798519 -0.032998922025339633 0 0.40797117185313481 -0.054927437884087701 0 0.41321032131798519 -0.032998922025339633 0 0.39519587724410549 -0.043063587917531079 0 0.39444805688532331 -0.071371804282791163 0 0.40797117185313481 -0.054927437884087701 0 0.39519587724410549 -0.043063587917531079 0 0.39444805688532331 -0.071371804282791163 0 0.39519587724410549 -0.043063587917531079 0 0.38561201702549552 -0.059162176666530647 0 0.39444805688532331 -0.071371804282791163 0 0.39519587724410549 -0.043063587917531079 0 0.37692366058349552 -0.06956858971040486 0 0.38561201702549552 -0.059162176666530647 0 0.37588047338905761 -0.0526447247553955 0 0.39519587724410549 -0.043063587917531079 0 0.38561201702549552 -0.059162176666530647 0 0.37588047338905761 -0.0526447247553955 0 0.39519587724410549 -0.043063587917531079 0 0.37588047338905761 -0.0526447247553955 0 0.37408456901029102 -0.028561980875884799 0 0.39594369760288778 -0.01475537155227102 0 0.38433325765117909 -0.0078990557892637588 0 0.37408456901029102 -0.028561980875884799 0 0.38433325765117909 -0.0078990557892637588 0 0.37295816391247461 -0.01062744743575489 0 0.37408456901029102 -0.028561980875884799 0 0.39519587724410549 -0.043063587917531079 0 0.39594369760288778 -0.01475537155227102 0 0.37408456901029102 -0.028561980875884799 0 0.41321032131798519 -0.032998922025339633 0 0.39519587724410549 -0.043063587917531079 0 0.39594369760288778 -0.01475537155227102 0 0.39519587724410549 -0.043063587917531079 0 0.39594369760288778 -0.01475537155227102 0 0.39669151796167018 0.013552844812989229 0 0.39594369760288778 -0.01475537155227102 0 0.38433325765117909 -0.0078990557892637588 0 0.39669151796167018 0.013552844812989229 0 0.41337274386155098 -0.00024596938489981901 0 0.39594369760288778 -0.01475537155227102 0 0.39669151796167018 0.013552844812989229 0 0.39594369760288778 -0.01475537155227102 0 0.37995136004431668 0.003477639248481944 0 0.38433325765117909 -0.0078990557892637588 0 0.37295816391247461 -0.01062744743575489 0 0.37995136004431668 0.003477639248481944 0 0.36886835747302382 -0.0031896416934029249 0 0.37295816391247461 -0.01062744743575489 0 0.36886835747302382 -0.0031896416934029249 0 0.37295816391247461 -0.01062744743575489 0 0.36350541453881979 -0.0109616189587521 0 0.36062521711878898 0.0006066021732962501 0 0.36886835747302382 -0.0031896416934029249 0 0.36350541453881979 -0.0109616189587521 0 0.37408456901029102 -0.028561980875884799 0 0.35187397973788631 -0.01532336631508428 0 0.35396193151887889 -0.036520114917268892 0 0.36350541453881979 -0.0109616189587521 0 0.37408456901029102 -0.028561980875884799 0 0.35187397973788631 -0.01532336631508428 0 0.37408456901029102 -0.028561980875884799 0 0.35187397973788631 -0.01532336631508428 0 0.37295816391247461 -0.01062744743575489 0 0.36350541453881979 -0.0109616189587521 0 0.37408456901029102 -0.028561980875884799 0 0.35187397973788631 -0.01532336631508428 0 0.33976163852965652 -0.037371587083110759 0 0.35187397973788631 -0.01532336631508428 0 0.33976163852965652 -0.037371587083110759 0 0.35396193151887889 -0.036520114917268892 0 0.35187397973788631 -0.01532336631508428 0 0.34251440461031052 -0.00974459458385484 0 0.33760664860554879 -0.025005426098542199 0 0.36062521711878898 0.0006066021732962501 0 0.35187397973788631 -0.01532336631508428 0 0.36082271584702019 0.0074572906701818112 0 0.36062521711878898 0.0006066021732962501 0 0.34251440461031052 -0.00974459458385484 0 0.36062521711878898 0.0006066021732962501 0 0.35187397973788631 -0.01532336631508428 0 0.34251440461031052 -0.00974459458385484 0 0.36082271584702019 0.0074572906701818112 0 0.34251440461031052 -0.00974459458385484 0 0.36062521711878898 0.0006066021732962501 0 0.36350541453881979 -0.0109616189587521 0 0.35187397973788631 -0.01532336631508428 0 0.35187397973788631 -0.01532336631508428 0 0.34251440461031052 -0.00974459458385484 0 0.32539226792800302 0.0004610494544162614 0 0.34251440461031052 -0.00974459458385484 0 0.32539226792800302 0.0004610494544162614 0 0.34251440461031052 -0.00974459458385484 0 0.32755316497129289 -0.01242913116501543 0 0.35187397973788631 -0.01532336631508428 0 0.33760664860554879 -0.025005426098542199 0 0.33976163852965652 -0.037371587083110759 0 0.34251440461031052 -0.00974459458385484 0 0.32513009303305379 -0.026078320240251331 0 0.32755316497129289 -0.01242913116501543 0 0.34251440461031052 -0.00974459458385484 0 0.33760664860554879 -0.025005426098542199 0 0.32513009303305379 -0.026078320240251331 0 0.34251440461031052 -0.00974459458385484 0 0.32513009303305379 -0.026078320240251331 0 0.33760664860554879 -0.025005426098542199 0 0.32513009303305379 -0.026078320240251331 0 0.32875312711683718 -0.036509262270409543 0 0.32513009303305379 -0.026078320240251331 0 0.31717589431380427 -0.014354659290371609 0 0.32755316497129289 -0.01242913116501543 0 0.32513009303305379 -0.026078320240251331 0 0.310418551095691 -0.024672561288953069 0 0.30774578145579662 -0.042412045896647349 0 0.32513009303305379 -0.026078320240251331 0 0.31717589431380427 -0.014354659290371609 0 0.310418551095691 -0.024672561288953069 0 0.32539226792800302 0.0004610494544162614 0 0.31717589431380427 -0.014354659290371609 0 0.30626763640331711 -0.0069586591564612874 0 0.32539226792800302 0.0004610494544162614 0 0.31717589431380427 -0.014354659290371609 0 0.32755316497129289 -0.01242913116501543 0 0.31349820087182961 -0.053122894398841283 0 0.32421759446602111 -0.046577026231794529 0 0.30774578145579662 -0.042412045896647349 0 0.32764929732142789 -0.059419807851138012 0 0.31349820087182961 -0.053122894398841283 0 0.30936372826065672 -0.06604705864745479 0 0.32764929732142789 -0.059419807851138012 0 0.31349820087182961 -0.053122894398841283 0 0.32421759446602111 -0.046577026231794529 0 0.32421759446602111 -0.046577026231794529 0 0.32875312711683718 -0.036509262270409543 0 0.30774578145579662 -0.042412045896647349 0 0.32513009303305379 -0.026078320240251331 0 0.32875312711683718 -0.036509262270409543 0 0.30774578145579662 -0.042412045896647349 0 0.32513009303305379 -0.026078320240251331 0 0.30774578145579662 -0.042412045896647349 0 0.32421759446602111 -0.046577026231794529 0 0.30774578145579662 -0.042412045896647349 0 0.32421759446602111 -0.046577026231794529 0 0.32875312711683718 -0.036509262270409543 0 0.33976163852965652 -0.037371587083110759 0 0.33760664860554879 -0.025005426098542199 0 0.32875312711683718 -0.036509262270409543 0 0.33976163852965652 -0.037371587083110759 0 0.32764929732142789 -0.059419807851138012 0 0.32421759446602111 -0.046577026231794529 0 0.33976163852965652 -0.037371587083110759 0 0.32764929732142789 -0.059419807851138012 0 0.33976163852965652 -0.037371587083110759 0 0.32764929732142789 -0.059419807851138012 0 0.33976163852965652 -0.037371587083110759 0 0.3446483034916521 -0.059731357713442582 0 0.3446483034916521 -0.059731357713442582 0 0.3507204540234895 -0.049380926876434729 0 0.35396193151887889 -0.036520114917268892 0 0.3507204540234895 -0.049380926876434729 0 0.36279382644954611 -0.047480482266977909 0 0.35932170430601312 -0.07029466390990563 0 0.3507204540234895 -0.049380926876434729 0 0.35932170430601312 -0.07029466390990563 0 0.3446483034916521 -0.059731357713442582 0 0.35396193151887889 -0.036520114917268892 0 0.3446483034916521 -0.059731357713442582 0 0.3507204540234895 -0.049380926876434729 0 0.35932170430601312 -0.07029466390990563 0 0.33976163852965652 -0.037371587083110759 0 0.3446483034916521 -0.059731357713442582 0 0.35396193151887889 -0.036520114917268892 0 0.3507204540234895 -0.049380926876434729 0 0.35396193151887889 -0.036520114917268892 0 0.36279382644954611 -0.047480482266977909 0 0.37408456901029102 -0.028561980875884799 0 0.35396193151887889 -0.036520114917268892 0 0.36279382644954611 -0.047480482266977909 0 0.37588047338905761 -0.0526447247553955 0 0.37408456901029102 -0.028561980875884799 0 0.36279382644954611 -0.047480482266977909 0 0.37588047338905761 -0.0526447247553955 0 0.36279382644954611 -0.047480482266977909 0 0.35932170430601312 -0.07029466390990563 0 0.37692366058349552 -0.06956858971040486 0 0.3724389763665491 -0.07899487238330867 0 0.35932170430601312 -0.07029466390990563 0 0.37692366058349552 -0.06956858971040486 0 0.37588047338905761 -0.0526447247553955 0 0.35932170430601312 -0.07029466390990563 0 0.38558758598815179 -0.084907834969548568 0 0.36792295458853658 -0.091208400943376511 0 0.37055329063471543 -0.097604000951811293 0 0.36792295458853658 -0.091208400943376511 0 0.35932170430601312 -0.07029466390990563 0 0.3724389763665491 -0.07899487238330867 0 0.36792295458853658 -0.091208400943376511 0 0.35932170430601312 -0.07029466390990563 0 0.36792295458853658 -0.091208400943376511 0 0.35382261549752497 -0.084781887797564986 0 0.35932170430601312 -0.07029466390990563 0 0.36792295458853658 -0.091208400943376511 0 0.35382261549752497 -0.084781887797564986 0 0.34697200101286929 -0.098681122124585324 0 0.35382261549752497 -0.084781887797564986 0 0.34410433710098581 -0.088629843507914849 0 0.34697200101286929 -0.098681122124585324 0 0.35382261549752497 -0.084781887797564986 0 0.34410433710098581 -0.088629843507914849 0 0.34744632717212032 -0.077276070687688866 0 0.3446483034916521 -0.059731357713442582 0 0.34744632717212032 -0.077276070687688866 0 0.35932170430601312 -0.07029466390990563 0 0.35382261549752497 -0.084781887797564986 0 0.34744632717212032 -0.077276070687688866 0 0.35932170430601312 -0.07029466390990563 0 0.37645122036474982 -0.1119446778725184 0 0.36572388693975733 -0.1247397052319703 0 0.38234915009478337 -0.12628535479322589 0 0.37645122036474982 -0.1119446778725184 0 0.36572388693975733 -0.1247397052319703 0 0.36599732018555742 -0.11204611075438189 0 0.36572388693975733 -0.1247397052319703 0 0.36599732018555742 -0.11204611075438189 0 0.35126088280300749 -0.1138960589612278 0 0.36792295458853658 -0.091208400943376511 0 0.37055329063471543 -0.097604000951811293 0 0.34697200101286929 -0.098681122124585324 0 0.36599732018555742 -0.11204611075438189 0 0.37055329063471543 -0.097604000951811293 0 0.35126088280300749 -0.1138960589612278 0 0.37055329063471543 -0.097604000951811293 0 0.35126088280300749 -0.1138960589612278 0 0.37645122036474982 -0.1119446778725184 0 0.37055329063471543 -0.097604000951811293 0 0.37645122036474982 -0.1119446778725184 0 0.36599732018555742 -0.11204611075438189 0 0.37055329063471543 -0.097604000951811293 0 0.36792295458853658 -0.091208400943376511 0 0.37055329063471543 -0.097604000951811293 0 0.37055329063471543 -0.097604000951811293 0 0.34697200101286929 -0.098681122124585324 0 0.35126088280300749 -0.1138960589612278 0 0.34697200101286929 -0.098681122124585324 0 0.35126088280300749 -0.1138960589612278 0 0.33544113890561789 -0.1152232440781624 0 0.36792295458853658 -0.091208400943376511 0 0.34697200101286929 -0.098681122124585324 0 0.36572388693975733 -0.1247397052319703 0 0.35126088280300749 -0.1138960589612278 0 0.35347539996268779 -0.1360870826520019 0 0.33544113890561789 -0.1152232440781624 0 0.31840695915105433 -0.12512952618302589 0 0.33196847497129978 -0.1301881169706445 0 0.35126088280300749 -0.1138960589612278 0 0.33544113890561789 -0.1152232440781624 0 0.33196847497129978 -0.1301881169706445 0 0.35126088280300749 -0.1138960589612278 0 0.33196847497129978 -0.1301881169706445 0 0.32602104743720067 -0.10615384330579079 0 0.33533467546442519 -0.082942600509616257 0 0.34697200101286929 -0.098681122124585324 0 0.32602104743720067 -0.10615384330579079 0 0.34697200101286929 -0.098681122124585324 0 0.33544113890561789 -0.1152232440781624 0 0.32602104743720067 -0.10615384330579079 0 0.34410433710098581 -0.088629843507914849 0 0.34697200101286929 -0.098681122124585324 0 0.32602104743720067 -0.10615384330579079 0 0.3142141934535615 -0.098103744808269916 0 0.32602104743720067 -0.10615384330579079 0 0.32527443105669762 -0.090916650331071214 0 0.3142141934535615 -0.098103744808269916 0 0.32602104743720067 -0.10615384330579079 0 0.31186659992852678 -0.1112024077696645 0 0.32602104743720067 -0.10615384330579079 0 0.31186659992852678 -0.1112024077696645 0 0.33544113890561789 -0.1152232440781624 0 0.32602104743720067 -0.10615384330579079 0 0.31840695915105433 -0.12512952618302589 0 0.32602104743720067 -0.10615384330579079 0 0.31186659992852678 -0.1112024077696645 0 0.31840695915105433 -0.12512952618302589 0 0.32602104743720067 -0.10615384330579079 0 0.31840695915105433 -0.12512952618302589 0 0.31186659992852678 -0.1112024077696645 0 0.30866926922661508 -0.12573227813847929 0 0.31840695915105433 -0.12512952618302589 0 0.3446483034916521 -0.059731357713442582 0 0.33355345755950161 -0.069885808951497444 0 0.33533467546442519 -0.082942600509616257 0 0.32764929732142789 -0.059419807851138012 0 0.3446483034916521 -0.059731357713442582 0 0.33355345755950161 -0.069885808951497444 0 0.3446483034916521 -0.059731357713442582 0 0.33533467546442519 -0.082942600509616257 0 0.3446483034916521 -0.059731357713442582 0 0.34744632717212032 -0.077276070687688866 0 0.33533467546442519 -0.082942600509616257 0 0.32764929732142789 -0.059419807851138012 0 0.33355345755950161 -0.069885808951497444 0 0.32658155396050143 -0.077449469731792925 0 0.33355345755950161 -0.069885808951497444 0 0.33533467546442519 -0.082942600509616257 0 0.32658155396050143 -0.077449469731792925 0 0.34410433710098581 -0.088629843507914849 0 0.32602104743720067 -0.10615384330579079 0 0.33533467546442519 -0.082942600509616257 0 0.34410433710098581 -0.088629843507914849 0 0.34744632717212032 -0.077276070687688866 0 0.33533467546442519 -0.082942600509616257 0 0.32602104743720067 -0.10615384330579079 0 0.33533467546442519 -0.082942600509616257 0 0.32527443105669762 -0.090916650331071214 0 0.33533467546442519 -0.082942600509616257 0 0.32527443105669762 -0.090916650331071214 0 0.32658155396050143 -0.077449469731792925 0 0.3142141934535615 -0.098103744808269916 0 0.32658155396050143 -0.077449469731792925 0 0.3142141934535615 -0.098103744808269916 0 0.31553695611319932 -0.081468028619165356 0 0.32658155396050143 -0.077449469731792925 0 0.3142141934535615 -0.098103744808269916 0 0.32527443105669762 -0.090916650331071214 0 0.32658155396050143 -0.077449469731792925 0 0.32764929732142789 -0.059419807851138012 0 0.31553695611319932 -0.081468028619165356 0 0.30936372826065672 -0.06604705864745479 0 0.32764929732142789 -0.059419807851138012 0 0.31553695611319932 -0.081468028619165356 0 0.32764929732142789 -0.059419807851138012 0 0.31553695611319932 -0.081468028619165356 0 0.32658155396050143 -0.077449469731792925 0 0.30936372826065672 -0.06604705864745479 0 0.29629631641704041 -0.070314563129292587 0 0.29663906056470718 -0.052847554439569469 0 0.30936372826065672 -0.06604705864745479 0 0.30297573157869279 -0.079407911782304955 0 0.29629631641704041 -0.070314563129292587 0 0.31553695611319932 -0.081468028619165356 0 0.30936372826065672 -0.06604705864745479 0 0.30297573157869279 -0.079407911782304955 0 0.31553695611319932 -0.081468028619165356 0 0.30042230582549312 -0.090961246862171982 0 0.30297573157869279 -0.079407911782304955 0 0.31553695611319932 -0.081468028619165356 0 0.30042230582549312 -0.090961246862171982 0 0.3034246149049708 -0.1035162493871926 0 0.31553695611319932 -0.081468028619165356 0 0.3034246149049708 -0.1035162493871926 0 0.30042230582549312 -0.090961246862171982 0 0.30297573157869279 -0.079407911782304955 0 0.29528295245350528 -0.084692462095189255 0 0.30297573157869279 -0.079407911782304955 0 0.29528295245350528 -0.084692462095189255 0 0.29629631641704041 -0.070314563129292587 0 0.29528295245350528 -0.084692462095189255 0 0.28893847642995868 -0.098609183310505999 0 0.27477555537880127 -0.084431118052557555 0 0.29528295245350528 -0.084692462095189255 0 0.28528899024297749 -0.074580122217338757 0 0.27477555537880127 -0.084431118052557555 0 0.30042230582549312 -0.090961246862171982 0 0.29528295245350528 -0.084692462095189255 0 0.28893847642995868 -0.098609183310505999 0 0.28528899024297749 -0.074580122217338757 0 0.28553233967361652 -0.063283062982490257 0 0.27486048300168042 -0.071562195169003071 0 0.28528899024297749 -0.074580122217338757 0 0.28553233967361652 -0.063283062982490257 0 0.29629631641704041 -0.070314563129292587 0 0.29528295245350528 -0.084692462095189255 0 0.28528899024297749 -0.074580122217338757 0 0.29629631641704041 -0.070314563129292587 0 0.30184683294662162 -0.1187580198847468 0 0.31186659992852678 -0.1112024077696645 0 0.30866926922661508 -0.12573227813847929 0 0.30184683294662162 -0.1187580198847468 0 0.3034246149049708 -0.1035162493871926 0 0.29294092871090449 -0.110512252080931 0 0.3142141934535615 -0.098103744808269916 0 0.30184683294662162 -0.1187580198847468 0 0.3142141934535615 -0.098103744808269916 0 0.31553695611319932 -0.081468028619165356 0 0.3034246149049708 -0.1035162493871926 0 0.3142141934535615 -0.098103744808269916 0 0.30184683294662162 -0.1187580198847468 0 0.3034246149049708 -0.1035162493871926 0 0.3142141934535615 -0.098103744808269916 0 0.30184683294662162 -0.1187580198847468 0 0.31186659992852678 -0.1112024077696645 0 0.30042230582549312 -0.090961246862171982 0 0.3034246149049708 -0.1035162493871926 0 0.28893847642995868 -0.098609183310505999 0 0.28893847642995868 -0.098609183310505999 0 0.29294092871090449 -0.110512252080931 0 0.27987075258117161 -0.1116611378814943 0 0.3034246149049708 -0.1035162493871926 0 0.28893847642995868 -0.098609183310505999 0 0.29294092871090449 -0.110512252080931 0 0.29294092871090449 -0.110512252080931 0 0.28800501304270543 -0.12304776942922881 0 0.27987075258117161 -0.1116611378814943 0 0.28800501304270543 -0.12304776942922881 0 0.27987075258117161 -0.1116611378814943 0 0.27817623239398132 -0.12510624367170889 0 0.30184683294662162 -0.1187580198847468 0 0.29294092871090449 -0.110512252080931 0 0.28800501304270543 -0.12304776942922881 0 0.26727773164751301 -0.12133678399615561 0 0.27987075258117161 -0.1116611378814943 0 0.26094565753913429 -0.1037101887603526 0 0.26727773164751301 -0.12133678399615561 0 0.27987075258117161 -0.1116611378814943 0 0.27817623239398132 -0.12510624367170889 0 0.27987075258117161 -0.1116611378814943 0 0.27422518711020322 -0.098420219115788854 0 0.26094565753913429 -0.1037101887603526 0 0.28893847642995868 -0.098609183310505999 0 0.27987075258117161 -0.1116611378814943 0 0.27422518711020322 -0.098420219115788854 0 0.28893847642995868 -0.098609183310505999 0 0.27422518711020322 -0.098420219115788854 0 0.27477555537880127 -0.084431118052557555 0 0.27422518711020322 -0.098420219115788854 0 0.26094565753913429 -0.1037101887603526 0 0.26332962084870959 -0.090641986047642634 0 0.26094565753913429 -0.1037101887603526 0 0.25003980615660742 -0.083535413830390357 0 0.2395881071336681 -0.1002168430126066 0 0.26094565753913429 -0.1037101887603526 0 0.25411809373254007 -0.1218374527257427 0 0.23839366808956949 -0.1193040881922396 0 0.26727773164751301 -0.12133678399615561 0 0.26094565753913429 -0.1037101887603526 0 0.25411809373254007 -0.1218374527257427 0 0.27486048300168042 -0.071562195169003071 0 0.26359879828081972 -0.076028817577939695 0 0.26510673143218683 -0.059487855014689041 0 0.28553233967361652 -0.063283062982490257 0 0.27486048300168042 -0.071562195169003071 0 0.26510673143218683 -0.059487855014689041 0 0.27486048300168042 -0.071562195169003071 0 0.27477555537880127 -0.084431118052557555 0 0.26359879828081972 -0.076028817577939695 0 0.28528899024297749 -0.074580122217338757 0 0.27486048300168042 -0.071562195169003071 0 0.27477555537880127 -0.084431118052557555 0 0.27422518711020322 -0.098420219115788854 0 0.27477555537880127 -0.084431118052557555 0 0.26332962084870959 -0.090641986047642634 0 0.27477555537880127 -0.084431118052557555 0 0.25916151517391389 -0.0832075825679012 0 0.26332962084870959 -0.090641986047642634 0 0.27477555537880127 -0.084431118052557555 0 0.25916151517391389 -0.0832075825679012 0 0.26359879828081972 -0.076028817577939695 0 0.26094565753913429 -0.1037101887603526 0 0.26332962084870959 -0.090641986047642634 0 0.25003980615660742 -0.083535413830390357 0 0.25916151517391389 -0.0832075825679012 0 0.26332962084870959 -0.090641986047642634 0 0.25003980615660742 -0.083535413830390357 0 0.25916151517391389 -0.0832075825679012 0 0.25003980615660742 -0.083535413830390357 0 0.26359879828081972 -0.076028817577939695 0 0.25003980615660742 -0.083535413830390357 0 0.26510673143218683 -0.059487855014689041 0 0.2484029069974942 -0.061374248800601452 0 0.25003980615660742 -0.083535413830390357 0 0.26510673143218683 -0.059487855014689041 0 0.25003980615660742 -0.083535413830390357 0 0.26359879828081972 -0.076028817577939695 0 0.26510673143218683 -0.059487855014689041 0 0.26510673143218683 -0.059487855014689041 0 0.25578588158283011 -0.042253170371938917 0 0.2484029069974942 -0.061374248800601452 0 0.28553233967361652 -0.063283062982490257 0 0.26510673143218683 -0.059487855014689041 0 0.28215914096180572 -0.051789838846807053 0 0.26510673143218683 -0.059487855014689041 0 0.28017365670776351 -0.035440296198986053 0 0.26510673143218683 -0.059487855014689041 0 0.28017365670776351 -0.035440296198986053 0 0.28215914096180572 -0.051789838846807053 0 0.26510673143218683 -0.059487855014689041 0 0.27459418640118038 -0.034029499215496362 0 0.28017365670776351 -0.035440296198986053 0 0.27459418640118038 -0.034029499215496362 0 0.28135763145700021 -0.031072276405631729 0 0.27459418640118038 -0.034029499215496362 0 0.28017365670776351 -0.035440296198986053 0 0.28135763145700021 -0.031072276405631729 0 0.27459418640118038 -0.034029499215496362 0 0.28017365670776351 -0.035440296198986053 0 0.26510673143218683 -0.059487855014689041 0 0.27459418640118038 -0.034029499215496362 0 0.25578588158283011 -0.042253170371938917 0 0.27459418640118038 -0.034029499215496362 0 0.25339072374993599 -0.028668097594149119 0 0.27459418640118038 -0.034029499215496362 0 0.25578588158283011 -0.042253170371938917 0 0.27459418640118038 -0.034029499215496362 0 0.25578588158283011 -0.042253170371938917 0 0.25339072374993599 -0.028668097594149119 0 0.25339072374993599 -0.028668097594149119 0 0.25421338193595477 -0.013900968893139781 0 0.24449674383892731 -0.011473417160980499 0 0.27459418640118038 -0.034029499215496362 0 0.25339072374993599 -0.028668097594149119 0 0.26760440500138971 -0.02311570256251445 0 0.25339072374993599 -0.028668097594149119 0 0.2608090170215992 -0.017554215155937091 0 0.25421338193595477 -0.013900968893139781 0 0.25339072374993599 -0.028668097594149119 0 0.2608090170215992 -0.017554215155937091 0 0.26760440500138971 -0.02311570256251445 0 0.2442639786172042 0.0070688571158914679 0 0.25328617053865732 -0.0061358056175155294 0 0.26205797115204887 -0.0025371272048387711 0 0.25328617053865732 -0.0061358056175155294 0 0.25421338193595477 -0.013900968893139781 0 0.24449674383892731 -0.011473417160980499 0 0.25328617053865732 -0.0061358056175155294 0 0.25421338193595477 -0.013900968893139781 0 0.26157401356787419 -0.010151564479897211 0 0.2608090170215992 -0.017554215155937091 0 0.26157401356787419 -0.010151564479897211 0 0.26931783119031022 -0.015193990021981549 0 0.2608090170215992 -0.017554215155937091 0 0.25421338193595477 -0.013900968893139781 0 0.26157401356787419 -0.010151564479897211 0 0.26157401356787419 -0.010151564479897211 0 0.26205797115204887 -0.0025371272048387711 0 0.26986958907590908 -0.0073366434825999534 0 0.25328617053865732 -0.0061358056175155294 0 0.26157401356787419 -0.010151564479897211 0 0.26205797115204887 -0.0025371272048387711 0 0.26682731724403391 0.0019641969869965701 0 0.26205797115204887 -0.0025371272048387711 0 0.26682731724403391 0.0019641969869965701 0 0.29362878847169321 -0.0040992851879733828 0 0.26682731724403391 0.0019641969869965701 0 0.27646626111778699 -0.0040620591925382811 0 0.29362878847169321 -0.0040992851879733828 0 0.26682731724403391 0.0019641969869965701 0 0.26880528464744469 -0.0029929082232451089 0 0.27646626111778699 -0.0040620591925382811 0 0.26682731724403391 0.0019641969869965701 0 0.26205797115204887 -0.0025371272048387711 0 0.26880528464744469 -0.0029929082232451089 0 0.26205797115204887 -0.0025371272048387711 0 0.26880528464744469 -0.0029929082232451089 0 0.26986958907590908 -0.0073366434825999534 0 0.26880528464744469 -0.0029929082232451089 0 0.26986958907590908 -0.0073366434825999534 0 0.27646626111778699 -0.0040620591925382811 0 0.26986958907590908 -0.0073366434825999534 0 0.26931783119031022 -0.015193990021981549 0 0.27480909375847601 -0.011270163147933091 0 0.26157401356787419 -0.010151564479897211 0 0.26986958907590908 -0.0073366434825999534 0 0.26931783119031022 -0.015193990021981549 0 0.26986958907590908 -0.0073366434825999534 0 0.27480909375847601 -0.011270163147933091 0 0.27552024140822851 -0.0076198643093177447 0 0.26931783119031022 -0.015193990021981549 0 0.27480909375847601 -0.011270163147933091 0 0.27743139664219402 -0.017283930886436111 0 0.27480909375847601 -0.011270163147933091 0 0.27743139664219402 -0.017283930886436111 0 0.28355403049963662 -0.01492697745577479 0 0.27480909375847601 -0.011270163147933091 0 0.28093602168074172 -0.0078105914141996559 0 0.28355403049963662 -0.01492697745577479 0 0.27480909375847601 -0.011270163147933091 0 0.27552024140822851 -0.0076198643093177447 0 0.28093602168074172 -0.0078105914141996559 0 0.27646626111778699 -0.0040620591925382811 0 0.28093602168074172 -0.0078105914141996559 0 0.28532251392531771 -0.0068254814896856614 0 0.26986958907590908 -0.0073366434825999534 0 0.27552024140822851 -0.0076198643093177447 0 0.27646626111778699 -0.0040620591925382811 0 0.27552024140822851 -0.0076198643093177447 0 0.27646626111778699 -0.0040620591925382811 0 0.28093602168074172 -0.0078105914141996559 0 0.27459418640118038 -0.034029499215496362 0 0.26760440500138971 -0.02311570256251445 0 0.27537224636820212 -0.026190048469630901 0 0.26760440500138971 -0.02311570256251445 0 0.27383078754160067 -0.0214938143818829 0 0.27537224636820212 -0.026190048469630901 0 0.26931783119031022 -0.015193990021981549 0 0.26760440500138971 -0.02311570256251445 0 0.27383078754160067 -0.0214938143818829 0 0.2608090170215992 -0.017554215155937091 0 0.26931783119031022 -0.015193990021981549 0 0.26760440500138971 -0.02311570256251445 0 0.27383078754160067 -0.0214938143818829 0 0.27743139664219402 -0.017283930886436111 0 0.28017770571671008 -0.023087053725958439 0 0.26931783119031022 -0.015193990021981549 0 0.27383078754160067 -0.0214938143818829 0 0.27743139664219402 -0.017283930886436111 0 0.27743139664219402 -0.017283930886436111 0 0.28017770571671008 -0.023087053725958439 0 0.28355403049963662 -0.01492697745577479 0 0.27459418640118038 -0.034029499215496362 0 0.27537224636820212 -0.026190048469630901 0 0.28135763145700021 -0.031072276405631729 0 0.28017770571671008 -0.023087053725958439 0 0.27537224636820212 -0.026190048469630901 0 0.28135763145700021 -0.031072276405631729 0 0.27383078754160067 -0.0214938143818829 0 0.28017770571671008 -0.023087053725958439 0 0.27537224636820212 -0.026190048469630901 0 0.28017365670776351 -0.035440296198986053 0 0.28767928828449341 -0.02346093654270576 0 0.28017365670776351 -0.035440296198986053 0 0.28767928828449341 -0.02346093654270576 0 0.29754529916935979 -0.02435286664122523 0 0.28017365670776351 -0.035440296198986053 0 0.28767928828449341 -0.02346093654270576 0 0.28135763145700021 -0.031072276405631729 0 0.28017770571671008 -0.023087053725958439 0 0.28767928828449341 -0.02346093654270576 0 0.28135763145700021 -0.031072276405631729 0 0.28017770571671008 -0.023087053725958439 0 0.28767928828449341 -0.02346093654270576 0 0.28355403049963662 -0.01492697745577479 0 0.28767928828449341 -0.02346093654270576 0 0.28355403049963662 -0.01492697745577479 0 0.29102703241078531 -0.01460073140174018 0 0.29102703241078531 -0.01460073140174018 0 0.29912234557164508 -0.013992081845741159 0 0.29754529916935979 -0.02435286664122523 0 0.28767928828449341 -0.02346093654270576 0 0.29102703241078531 -0.01460073140174018 0 0.29754529916935979 -0.02435286664122523 0 0.27646626111778699 -0.0040620591925382811 0 0.28532251392531771 -0.0068254814896856614 0 0.29362878847169321 -0.0040992851879733828 0 0.28532251392531771 -0.0068254814896856614 0 0.28569523963658972 -0.01028179805195231 0 0.28988625871977691 -0.0078736736017646775 0 0.28569523963658972 -0.01028179805195231 0 0.29102703241078531 -0.01460073140174018 0 0.28988625871977691 -0.0078736736017646775 0 0.28093602168074172 -0.0078105914141996559 0 0.28532251392531771 -0.0068254814896856614 0 0.28569523963658972 -0.01028179805195231 0 0.28093602168074172 -0.0078105914141996559 0 0.28569523963658972 -0.01028179805195231 0 0.28355403049963662 -0.01492697745577479 0 0.28569523963658972 -0.01028179805195231 0 0.28355403049963662 -0.01492697745577479 0 0.29102703241078531 -0.01460073140174018 0 0.29102703241078531 -0.01460073140174018 0 0.29598641231544348 -0.0095048862387361391 0 0.29912234557164508 -0.013992081845741159 0 0.29102703241078531 -0.01460073140174018 0 0.29598641231544348 -0.0095048862387361391 0 0.28988625871977691 -0.0078736736017646775 0 0.28532251392531771 -0.0068254814896856614 0 0.28988625871977691 -0.0078736736017646775 0 0.29362878847169321 -0.0040992851879733828 0 0.28988625871977691 -0.0078736736017646775 0 0.29362878847169321 -0.0040992851879733828 0 0.29598641231544348 -0.0095048862387361391 0 0.28988625871977691 -0.0078736736017646775 0 0.29362878847169321 -0.0040992851879733828 0 0.30827013124569591 0.01066669349268779 0 0.29362878847169321 -0.0040992851879733828 0 0.30626763640331711 -0.0069586591564612874 0 0.29362878847169321 -0.0040992851879733828 0 0.30626763640331711 -0.0069586591564612874 0 0.29598641231544348 -0.0095048862387361391 0 0.29362878847169321 -0.0040992851879733828 0 0.30626763640331711 -0.0069586591564612874 0 0.29912234557164508 -0.013992081845741159 0 0.30626763640331711 -0.0069586591564612874 0 0.30610594531076352 -0.016866165644550471 0 0.29598641231544348 -0.0095048862387361391 0 0.29912234557164508 -0.013992081845741159 0 0.30626763640331711 -0.0069586591564612874 0 0.31717589431380427 -0.014354659290371609 0 0.30626763640331711 -0.0069586591564612874 0 0.30610594531076352 -0.016866165644550471 0 0.29754529916935979 -0.02435286664122523 0 0.310418551095691 -0.024672561288953069 0 0.30774578145579662 -0.042412045896647349 0 0.29912234557164508 -0.013992081845741159 0 0.29754529916935979 -0.02435286664122523 0 0.30610594531076352 -0.016866165644550471 0 0.29754529916935979 -0.02435286664122523 0 0.30610594531076352 -0.016866165644550471 0 0.310418551095691 -0.024672561288953069 0 0.31717589431380427 -0.014354659290371609 0 0.30610594531076352 -0.016866165644550471 0 0.310418551095691 -0.024672561288953069 0 0.31349820087182961 -0.053122894398841283 0 0.30936372826065672 -0.06604705864745479 0 0.29663906056470718 -0.052847554439569469 0 0.31349820087182961 -0.053122894398841283 0 0.30774578145579662 -0.042412045896647349 0 0.29663906056470718 -0.052847554439569469 0 0.30774578145579662 -0.042412045896647349 0 0.29663906056470718 -0.052847554439569469 0 0.28553233967361652 -0.063283062982490257 0 0.29629631641704041 -0.070314563129292587 0 0.29663906056470718 -0.052847554439569469 0 0.28553233967361652 -0.063283062982490257 0 0.29663906056470718 -0.052847554439569469 0 0.28553233967361652 -0.063283062982490257 0 0.29663906056470718 -0.052847554439569469 0 0.28215914096180572 -0.051789838846807053 0 0.28017365670776351 -0.035440296198986053 0 0.29754529916935979 -0.02435286664122523 0 0.30774578145579662 -0.042412045896647349 0 0.28017365670776351 -0.035440296198986053 0 0.30774578145579662 -0.042412045896647349 0 0.29663906056470718 -0.052847554439569469 0 0.28017365670776351 -0.035440296198986053 0 0.30774578145579662 -0.042412045896647349 0 0.28017365670776351 -0.035440296198986053 0 0.29663906056470718 -0.052847554439569469 0 0.28215914096180572 -0.051789838846807053 0 0.29052328907101682 -0.2054407640365134 0 0.30466433428446482 -0.21043014500735349 0 0.29219451314912992 -0.21942796382546681 0 0.29052328907101682 -0.2054407640365134 0 0.29219451314912992 -0.21942796382546681 0 0.28013818721905248 -0.2140000813258422 0 0.29644077895924692 -0.19220379223881101 0 0.27288161726823018 -0.19391256994672409 0 0.28712353987217532 -0.18454593184566331 0 0.29052328907101682 -0.2054407640365134 0 0.29644077895924692 -0.19220379223881101 0 0.27288161726823018 -0.19391256994672409 0 0.29644077895924692 -0.19220379223881101 0 0.27288161726823018 -0.19391256994672409 0 0.29052328907101682 -0.2054407640365134 0 0.29644077895924692 -0.19220379223881101 0 0.29918917707914222 -0.20156776992774481 0 0.29644077895924692 -0.19220379223881101 0 0.30727760937958709 -0.19975425959053211 0 0.31999994065026338 -0.19049501453089701 0 0.29644077895924692 -0.19220379223881101 0 0.31999994065026338 -0.19049501453089701 0 0.29644077895924692 -0.19220379223881101 0 0.29918917707914222 -0.20156776992774481 0 0.30727760937958709 -0.19975425959053211 0 0.29644077895924692 -0.19220379223881101 0 0.3003858936387207 -0.182631120418802 0 0.31999994065026338 -0.19049501453089701 0 0.30466433428446482 -0.21043014500735349 0 0.30702379635189397 -0.22545861834249931 0 0.32127139759284662 -0.21742181604267649 0 0.30727760937958709 -0.19975425959053211 0 0.30466433428446482 -0.21043014500735349 0 0.31628290863471298 -0.2042116364570877 0 0.29052328907101682 -0.2054407640365134 0 0.29918917707914222 -0.20156776992774481 0 0.30466433428446482 -0.21043014500735349 0 0.29918917707914222 -0.20156776992774481 0 0.30727760937958709 -0.19975425959053211 0 0.30466433428446482 -0.21043014500735349 0 0.30466433428446482 -0.21043014500735349 0 0.30702379635189397 -0.22545861834249931 0 0.29219451314912992 -0.21942796382546681 0 0.30702379635189397 -0.22545861834249931 0 0.31122873499901749 -0.2414141641502838 0 0.29517974016366488 -0.23200308416157389 0 0.30702379635189397 -0.22545861834249931 0 0.31122873499901749 -0.2414141641502838 0 0.31888706210848489 -0.22987830943466139 0 0.30702379635189397 -0.22545861834249931 0 0.29219451314912992 -0.21942796382546681 0 0.29517974016366488 -0.23200308416157389 0 0.31122873499901749 -0.2414141641502838 0 0.28800960804428533 -0.24563086090229341 0 0.30250877060147469 -0.26103797640199738 0 0.31122873499901749 -0.2414141641502838 0 0.28800960804428533 -0.24563086090229341 0 0.29517974016366488 -0.23200308416157389 0 0.28800960804428533 -0.24563086090229341 0 0.29517974016366488 -0.23200308416157389 0 0.2774420482739976 -0.22808381358732641 0 0.29219451314912992 -0.21942796382546681 0 0.29517974016366488 -0.23200308416157389 0 0.2774420482739976 -0.22808381358732641 0 0.29219451314912992 -0.21942796382546681 0 0.2774420482739976 -0.22808381358732641 0 0.28013818721905248 -0.2140000813258422 0 0.2774420482739976 -0.22808381358732641 0 0.26561392803651052 -0.21433176510262009 0 0.28013818721905248 -0.2140000813258422 0 0.2774420482739976 -0.22808381358732641 0 0.25514475533097453 -0.2276816072048613 0 0.26561392803651052 -0.21433176510262009 0 0.2774420482739976 -0.22808381358732641 0 0.26544806631453821 -0.24230099698390439 0 0.25514475533097453 -0.2276816072048613 0 0.28800960804428533 -0.24563086090229341 0 0.2774420482739976 -0.22808381358732641 0 0.26544806631453821 -0.24230099698390439 0 0.28800960804428533 -0.24563086090229341 0 0.26544806631453821 -0.24230099698390439 0 0.27382308897938978 -0.25757477385260902 0 0.26544806631453821 -0.24230099698390439 0 0.25387513984481591 -0.25857931195517603 0 0.24332510085663281 -0.23797516366695659 0 0.26544806631453821 -0.24230099698390439 0 0.25514475533097453 -0.2276816072048613 0 0.24332510085663281 -0.23797516366695659 0 0.25514475533097453 -0.2276816072048613 0 0.26561392803651052 -0.21433176510262009 0 0.24511752324188171 -0.21502126601511071 0 0.26561392803651052 -0.21433176510262009 0 0.25551259201776633 -0.2018500530230013 0 0.24511752324188171 -0.21502126601511071 0 0.26561392803651052 -0.21433176510262009 0 0.27288161726823018 -0.19391256994672409 0 0.25551259201776633 -0.2018500530230013 0 0.26561392803651052 -0.21433176510262009 0 0.28013818721905248 -0.2140000813258422 0 0.27288161726823018 -0.19391256994672409 0 0.29052328907101682 -0.2054407640365134 0 0.28013818721905248 -0.2140000813258422 0 0.27288161726823018 -0.19391256994672409 0 0.27288161726823018 -0.19391256994672409 0 0.25551259201776633 -0.2018500530230013 0 0.25452631915530111 -0.1872025564447036 0 0.25452631915530111 -0.1872025564447036 0 0.25864843743782828 -0.17649875239977339 0 0.2490821810095811 -0.177020029302313 0 0.27288161726823018 -0.19391256994672409 0 0.25452631915530111 -0.1872025564447036 0 0.26710771065056471 -0.18130062581788101 0 0.25452631915530111 -0.1872025564447036 0 0.25864843743782828 -0.17649875239977339 0 0.26710771065056471 -0.18130062581788101 0 0.26396423765557891 -0.17429391587395679 0 0.25864843743782828 -0.17649875239977339 0 0.26710771065056471 -0.18130062581788101 0 0.26396423765557891 -0.17429391587395679 0 0.26115779961563201 -0.1669033321946192 0 0.2701239884113007 -0.17638624820115301 0 0.26396423765557891 -0.17429391587395679 0 0.25864843743782828 -0.17649875239977339 0 0.25921769944076678 -0.17250771106001431 0 0.25864843743782828 -0.17649875239977339 0 0.25921769944076678 -0.17250771106001431 0 0.25310032305402841 -0.17233484377170791 0 0.25864843743782828 -0.17649875239977339 0 0.25310032305402841 -0.17233484377170791 0 0.2490821810095811 -0.177020029302313 0 0.25312937396458451 -0.16432342264118821 0 0.26115779961563201 -0.1669033321946192 0 0.2367550277378207 -0.16982106180370901 0 0.25310032305402841 -0.17233484377170791 0 0.26115779961563201 -0.1669033321946192 0 0.2367550277378207 -0.16982106180370901 0 0.25312937396458451 -0.16432342264118821 0 0.25883690725227759 -0.16421295805420419 0 0.26115779961563201 -0.1669033321946192 0 0.25312937396458451 -0.16432342264118821 0 0.25212124448027978 -0.15950273652282421 0 0.2461464393348303 -0.16309120823700429 0 0.25312937396458451 -0.16432342264118821 0 0.25789320308751151 -0.16132926496889999 0 0.25883690725227759 -0.16421295805420419 0 0.25312937396458451 -0.16432342264118821 0 0.25212124448027978 -0.15950273652282421 0 0.25789320308751151 -0.16132926496889999 0 0.25212124448027978 -0.15950273652282421 0 0.25789320308751151 -0.16132926496889999 0 0.2586354839602284 -0.1552602100457193 0 0.26335303951332251 -0.16099630925850669 0 0.26115779961563201 -0.1669033321946192 0 0.27054072391777279 -0.16048339480070539 0 0.26335303951332251 -0.16099630925850669 0 0.2586354839602284 -0.1552602100457193 0 0.26620255598902859 -0.15292802445397191 0 0.25789320308751151 -0.16132926496889999 0 0.26335303951332251 -0.16099630925850669 0 0.2586354839602284 -0.1552602100457193 0 0.25789320308751151 -0.16132926496889999 0 0.26106457513210168 -0.163441220334996 0 0.26335303951332251 -0.16099630925850669 0 0.25789320308751151 -0.16132926496889999 0 0.26106457513210168 -0.163441220334996 0 0.25883690725227759 -0.16421295805420419 0 0.26106457513210168 -0.163441220334996 0 0.26335303951332251 -0.16099630925850669 0 0.26115779961563201 -0.1669033321946192 0 0.25921769944076678 -0.17250771106001431 0 0.25310032305402841 -0.17233484377170791 0 0.26115779961563201 -0.1669033321946192 0 0.26396423765557891 -0.17429391587395679 0 0.25921769944076678 -0.17250771106001431 0 0.26115779961563201 -0.1669033321946192 0 0.25883690725227759 -0.16421295805420419 0 0.26047971788265922 -0.16533532022210279 0 0.26115779961563201 -0.1669033321946192 0 0.26106457513210168 -0.163441220334996 0 0.26047971788265922 -0.16533532022210279 0 0.26115779961563201 -0.1669033321946192 0 0.26106457513210168 -0.163441220334996 0 0.25883690725227759 -0.16421295805420419 0 0.26047971788265922 -0.16533532022210279 0 0.26115779961563201 -0.1669033321946192 0 0.28077184662717758 -0.17476722630670749 0 0.26115779961563201 -0.1669033321946192 0 0.28077184662717758 -0.17476722630670749 0 0.28698889906226771 -0.16381482388630519 0 0.26115779961563201 -0.1669033321946192 0 0.27054072391777279 -0.16048339480070539 0 0.28698889906226771 -0.16381482388630519 0 0.27054072391777279 -0.16048339480070539 0 0.27763136581378128 -0.1591993831802061 0 0.28698889906226771 -0.16381482388630519 0 0.26115779961563201 -0.1669033321946192 0 0.28698889906226771 -0.16381482388630519 0 0.26335303951332251 -0.16099630925850669 0 0.27054072391777279 -0.16048339480070539 0 0.26620255598902859 -0.15292802445397191 0 0.27054072391777279 -0.16048339480070539 0 0.27763136581378128 -0.1591993831802061 0 0.27237724983574069 -0.1527512252560318 0 0.28077184662717758 -0.17476722630670749 0 0.27560174056588971 -0.18218252042362579 0 0.2701239884113007 -0.17638624820115301 0 0.26115779961563201 -0.1669033321946192 0 0.28077184662717758 -0.17476722630670749 0 0.2701239884113007 -0.17638624820115301 0 0.28077184662717758 -0.17476722630670749 0 0.27560174056588971 -0.18218252042362579 0 0.28712353987217532 -0.18454593184566331 0 0.27288161726823018 -0.19391256994672409 0 0.27560174056588971 -0.18218252042362579 0 0.28712353987217532 -0.18454593184566331 0 0.27288161726823018 -0.19391256994672409 0 0.27560174056588971 -0.18218252042362579 0 0.26710771065056471 -0.18130062581788101 0 0.27560174056588971 -0.18218252042362579 0 0.26710771065056471 -0.18130062581788101 0 0.2701239884113007 -0.17638624820115301 0 0.26396423765557891 -0.17429391587395679 0 0.26710771065056471 -0.18130062581788101 0 0.2701239884113007 -0.17638624820115301 0 0.26727773164751301 -0.12133678399615561 0 0.25411809373254007 -0.1218374527257427 0 0.25871631096411563 -0.13274986879829589 0 0.25411809373254007 -0.1218374527257427 0 0.25871631096411563 -0.13274986879829589 0 0.24525710042236801 -0.13208633388166979 0 0.25871631096411563 -0.13274986879829589 0 0.25170293511638508 -0.14198310364294889 0 0.24525710042236801 -0.13208633388166979 0 0.25871631096411563 -0.13274986879829589 0 0.26158220745268479 -0.144408007328723 0 0.25170293511638508 -0.14198310364294889 0 0.25871631096411563 -0.13274986879829589 0 0.26158220745268479 -0.144408007328723 0 0.27270368993153271 -0.13596824105807209 0 0.26158220745268479 -0.144408007328723 0 0.25170293511638508 -0.14198310364294889 0 0.25144013321275083 -0.15159102871840449 0 0.25212124448027978 -0.15950273652282421 0 0.25144013321275083 -0.15159102871840449 0 0.2586354839602284 -0.1552602100457193 0 0.26158220745268479 -0.144408007328723 0 0.25144013321275083 -0.15159102871840449 0 0.2586354839602284 -0.1552602100457193 0 0.26158220745268479 -0.144408007328723 0 0.2586354839602284 -0.1552602100457193 0 0.26620255598902859 -0.15292802445397191 0 0.26620255598902859 -0.15292802445397191 0 0.27237724983574069 -0.1527512252560318 0 0.27011666706121712 -0.1463731577674322 0 0.27054072391777279 -0.16048339480070539 0 0.26620255598902859 -0.15292802445397191 0 0.27237724983574069 -0.1527512252560318 0 0.27763136581378128 -0.1591993831802061 0 0.27237724983574069 -0.1527512252560318 0 0.27771763209709838 -0.14581029074036239 0 0.27771763209709838 -0.14581029074036239 0 0.27011666706121712 -0.1463731577674322 0 0.27270368993153271 -0.13596824105807209 0 0.26158220745268479 -0.144408007328723 0 0.26620255598902859 -0.15292802445397191 0 0.27011666706121712 -0.1463731577674322 0 0.26158220745268479 -0.144408007328723 0 0.27011666706121712 -0.1463731577674322 0 0.27270368993153271 -0.13596824105807209 0 0.27237724983574069 -0.1527512252560318 0 0.27771763209709838 -0.14581029074036239 0 0.27011666706121712 -0.1463731577674322 0 0.27771763209709838 -0.14581029074036239 0 0.27270368993153271 -0.13596824105807209 0 0.28073119230882432 -0.1386770281883131 0 0.27270368993153271 -0.13596824105807209 0 0.28073119230882432 -0.1386770281883131 0 0.28302397476698349 -0.13351728599359369 0 0.27270368993153271 -0.13596824105807209 0 0.27817623239398132 -0.12510624367170889 0 0.28302397476698349 -0.13351728599359369 0 0.26727773164751301 -0.12133678399615561 0 0.25871631096411563 -0.13274986879829589 0 0.27270368993153271 -0.13596824105807209 0 0.26727773164751301 -0.12133678399615561 0 0.27270368993153271 -0.13596824105807209 0 0.27817623239398132 -0.12510624367170889 0 0.30184683294662162 -0.1187580198847468 0 0.28800501304270543 -0.12304776942922881 0 0.28947947243968242 -0.13941229496122409 0 0.30184683294662162 -0.1187580198847468 0 0.28947947243968242 -0.13941229496122409 0 0.28800501304270543 -0.12304776942922881 0 0.28302397476698349 -0.13351728599359369 0 0.28947947243968242 -0.13941229496122409 0 0.28800501304270543 -0.12304776942922881 0 0.27817623239398132 -0.12510624367170889 0 0.28302397476698349 -0.13351728599359369 0 0.28302397476698349 -0.13351728599359369 0 0.28947947243968242 -0.13941229496122409 0 0.28073119230882432 -0.1386770281883131 0 0.28302397476698349 -0.13351728599359369 0 0.28947947243968242 -0.13941229496122409 0 0.27763136581378128 -0.1591993831802061 0 0.28947947243968242 -0.13941229496122409 0 0.27763136581378128 -0.1591993831802061 0 0.27771763209709838 -0.14581029074036239 0 0.28947947243968242 -0.13941229496122409 0 0.27763136581378128 -0.1591993831802061 0 0.28947947243968242 -0.13941229496122409 0 0.29003474991685602 -0.15406373276272969 0 0.28947947243968242 -0.13941229496122409 0 0.29003474991685602 -0.15406373276272969 0 0.30114973547429502 -0.15006930526959919 0 0.28947947243968242 -0.13941229496122409 0 0.30114973547429502 -0.15006930526959919 0 0.27771763209709838 -0.14581029074036239 0 0.28073119230882432 -0.1386770281883131 0 0.28947947243968242 -0.13941229496122409 0 0.29003474991685602 -0.15406373276272969 0 0.30114973547429502 -0.15006930526959919 0 0.29774834574058018 -0.15716854437415359 0 0.30114973547429502 -0.15006930526959919 0 0.31079287086491009 -0.14410520906026189 0 0.31281999850890208 -0.16072631557798031 0 0.30114973547429502 -0.15006930526959919 0 0.29774834574058018 -0.15716854437415359 0 0.31281999850890208 -0.16072631557798031 0 0.30114973547429502 -0.15006930526959919 0 0.31281999850890208 -0.16072631557798031 0 0.30114973547429502 -0.15006930526959919 0 0.31079287086491009 -0.14410520906026189 0 0.30086029736927922 -0.1416897553938879 0 0.28947947243968242 -0.13941229496122409 0 0.30114973547429502 -0.15006930526959919 0 0.30086029736927922 -0.1416897553938879 0 0.30184683294662162 -0.1187580198847468 0 0.28947947243968242 -0.13941229496122409 0 0.30201911069822918 -0.13317221228446641 0 0.31079287086491009 -0.14410520906026189 0 0.30201911069822918 -0.13317221228446641 0 0.30866926922661508 -0.12573227813847929 0 0.28947947243968242 -0.13941229496122409 0 0.30086029736927922 -0.1416897553938879 0 0.30201911069822918 -0.13317221228446641 0 0.31079287086491009 -0.14410520906026189 0 0.30086029736927922 -0.1416897553938879 0 0.30201911069822918 -0.13317221228446641 0 0.30184683294662162 -0.1187580198847468 0 0.30201911069822918 -0.13317221228446641 0 0.30866926922661508 -0.12573227813847929 0 0.28077184662717758 -0.17476722630670749 0 0.2922390998388904 -0.1731213738295114 0 0.3003858936387207 -0.182631120418802 0 0.28077184662717758 -0.17476722630670749 0 0.28712353987217532 -0.18454593184566331 0 0.3003858936387207 -0.182631120418802 0 0.28077184662717758 -0.17476722630670749 0 0.3003858936387207 -0.182631120418802 0 0.29644077895924692 -0.19220379223881101 0 0.28712353987217532 -0.18454593184566331 0 0.3003858936387207 -0.182631120418802 0 0.28077184662717758 -0.17476722630670749 0 0.2922390998388904 -0.1731213738295114 0 0.28698889906226771 -0.16381482388630519 0 0.27763136581378128 -0.1591993831802061 0 0.29003474991685602 -0.15406373276272969 0 0.28698889906226771 -0.16381482388630519 0 0.29003474991685602 -0.15406373276272969 0 0.28698889906226771 -0.16381482388630519 0 0.29774834574058018 -0.15716854437415359 0 0.2922390998388904 -0.1731213738295114 0 0.28698889906226771 -0.16381482388630519 0 0.30080976002739568 -0.17127232470623091 0 0.28698889906226771 -0.16381482388630519 0 0.30080976002739568 -0.17127232470623091 0 0.31281999850890208 -0.16072631557798031 0 0.28698889906226771 -0.16381482388630519 0 0.29774834574058018 -0.15716854437415359 0 0.31281999850890208 -0.16072631557798031 0 0.28698889906226771 -0.16381482388630519 0 0.31281999850890208 -0.16072631557798031 0 0.30080976002739568 -0.17127232470623091 0 0.31250094213562291 -0.17565651759621129 0 0.31281999850890208 -0.16072631557798031 0 0.3003858936387207 -0.182631120418802 0 0.31999994065026338 -0.19049501453089701 0 0.3003858936387207 -0.182631120418802 0 0.31250094213562291 -0.17565651759621129 0 0.31999994065026338 -0.19049501453089701 0 0.30080976002739568 -0.17127232470623091 0 0.3003858936387207 -0.182631120418802 0 0.31250094213562291 -0.17565651759621129 0 0.2922390998388904 -0.1731213738295114 0 0.30080976002739568 -0.17127232470623091 0 0.3003858936387207 -0.182631120418802 0 0.32621783543385552 -0.17296090581776841 0 0.31250094213562291 -0.17565651759621129 0 0.31999994065026338 -0.19049501453089701 0 0.32621783543385552 -0.17296090581776841 0 0.31281999850890208 -0.16072631557798031 0 0.32621783543385552 -0.17296090581776841 0 0.31281999850890208 -0.16072631557798031 0 0.33955999872191778 -0.1575291340955253 0 0.32621783543385552 -0.17296090581776841 0 0.31250094213562291 -0.17565651759621129 0 0.31281999850890208 -0.16072631557798031 0 0.31281999850890208 -0.16072631557798031 0 0.33955999872191778 -0.1575291340955253 0 0.32621783543385552 -0.17296090581776841 0 0.33955999872191778 -0.1575291340955253 0 0.33950745725439813 -0.17366117281088039 0 0.32621783543385552 -0.17296090581776841 0 0.33961567235880341 -0.18519549605756239 0 0.31999994065026338 -0.19049501453089701 0 0.33961567235880341 -0.18519549605756239 0 0.34613439069062868 -0.18029583503588681 0 0.34384989249042908 -0.18876514542206541 0 0.33950745725439813 -0.17366117281088039 0 0.33961567235880341 -0.18519549605756239 0 0.34613439069062868 -0.18029583503588681 0 0.32621783543385552 -0.17296090581776841 0 0.33961567235880341 -0.18519549605756239 0 0.32621783543385552 -0.17296090581776841 0 0.33950745725439813 -0.17366117281088039 0 0.33961567235880341 -0.18519549605756239 0 0.31079287086491009 -0.14410520906026189 0 0.31840695915105433 -0.12512952618302589 0 0.32189633802940859 -0.13891110459438499 0 0.31079287086491009 -0.14410520906026189 0 0.30866926922661508 -0.12573227813847929 0 0.31840695915105433 -0.12512952618302589 0 0.31079287086491009 -0.14410520906026189 0 0.31840695915105433 -0.12512952618302589 0 0.31840695915105433 -0.12512952618302589 0 0.32189633802940859 -0.13891110459438499 0 0.33196847497129978 -0.1301881169706445 0 0.32189633802940859 -0.13891110459438499 0 0.33007216625777341 -0.14350170149411379 0 0.33196847497129978 -0.1301881169706445 0 0.31281999850890208 -0.16072631557798031 0 0.33955999872191778 -0.1575291340955253 0 0.32166054431241758 -0.14971934333571771 0 0.31079287086491009 -0.14410520906026189 0 0.31281999850890208 -0.16072631557798031 0 0.32166054431241758 -0.14971934333571771 0 0.32189633802940859 -0.13891110459438499 0 0.32166054431241758 -0.14971934333571771 0 0.33007216625777341 -0.14350170149411379 0 0.31079287086491009 -0.14410520906026189 0 0.32189633802940859 -0.13891110459438499 0 0.32166054431241758 -0.14971934333571771 0 0.33955999872191778 -0.1575291340955253 0 0.32166054431241758 -0.14971934333571771 0 0.33007216625777341 -0.14350170149411379 0 0.33955999872191778 -0.1575291340955253 0 0.33925644690330048 -0.14168451278202471 0 0.33007216625777341 -0.14350170149411379 0 0.33925644690330048 -0.14168451278202471 0 0.33196847497129978 -0.1301881169706445 0 0.35347539996268779 -0.1360870826520019 0 0.33925644690330048 -0.14168451278202471 0 0.33007216625777341 -0.14350170149411379 0 0.33196847497129978 -0.1301881169706445 0 0.35126088280300749 -0.1138960589612278 0 0.33196847497129978 -0.1301881169706445 0 0.35347539996268779 -0.1360870826520019 0 0.33955999872191778 -0.1575291340955253 0 0.33925644690330048 -0.14168451278202471 0 0.35347539996268779 -0.1360870826520019 0 0.33955999872191778 -0.1575291340955253 0 0.36629999893493298 -0.15433195261306501 0 0.33955999872191778 -0.1575291340955253 0 0.35347539996268779 -0.1360870826520019 0 0.36629999893493298 -0.15433195261306501 0 0.35347539996268779 -0.1360870826520019 0 0.36629999893493298 -0.15433195261306501 0 0.37274495995281509 -0.1394047482439742 0 0.36572388693975733 -0.1247397052319703 0 0.37274495995281509 -0.1394047482439742 0 0.38234915009478337 -0.12628535479322589 0 0.36572388693975733 -0.1247397052319703 0 0.35347539996268779 -0.1360870826520019 0 0.37274495995281509 -0.1394047482439742 0 0.35515020137169312 -0.1818527833811284 0 0.36769984433059483 -0.187035276313233 0 0.34384989249042908 -0.18876514542206541 0 0.35426960916493427 -0.17192038920783381 0 0.35515020137169312 -0.1818527833811284 0 0.34613439069062868 -0.18029583503588681 0 0.35426960916493427 -0.17192038920783381 0 0.35515020137169312 -0.1818527833811284 0 0.36111110596432522 -0.1788049677614611 0 0.35515020137169312 -0.1818527833811284 0 0.34613439069062868 -0.18029583503588681 0 0.34384989249042908 -0.18876514542206541 0 0.33950745725439813 -0.17366117281088039 0 0.35426960916493427 -0.17192038920783381 0 0.34613439069062868 -0.18029583503588681 0 0.33955999872191778 -0.1575291340955253 0 0.33950745725439813 -0.17366117281088039 0 0.35426960916493427 -0.17192038920783381 0 0.33955999872191778 -0.1575291340955253 0 0.36629999893493298 -0.15433195261306501 0 0.35426960916493427 -0.17192038920783381 0 0.36629999893493298 -0.15433195261306501 0 0.36732476899007899 -0.17441142214364919 0 0.38341821961558042 -0.16680430628106691 0 0.36629999893493298 -0.15433195261306501 0 0.35426960916493427 -0.17192038920783381 0 0.36732476899007899 -0.17441142214364919 0 0.35426960916493427 -0.17192038920783381 0 0.36732476899007899 -0.17441142214364919 0 0.36111110596432522 -0.1788049677614611 0 0.35515020137169312 -0.1818527833811284 0 0.36111110596432522 -0.1788049677614611 0 0.36769984433059483 -0.187035276313233 0 0.36732476899007899 -0.17441142214364919 0 0.36111110596432522 -0.1788049677614611 0 0.36769984433059483 -0.187035276313233 0 0.36732476899007899 -0.17441142214364919 0 0.36769984433059483 -0.187035276313233 0 0.37556806920755598 -0.1834322379555855 0 0.36769984433059483 -0.187035276313233 0 0.37500685752530949 -0.1925994132844164 0 0.37556806920755598 -0.1834322379555855 0 0.36769984433059483 -0.187035276313233 0 0.36810224524208901 -0.1983380546838501 0 0.37500685752530949 -0.1925994132844164 0 0.36810224524208901 -0.1983380546838501 0 0.37500685752530949 -0.1925994132844164 0 0.38036762098368398 -0.20238724289746271 0 0.36810224524208901 -0.1983380546838501 0 0.3658639580224865 -0.2115655439823399 0 0.35645361614872612 -0.1972582026286302 0 0.36769984433059483 -0.187035276313233 0 0.36810224524208901 -0.1983380546838501 0 0.35645361614872612 -0.1972582026286302 0 0.36810224524208901 -0.1983380546838501 0 0.3658639580224865 -0.2115655439823399 0 0.38036762098368398 -0.20238724289746271 0 0.3658639580224865 -0.2115655439823399 0 0.35025060771937783 -0.20706889885133961 0 0.35170375217913769 -0.2244052135294678 0 0.35025060771937783 -0.20706889885133961 0 0.33754652924451611 -0.21477022803451501 0 0.35170375217913769 -0.2244052135294678 0 0.3658639580224865 -0.2115655439823399 0 0.35025060771937783 -0.20706889885133961 0 0.35645361614872612 -0.1972582026286302 0 0.36769984433059483 -0.187035276313233 0 0.35645361614872612 -0.1972582026286302 0 0.34384989249042908 -0.18876514542206541 0 0.36769984433059483 -0.187035276313233 0 0.34384989249042908 -0.18876514542206541 0 0.35025060771937783 -0.20706889885133961 0 0.35645361614872612 -0.1972582026286302 0 0.34797917308319021 -0.1980380550274872 0 0.35025060771937783 -0.20706889885133961 0 0.34797917308319021 -0.1980380550274872 0 0.3413625759742277 -0.19905997320791369 0 0.35645361614872612 -0.1972582026286302 0 0.34797917308319021 -0.1980380550274872 0 0.34384989249042908 -0.18876514542206541 0 0.34797917308319021 -0.1980380550274872 0 0.34384989249042908 -0.18876514542206541 0 0.3413625759742277 -0.19905997320791369 0 0.33961567235880341 -0.18519549605756239 0 0.34384989249042908 -0.18876514542206541 0 0.31999994065026338 -0.19049501453089701 0 0.3413625759742277 -0.19905997320791369 0 0.32785421383089902 -0.20544016049225361 0 0.31999994065026338 -0.19049501453089701 0 0.34384989249042908 -0.18876514542206541 0 0.3413625759742277 -0.19905997320791369 0 0.31999994065026338 -0.19049501453089701 0 0.3413625759742277 -0.19905997320791369 0 0.31999994065026338 -0.19049501453089701 0 0.34384989249042908 -0.18876514542206541 0 0.31999994065026338 -0.19049501453089701 0 0.35025060771937783 -0.20706889885133961 0 0.3413625759742277 -0.19905997320791369 0 0.33754652924451611 -0.21477022803451501 0 0.33754652924451611 -0.21477022803451501 0 0.32785421383089902 -0.20544016049225361 0 0.32127139759284662 -0.21742181604267649 0 0.3413625759742277 -0.19905997320791369 0 0.33754652924451611 -0.21477022803451501 0 0.32785421383089902 -0.20544016049225361 0 0.30466433428446482 -0.21043014500735349 0 0.32127139759284662 -0.21742181604267649 0 0.31628290863471298 -0.2042116364570877 0 0.32785421383089902 -0.20544016049225361 0 0.32127139759284662 -0.21742181604267649 0 0.31628290863471298 -0.2042116364570877 0 0.30727760937958709 -0.19975425959053211 0 0.31628290863471298 -0.2042116364570877 0 0.31999994065026338 -0.19049501453089701 0 0.32785421383089902 -0.20544016049225361 0 0.31628290863471298 -0.2042116364570877 0 0.31999994065026338 -0.19049501453089701 0 0.31122873499901749 -0.2414141641502838 0 0.31888706210848489 -0.22987830943466139 0 0.33199129940744182 -0.23457216617293111 0 0.31122873499901749 -0.2414141641502838 0 0.33199129940744182 -0.23457216617293111 0 0.32388162392129172 -0.25615283207316319 0 0.32127139759284662 -0.21742181604267649 0 0.31888706210848489 -0.22987830943466139 0 0.33199129940744182 -0.23457216617293111 0 0.30702379635189397 -0.22545861834249931 0 0.32127139759284662 -0.21742181604267649 0 0.31888706210848489 -0.22987830943466139 0 0.33754652924451611 -0.21477022803451501 0 0.32127139759284662 -0.21742181604267649 0 0.33199129940744182 -0.23457216617293111 0 0.33754652924451611 -0.21477022803451501 0 0.33199129940744182 -0.23457216617293111 0 0.35170375217913769 -0.2244052135294678 0 0.33199129940744182 -0.23457216617293111 0 0.35316874847761298 -0.2416891535577684 0 0.34124894915081899 -0.25453472896255819 0 0.33199129940744182 -0.23457216617293111 0 0.32388162392129172 -0.25615283207316319 0 0.34124894915081899 -0.25453472896255819 0 0.33199129940744182 -0.23457216617293111 0 0.35316874847761298 -0.2416891535577684 0 0.35170375217913769 -0.2244052135294678 0 0.35316874847761298 -0.2416891535577684 0 0.35170375217913769 -0.2244052135294678 0 0.36903297503479771 -0.2301704602647458 0 0.3658639580224865 -0.2115655439823399 0 0.36903297503479771 -0.2301704602647458 0 0.38551178444804418 -0.2191994909918441 0 0.3658639580224865 -0.2115655439823399 0 0.35170375217913769 -0.2244052135294678 0 0.36903297503479771 -0.2301704602647458 0 0.35316874847761298 -0.2416891535577684 0 0.36903297503479771 -0.2301704602647458 0 0.36865369314460372 -0.2478336067944816 0 0.36903297503479771 -0.2301704602647458 0 0.36865369314460372 -0.2478336067944816 0 0.3880482727306116 -0.24535733545938601 0 0.3880482727306116 -0.24535733545938601 0 0.40668602471274218 -0.23283882138861009 0 0.40582648171202468 -0.26085703770335511 0 0.3880482727306116 -0.24535733545938601 0 0.38551178444804418 -0.2191994909918441 0 0.40668602471274218 -0.23283882138861009 0 0.36903297503479771 -0.2301704602647458 0 0.3880482727306116 -0.24535733545938601 0 0.38551178444804418 -0.2191994909918441 0 0.38551178444804418 -0.2191994909918441 0 0.38036762098368398 -0.20238724289746271 0 0.39959767793857143 -0.20123934926334169 0 0.3658639580224865 -0.2115655439823399 0 0.38551178444804418 -0.2191994909918441 0 0.38036762098368398 -0.20238724289746271 0 0.38551178444804418 -0.2191994909918441 0 0.39959767793857143 -0.20123934926334169 0 0.40668602471274218 -0.23283882138861009 0 0.38036762098368398 -0.20238724289746271 0 0.38896243976743178 -0.19000019194783671 0 0.39959767793857143 -0.20123934926334169 0 0.37500685752530949 -0.1925994132844164 0 0.38896243976743178 -0.19000019194783671 0 0.37556806920755598 -0.1834322379555855 0 0.37500685752530949 -0.1925994132844164 0 0.38036762098368398 -0.20238724289746271 0 0.38896243976743178 -0.19000019194783671 0 0.38896243976743178 -0.19000019194783671 0 0.39959767793857143 -0.20123934926334169 0 0.40045445536604513 -0.18048805444773511 0 0.39959767793857143 -0.20123934926334169 0 0.41699451162966472 -0.1943079193776098 0 0.40045445536604513 -0.18048805444773511 0 0.39959767793857143 -0.20123934926334169 0 0.42120396745746441 -0.21255552262763111 0 0.40668602471274218 -0.23283882138861009 0 0.39959767793857143 -0.20123934926334169 0 0.42120396745746441 -0.21255552262763111 0 0.41699451162966472 -0.1943079193776098 0 0.42120396745746441 -0.21255552262763111 0 0.41699451162966472 -0.1943079193776098 0 0.43964454562348998 -0.19730616419211741 0 0.41699451162966472 -0.1943079193776098 0 0.42534084152453427 -0.1775438709398848 0 0.43964454562348998 -0.19730616419211741 0 0.42120396745746441 -0.21255552262763111 0 0.44199923571354272 -0.2200420018048421 0 0.43964454562348998 -0.19730616419211741 0 0.42636346859220731 -0.23098123191226019 0 0.44045624393496929 -0.242089898046532 0 0.44199923571354272 -0.2200420018048421 0 0.42120396745746441 -0.21255552262763111 0 0.42636346859220731 -0.23098123191226019 0 0.44199923571354272 -0.2200420018048421 0 0.42636346859220731 -0.23098123191226019 0 0.42147187114231788 -0.2473799156936857 0 0.44045624393496929 -0.242089898046532 0 0.42636346859220731 -0.23098123191226019 0 0.42147187114231788 -0.2473799156936857 0 0.40668602471274218 -0.23283882138861009 0 0.42147187114231788 -0.2473799156936857 0 0.40668602471274218 -0.23283882138861009 0 0.40582648171202468 -0.26085703770335511 0 0.42120396745746441 -0.21255552262763111 0 0.42636346859220731 -0.23098123191226019 0 0.40668602471274218 -0.23283882138861009 0 0.3955567173094644 -0.11819618925973201 0 0.40135576793102579 -0.13294379327452499 0 0.38234915009478337 -0.12628535479322589 0 0.40135576793102579 -0.13294379327452499 0 0.38234915009478337 -0.12628535479322589 0 0.39303999914794818 -0.15113477113060481 0 0.37274495995281509 -0.1394047482439742 0 0.38234915009478337 -0.12628535479322589 0 0.39303999914794818 -0.15113477113060481 0 0.36629999893493298 -0.15433195261306501 0 0.37274495995281509 -0.1394047482439742 0 0.39303999914794818 -0.15113477113060481 0 0.36629999893493298 -0.15433195261306501 0 0.39303999914794818 -0.15113477113060481 0 0.40135576793102579 -0.13294379327452499 0 0.39303999914794818 -0.15113477113060481 0 0.41977999936096327 -0.1479375896481446 0 0.39303999914794818 -0.15113477113060481 0 0.38341821961558042 -0.16680430628106691 0 0.4096163245377592 -0.1642016279712821 0 0.38341821961558042 -0.16680430628106691 0 0.40045445536604513 -0.18048805444773511 0 0.4096163245377592 -0.1642016279712821 0 0.36629999893493298 -0.15433195261306501 0 0.39303999914794818 -0.15113477113060481 0 0.38341821961558042 -0.16680430628106691 0 0.38896243976743178 -0.19000019194783671 0 0.37556806920755598 -0.1834322379555855 0 0.40045445536604513 -0.18048805444773511 0 0.37556806920755598 -0.1834322379555855 0 0.40045445536604513 -0.18048805444773511 0 0.36732476899007899 -0.17441142214364919 0 0.38341821961558042 -0.16680430628106691 0 0.37556806920755598 -0.1834322379555855 0 0.38341821961558042 -0.16680430628106691 0 0.37556806920755598 -0.1834322379555855 0 0.40045445536604513 -0.18048805444773511 0 0.40045445536604513 -0.18048805444773511 0 0.42534084152453427 -0.1775438709398848 0 0.40045445536604513 -0.18048805444773511 0 0.42534084152453427 -0.1775438709398848 0 0.4096163245377592 -0.1642016279712821 0 0.41699451162966472 -0.1943079193776098 0 0.40045445536604513 -0.18048805444773511 0 0.42534084152453427 -0.1775438709398848 0 0.42534084152453427 -0.1775438709398848 0 0.43566443221148432 -0.1613011753802564 0 0.45022722768302342 -0.17459968743203449 0 0.42534084152453427 -0.1775438709398848 0 0.43566443221148432 -0.1613011753802564 0 0.4096163245377592 -0.1642016279712821 0 0.43566443221148432 -0.1613011753802564 0 0.4096163245377592 -0.1642016279712821 0 0.41977999936096327 -0.1479375896481446 0 0.39303999914794818 -0.15113477113060481 0 0.41977999936096327 -0.1479375896481446 0 0.39303999914794818 -0.15113477113060481 0 0.4096163245377592 -0.1642016279712821 0 0.41977999936096327 -0.1479375896481446 0 0.41977999936096327 -0.1479375896481446 0 0.44651999957397859 -0.1447404081656844 0 0.43566443221148432 -0.1613011753802564 0 0.41977999936096327 -0.1479375896481446 0 0.44651999957397859 -0.1447404081656844 0 0.41977999936096327 -0.1479375896481446 0 0.43425522192389399 -0.12532418806616721 0 0.44651999957397859 -0.1447404081656844 0 0.41546343126495938 -0.121497802527544 0 0.41977999936096327 -0.1479375896481446 0 0.43425522192389399 -0.12532418806616721 0 0.41546343126495938 -0.121497802527544 0 0.40135576793102579 -0.13294379327452499 0 0.41977999936096327 -0.1479375896481446 0 0.47326801494301479 -0.11422845771805409 0 0.45479980567330403 -0.1261647600576756 0 0.4732599997869939 -0.14154322668322419 0 0.45479980567330403 -0.1261647600576756 0 0.44651999957397859 -0.1447404081656844 0 0.4732599997869939 -0.14154322668322419 0 0.43425522192389399 -0.12532418806616721 0 0.45479980567330403 -0.1261647600576756 0 0.44651999957397859 -0.1447404081656844 0 0.43566443221148432 -0.1613011753802564 0 0.44651999957397859 -0.1447404081656844 0 0.46089441584820268 -0.1581155069299181 0 0.44651999957397859 -0.1447404081656844 0 0.46089441584820268 -0.1581155069299181 0 0.4732599997869939 -0.14154322668322419 0 0.44651999957397859 -0.1447404081656844 0 0.4732599997869939 -0.14154322668322419 0 0.46089441584820268 -0.1581155069299181 0 0.45022722768302342 -0.17459968743203449 0 0.47511361384151263 -0.17165550392418411 0 0.43566443221148432 -0.1613011753802564 0 0.46089441584820268 -0.1581155069299181 0 0.45022722768302342 -0.17459968743203449 0 0.45022722768302342 -0.17459968743203449 0 0.43964454562348998 -0.19730616419211741 0 0.46116163146162581 -0.1896215199756881 0 0.42534084152453427 -0.1775438709398848 0 0.45022722768302342 -0.17459968743203449 0 0.43964454562348998 -0.19730616419211741 0 0.42534084152453427 -0.1775438709398848 0 0.45022722768302342 -0.17459968743203449 0 0.45022722768302342 -0.17459968743203449 0 0.47511361384151263 -0.17165550392418411 0 0.46116163146162581 -0.1896215199756881 0 0.45022722768302342 -0.17459968743203449 0 0.47511361384151263 -0.17165550392418411 0 0.47511361384151263 -0.17165550392418411 0 0.46116163146162581 -0.1896215199756881 0 0.47804872966958117 -0.1936776668199123 0 0.48873287561546119 -0.18161837380832299 0 0.47511361384151263 -0.17165550392418411 0 0.47804872966958117 -0.1936776668199123 0 0.48873287561546119 -0.18161837380832299 0 0.50000000000000189 -0.16871132041633349 0 0.47511361384151263 -0.17165550392418411 0 0.48873287561546119 -0.18161837380832299 0 0.50000000000000189 -0.16871132041633349 0 0.5 -0.19445585824566899 0 0.50000000000000189 -0.16871132041633349 0 0.47511361384151263 -0.17165550392418411 0 0.48317673572033121 -0.15939917771244139 0 0.50000000000000189 -0.16871132041633349 0 0.48317673572033121 -0.15939917771244139 0 0.5 -0.1535286828085482 0 0.50000000000000189 -0.16871132041633349 0 0.47511361384151263 -0.17165550392418411 0 0.46089441584820268 -0.1581155069299181 0 0.47511361384151263 -0.17165550392418411 0 0.48317673572033121 -0.15939917771244139 0 0.46089441584820268 -0.1581155069299181 0 0.48317673572033121 -0.15939917771244139 0 0.4732599997869939 -0.14154322668322419 0 0.4732599997869939 -0.14154322668322419 0 0.5 -0.1535286828085482 0 0.5000000000000091 -0.13834604520076291 0 0.48317673572033121 -0.15939917771244139 0 0.4732599997869939 -0.14154322668322419 0 0.5 -0.1535286828085482 0 0.4732599997869939 -0.14154322668322419 0 0.5000000000000091 -0.13834604520076291 0 0.4866320036825022 -0.12620170068426859 0 0.4732599997869939 -0.14154322668322419 0 0.5000000000000091 -0.13834604520076291 0 0.5 -0.11068907313503309 0 0.5000000000000091 -0.13834604520076291 0 0.4866320036825022 -0.12620170068426859 0 0.47326801494301479 -0.11422845771805409 0 0.4732599997869939 -0.14154322668322419 0 0.4866320036825022 -0.12620170068426859 0 0.45727499042607139 -0.2368742902685258 0 0.46277404049052168 -0.21086857751019231 0 0.47977790120372921 -0.23407907643659101 0 0.45727499042607139 -0.2368742902685258 0 0.44199923571354272 -0.2200420018048421 0 0.46277404049052168 -0.21086857751019231 0 0.45727499042607139 -0.2368742902685258 0 0.47977790120372921 -0.23407907643659101 0 0.46823615042422267 -0.25808245886221842 0 0.45727499042607139 -0.2368742902685258 0 0.44045624393496929 -0.242089898046532 0 0.45040637078944318 -0.2560837289507793 0 0.45727499042607139 -0.2368742902685258 0 0.44045624393496929 -0.242089898046532 0 0.44199923571354272 -0.2200420018048421 0 0.44199923571354272 -0.2200420018048421 0 0.43964454562348998 -0.19730616419211741 0 0.46277404049052168 -0.21086857751019231 0 0.43964454562348998 -0.19730616419211741 0 0.46116163146162581 -0.1896215199756881 0 0.46277404049052168 -0.21086857751019231 0 0.46116163146162581 -0.1896215199756881 0 0.46277404049052168 -0.21086857751019231 0 0.47804872966958117 -0.1936776668199123 0 0.46277404049052168 -0.21086857751019231 0 0.4841201342727664 -0.21065631501747381 0 0.47804872966958117 -0.1936776668199123 0 0.46277404049052168 -0.21086857751019231 0 0.4841201342727664 -0.21065631501747381 0 0.47977790120372921 -0.23407907643659101 0 0.4841201342727664 -0.21065631501747381 0 0.47804872966958117 -0.1936776668199123 0 0.5 -0.19445585824566899 0 0.48873287561546119 -0.18161837380832299 0 0.47804872966958117 -0.1936776668199123 0 0.5 -0.19445585824566899 0 0.4841201342727664 -0.21065631501747381 0 0.5 -0.19445585824566899 0 0.5 -0.2202003960750045 0 0.4841201342727664 -0.21065631501747381 0 0.5 -0.2202003960750045 0 0.47977790120372921 -0.23407907643659101 0 0.5 -0.2202003960750045 0 0.47977790120372921 -0.23407907643659101 0 0.5 -0.24594493390434 0 0.47977790120372921 -0.23407907643659101 0 0.5 -0.24594493390434 0 0.48717962629308381 -0.25881720281900789 0 0.5 -0.24594493390434 0 0.48717962629308381 -0.25881720281900789 0 0.5 -0.27168947173367569 0 0.48717962629308381 -0.25881720281900789 0 0.5 -0.27168947173367569 0 0.48087209135596981 -0.27913739152934602 0 0.48717962629308381 -0.25881720281900789 0 0.48087209135596981 -0.27913739152934602 0 0.46823615042422267 -0.25808245886221842 0 0.47977790120372921 -0.23407907643659101 0 0.48717962629308381 -0.25881720281900789 0 0.46823615042422267 -0.25808245886221842 0 0.46823615042422267 -0.25808245886221842 0 0.45040637078944318 -0.2560837289507793 0 0.45529247086008251 -0.28169879597022701 0 0.45727499042607139 -0.2368742902685258 0 0.46823615042422267 -0.25808245886221842 0 0.45040637078944318 -0.2560837289507793 0 0.48087209135596981 -0.27913739152934602 0 0.46823615042422267 -0.25808245886221842 0 0.45529247086008251 -0.28169879597022701 0 0.45040637078944318 -0.2560837289507793 0 0.45529247086008251 -0.28169879597022701 0 0.43033570257993919 -0.26632796356785449 0 0.45529247086008251 -0.28169879597022701 0 0.43033570257993919 -0.26632796356785449 0 0.43184846188595288 -0.28816885170587853 0 0.44045624393496929 -0.242089898046532 0 0.45040637078944318 -0.2560837289507793 0 0.43033570257993919 -0.26632796356785449 0 0.44597938620559829 -0.30551230128349671 0 0.45529247086008251 -0.28169879597022701 0 0.43184846188595288 -0.28816885170587853 0 0.44597938620559829 -0.30551230128349671 0 0.45529247086008251 -0.28169879597022701 0 0.47452430055842981 -0.30710241022793611 0 0.48087209135596981 -0.27913739152934602 0 0.45529247086008251 -0.28169879597022701 0 0.47452430055842981 -0.30710241022793611 0 0.48087209135596981 -0.27913739152934602 0 0.47452430055842981 -0.30710241022793611 0 0.5 -0.29743400956301119 0 0.5 -0.27168947173367569 0 0.48087209135596981 -0.27913739152934602 0 0.5 -0.29743400956301119 0 0.47452430055842981 -0.30710241022793611 0 0.5 -0.29743400956301119 0 0.5 -0.32317854739234692 0 0.47452430055842981 -0.30710241022793611 0 0.5 -0.32317854739234692 0 0.47966270135614397 -0.32823607127019699 0 0.5 -0.32317854739234692 0 0.49351383261445753 -0.34667755445293658 0 0.5 -0.34990348767587659 0 0.5 -0.32317854739234692 0 0.47966270135614397 -0.32823607127019699 0 0.49351383261445753 -0.34667755445293658 0 0.5 -0.32317854739234692 0 0.49351383261445753 -0.34667755445293658 0 0.47966270135614397 -0.32823607127019699 0 0.49351383261445753 -0.34667755445293658 0 0.47234643020362099 -0.34391108891657851 0 0.47966270135614397 -0.32823607127019699 0 0.47234643020362099 -0.34391108891657851 0 0.45617393914551219 -0.32814542526302598 0 0.47452430055842981 -0.30710241022793611 0 0.47966270135614397 -0.32823607127019699 0 0.45617393914551219 -0.32814542526302598 0 0.49094565872530632 -0.36956269710462142 0 0.5 -0.34990348767587659 0 0.5 -0.37662842795940632 0 0.48702766522891439 -0.37017656151352618 0 0.49094565872530632 -0.36956269710462142 0 0.49351383261445753 -0.34667755445293658 0 0.48702766522891439 -0.37017656151352618 0 0.49094565872530632 -0.36956269710462142 0 0.48702766522891439 -0.37017656151352618 0 0.49094565872530632 -0.36956269710462142 0 0.49198026820943458 -0.37665222827214673 0 0.49094565872530632 -0.36956269710462142 0 0.5 -0.37662842795940632 0 0.49198026820943458 -0.37665222827214673 0 0.48702766522891439 -0.37017656151352618 0 0.49351383261445753 -0.34667755445293658 0 0.48301684286657398 -0.35642484364493499 0 0.48702766522891439 -0.37017656151352618 0 0.49351383261445753 -0.34667755445293658 0 0.49094565872530632 -0.36956269710462142 0 0.49351383261445753 -0.34667755445293658 0 0.5 -0.34990348767587659 0 0.47234643020362099 -0.34391108891657851 0 0.48301684286657398 -0.35642484364493499 0 0.46726208249228679 -0.3558375894890331 0 0.49351383261445753 -0.34667755445293658 0 0.47234643020362099 -0.34391108891657851 0 0.48301684286657398 -0.35642484364493499 0 0.48301684286657398 -0.35642484364493499 0 0.47246094790930382 -0.36610831007027539 0 0.46726208249228679 -0.3558375894890331 0 0.48301684286657398 -0.35642484364493499 0 0.48074839418945747 -0.36454721540453261 0 0.47246094790930382 -0.36610831007027539 0 0.48702766522891439 -0.37017656151352618 0 0.48301684286657398 -0.35642484364493499 0 0.48074839418945747 -0.36454721540453261 0 0.48074839418945747 -0.36454721540453261 0 0.47246094790930382 -0.36610831007027539 0 0.4731929253263466 -0.37234416450736291 0 0.47246094790930382 -0.36610831007027539 0 0.4731929253263466 -0.37234416450736291 0 0.48702766522891439 -0.37017656151352618 0 0.48074839418945747 -0.36454721540453261 0 0.4731929253263466 -0.37234416450736291 0 0.48702766522891439 -0.37017656151352618 0 0.4731929253263466 -0.37234416450736291 0 0.4731929253263466 -0.37234416450736291 0 0.44807513488246747 -0.37627957624247832 0 0.4731929253263466 -0.37234416450736291 0 0.45999978328099661 -0.36361394390237872 0 0.44807513488246747 -0.37627957624247832 0 0.47246094790930382 -0.36610831007027539 0 0.4731929253263466 -0.37234416450736291 0 0.45999978328099661 -0.36361394390237872 0 0.47246094790930382 -0.36610831007027539 0 0.45999978328099661 -0.36361394390237872 0 0.46726208249228679 -0.3558375894890331 0 0.47234643020362099 -0.34391108891657851 0 0.46726208249228679 -0.3558375894890331 0 0.4555564907170449 -0.34994767000307597 0 0.45999978328099661 -0.36361394390237872 0 0.4555564907170449 -0.34994767000307597 0 0.44602944996045479 -0.35995268110195949 0 0.45999978328099661 -0.36361394390237872 0 0.46726208249228679 -0.3558375894890331 0 0.4555564907170449 -0.34994767000307597 0 0.44602944996045479 -0.35995268110195949 0 0.43164643388747459 -0.36237406098973729 0 0.43708020252309471 -0.34478001491692511 0 0.4555564907170449 -0.34994767000307597 0 0.44602944996045479 -0.35995268110195949 0 0.43708020252309471 -0.34478001491692511 0 0.45999978328099661 -0.36361394390237872 0 0.44602944996045479 -0.35995268110195949 0 0.44807513488246747 -0.37627957624247832 0 0.44602944996045479 -0.35995268110195949 0 0.43164643388747459 -0.36237406098973729 0 0.44807513488246747 -0.37627957624247832 0 0.44597938620559829 -0.30551230128349671 0 0.47452430055842981 -0.30710241022793611 0 0.45617393914551219 -0.32814542526302598 0 0.47234643020362099 -0.34391108891657851 0 0.4555564907170449 -0.34994767000307597 0 0.45617393914551219 -0.32814542526302598 0 0.4555564907170449 -0.34994767000307597 0 0.45617393914551219 -0.32814542526302598 0 0.43708020252309471 -0.34478001491692511 0 0.45617393914551219 -0.32814542526302598 0 0.43142430955722672 -0.32248827420404252 0 0.43708020252309471 -0.34478001491692511 0 0.44597938620559829 -0.30551230128349671 0 0.45617393914551219 -0.32814542526302598 0 0.43142430955722672 -0.32248827420404252 0 0.43142430955722672 -0.32248827420404252 0 0.41843250260328912 -0.3359820795378553 0 0.43708020252309471 -0.34478001491692511 0 0.41843250260328912 -0.3359820795378553 0 0.43708020252309471 -0.34478001491692511 0 0.41919550203184192 -0.350481790449713 0 0.41843250260328912 -0.3359820795378553 0 0.41030171945660548 -0.31673774696243251 0 0.40349640824504662 -0.33311804296869257 0 0.41843250260328912 -0.3359820795378553 0 0.40566419581383151 -0.34671519333235162 0 0.40349640824504662 -0.33311804296869257 0 0.43142430955722672 -0.32248827420404252 0 0.41843250260328912 -0.3359820795378553 0 0.41030171945660548 -0.31673774696243251 0 0.43142430955722672 -0.32248827420404252 0 0.41030171945660548 -0.31673774696243251 0 0.42057810740926033 -0.30377207726051969 0 0.43164643388747459 -0.36237406098973729 0 0.44807513488246747 -0.37627957624247832 0 0.42295734443858812 -0.38021498797759151 0 0.43164643388747459 -0.36237406098973729 0 0.43708020252309471 -0.34478001491692511 0 0.41919550203184192 -0.350481790449713 0 0.43164643388747459 -0.36237406098973729 0 0.41919550203184192 -0.350481790449713 0 0.40405437842701009 -0.36175831297315642 0 0.41843250260328912 -0.3359820795378553 0 0.41919550203184192 -0.350481790449713 0 0.40566419581383151 -0.34671519333235162 0 0.41919550203184192 -0.350481790449713 0 0.40405437842701009 -0.36175831297315642 0 0.40566419581383151 -0.34671519333235162 0 0.43164643388747459 -0.36237406098973729 0 0.40668165489894942 -0.37284450871662972 0 0.42295734443858812 -0.38021498797759151 0 0.43164643388747459 -0.36237406098973729 0 0.40668165489894942 -0.37284450871662972 0 0.40405437842701009 -0.36175831297315642 0 0.43164643388747459 -0.36237406098973729 0 0.40405437842701009 -0.36175831297315642 0 0.39803437733293989 -0.36794732226318311 0 0.40405437842701009 -0.36175831297315642 0 0.37646232296654569 -0.36114256495657537 0 0.39803437733293989 -0.36794732226318311 0 0.39091936250208847 -0.37059295452639368 0 0.40357115043854858 -0.37439269219349641 0 0.39091936250208847 -0.37059295452639368 0 0.40357115043854858 -0.37439269219349641 0 0.40668165489894942 -0.37284450871662972 0 0.39803437733293989 -0.36794732226318311 0 0.40357115043854858 -0.37439269219349641 0 0.40668165489894942 -0.37284450871662972 0 0.39803437733293989 -0.36794732226318311 0 0.40405437842701009 -0.36175831297315642 0 0.40668165489894942 -0.37284450871662972 0 0.40357115043854858 -0.37439269219349641 0 0.40405437842701009 -0.36175831297315642 0 0.40566419581383151 -0.34671519333235162 0 0.39060798498420368 -0.34578310689110892 0 0.40405437842701009 -0.36175831297315642 0 0.39060798498420368 -0.34578310689110892 0 0.37646232296654569 -0.36114256495657537 0 0.39060798498420368 -0.34578310689110892 0 0.37646232296654569 -0.36114256495657537 0 0.37413339736655882 -0.34579044102089762 0 0.40405437842701009 -0.36175831297315642 0 0.37646232296654569 -0.36114256495657537 0 0.39803437733293989 -0.36794732226318311 0 0.39091936250208847 -0.37059295452639368 0 0.37646232296654569 -0.36114256495657537 0 0.37646232296654569 -0.36114256495657537 0 0.38036028683270479 -0.37321989441499259 0 0.36899850096155717 -0.37572055277630589 0 0.39091936250208847 -0.37059295452639368 0 0.37646232296654569 -0.36114256495657537 0 0.38036028683270479 -0.37321989441499259 0 0.41030171945660548 -0.31673774696243251 0 0.38702013903678112 -0.32772017169980222 0 0.3961970068422499 -0.30588119799069668 0 0.41030171945660548 -0.31673774696243251 0 0.40349640824504662 -0.33311804296869257 0 0.38702013903678112 -0.32772017169980222 0 0.39060798498420368 -0.34578310689110892 0 0.40349640824504662 -0.33311804296869257 0 0.38702013903678112 -0.32772017169980222 0 0.40566419581383151 -0.34671519333235162 0 0.39060798498420368 -0.34578310689110892 0 0.40349640824504662 -0.33311804296869257 0 0.39060798498420368 -0.34578310689110892 0 0.38702013903678112 -0.32772017169980222 0 0.37413339736655882 -0.34579044102089762 0 0.38702013903678112 -0.32772017169980222 0 0.3961970068422499 -0.30588119799069668 0 0.36979367555604942 -0.30870678273150859 0 0.3961970068422499 -0.30588119799069668 0 0.38545040777748718 -0.29142915665489572 0 0.36979367555604942 -0.30870678273150859 0 0.3961970068422499 -0.30588119799069668 0 0.38545040777748718 -0.29142915665489572 0 0.40705664237488398 -0.28353312044729428 0 0.38545040777748718 -0.29142915665489572 0 0.38309938493879597 -0.26981773359180272 0 0.40705664237488398 -0.28353312044729428 0 0.38545040777748718 -0.29142915665489572 0 0.38309938493879597 -0.26981773359180272 0 0.36764157541181391 -0.28804634346535241 0 0.36865369314460372 -0.2478336067944816 0 0.3880482727306116 -0.24535733545938601 0 0.38309938493879597 -0.26981773359180272 0 0.3880482727306116 -0.24535733545938601 0 0.38309938493879597 -0.26981773359180272 0 0.40582648171202468 -0.26085703770335511 0 0.38309938493879597 -0.26981773359180272 0 0.40582648171202468 -0.26085703770335511 0 0.40705664237488398 -0.28353312044729428 0 0.40582648171202468 -0.26085703770335511 0 0.43033570257993919 -0.26632796356785449 0 0.40705664237488398 -0.28353312044729428 0 0.42147187114231788 -0.2473799156936857 0 0.40582648171202468 -0.26085703770335511 0 0.43033570257993919 -0.26632796356785449 0 0.42147187114231788 -0.2473799156936857 0 0.44045624393496929 -0.242089898046532 0 0.43033570257993919 -0.26632796356785449 0 0.43033570257993919 -0.26632796356785449 0 0.43184846188595288 -0.28816885170587853 0 0.40705664237488398 -0.28353312044729428 0 0.44597938620559829 -0.30551230128349671 0 0.43184846188595288 -0.28816885170587853 0 0.42057810740926033 -0.30377207726051969 0 0.44597938620559829 -0.30551230128349671 0 0.43142430955722672 -0.32248827420404252 0 0.42057810740926033 -0.30377207726051969 0 0.41030171945660548 -0.31673774696243251 0 0.3961970068422499 -0.30588119799069668 0 0.42057810740926033 -0.30377207726051969 0 0.3961970068422499 -0.30588119799069668 0 0.42057810740926033 -0.30377207726051969 0 0.40705664237488398 -0.28353312044729428 0 0.43184846188595288 -0.28816885170587853 0 0.42057810740926033 -0.30377207726051969 0 0.40705664237488398 -0.28353312044729428 0 0.45955589891442772 -0.49204659804166362 0 0.48787843690615279 -0.49745282279878711 0 0.42430596369054058 -0.50000000000000044 0 0.48787843690615279 -0.49745282279878711 0 0.5 -0.5 0 0.42430596369054058 -0.50000000000000044 0 0.45955589891442772 -0.49204659804166362 0 0.43041231502455729 -0.49398250445380121 0 0.42430596369054058 -0.50000000000000044 0 0.44745993809711271 -0.47718294768068747 0 0.43041231502455729 -0.49398250445380121 0 0.45955589891442772 -0.49204659804166362 0 0.45787429368695892 -0.4848890726327858 0 0.43041231502455729 -0.49398250445380121 0 0.44745993809711271 -0.47718294768068747 0 0.45787429368695892 -0.4848890726327858 0 0.43041231502455729 -0.49398250445380121 0 0.45787429368695892 -0.4848890726327858 0 0.43041231502455729 -0.49398250445380121 0 0.44745993809711271 -0.47718294768068747 0 0.46136976243517541 -0.4728641277716561 0 0.45787429368695892 -0.4848890726327858 0 0.46136976243517541 -0.4728641277716561 0 0.45787429368695892 -0.4848890726327858 0 0.47430227439622968 -0.46892692453781981 0 0.44745993809711271 -0.47718294768068747 0 0.46450756116966802 -0.46038339090757369 0 0.44745993809711271 -0.47718294768068747 0 0.46136976243517541 -0.4728641277716561 0 0.46450756116966802 -0.46038339090757369 0 0.45955589891442772 -0.49204659804166362 0 0.45787429368695892 -0.4848890726327858 0 0.48665719221216358 -0.48704880763866332 0 0.45955589891442772 -0.49204659804166362 0 0.48665719221216358 -0.48704880763866332 0 0.45955589891442772 -0.49204659804166362 0 0.48787843690615279 -0.49745282279878711 0 0.48665719221216358 -0.48704880763866332 0 0.48787843690615279 -0.49745282279878711 0 0.48665719221216358 -0.48704880763866332 0 0.48787843690615279 -0.49745282279878711 0 0.48665719221216358 -0.48704880763866332 0 0.50000000000000044 -0.48458824031522468 0 0.48665719221216358 -0.48704880763866332 0 0.50000000000000044 -0.48458824031522468 0 0.48787843690615279 -0.49745282279878711 0 0.50000000000000044 -0.48458824031522468 0 0.5 -0.5 0 0.49999999999999739 -0.47094006906757052 0 0.4853362723493605 -0.47579564081177073 0 0.48344572829578969 -0.4596897374731142 0 0.49999999999999739 -0.47094006906757052 0 0.49237969830685779 -0.4806729785473407 0 0.4853362723493605 -0.47579564081177073 0 0.49999999999999739 -0.47094006906757052 0 0.4853362723493605 -0.47579564081177073 0 0.50000000000000044 -0.48458824031522468 0 0.49999999999999739 -0.47094006906757052 0 0.49237969830685779 -0.4806729785473407 0 0.48665719221216358 -0.48704880763866332 0 0.50000000000000044 -0.48458824031522468 0 0.49237969830685779 -0.4806729785473407 0 0.48665719221216358 -0.48704880763866332 0 0.49237969830685779 -0.4806729785473407 0 0.4853362723493605 -0.47579564081177073 0 0.48665719221216358 -0.48704880763866332 0 0.4853362723493605 -0.47579564081177073 0 0.45787429368695892 -0.4848890726327858 0 0.4853362723493605 -0.47579564081177073 0 0.47430227439622968 -0.46892692453781981 0 0.45787429368695892 -0.4848890726327858 0 0.48665719221216358 -0.48704880763866332 0 0.4853362723493605 -0.47579564081177073 0 0.45787429368695892 -0.4848890726327858 0 0.4853362723493605 -0.47579564081177073 0 0.47430227439622968 -0.46892692453781981 0 0.48344572829578969 -0.4596897374731142 0 0.46450756116966802 -0.46038339090757369 0 0.4853362723493605 -0.47579564081177073 0 0.47430227439622968 -0.46892692453781981 0 0.48344572829578969 -0.4596897374731142 0 0.48344572829578969 -0.4596897374731142 0 0.48155518424222088 -0.44358383413445751 0 0.46450756116966802 -0.46038339090757369 0 0.49999999999999739 -0.47094006906757052 0 0.48344572829578969 -0.4596897374731142 0 0.5 -0.44817374240687968 0 0.4853362723493605 -0.47579564081177073 0 0.48344572829578969 -0.4596897374731142 0 0.5 -0.44817374240687968 0 0.48155518424222088 -0.44358383413445751 0 0.4999999999999975 -0.42540741574618901 0 0.48344572829578969 -0.4596897374731142 0 0.5 -0.44817374240687968 0 0.48155518424222088 -0.44358383413445751 0 0.48344572829578969 -0.4596897374731142 0 0.48155518424222088 -0.44358383413445751 0 0.48155518424222088 -0.44358383413445751 0 0.46450756116966802 -0.46038339090757369 0 0.48155518424222088 -0.44358383413445751 0 0.46053632801761762 -0.43816526300049169 0 0.46450756116966802 -0.46038339090757369 0 0.46053632801761762 -0.43816526300049169 0 0.46450756116966802 -0.46038339090757369 0 0.44812208307880819 -0.45519141794678653 0 0.44745993809711271 -0.47718294768068747 0 0.46450756116966802 -0.46038339090757369 0 0.44812208307880819 -0.45519141794678653 0 0.46136976243517541 -0.4728641277716561 0 0.47430227439622968 -0.46892692453781981 0 0.46450756116966802 -0.46038339090757369 0 0.44745993809711271 -0.47718294768068747 0 0.44812208307880819 -0.45519141794678653 0 0.42949595956011699 -0.46166905847051609 0 0.44812208307880819 -0.45519141794678653 0 0.43861062854952598 -0.43855642967466352 0 0.42949595956011699 -0.46166905847051609 0 0.46053632801761762 -0.43816526300049169 0 0.44812208307880819 -0.45519141794678653 0 0.43861062854952598 -0.43855642967466352 0 0.46053632801761762 -0.43816526300049169 0 0.43861062854952598 -0.43855642967466352 0 0.45119057353417241 -0.41426993015950392 0 0.43861062854952598 -0.43855642967466352 0 0.45119057353417241 -0.41426993015950392 0 0.42701607134504438 -0.42096118467114318 0 0.45119057353417241 -0.41426993015950392 0 0.47877073183244501 -0.41986255597741101 0 0.47598627942267108 -0.39614127782036429 0 0.46053632801761762 -0.43816526300049169 0 0.45119057353417241 -0.41426993015950392 0 0.47877073183244501 -0.41986255597741101 0 0.48155518424222088 -0.44358383413445751 0 0.46053632801761762 -0.43816526300049169 0 0.47877073183244501 -0.41986255597741101 0 0.48155518424222088 -0.44358383413445751 0 0.47877073183244501 -0.41986255597741101 0 0.48155518424222088 -0.44358383413445751 0 0.4999999999999975 -0.42540741574618901 0 0.47877073183244501 -0.41986255597741101 0 0.48155518424222088 -0.44358383413445751 0 0.4999999999999975 -0.42540741574618901 0 0.47877073183244501 -0.41986255597741101 0 0.47598627942267108 -0.39614127782036429 0 0.49999999999999839 -0.40335336824293611 0 0.4999999999999975 -0.42540741574618901 0 0.47877073183244501 -0.41986255597741101 0 0.49999999999999839 -0.40335336824293611 0 0.47877073183244501 -0.41986255597741101 0 0.47598627942267108 -0.39614127782036429 0 0.47988431838496642 -0.39605649151600281 0 0.49999999999999839 -0.40335336824293611 0 0.48941535485016718 -0.38451351196575451 0 0.47988431838496642 -0.39605649151600281 0 0.47598627942267108 -0.39614127782036429 0 0.49999999999999839 -0.40335336824293611 0 0.47598627942267108 -0.39614127782036429 0 0.49999999999999839 -0.40335336824293611 0 0.48702766522891439 -0.37017656151352618 0 0.47988431838496642 -0.39605649151600281 0 0.48941535485016718 -0.38451351196575451 0 0.49999999999999839 -0.40335336824293611 0 0.5 -0.37662842795940632 0 0.48941535485016718 -0.38451351196575451 0 0.5 -0.37662842795940632 0 0.48941535485016718 -0.38451351196575451 0 0.49198026820943458 -0.37665222827214673 0 0.48702766522891439 -0.37017656151352618 0 0.48941535485016718 -0.38451351196575451 0 0.49198026820943458 -0.37665222827214673 0 0.4731929253263466 -0.37234416450736291 0 0.47598627942267108 -0.39614127782036429 0 0.4731929253263466 -0.37234416450736291 0 0.47988431838496642 -0.39605649151600281 0 0.47598627942267108 -0.39614127782036429 0 0.48702766522891439 -0.37017656151352618 0 0.47988431838496642 -0.39605649151600281 0 0.48702766522891439 -0.37017656151352618 0 0.4731929253263466 -0.37234416450736291 0 0.47988431838496642 -0.39605649151600281 0 0.4731929253263466 -0.37234416450736291 0 0.47598627942267108 -0.39614127782036429 0 0.44947181193062957 -0.38817813289897812 0 0.4731929253263466 -0.37234416450736291 0 0.44807513488246747 -0.37627957624247832 0 0.44947181193062957 -0.38817813289897812 0 0.45119057353417241 -0.41426993015950392 0 0.47598627942267108 -0.39614127782036429 0 0.44947181193062957 -0.38817813289897812 0 0.47598627942267108 -0.39614127782036429 0 0.44947181193062957 -0.38817813289897812 0 0.45119057353417241 -0.41426993015950392 0 0.44947181193062957 -0.38817813289897812 0 0.43300808371403049 -0.39487305750607138 0 0.44807513488246747 -0.37627957624247832 0 0.44947181193062957 -0.38817813289897812 0 0.42295734443858812 -0.38021498797759151 0 0.44947181193062957 -0.38817813289897812 0 0.42295734443858812 -0.38021498797759151 0 0.44807513488246747 -0.37627957624247832 0 0.42295734443858812 -0.38021498797759151 0 0.44947181193062957 -0.38817813289897812 0 0.42295734443858812 -0.38021498797759151 0 0.43300808371403049 -0.39487305750607138 0 0.42295734443858812 -0.38021498797759151 0 0.43300808371403049 -0.39487305750607138 0 0.41899807483591311 -0.39267416011215378 0 0.43300808371403049 -0.39487305750607138 0 0.41899807483591311 -0.39267416011215378 0 0.41895001483980338 -0.405747203992677 0 0.41899807483591311 -0.39267416011215378 0 0.41895001483980338 -0.405747203992677 0 0.40824131197950891 -0.39230655886605958 0 0.41895001483980338 -0.405747203992677 0 0.40824131197950891 -0.39230655886605958 0 0.39264419916589011 -0.39933583330857958 0 0.40668165489894942 -0.37284450871662972 0 0.40357115043854858 -0.37439269219349641 0 0.42295734443858812 -0.38021498797759151 0 0.40357115043854858 -0.37439269219349641 0 0.42295734443858812 -0.38021498797759151 0 0.41141791323045201 -0.38202296599598029 0 0.41899807483591311 -0.39267416011215378 0 0.40824131197950891 -0.39230655886605958 0 0.41141791323045201 -0.38202296599598029 0 0.40357115043854858 -0.37439269219349641 0 0.42295734443858812 -0.38021498797759151 0 0.42295734443858812 -0.38021498797759151 0 0.41899807483591311 -0.39267416011215378 0 0.41141791323045201 -0.38202296599598029 0 0.42295734443858812 -0.38021498797759151 0 0.41141791323045201 -0.38202296599598029 0 0.40357115043854858 -0.37439269219349641 0 0.39878737953395271 -0.38716202398524519 0 0.38495476696526271 -0.38365857740898879 0 0.40357115043854858 -0.37439269219349641 0 0.38495476696526271 -0.38365857740898879 0 0.39091936250208847 -0.37059295452639368 0 0.40357115043854858 -0.37439269219349641 0 0.38495476696526271 -0.38365857740898879 0 0.40357115043854858 -0.37439269219349641 0 0.41141791323045201 -0.38202296599598029 0 0.39878737953395271 -0.38716202398524519 0 0.39878737953395271 -0.38716202398524519 0 0.38495476696526271 -0.38365857740898879 0 0.39264419916589011 -0.39933583330857958 0 0.40824131197950891 -0.39230655886605958 0 0.41141791323045201 -0.38202296599598029 0 0.39878737953395271 -0.38716202398524519 0 0.38495476696526271 -0.38365857740898879 0 0.36633838349197689 -0.39292446262448172 0 0.39091936250208847 -0.37059295452639368 0 0.38036028683270479 -0.37321989441499259 0 0.38495476696526271 -0.38365857740898879 0 0.38036028683270479 -0.37321989441499259 0 0.38495476696526271 -0.38365857740898879 0 0.36899850096155717 -0.37572055277630589 0 0.38495476696526271 -0.38365857740898879 0 0.39264419916589011 -0.39933583330857958 0 0.36633838349197689 -0.39292446262448172 0 0.39264419916589011 -0.39933583330857958 0 0.36633838349197689 -0.39292446262448172 0 0.39264419916589011 -0.39933583330857958 0 0.37648157324877413 -0.40698587339059478 0 0.36633838349197689 -0.39292446262448172 0 0.41895001483980338 -0.405747203992677 0 0.39264419916589011 -0.39933583330857958 0 0.40824131197950891 -0.39230655886605958 0 0.39878737953395271 -0.38716202398524519 0 0.39264419916589011 -0.39933583330857958 0 0.41895001483980338 -0.405747203992677 0 0.39075351468544928 -0.41566029786235742 0 0.40403751563283441 -0.42820703599144011 0 0.41895001483980338 -0.405747203992677 0 0.39264419916589011 -0.39933583330857958 0 0.39075351468544928 -0.41566029786235742 0 0.39264419916589011 -0.39933583330857958 0 0.39075351468544928 -0.41566029786235742 0 0.37648157324877413 -0.40698587339059478 0 0.39075351468544928 -0.41566029786235742 0 0.37648157324877413 -0.40698587339059478 0 0.37023017712561412 -0.42034675555211037 0 0.39075351468544928 -0.41566029786235742 0 0.38227505077110352 -0.433375422661055 0 0.37023017712561412 -0.42034675555211037 0 0.39075351468544928 -0.41566029786235742 0 0.38227505077110352 -0.433375422661055 0 0.40403751563283441 -0.42820703599144011 0 0.38227505077110352 -0.433375422661055 0 0.40403751563283441 -0.42820703599144011 0 0.39423870699599839 -0.44869216397824152 0 0.40403751563283441 -0.42820703599144011 0 0.42701607134504438 -0.42096118467114318 0 0.41629961179989983 -0.44411345070250358 0 0.41895001483980338 -0.405747203992677 0 0.40403751563283441 -0.42820703599144011 0 0.42701607134504438 -0.42096118467114318 0 0.45119057353417241 -0.41426993015950392 0 0.43300808371403049 -0.39487305750607138 0 0.42701607134504438 -0.42096118467114318 0 0.43300808371403049 -0.39487305750607138 0 0.41895001483980338 -0.405747203992677 0 0.42701607134504438 -0.42096118467114318 0 0.43861062854952598 -0.43855642967466352 0 0.42701607134504438 -0.42096118467114318 0 0.41629961179989983 -0.44411345070250358 0 0.43861062854952598 -0.43855642967466352 0 0.42949595956011699 -0.46166905847051609 0 0.41629961179989983 -0.44411345070250358 0 0.42949595956011699 -0.46166905847051609 0 0.40830736469633022 -0.46340758814225802 0 0.41629961179989983 -0.44411345070250358 0 0.42949595956011699 -0.46166905847051609 0 0.40830736469633022 -0.46340758814225802 0 0.41583984194657481 -0.48042329330229638 0 0.40830736469633022 -0.46340758814225802 0 0.41629961179989983 -0.44411345070250358 0 0.39423870699599839 -0.44869216397824152 0 0.40403751563283441 -0.42820703599144011 0 0.41629961179989983 -0.44411345070250358 0 0.39423870699599839 -0.44869216397824152 0 0.38227505077110352 -0.433375422661055 0 0.39423870699599839 -0.44869216397824152 0 0.37314956506518782 -0.45196806562242842 0 0.39423870699599839 -0.44869216397824152 0 0.38501363514060072 -0.47295533180638238 0 0.37314956506518782 -0.45196806562242842 0 0.40830736469633022 -0.46340758814225802 0 0.39423870699599839 -0.44869216397824152 0 0.38501363514060072 -0.47295533180638238 0 0.40830736469633022 -0.46340758814225802 0 0.38501363514060072 -0.47295533180638238 0 0.40002807837980658 -0.48644517078868732 0 0.38501363514060072 -0.47295533180638238 0 0.38669653994593312 -0.5 0 0.37039827280714571 -0.48475755307470508 0 0.38501363514060072 -0.47295533180638238 0 0.38669653994593312 -0.5 0 0.40002807837980658 -0.48644517078868732 0 0.38669653994593312 -0.5 0 0.40002807837980658 -0.48644517078868732 0 0.41223960118632652 -0.49999999999999928 0 0.41223960118632652 -0.49999999999999928 0 0.41583984194657481 -0.48042329330229638 0 0.43041231502455729 -0.49398250445380121 0 0.40002807837980658 -0.48644517078868732 0 0.41223960118632652 -0.49999999999999928 0 0.41583984194657481 -0.48042329330229638 0 0.41223960118632652 -0.49999999999999928 0 0.43041231502455729 -0.49398250445380121 0 0.40830736469633022 -0.46340758814225802 0 0.40002807837980658 -0.48644517078868732 0 0.41583984194657481 -0.48042329330229638 0 0.44745993809711271 -0.47718294768068747 0 0.43157964097191648 -0.4781176128412053 0 0.43041231502455729 -0.49398250445380121 0 0.42949595956011699 -0.46166905847051609 0 0.41583984194657481 -0.48042329330229638 0 0.43157964097191648 -0.4781176128412053 0 0.44745993809711271 -0.47718294768068747 0 0.42949595956011699 -0.46166905847051609 0 0.43157964097191648 -0.4781176128412053 0 0.41583984194657481 -0.48042329330229638 0 0.43157964097191648 -0.4781176128412053 0 0.43041231502455729 -0.49398250445380121 0 0.41223960118632652 -0.49999999999999928 0 0.43041231502455729 -0.49398250445380121 0 0.42430596369054058 -0.50000000000000044 0 0.43041231502455729 -0.49398250445380121 0 0.42430596369054058 -0.50000000000000044 0 0.32371784282563848 -0.48205325689406309 0 0.33561041746514603 -0.5 0 0.31006735622475229 -0.5 0 0.32371784282563848 -0.48205325689406309 0 0.33785131120774081 -0.46456607236518999 0 0.31398521063784263 -0.46284922631806608 0 0.32371784282563848 -0.48205325689406309 0 0.31398521063784263 -0.46284922631806608 0 0.30228261589437577 -0.48406570964432089 0 0.32371784282563848 -0.48205325689406309 0 0.34842299388708359 -0.48327581457048763 0 0.33785131120774081 -0.46456607236518999 0 0.32371784282563848 -0.48205325689406309 0 0.33561041746514603 -0.5 0 0.34842299388708359 -0.48327581457048763 0 0.33561041746514603 -0.5 0 0.3611534787055396 -0.5 0 0.34842299388708359 -0.48327581457048763 0 0.38669653994593312 -0.5 0 0.3611534787055396 -0.5 0 0.37039827280714571 -0.48475755307470508 0 0.3611534787055396 -0.5 0 0.37039827280714571 -0.48475755307470508 0 0.34842299388708359 -0.48327581457048763 0 0.37039827280714571 -0.48475755307470508 0 0.34842299388708359 -0.48327581457048763 0 0.36113295193717848 -0.46833262244907609 0 0.38501363514060072 -0.47295533180638238 0 0.37039827280714571 -0.48475755307470508 0 0.36113295193717848 -0.46833262244907609 0 0.34842299388708359 -0.48327581457048763 0 0.36113295193717848 -0.46833262244907609 0 0.33785131120774081 -0.46456607236518999 0 0.36113295193717848 -0.46833262244907609 0 0.354555349947206 -0.45160137520551252 0 0.33785131120774081 -0.46456607236518999 0 0.36113295193717848 -0.46833262244907609 0 0.37314956506518782 -0.45196806562242842 0 0.354555349947206 -0.45160137520551252 0 0.38501363514060072 -0.47295533180638238 0 0.36113295193717848 -0.46833262244907609 0 0.37314956506518782 -0.45196806562242842 0 0.37314956506518782 -0.45196806562242842 0 0.354555349947206 -0.45160137520551252 0 0.36226046523427108 -0.43575845488602999 0 0.38227505077110352 -0.433375422661055 0 0.37314956506518782 -0.45196806562242842 0 0.36226046523427108 -0.43575845488602999 0 0.354555349947206 -0.45160137520551252 0 0.34541136837851483 -0.43498323239747982 0 0.36226046523427108 -0.43575845488602999 0 0.354555349947206 -0.45160137520551252 0 0.32841434352729959 -0.44457473259923758 0 0.34541136837851483 -0.43498323239747982 0 0.354555349947206 -0.45160137520551252 0 0.32841434352729959 -0.44457473259923758 0 0.33785131120774081 -0.46456607236518999 0 0.32841434352729959 -0.44457473259923758 0 0.33785131120774081 -0.46456607236518999 0 0.31398521063784263 -0.46284922631806608 0 0.32841434352729959 -0.44457473259923758 0 0.31398521063784263 -0.46284922631806608 0 0.30843560249324692 -0.43926338866271691 0 0.32841434352729959 -0.44457473259923758 0 0.31674074099330068 -0.42505017548520668 0 0.33282330755302669 -0.42416279160020021 0 0.32841434352729959 -0.44457473259923758 0 0.31674074099330068 -0.42505017548520668 0 0.30843560249324692 -0.43926338866271691 0 0.31674074099330068 -0.42505017548520668 0 0.32048383823400078 -0.41081822986691779 0 0.33282330755302669 -0.42416279160020021 0 0.31674074099330068 -0.42505017548520668 0 0.32048383823400078 -0.41081822986691779 0 0.30906799382957018 -0.41459408459516001 0 0.32048383823400078 -0.41081822986691779 0 0.30885427907486479 -0.40534056280619862 0 0.30906799382957018 -0.41459408459516001 0 0.32048383823400078 -0.41081822986691779 0 0.33339076208455792 -0.40932339846090371 0 0.3215804685578717 -0.39887123257788021 0 0.32048383823400078 -0.41081822986691779 0 0.33339076208455792 -0.40932339846090371 0 0.33282330755302669 -0.42416279160020021 0 0.33339076208455792 -0.40932339846090371 0 0.33282330755302669 -0.42416279160020021 0 0.35107395227997729 -0.41903878193001121 0 0.32841434352729959 -0.44457473259923758 0 0.33282330755302669 -0.42416279160020021 0 0.34541136837851483 -0.43498323239747982 0 0.33282330755302669 -0.42416279160020021 0 0.34541136837851483 -0.43498323239747982 0 0.35107395227997729 -0.41903878193001121 0 0.34541136837851483 -0.43498323239747982 0 0.36226046523427108 -0.43575845488602999 0 0.35107395227997729 -0.41903878193001121 0 0.38227505077110352 -0.433375422661055 0 0.36226046523427108 -0.43575845488602999 0 0.37023017712561412 -0.42034675555211037 0 0.36226046523427108 -0.43575845488602999 0 0.37023017712561412 -0.42034675555211037 0 0.35107395227997729 -0.41903878193001121 0 0.37023017712561412 -0.42034675555211037 0 0.36289718843831109 -0.4072513824456056 0 0.35107395227997729 -0.41903878193001121 0 0.37648157324877413 -0.40698587339059478 0 0.37023017712561412 -0.42034675555211037 0 0.36289718843831109 -0.4072513824456056 0 0.36289718843831109 -0.4072513824456056 0 0.35107395227997729 -0.41903878193001121 0 0.34986457278826733 -0.40112393054269252 0 0.33339076208455792 -0.40932339846090371 0 0.35107395227997729 -0.41903878193001121 0 0.34986457278826733 -0.40112393054269252 0 0.34986457278826733 -0.40112393054269252 0 0.36633838349197689 -0.39292446262448172 0 0.3438195785459458 -0.3874360790798857 0 0.34986457278826733 -0.40112393054269252 0 0.36633838349197689 -0.39292446262448172 0 0.36289718843831109 -0.4072513824456056 0 0.34986457278826733 -0.40112393054269252 0 0.36633838349197689 -0.39292446262448172 0 0.37648157324877413 -0.40698587339059478 0 0.36289718843831109 -0.4072513824456056 0 0.36633838349197689 -0.39292446262448172 0 0.38495476696526271 -0.38365857740898879 0 0.36633838349197689 -0.39292446262448172 0 0.36899850096155717 -0.37572055277630589 0 0.36633838349197689 -0.39292446262448172 0 0.36899850096155717 -0.37572055277630589 0 0.35501734848800531 -0.38018616039313091 0 0.36633838349197689 -0.39292446262448172 0 0.3438195785459458 -0.3874360790798857 0 0.35501734848800531 -0.38018616039313091 0 0.3438195785459458 -0.3874360790798857 0 0.33765213266359068 -0.37373781892019597 0 0.36633838349197689 -0.39292446262448172 0 0.35501734848800531 -0.38018616039313091 0 0.3438195785459458 -0.3874360790798857 0 0.3438195785459458 -0.3874360790798857 0 0.32130077359991482 -0.38194769553528929 0 0.3438195785459458 -0.3874360790798857 0 0.33399123111531148 -0.39574046723933021 0 0.32130077359991482 -0.38194769553528929 0 0.3438195785459458 -0.3874360790798857 0 0.32130077359991482 -0.38194769553528929 0 0.33765213266359068 -0.37373781892019597 0 0.34986457278826733 -0.40112393054269252 0 0.3438195785459458 -0.3874360790798857 0 0.33399123111531148 -0.39574046723933021 0 0.33339076208455792 -0.40932339846090371 0 0.34986457278826733 -0.40112393054269252 0 0.33399123111531148 -0.39574046723933021 0 0.33339076208455792 -0.40932339846090371 0 0.34986457278826733 -0.40112393054269252 0 0.33339076208455792 -0.40932339846090371 0 0.33399123111531148 -0.39574046723933021 0 0.3215804685578717 -0.39887123257788021 0 0.33399123111531148 -0.39574046723933021 0 0.3215804685578717 -0.39887123257788021 0 0.32130077359991482 -0.38194769553528929 0 0.3215804685578717 -0.39887123257788021 0 0.32130077359991482 -0.38194769553528929 0 0.30466906774705282 -0.39121468863847259 0 0.32048383823400078 -0.41081822986691779 0 0.3215804685578717 -0.39887123257788021 0 0.30885427907486479 -0.40534056280619862 0 0.32130077359991482 -0.38194769553528929 0 0.29878196865388379 -0.37645931199069271 0 0.30466906774705282 -0.39121468863847259 0 0.29878196865388379 -0.37645931199069271 0 0.30466906774705282 -0.39121468863847259 0 0.28862562973128159 -0.39089398106269613 0 0.32130077359991482 -0.38194769553528929 0 0.29878196865388379 -0.37645931199069271 0 0.3215804685578717 -0.39887123257788021 0 0.30885427907486479 -0.40534056280619862 0 0.30466906774705282 -0.39121468863847259 0 0.29918907261480471 -0.40051898250306028 0 0.30466906774705282 -0.39121468863847259 0 0.28862562973128159 -0.39089398106269613 0 0.30885427907486479 -0.40534056280619862 0 0.29918907261480471 -0.40051898250306028 0 0.29743753759175479 -0.41002686131399629 0 0.30885427907486479 -0.40534056280619862 0 0.29918907261480471 -0.40051898250306028 0 0.30466906774705282 -0.39121468863847259 0 0.29918907261480471 -0.40051898250306028 0 0.28986046656329179 -0.40317789049621072 0 0.28862562973128159 -0.39089398106269613 0 0.29918907261480471 -0.40051898250306028 0 0.28986046656329179 -0.40317789049621072 0 0.29743753759175479 -0.41002686131399629 0 0.28986046656329179 -0.40317789049621072 0 0.28862562973128159 -0.39089398106269613 0 0.27846929080867849 -0.40532865013469888 0 0.28986046656329179 -0.40317789049621072 0 0.27846929080867849 -0.40532865013469888 0 0.28422697241040279 -0.40871661742540821 0 0.28862562973128159 -0.39089398106269613 0 0.27846929080867849 -0.40532865013469888 0 0.29878196865388379 -0.37645931199069271 0 0.28862562973128159 -0.39089398106269613 0 0.27770733801910819 -0.37132290904828291 0 0.29878196865388379 -0.37645931199069271 0 0.28862562973128159 -0.39089398106269613 0 0.28862562973128159 -0.39089398106269613 0 0.27128623477601987 -0.38632513062642998 0 0.27770733801910819 -0.37132290904828291 0 0.27128623477601987 -0.38632513062642998 0 0.25448461696667801 -0.39121545387343037 0 0.25663270738433253 -0.36618650610587289 0 0.25448461696667801 -0.39121545387343037 0 0.26068422816608422 -0.40938718727899909 0 0.24496802185639921 -0.41243428252497238 0 0.25448461696667801 -0.39121545387343037 0 0.27846929080867849 -0.40532865013469888 0 0.26068422816608422 -0.40938718727899909 0 0.28862562973128159 -0.39089398106269613 0 0.27128623477601987 -0.38632513062642998 0 0.27846929080867849 -0.40532865013469888 0 0.25448461696667801 -0.39121545387343037 0 0.27846929080867849 -0.40532865013469888 0 0.27128623477601987 -0.38632513062642998 0 0.25448461696667801 -0.39121545387343037 0 0.27846929080867849 -0.40532865013469888 0 0.27846929080867849 -0.40532865013469888 0 0.26493281720365969 -0.42456732643128609 0 0.27846929080867849 -0.40532865013469888 0 0.26493281720365969 -0.42456732643128609 0 0.28163283050480631 -0.41669359152189561 0 0.27846929080867849 -0.40532865013469888 0 0.26068422816608422 -0.40938718727899909 0 0.26493281720365969 -0.42456732643128609 0 0.26068422816608422 -0.40938718727899909 0 0.25073675000485562 -0.42557707815232632 0 0.24496802185639921 -0.41243428252497238 0 0.26068422816608422 -0.40938718727899909 0 0.26493281720365969 -0.42456732643128609 0 0.25073675000485562 -0.42557707815232632 0 0.26493281720365969 -0.42456732643128609 0 0.26994752303230318 -0.4413048538242571 0 0.25139634359863838 -0.44380600272787141 0 0.26493281720365969 -0.42456732643128609 0 0.25139634359863838 -0.44380600272787141 0 0.26493281720365969 -0.42456732643128609 0 0.25073675000485562 -0.42557707815232632 0 0.25139634359863838 -0.44380600272787141 0 0.26493281720365969 -0.42456732643128609 0 0.28079098114173268 -0.42766325912415731 0 0.26994752303230318 -0.4413048538242571 0 0.26493281720365969 -0.42456732643128609 0 0.28079098114173268 -0.42766325912415731 0 0.28163283050480631 -0.41669359152189561 0 0.28079098114173268 -0.42766325912415731 0 0.28465575163186629 -0.4415335759210246 0 0.26994752303230318 -0.4413048538242571 0 0.28079098114173268 -0.42766325912415731 0 0.29345725883947732 -0.43391433529940432 0 0.28465575163186629 -0.4415335759210246 0 0.29345725883947732 -0.43391433529940432 0 0.28964253403250378 -0.41954833692320331 0 0.30179744493943439 -0.42246381098213331 0 0.28079098114173268 -0.42766325912415731 0 0.29345725883947732 -0.43391433529940432 0 0.28964253403250378 -0.41954833692320331 0 0.28163283050480631 -0.41669359152189561 0 0.28422697241040279 -0.40871661742540821 0 0.28964253403250378 -0.41954833692320331 0 0.28079098114173268 -0.42766325912415731 0 0.28163283050480631 -0.41669359152189561 0 0.28964253403250378 -0.41954833692320331 0 0.27846929080867849 -0.40532865013469888 0 0.28163283050480631 -0.41669359152189561 0 0.28422697241040279 -0.40871661742540821 0 0.27846929080867849 -0.40532865013469888 0 0.28422697241040279 -0.40871661742540821 0 0.28422697241040279 -0.40871661742540821 0 0.28964253403250378 -0.41954833692320331 0 0.29743753759175479 -0.41002686131399629 0 0.28986046656329179 -0.40317789049621072 0 0.28422697241040279 -0.40871661742540821 0 0.29743753759175479 -0.41002686131399629 0 0.28964253403250378 -0.41954833692320331 0 0.29743753759175479 -0.41002686131399629 0 0.30179744493943439 -0.42246381098213331 0 0.29743753759175479 -0.41002686131399629 0 0.30906799382957018 -0.41459408459516001 0 0.30179744493943439 -0.42246381098213331 0 0.30885427907486479 -0.40534056280619862 0 0.29743753759175479 -0.41002686131399629 0 0.30906799382957018 -0.41459408459516001 0 0.31674074099330068 -0.42505017548520668 0 0.30906799382957018 -0.41459408459516001 0 0.30179744493943439 -0.42246381098213331 0 0.29345725883947732 -0.43391433529940432 0 0.30179744493943439 -0.42246381098213331 0 0.30843560249324692 -0.43926338866271691 0 0.31674074099330068 -0.42505017548520668 0 0.30179744493943439 -0.42246381098213331 0 0.30843560249324692 -0.43926338866271691 0 0.29345725883947732 -0.43391433529940432 0 0.30843560249324692 -0.43926338866271691 0 0.29542123879807919 -0.45301364018319018 0 0.31398521063784263 -0.46284922631806608 0 0.30843560249324692 -0.43926338866271691 0 0.29542123879807919 -0.45301364018319018 0 0.31398521063784263 -0.46284922631806608 0 0.29925239761485678 -0.46764359587110371 0 0.29542123879807919 -0.45301364018319018 0 0.29925239761485678 -0.46764359587110371 0 0.29542123879807919 -0.45301364018319018 0 0.28532052512912998 -0.47064580733883782 0 0.28235398880495183 -0.45477520671254779 0 0.29542123879807919 -0.45301364018319018 0 0.28532052512912998 -0.47064580733883782 0 0.28235398880495183 -0.45477520671254779 0 0.29542123879807919 -0.45301364018319018 0 0.28465575163186629 -0.4415335759210246 0 0.29345725883947732 -0.43391433529940432 0 0.29542123879807919 -0.45301364018319018 0 0.28465575163186629 -0.4415335759210246 0 0.28235398880495183 -0.45477520671254779 0 0.26994752303230318 -0.4413048538242571 0 0.26835843436388418 -0.45722590503335458 0 0.28235398880495183 -0.45477520671254779 0 0.28465575163186629 -0.4415335759210246 0 0.26994752303230318 -0.4413048538242571 0 0.26994752303230318 -0.4413048538242571 0 0.25139634359863838 -0.44380600272787141 0 0.26835843436388418 -0.45722590503335458 0 0.25139634359863838 -0.44380600272787141 0 0.26835843436388418 -0.45722590503335458 0 0.25139634359863838 -0.44380600272787141 0 0.26835843436388418 -0.45722590503335458 0 0.24469860926869169 -0.45332513942878072 0 0.26835843436388418 -0.45722590503335458 0 0.25399581965349771 -0.47063745275044289 0 0.24469860926869169 -0.45332513942878072 0 0.26835843436388418 -0.45722590503335458 0 0.28532052512912998 -0.47064580733883782 0 0.28235398880495183 -0.45477520671254779 0 0.26835843436388418 -0.45722590503335458 0 0.28532052512912998 -0.47064580733883782 0 0.26835843436388418 -0.45722590503335458 0 0.26965485409915663 -0.48308323932486757 0 0.28532052512912998 -0.47064580733883782 0 0.26835843436388418 -0.45722590503335458 0 0.26965485409915663 -0.48308323932486757 0 0.25399581965349771 -0.47063745275044289 0 0.25399581965349771 -0.47063745275044289 0 0.25898123374396531 -0.50000000000000011 0 0.23987556616473091 -0.48430393565204211 0 0.26965485409915663 -0.48308323932486757 0 0.25399581965349771 -0.47063745275044289 0 0.25898123374396531 -0.50000000000000011 0 0.26965485409915663 -0.48308323932486757 0 0.25898123374396531 -0.50000000000000011 0 0.28452429498435883 -0.5 0 0.26965485409915663 -0.48308323932486757 0 0.28452429498435883 -0.5 0 0.28532052512912998 -0.47064580733883782 0 0.28452429498435883 -0.5 0 0.28532052512912998 -0.47064580733883782 0 0.30228261589437577 -0.48406570964432089 0 0.29925239761485678 -0.46764359587110371 0 0.28532052512912998 -0.47064580733883782 0 0.30228261589437577 -0.48406570964432089 0 0.28532052512912998 -0.47064580733883782 0 0.30228261589437577 -0.48406570964432089 0 0.31398521063784263 -0.46284922631806608 0 0.29925239761485678 -0.46764359587110371 0 0.30228261589437577 -0.48406570964432089 0 0.32371784282563848 -0.48205325689406309 0 0.30228261589437577 -0.48406570964432089 0 0.31006735622475229 -0.5 0 0.28452429498435883 -0.5 0 0.30228261589437577 -0.48406570964432089 0 0.31006735622475229 -0.5 0 0.3282397865577637 -0.29124385228111138 0 0.33720037334803538 -0.27361982776263838 0 0.34992952871958211 -0.29447562862915228 0 0.3282397865577637 -0.29124385228111138 0 0.34992952871958211 -0.29447562862915228 0 0.34056744650707121 -0.31779663954648768 0 0.3282397865577637 -0.29124385228111138 0 0.34056744650707121 -0.31779663954648768 0 0.31246999240240347 -0.3054852848128663 0 0.3282397865577637 -0.29124385228111138 0 0.30574556293327831 -0.28566907640554151 0 0.31246999240240347 -0.3054852848128663 0 0.3282397865577637 -0.29124385228111138 0 0.32061074080666302 -0.27415730691802831 0 0.30574556293327831 -0.28566907640554151 0 0.32061074080666302 -0.27415730691802831 0 0.32388162392129172 -0.25615283207316319 0 0.33720037334803538 -0.27361982776263838 0 0.32061074080666302 -0.27415730691802831 0 0.32388162392129172 -0.25615283207316319 0 0.30250877060147469 -0.26103797640199738 0 0.31122873499901749 -0.2414141641502838 0 0.32388162392129172 -0.25615283207316319 0 0.30250877060147469 -0.26103797640199738 0 0.32388162392129172 -0.25615283207316319 0 0.34124894915081899 -0.25453472896255819 0 0.33720037334803538 -0.27361982776263838 0 0.3282397865577637 -0.29124385228111138 0 0.32061074080666302 -0.27415730691802831 0 0.33720037334803538 -0.27361982776263838 0 0.33720037334803538 -0.27361982776263838 0 0.35929161093209289 -0.27115461771181698 0 0.34992952871958211 -0.29447562862915228 0 0.34124894915081899 -0.25453472896255819 0 0.33720037334803538 -0.27361982776263838 0 0.35929161093209289 -0.27115461771181698 0 0.35316874847761298 -0.2416891535577684 0 0.34124894915081899 -0.25453472896255819 0 0.35929161093209289 -0.27115461771181698 0 0.36865369314460372 -0.2478336067944816 0 0.35929161093209289 -0.27115461771181698 0 0.36865369314460372 -0.2478336067944816 0 0.38309938493879597 -0.26981773359180272 0 0.35929161093209289 -0.27115461771181698 0 0.35316874847761298 -0.2416891535577684 0 0.36865369314460372 -0.2478336067944816 0 0.35929161093209289 -0.27115461771181698 0 0.38309938493879597 -0.26981773359180272 0 0.35929161093209289 -0.27115461771181698 0 0.36764157541181391 -0.28804634346535241 0 0.38545040777748718 -0.29142915665489572 0 0.36764157541181391 -0.28804634346535241 0 0.36979367555604942 -0.30870678273150859 0 0.35929161093209289 -0.27115461771181698 0 0.34992952871958211 -0.29447562862915228 0 0.35929161093209289 -0.27115461771181698 0 0.36764157541181391 -0.28804634346535241 0 0.34992952871958211 -0.29447562862915228 0 0.34992952871958211 -0.29447562862915228 0 0.36979367555604942 -0.30870678273150859 0 0.34056744650707121 -0.31779663954648768 0 0.34992952871958211 -0.29447562862915228 0 0.34056744650707121 -0.31779663954648768 0 0.36764157541181391 -0.28804634346535241 0 0.34992952871958211 -0.29447562862915228 0 0.36979367555604942 -0.30870678273150859 0 0.38702013903678112 -0.32772017169980222 0 0.36979367555604942 -0.30870678273150859 0 0.36300739566301382 -0.33418661938928718 0 0.38702013903678112 -0.32772017169980222 0 0.36300739566301382 -0.33418661938928718 0 0.37413339736655882 -0.34579044102089762 0 0.36300739566301382 -0.33418661938928718 0 0.34615443739583879 -0.33709691621371712 0 0.34056744650707121 -0.31779663954648768 0 0.36979367555604942 -0.30870678273150859 0 0.36300739566301382 -0.33418661938928718 0 0.34056744650707121 -0.31779663954648768 0 0.37646232296654569 -0.36114256495657537 0 0.36899850096155717 -0.37572055277630589 0 0.34887026750608108 -0.36052681693999439 0 0.37646232296654569 -0.36114256495657537 0 0.34887026750608108 -0.36052681693999439 0 0.37646232296654569 -0.36114256495657537 0 0.37413339736655882 -0.34579044102089762 0 0.34887026750608108 -0.36052681693999439 0 0.36300739566301382 -0.33418661938928718 0 0.37413339736655882 -0.34579044102089762 0 0.34887026750608108 -0.36052681693999439 0 0.36300739566301382 -0.33418661938928718 0 0.34615443739583879 -0.33709691621371712 0 0.34887026750608108 -0.36052681693999439 0 0.36899850096155717 -0.37572055277630589 0 0.35501734848800531 -0.38018616039313091 0 0.34887026750608108 -0.36052681693999439 0 0.35501734848800531 -0.38018616039313091 0 0.34887026750608108 -0.36052681693999439 0 0.33765213266359068 -0.37373781892019597 0 0.34887026750608108 -0.36052681693999439 0 0.33765213266359068 -0.37373781892019597 0 0.32127821204561657 -0.3599110689234134 0 0.34887026750608108 -0.36052681693999439 0 0.32127821204561657 -0.3599110689234134 0 0.34615443739583879 -0.33709691621371712 0 0.34887026750608108 -0.36052681693999439 0 0.33120536429456038 -0.34111765046382297 0 0.34887026750608108 -0.36052681693999439 0 0.32127821204561657 -0.3599110689234134 0 0.33120536429456038 -0.34111765046382297 0 0.32127821204561657 -0.3599110689234134 0 0.31682565270839541 -0.34316615280772411 0 0.30881998725932852 -0.35191458203632731 0 0.32127821204561657 -0.3599110689234134 0 0.33120536429456038 -0.34111765046382297 0 0.31682565270839541 -0.34316615280772411 0 0.32130077359991482 -0.38194769553528929 0 0.33765213266359068 -0.37373781892019597 0 0.32127821204561657 -0.3599110689234134 0 0.32130077359991482 -0.38194769553528929 0 0.32127821204561657 -0.3599110689234134 0 0.30584787188077678 -0.36641691624629491 0 0.34615443739583879 -0.33709691621371712 0 0.34056744650707121 -0.31779663954648768 0 0.33120536429456038 -0.34111765046382297 0 0.34056744650707121 -0.31779663954648768 0 0.33120536429456038 -0.34111765046382297 0 0.31807899870266237 -0.32624288340420582 0 0.34056744650707121 -0.31779663954648768 0 0.33120536429456038 -0.34111765046382297 0 0.33120536429456038 -0.34111765046382297 0 0.31682565270839541 -0.34316615280772411 0 0.31807899870266237 -0.32624288340420582 0 0.31682565270839541 -0.34316615280772411 0 0.31807899870266237 -0.32624288340420582 0 0.30474570123980882 -0.336644579210851 0 0.34056744650707121 -0.31779663954648768 0 0.31807899870266237 -0.32624288340420582 0 0.31246999240240347 -0.3054852848128663 0 0.31807899870266237 -0.32624288340420582 0 0.30013620387024459 -0.31965333461457701 0 0.30474570123980882 -0.336644579210851 0 0.31807899870266237 -0.32624288340420582 0 0.30013620387024459 -0.31965333461457701 0 0.31246999240240347 -0.3054852848128663 0 0.30013620387024459 -0.31965333461457701 0 0.30474570123980882 -0.336644579210851 0 0.28870427923014141 -0.33331457667972658 0 0.30474570123980882 -0.336644579210851 0 0.28870427923014141 -0.33331457667972658 0 0.29483241988575248 -0.34977922392313471 0 0.30013620387024459 -0.31965333461457701 0 0.28870427923014141 -0.33331457667972658 0 0.28123445599872249 -0.31454931711021272 0 0.32130077359991482 -0.38194769553528929 0 0.29878196865388379 -0.37645931199069271 0 0.30584787188077678 -0.36641691624629491 0 0.30584787188077678 -0.36641691624629491 0 0.29483241988575248 -0.34977922392313471 0 0.29100430930826121 -0.36317553190325158 0 0.29878196865388379 -0.37645931199069271 0 0.30584787188077678 -0.36641691624629491 0 0.29100430930826121 -0.36317553190325158 0 0.29878196865388379 -0.37645931199069271 0 0.30584787188077678 -0.36641691624629491 0 0.32127821204561657 -0.3599110689234134 0 0.30584787188077678 -0.36641691624629491 0 0.30881998725932852 -0.35191458203632731 0 0.30584787188077678 -0.36641691624629491 0 0.30881998725932852 -0.35191458203632731 0 0.29483241988575248 -0.34977922392313471 0 0.31682565270839541 -0.34316615280772411 0 0.30474570123980882 -0.336644579210851 0 0.30881998725932852 -0.35191458203632731 0 0.30474570123980882 -0.336644579210851 0 0.30881998725932852 -0.35191458203632731 0 0.29483241988575248 -0.34977922392313471 0 0.28870427923014141 -0.33331457667972658 0 0.29483241988575248 -0.34977922392313471 0 0.28054665757563058 -0.34947106152152041 0 0.29483241988575248 -0.34977922392313471 0 0.29100430930826121 -0.36317553190325158 0 0.28054665757563058 -0.34947106152152041 0 0.29878196865388379 -0.37645931199069271 0 0.27770733801910819 -0.37132290904828291 0 0.29100430930826121 -0.36317553190325158 0 0.27770733801910819 -0.37132290904828291 0 0.28054665757563058 -0.34947106152152041 0 0.29878196865388379 -0.37645931199069271 0 0.29100430930826121 -0.36317553190325158 0 0.27770733801910819 -0.37132290904828291 0 0.27770733801910819 -0.37132290904828291 0 0.25663270738433253 -0.36618650610587289 0 0.27128623477601987 -0.38632513062642998 0 0.27770733801910819 -0.37132290904828291 0 0.25663270738433253 -0.36618650610587289 0 0.27770733801910819 -0.37132290904828291 0 0.28054665757563058 -0.34947106152152041 0 0.26162096775264942 -0.34975617949046289 0 0.26162096775264942 -0.34975617949046289 0 0.25304954345961872 -0.3334372371444172 0 0.23644703553802521 -0.35085830281332209 0 0.26162096775264942 -0.34975617949046289 0 0.25663270738433253 -0.36618650610587289 0 0.23644703553802521 -0.35085830281332209 0 0.27770733801910819 -0.37132290904828291 0 0.26162096775264942 -0.34975617949046289 0 0.25663270738433253 -0.36618650610587289 0 0.28123445599872249 -0.31454931711021272 0 0.27073023681068958 -0.32978994369806403 0 0.25604243601545917 -0.30950902631316018 0 0.28870427923014141 -0.33331457667972658 0 0.28123445599872249 -0.31454931711021272 0 0.27073023681068958 -0.32978994369806403 0 0.28870427923014141 -0.33331457667972658 0 0.28054665757563058 -0.34947106152152041 0 0.27073023681068958 -0.32978994369806403 0 0.28054665757563058 -0.34947106152152041 0 0.26162096775264942 -0.34975617949046289 0 0.27073023681068958 -0.32978994369806403 0 0.26162096775264942 -0.34975617949046289 0 0.27073023681068958 -0.32978994369806403 0 0.25304954345961872 -0.3334372371444172 0 0.27073023681068958 -0.32978994369806403 0 0.25304954345961872 -0.3334372371444172 0 0.25604243601545917 -0.30950902631316018 0 0.25604243601545917 -0.30950902631316018 0 0.25142105880610982 -0.28159695161676102 0 0.27309197586821932 -0.29291032229901037 0 0.25142105880610982 -0.28159695161676102 0 0.27309197586821932 -0.29291032229901037 0 0.26845703429425299 -0.27473127336484421 0 0.28123445599872249 -0.31454931711021272 0 0.25604243601545917 -0.30950902631316018 0 0.27309197586821932 -0.29291032229901037 0 0.30013620387024459 -0.31965333461457701 0 0.28123445599872249 -0.31454931711021272 0 0.29328697568938961 -0.29903844151086101 0 0.28123445599872249 -0.31454931711021272 0 0.27309197586821932 -0.29291032229901037 0 0.29328697568938961 -0.29903844151086101 0 0.29328697568938961 -0.29903844151086101 0 0.30574556293327831 -0.28566907640554151 0 0.28704366306346918 -0.27596331382295819 0 0.27309197586821932 -0.29291032229901037 0 0.29328697568938961 -0.29903844151086101 0 0.28704366306346918 -0.27596331382295819 0 0.29328697568938961 -0.29903844151086101 0 0.30574556293327831 -0.28566907640554151 0 0.31246999240240347 -0.3054852848128663 0 0.30013620387024459 -0.31965333461457701 0 0.29328697568938961 -0.29903844151086101 0 0.31246999240240347 -0.3054852848128663 0 0.30574556293327831 -0.28566907640554151 0 0.30250877060147469 -0.26103797640199738 0 0.28704366306346918 -0.27596331382295819 0 0.32061074080666302 -0.27415730691802831 0 0.30574556293327831 -0.28566907640554151 0 0.30250877060147469 -0.26103797640199738 0 0.28704366306346918 -0.27596331382295819 0 0.28812153370605242 -0.25917892883271493 0 0.27382308897938978 -0.25757477385260902 0 0.30250877060147469 -0.26103797640199738 0 0.28704366306346918 -0.27596331382295819 0 0.28812153370605242 -0.25917892883271493 0 0.28800960804428533 -0.24563086090229341 0 0.30250877060147469 -0.26103797640199738 0 0.28812153370605242 -0.25917892883271493 0 0.28800960804428533 -0.24563086090229341 0 0.28812153370605242 -0.25917892883271493 0 0.27382308897938978 -0.25757477385260902 0 0.28704366306346918 -0.27596331382295819 0 0.27382308897938978 -0.25757477385260902 0 0.26845703429425299 -0.27473127336484421 0 0.27309197586821932 -0.29291032229901037 0 0.28704366306346918 -0.27596331382295819 0 0.26845703429425299 -0.27473127336484421 0 0.25142105880610982 -0.28159695161676102 0 0.26845703429425299 -0.27473127336484421 0 0.25387513984481591 -0.25857931195517603 0 0.26544806631453821 -0.24230099698390439 0 0.27382308897938978 -0.25757477385260902 0 0.25387513984481591 -0.25857931195517603 0 0.27382308897938978 -0.25757477385260902 0 0.26845703429425299 -0.27473127336484421 0 0.25387513984481591 -0.25857931195517603 0 0.25387513984481591 -0.25857931195517603 0 0.2381591848617218 -0.25228348889829172 0 0.23873226730163991 -0.26860446186978332 0 0.25142105880610982 -0.28159695161676102 0 0.25387513984481591 -0.25857931195517603 0 0.23873226730163991 -0.26860446186978332 0 0.25142105880610982 -0.28159695161676102 0 0.23873226730163991 -0.26860446186978332 0 0.22412956231077791 -0.28731699206628869 0 0.23873226730163991 -0.26860446186978332 0 0.2233418158032322 -0.25896370347926301 0 0.22412956231077791 -0.28731699206628869 0 0.2381591848617218 -0.25228348889829172 0 0.23873226730163991 -0.26860446186978332 0 0.2233418158032322 -0.25896370347926301 0 0.2233418158032322 -0.25896370347926301 0 0.19459367959613491 -0.25885292547783839 0 0.20158087660853621 -0.23686807110207961 0 0.2233418158032322 -0.25896370347926301 0 0.20344477217297871 -0.27911430100353601 0 0.22412956231077791 -0.28731699206628869 0 0.2233418158032322 -0.25896370347926301 0 0.20344477217297871 -0.27911430100353601 0 0.19459367959613491 -0.25885292547783839 0 0.20344477217297871 -0.27911430100353601 0 0.19459367959613491 -0.25885292547783839 0 0.1811198294326693 -0.28106660537624389 0 0.20023531895538321 -0.29824155692729049 0 0.1965359804607269 -0.3204120422498456 0 0.1854651188505301 -0.30598336983253499 0 0.20023531895538321 -0.29824155692729049 0 0.1811198294326693 -0.28106660537624389 0 0.1854651188505301 -0.30598336983253499 0 0.20344477217297871 -0.27911430100353601 0 0.20023531895538321 -0.29824155692729049 0 0.1811198294326693 -0.28106660537624389 0 0.20344477217297871 -0.27911430100353601 0 0.20023531895538321 -0.29824155692729049 0 0.22412956231077791 -0.28731699206628869 0 0.20023531895538321 -0.29824155692729049 0 0.22412956231077791 -0.28731699206628869 0 0.21365296452524871 -0.3158280739368538 0 0.20023531895538321 -0.29824155692729049 0 0.21365296452524871 -0.3158280739368538 0 0.1965359804607269 -0.3204120422498456 0 0.231951166257719 -0.30967859425293848 0 0.22412956231077791 -0.28731699206628869 0 0.21365296452524871 -0.3158280739368538 0 0.231951166257719 -0.30967859425293848 0 0.22412956231077791 -0.28731699206628869 0 0.24121182925292789 -0.29702776505135509 0 0.25604243601545917 -0.30950902631316018 0 0.25142105880610982 -0.28159695161676102 0 0.24121182925292789 -0.29702776505135509 0 0.25142105880610982 -0.28159695161676102 0 0.22412956231077791 -0.28731699206628869 0 0.24121182925292789 -0.29702776505135509 0 0.25604243601545917 -0.30950902631316018 0 0.231951166257719 -0.30967859425293848 0 0.24121182925292789 -0.29702776505135509 0 0.25604243601545917 -0.30950902631316018 0 0.231951166257719 -0.30967859425293848 0 0.23478824591458539 -0.32848396711554873 0 0.25304954345961872 -0.3334372371444172 0 0.25604243601545917 -0.30950902631316018 0 0.23478824591458539 -0.32848396711554873 0 0.25304954345961872 -0.3334372371444172 0 0.23478824591458539 -0.32848396711554873 0 0.23644703553802521 -0.35085830281332209 0 0.23478824591458539 -0.32848396711554873 0 0.23644703553802521 -0.35085830281332209 0 0.2120039702444769 -0.33688947321857171 0 0.23478824591458539 -0.32848396711554873 0 0.21365296452524871 -0.3158280739368538 0 0.2120039702444769 -0.33688947321857171 0 0.231951166257719 -0.30967859425293848 0 0.23478824591458539 -0.32848396711554873 0 0.21365296452524871 -0.3158280739368538 0 0.25663270738433253 -0.36618650610587289 0 0.23644703553802521 -0.35085830281332209 0 0.23049994312467739 -0.37710225761216198 0 0.23644703553802521 -0.35085830281332209 0 0.20651526928267699 -0.36298906135089348 0 0.23049994312467739 -0.37710225761216198 0 0.20651526928267699 -0.36298906135089348 0 0.23049994312467739 -0.37710225761216198 0 0.2111465515132244 -0.38255540515608932 0 0.20651526928267699 -0.36298906135089348 0 0.23049994312467739 -0.37710225761216198 0 0.20651526928267699 -0.36298906135089348 0 0.2111465515132244 -0.38255540515608932 0 0.19806078140151451 -0.3760014579418629 0 0.23644703553802521 -0.35085830281332209 0 0.20651526928267699 -0.36298906135089348 0 0.2120039702444769 -0.33688947321857171 0 0.20651526928267699 -0.36298906135089348 0 0.18875255879886549 -0.34383104841711659 0 0.19096566961471581 -0.36337447620272267 0 0.20651526928267699 -0.36298906135089348 0 0.18875255879886549 -0.34383104841711659 0 0.2120039702444769 -0.33688947321857171 0 0.19096566961471581 -0.36337447620272267 0 0.1852514002565008 -0.37285597493380102 0 0.19806078140151451 -0.3760014579418629 0 0.20651526928267699 -0.36298906135089348 0 0.19096566961471581 -0.36337447620272267 0 0.19806078140151451 -0.3760014579418629 0 0.21365296452524871 -0.3158280739368538 0 0.2120039702444769 -0.33688947321857171 0 0.1965359804607269 -0.3204120422498456 0 0.18875255879886549 -0.34383104841711659 0 0.1965359804607269 -0.3204120422498456 0 0.1791059513898568 -0.32169873116670628 0 0.18875255879886549 -0.34383104841711659 0 0.2120039702444769 -0.33688947321857171 0 0.1965359804607269 -0.3204120422498456 0 0.1965359804607269 -0.3204120422498456 0 0.1791059513898568 -0.32169873116670628 0 0.1854651188505301 -0.30598336983253499 0 0.1791059513898568 -0.32169873116670628 0 0.16851231809304459 -0.30586446174427101 0 0.18875255879886549 -0.34383104841711659 0 0.17431878633764911 -0.33595157773276529 0 0.16776948169062669 -0.34696331747242909 0 0.18875255879886549 -0.34383104841711659 0 0.1791059513898568 -0.32169873116670628 0 0.17431878633764911 -0.33595157773276529 0 0.17431878633764911 -0.33595157773276529 0 0.16164715347124739 -0.33131321387480928 0 0.16776948169062669 -0.34696331747242909 0 0.16164715347124739 -0.33131321387480928 0 0.16776948169062669 -0.34696331747242909 0 0.15212090064456951 -0.33802417008821961 0 0.1791059513898568 -0.32169873116670628 0 0.17431878633764911 -0.33595157773276529 0 0.16164715347124739 -0.33131321387480928 0 0.1791059513898568 -0.32169873116670628 0 0.1583171571383459 -0.3169906515528777 0 0.16851231809304459 -0.30586446174427101 0 0.1791059513898568 -0.32169873116670628 0 0.16164715347124739 -0.33131321387480928 0 0.1583171571383459 -0.3169906515528777 0 0.16164715347124739 -0.33131321387480928 0 0.1583171571383459 -0.3169906515528777 0 0.14958720239180129 -0.32575294072168781 0 0.1852514002565008 -0.37285597493380102 0 0.1762483383340209 -0.3611948383699396 0 0.16810710747809679 -0.37518962057274069 0 0.19096566961471581 -0.36337447620272267 0 0.1852514002565008 -0.37285597493380102 0 0.1762483383340209 -0.3611948383699396 0 0.18875255879886549 -0.34383104841711659 0 0.1762483383340209 -0.3611948383699396 0 0.16776948169062669 -0.34696331747242909 0 0.18875255879886549 -0.34383104841711659 0 0.19096566961471581 -0.36337447620272267 0 0.1762483383340209 -0.3611948383699396 0 0.16776948169062669 -0.34696331747242909 0 0.15224547587634041 -0.34779266691812372 0 0.15212090064456951 -0.33802417008821961 0 0.16776948169062669 -0.34696331747242909 0 0.1600068722952708 -0.35346693781913241 0 0.15224547587634041 -0.34779266691812372 0 0.1600068722952708 -0.35346693781913241 0 0.1664062591498876 -0.35777334963723451 0 0.15995745798807859 -0.36131319790006622 0 0.1600068722952708 -0.35346693781913241 0 0.15995745798807859 -0.36131319790006622 0 0.15218866903691239 -0.35479466580804681 0 0.16776948169062669 -0.34696331747242909 0 0.1600068722952708 -0.35346693781913241 0 0.1664062591498876 -0.35777334963723451 0 0.1762483383340209 -0.3611948383699396 0 0.16776948169062669 -0.34696331747242909 0 0.1664062591498876 -0.35777334963723451 0 0.14720666464189319 -0.36788381176971929 0 0.16810710747809679 -0.37518962057274069 0 0.1558903846113012 -0.37659031989176989 0 0.15995745798807859 -0.36131319790006622 0 0.14396170495504959 -0.36094591622089461 0 0.16810710747809679 -0.37518962057274069 0 0.1762483383340209 -0.3611948383699396 0 0.1664062591498876 -0.35777334963723451 0 0.16804914544144081 -0.36592845662460499 0 0.1664062591498876 -0.35777334963723451 0 0.16804914544144081 -0.36592845662460499 0 0.15995745798807859 -0.36131319790006622 0 0.1762483383340209 -0.3611948383699396 0 0.16804914544144081 -0.36592845662460499 0 0.16810710747809679 -0.37518962057274069 0 0.16804914544144081 -0.36592845662460499 0 0.15995745798807859 -0.36131319790006622 0 0.16810710747809679 -0.37518962057274069 0 0.14720666464189319 -0.36788381176971929 0 0.14396170495504959 -0.36094591622089461 0 0.16810710747809679 -0.37518962057274069 0 0.14396170495504959 -0.36094591622089461 0 0.16810710747809679 -0.37518962057274069 0 0.14720666464189319 -0.36788381176971929 0 0.1383556443351521 -0.36721752491009019 0 0.14366952177242839 -0.37795442680103092 0 0.14720666464189319 -0.36788381176971929 0 0.14366952177242839 -0.37795442680103092 0 0.14720666464189319 -0.36788381176971929 0 0.1558903846113012 -0.37659031989176989 0 0.14366952177242839 -0.37795442680103092 0 0.14720666464189319 -0.36788381176971929 0 0.14396170495504959 -0.36094591622089461 0 0.1383556443351521 -0.36721752491009019 0 0.15995745798807859 -0.36131319790006622 0 0.14396170495504959 -0.36094591622089461 0 0.15218866903691239 -0.35479466580804681 0 0.14396170495504959 -0.36094591622089461 0 0.14511448593074089 -0.35145663781997261 0 0.13577103312078059 -0.34795921469763608 0 0.14396170495504959 -0.36094591622089461 0 0.15218866903691239 -0.35479466580804681 0 0.14511448593074089 -0.35145663781997261 0 0.1600068722952708 -0.35346693781913241 0 0.15218866903691239 -0.35479466580804681 0 0.15224547587634041 -0.34779266691812372 0 0.15218866903691239 -0.35479466580804681 0 0.15224547587634041 -0.34779266691812372 0 0.14511448593074089 -0.35145663781997261 0 0.15224547587634041 -0.34779266691812372 0 0.14511448593074089 -0.35145663781997261 0 0.14297575409526231 -0.34268956348742918 0 0.14511448593074089 -0.35145663781997261 0 0.13577103312078059 -0.34795921469763608 0 0.14297575409526231 -0.34268956348742918 0 0.13577103312078059 -0.34795921469763608 0 0.1309625065958904 -0.33698580710867321 0 0.11981630243200241 -0.34670221186904848 0 0.14396170495504959 -0.36094591622089461 0 0.11981630243200241 -0.34670221186904848 0 0.14396170495504959 -0.36094591622089461 0 0.12975083983729241 -0.3605742752065062 0 0.11981630243200241 -0.34670221186904848 0 0.14396170495504959 -0.36094591622089461 0 0.13577103312078059 -0.34795921469763608 0 0.11981630243200241 -0.34670221186904848 0 0.12614331543758381 -0.36930267957049101 0 0.1383556443351521 -0.36721752491009019 0 0.14366952177242839 -0.37795442680103092 0 0.12614331543758381 -0.36930267957049101 0 0.14366952177242839 -0.37795442680103092 0 0.14396170495504959 -0.36094591622089461 0 0.12975083983729241 -0.3605742752065062 0 0.1383556443351521 -0.36721752491009019 0 0.12975083983729241 -0.3605742752065062 0 0.12614331543758381 -0.36930267957049101 0 0.1383556443351521 -0.36721752491009019 0 0.12975083983729241 -0.3605742752065062 0 0.12614331543758381 -0.36930267957049101 0 0.12047723202667419 -0.35870304346200699 0 0.14958720239180129 -0.32575294072168781 0 0.14164012240325199 -0.3339188842919501 0 0.1354655515675805 -0.32397466055269353 0 0.14429022968378211 -0.31449150580462659 0 0.14958720239180129 -0.32575294072168781 0 0.1354655515675805 -0.32397466055269353 0 0.1583171571383459 -0.3169906515528777 0 0.14429022968378211 -0.31449150580462659 0 0.14958720239180129 -0.32575294072168781 0 0.16164715347124739 -0.33131321387480928 0 0.14958720239180129 -0.32575294072168781 0 0.15212090064456951 -0.33802417008821961 0 0.15224547587634041 -0.34779266691812372 0 0.15212090064456951 -0.33802417008821961 0 0.14297575409526231 -0.34268956348742918 0 0.15212090064456951 -0.33802417008821961 0 0.14297575409526231 -0.34268956348742918 0 0.14164012240325199 -0.3339188842919501 0 0.14958720239180129 -0.32575294072168781 0 0.15212090064456951 -0.33802417008821961 0 0.14164012240325199 -0.3339188842919501 0 0.14164012240325199 -0.3339188842919501 0 0.1309625065958904 -0.33698580710867321 0 0.1354655515675805 -0.32397466055269353 0 0.14297575409526231 -0.34268956348742918 0 0.14164012240325199 -0.3339188842919501 0 0.1309625065958904 -0.33698580710867321 0 0.13577103312078059 -0.34795921469763608 0 0.14297575409526231 -0.34268956348742918 0 0.1309625065958904 -0.33698580710867321 0 0.1309625065958904 -0.33698580710867321 0 0.1267773170918127 -0.32793770643083259 0 0.1354655515675805 -0.32397466055269353 0 0.1309625065958904 -0.33698580710867321 0 0.1267773170918127 -0.32793770643083259 0 0.1173208469396987 -0.33351083295656841 0 0.1267773170918127 -0.32793770643083259 0 0.1354655515675805 -0.32397466055269353 0 0.12336036326408149 -0.31727952510539542 0 0.14429022968378211 -0.31449150580462659 0 0.1354655515675805 -0.32397466055269353 0 0.13290894441916951 -0.311593184541749 0 0.1354655515675805 -0.32397466055269353 0 0.13290894441916951 -0.311593184541749 0 0.12336036326408149 -0.31727952510539542 0 0.14429022968378211 -0.31449150580462659 0 0.13290894441916951 -0.311593184541749 0 0.14365928219234919 -0.29553920478802909 0 0.12939987958846499 -0.30104821725422282 0 0.13290894441916951 -0.311593184541749 0 0.12336036326408149 -0.31727952510539542 0 0.12939987958846499 -0.30104821725422282 0 0.13290894441916951 -0.311593184541749 0 0.14365928219234919 -0.29553920478802909 0 0.12939987958846499 -0.30104821725422282 0 0.12336036326408149 -0.31727952510539542 0 0.12939987958846499 -0.30104821725422282 0 0.14365928219234919 -0.29553920478802909 0 0.14429022968378211 -0.31449150580462659 0 0.15453953438075099 -0.3045832032423279 0 0.14365928219234919 -0.29553920478802909 0 0.1583171571383459 -0.3169906515528777 0 0.14429022968378211 -0.31449150580462659 0 0.15453953438075099 -0.3045832032423279 0 0.14365928219234919 -0.29553920478802909 0 0.13581334660580921 -0.28381191024539792 0 0.15791868479623319 -0.29003019232183508 0 0.14365928219234919 -0.29553920478802909 0 0.15791868479623319 -0.29003019232183508 0 0.15453953438075099 -0.3045832032423279 0 0.14365928219234919 -0.29553920478802909 0 0.15791868479623319 -0.29003019232183508 0 0.12939987958846499 -0.30104821725422282 0 0.14365928219234919 -0.29553920478802909 0 0.13581334660580921 -0.28381191024539792 0 0.12939987958846499 -0.30104821725422282 0 0.13581334660580921 -0.28381191024539792 0 0.12939987958846499 -0.30104821725422282 0 0.13581334660580921 -0.28381191024539792 0 0.11975871269048451 -0.2924514282965619 0 0.13581334660580921 -0.28381191024539792 0 0.1226880249071774 -0.2797686671778018 0 0.11975871269048451 -0.2924514282965619 0 0.13581334660580921 -0.28381191024539792 0 0.1422268136231539 -0.26657560323657331 0 0.13581334660580921 -0.28381191024539792 0 0.1288563768323259 -0.2695457617500755 0 0.1226880249071774 -0.2797686671778018 0 0.13581334660580921 -0.28381191024539792 0 0.1288563768323259 -0.2695457617500755 0 0.1422268136231539 -0.26657560323657331 0 0.1350240927259482 -0.25580971960953952 0 0.1245898803102246 -0.25859373775762762 0 0.1224052182762337 -0.24746994087236879 0 0.1288563768323259 -0.2695457617500755 0 0.1350240927259482 -0.25580971960953952 0 0.1245898803102246 -0.25859373775762762 0 0.1288563768323259 -0.2695457617500755 0 0.1350240927259482 -0.25580971960953952 0 0.1422268136231539 -0.26657560323657331 0 0.1350240927259482 -0.25580971960953952 0 0.1422268136231539 -0.26657560323657331 0 0.1422268136231539 -0.26657560323657331 0 0.16166505075279861 -0.26987223092144852 0 0.15702538271053201 -0.25825383259864948 0 0.1350240927259482 -0.25580971960953952 0 0.1422268136231539 -0.26657560323657331 0 0.15141799172426251 -0.24187414814293301 0 0.1422268136231539 -0.26657560323657331 0 0.15141799172426251 -0.24187414814293301 0 0.1422268136231539 -0.26657560323657331 0 0.15702538271053201 -0.25825383259864948 0 0.15141799172426251 -0.24187414814293301 0 0.1422268136231539 -0.26657560323657331 0 0.15791868479623319 -0.29003019232183508 0 0.13581334660580921 -0.28381191024539792 0 0.1422268136231539 -0.26657560323657331 0 0.15791868479623319 -0.29003019232183508 0 0.1422268136231539 -0.26657560323657331 0 0.16166505075279861 -0.26987223092144852 0 0.15791868479623319 -0.29003019232183508 0 0.16166505075279861 -0.26987223092144852 0 0.1811198294326693 -0.28106660537624389 0 0.15791868479623319 -0.29003019232183508 0 0.16166505075279861 -0.26987223092144852 0 0.17279167474191279 -0.2546933480936433 0 0.1811198294326693 -0.28106660537624389 0 0.16166505075279861 -0.26987223092144852 0 0.15702538271053201 -0.25825383259864948 0 0.17279167474191279 -0.2546933480936433 0 0.15702538271053201 -0.25825383259864948 0 0.17279167474191279 -0.2546933480936433 0 0.15141799172426251 -0.24187414814293301 0 0.19459367959613491 -0.25885292547783839 0 0.17279167474191279 -0.2546933480936433 0 0.18657401407441901 -0.24009283179335739 0 0.19459367959613491 -0.25885292547783839 0 0.17279167474191279 -0.2546933480936433 0 0.1811198294326693 -0.28106660537624389 0 0.1791059513898568 -0.32169873116670628 0 0.1854651188505301 -0.30598336983253499 0 0.16851231809304459 -0.30586446174427101 0 0.1811198294326693 -0.28106660537624389 0 0.1854651188505301 -0.30598336983253499 0 0.16851231809304459 -0.30586446174427101 0 0.16851231809304459 -0.30586446174427101 0 0.15791868479623319 -0.29003019232183508 0 0.15453953438075099 -0.3045832032423279 0 0.16851231809304459 -0.30586446174427101 0 0.15791868479623319 -0.29003019232183508 0 0.1583171571383459 -0.3169906515528777 0 0.15453953438075099 -0.3045832032423279 0 0.16851231809304459 -0.30586446174427101 0 0.1811198294326693 -0.28106660537624389 0 0.15791868479623319 -0.29003019232183508 0 0.1811198294326693 -0.28106660537624389 0 0.16851231809304459 -0.30586446174427101 0 0.15791868479623319 -0.29003019232183508 0 0.1993535918400258 -0.47603901201108589 0 0.20802296196619699 -0.5 0 0.18254382607731279 -0.5 0 0.1993535918400258 -0.47603901201108589 0 0.2208593987769609 -0.48593220700290629 0 0.2207698985854967 -0.46860787130408388 0 0.1993535918400258 -0.47603901201108589 0 0.20802296196619699 -0.5 0 0.2208593987769609 -0.48593220700290629 0 0.23350209785508111 -0.5 0 0.2208593987769609 -0.48593220700290629 0 0.23987556616473091 -0.48430393565204211 0 0.20802296196619699 -0.5 0 0.23350209785508111 -0.5 0 0.2208593987769609 -0.48593220700290629 0 0.25898123374396531 -0.50000000000000011 0 0.23350209785508111 -0.5 0 0.23987556616473091 -0.48430393565204211 0 0.25898123374396531 -0.50000000000000011 0 0.23987556616473091 -0.48430393565204211 0 0.25399581965349771 -0.47063745275044289 0 0.23987556616473091 -0.48430393565204211 0 0.23789604644733189 -0.46813090280002823 0 0.2208593987769609 -0.48593220700290629 0 0.23987556616473091 -0.48430393565204211 0 0.2207698985854967 -0.46860787130408388 0 0.23987556616473091 -0.48430393565204211 0 0.2207698985854967 -0.46860787130408388 0 0.23789604644733189 -0.46813090280002823 0 0.23987556616473091 -0.48430393565204211 0 0.2207698985854967 -0.46860787130408388 0 0.2207698985854967 -0.46860787130408388 0 0.23343738239858761 -0.45689192126086148 0 0.23789604644733189 -0.46813090280002823 0 0.2207698985854967 -0.46860787130408388 0 0.23343738239858761 -0.45689192126086148 0 0.21653282761863279 -0.44957093355937672 0 0.25399581965349771 -0.47063745275044289 0 0.23789604644733189 -0.46813090280002823 0 0.24469860926869169 -0.45332513942878072 0 0.23343738239858761 -0.45689192126086148 0 0.23789604644733189 -0.46813090280002823 0 0.24469860926869169 -0.45332513942878072 0 0.25139634359863838 -0.44380600272787141 0 0.23986127207454269 -0.4468435809992406 0 0.2396765858071829 -0.43453367853258362 0 0.25139634359863838 -0.44380600272787141 0 0.2396765858071829 -0.43453367853258362 0 0.25139634359863838 -0.44380600272787141 0 0.24469860926869169 -0.45332513942878072 0 0.23986127207454269 -0.4468435809992406 0 0.25139634359863838 -0.44380600272787141 0 0.24469860926869169 -0.45332513942878072 0 0.23343738239858761 -0.45689192126086148 0 0.24469860926869169 -0.45332513942878072 0 0.23986127207454269 -0.4468435809992406 0 0.23986127207454269 -0.4468435809992406 0 0.22934230733465771 -0.44508939606877401 0 0.2396765858071829 -0.43453367853258362 0 0.23343738239858761 -0.45689192126086148 0 0.22934230733465771 -0.44508939606877401 0 0.21653282761863279 -0.44957093355937672 0 0.22934230733465771 -0.44508939606877401 0 0.2168218056715083 -0.43500775671291209 0 0.2396765858071829 -0.43453367853258362 0 0.23343738239858761 -0.45689192126086148 0 0.23986127207454269 -0.4468435809992406 0 0.22934230733465771 -0.44508939606877401 0 0.22934230733465771 -0.44508939606877401 0 0.21653282761863279 -0.44957093355937672 0 0.2168218056715083 -0.43500775671291209 0 0.21653282761863279 -0.44957093355937672 0 0.19716134071528441 -0.43891684905350281 0 0.2168218056715083 -0.43500775671291209 0 0.21653282761863279 -0.44957093355937672 0 0.20166423100626241 -0.45291180695612571 0 0.19716134071528441 -0.43891684905350281 0 0.2207698985854967 -0.46860787130408388 0 0.21653282761863279 -0.44957093355937672 0 0.20166423100626241 -0.45291180695612571 0 0.2207698985854967 -0.46860787130408388 0 0.20166423100626241 -0.45291180695612571 0 0.1993535918400258 -0.47603901201108589 0 0.2207698985854967 -0.46860787130408388 0 0.20166423100626241 -0.45291180695612571 0 0.1993535918400258 -0.47603901201108589 0 0.20166423100626241 -0.45291180695612571 0 0.1842960730136266 -0.45457679555835417 0 0.20166423100626241 -0.45291180695612571 0 0.18255856342702809 -0.43721574260816748 0 0.1842960730136266 -0.45457679555835417 0 0.20166423100626241 -0.45291180695612571 0 0.19716134071528441 -0.43891684905350281 0 0.18255856342702809 -0.43721574260816748 0 0.20166423100626241 -0.45291180695612571 0 0.18255856342702809 -0.43721574260816748 0 0.197102207191061 -0.42421544194754551 0 0.18027755151942709 -0.4228675601038781 0 0.19716134071528441 -0.43891684905350281 0 0.197102207191061 -0.42421544194754551 0 0.18255856342702809 -0.43721574260816748 0 0.197102207191061 -0.42421544194754551 0 0.189637915287097 -0.41170783905252578 0 0.18027755151942709 -0.4228675601038781 0 0.189637915287097 -0.41170783905252578 0 0.20244833522176961 -0.41262080014042729 0 0.19701181365455539 -0.40310774061296217 0 0.197102207191061 -0.42421544194754551 0 0.189637915287097 -0.41170783905252578 0 0.20244833522176961 -0.41262080014042729 0 0.21209182745194319 -0.42039594981267031 0 0.22739953253300729 -0.41958645595211069 0 0.21639791252419149 -0.40367702927643301 0 0.197102207191061 -0.42421544194754551 0 0.20244833522176961 -0.41262080014042729 0 0.21209182745194319 -0.42039594981267031 0 0.20244833522176961 -0.41262080014042729 0 0.21639791252419149 -0.40367702927643301 0 0.19701181365455539 -0.40310774061296217 0 0.20244833522176961 -0.41262080014042729 0 0.21209182745194319 -0.42039594981267031 0 0.21639791252419149 -0.40367702927643301 0 0.197102207191061 -0.42421544194754551 0 0.21209182745194319 -0.42039594981267031 0 0.2168218056715083 -0.43500775671291209 0 0.19716134071528441 -0.43891684905350281 0 0.197102207191061 -0.42421544194754551 0 0.2168218056715083 -0.43500775671291209 0 0.2168218056715083 -0.43500775671291209 0 0.2396765858071829 -0.43453367853258362 0 0.22739953253300729 -0.41958645595211069 0 0.21209182745194319 -0.42039594981267031 0 0.2168218056715083 -0.43500775671291209 0 0.22739953253300729 -0.41958645595211069 0 0.25073675000485562 -0.42557707815232632 0 0.25139634359863838 -0.44380600272787141 0 0.2396765858071829 -0.43453367853258362 0 0.25073675000485562 -0.42557707815232632 0 0.2396765858071829 -0.43453367853258362 0 0.24496802185639921 -0.41243428252497238 0 0.2396765858071829 -0.43453367853258362 0 0.24496802185639921 -0.41243428252497238 0 0.22739953253300729 -0.41958645595211069 0 0.24496802185639921 -0.41243428252497238 0 0.22739953253300729 -0.41958645595211069 0 0.23391962099917321 -0.39645356134938781 0 0.22739953253300729 -0.41958645595211069 0 0.23391962099917321 -0.39645356134938781 0 0.21639791252419149 -0.40367702927643301 0 0.23391962099917321 -0.39645356134938781 0 0.2111465515132244 -0.38255540515608932 0 0.21639791252419149 -0.40367702927643301 0 0.25448461696667801 -0.39121545387343037 0 0.24496802185639921 -0.41243428252497238 0 0.23391962099917321 -0.39645356134938781 0 0.25448461696667801 -0.39121545387343037 0 0.23049994312467739 -0.37710225761216198 0 0.25448461696667801 -0.39121545387343037 0 0.25663270738433253 -0.36618650610587289 0 0.23049994312467739 -0.37710225761216198 0 0.25448461696667801 -0.39121545387343037 0 0.23391962099917321 -0.39645356134938781 0 0.23049994312467739 -0.37710225761216198 0 0.23391962099917321 -0.39645356134938781 0 0.23049994312467739 -0.37710225761216198 0 0.2111465515132244 -0.38255540515608932 0 0.2111465515132244 -0.38255540515608932 0 0.21639791252419149 -0.40367702927643301 0 0.19225251000114421 -0.38943332492458688 0 0.21639791252419149 -0.40367702927643301 0 0.19225251000114421 -0.38943332492458688 0 0.21639791252419149 -0.40367702927643301 0 0.19701181365455539 -0.40310774061296217 0 0.19225251000114421 -0.38943332492458688 0 0.189637915287097 -0.41170783905252578 0 0.19701181365455539 -0.40310774061296217 0 0.1844636582129017 -0.39809230206211499 0 0.19701181365455539 -0.40310774061296217 0 0.19225251000114421 -0.38943332492458688 0 0.1844636582129017 -0.39809230206211499 0 0.2111465515132244 -0.38255540515608932 0 0.19225251000114421 -0.38943332492458688 0 0.19806078140151451 -0.3760014579418629 0 0.1852514002565008 -0.37285597493380102 0 0.19225251000114421 -0.38943332492458688 0 0.19806078140151451 -0.3760014579418629 0 0.19225251000114421 -0.38943332492458688 0 0.16810710747809679 -0.37518962057274069 0 0.1717097371881354 -0.38251801957658549 0 0.19225251000114421 -0.38943332492458688 0 0.16810710747809679 -0.37518962057274069 0 0.1852514002565008 -0.37285597493380102 0 0.19225251000114421 -0.38943332492458688 0 0.16810710747809679 -0.37518962057274069 0 0.19225251000114421 -0.38943332492458688 0 0.1671660434221145 -0.38649593907522589 0 0.1717097371881354 -0.38251801957658549 0 0.1844636582129017 -0.39809230206211499 0 0.16809547659356039 -0.40491953610612602 0 0.1652915464883338 -0.38862805969570902 0 0.19225251000114421 -0.38943332492458688 0 0.1844636582129017 -0.39809230206211499 0 0.1671660434221145 -0.38649593907522589 0 0.1844636582129017 -0.39809230206211499 0 0.16809547659356039 -0.40491953610612602 0 0.17718549949215601 -0.41182138311697081 0 0.1844636582129017 -0.39809230206211499 0 0.1652915464883338 -0.38862805969570902 0 0.1844636582129017 -0.39809230206211499 0 0.1652915464883338 -0.38862805969570902 0 0.1671660434221145 -0.38649593907522589 0 0.16809547659356039 -0.40491953610612602 0 0.1652915464883338 -0.38862805969570902 0 0.14773025664839051 -0.40860290602128418 0 0.1652915464883338 -0.38862805969570902 0 0.14773025664839051 -0.40860290602128418 0 0.1652915464883338 -0.38862805969570902 0 0.1671660434221145 -0.38649593907522589 0 0.1652915464883338 -0.38862805969570902 0 0.1671660434221145 -0.38649593907522589 0 0.1649307776168841 -0.38155870309255979 0 0.1671660434221145 -0.38649593907522589 0 0.1717097371881354 -0.38251801957658549 0 0.1649307776168841 -0.38155870309255979 0 0.16810710747809679 -0.37518962057274069 0 0.1717097371881354 -0.38251801957658549 0 0.1649307776168841 -0.38155870309255979 0 0.1652915464883338 -0.38862805969570902 0 0.1649307776168841 -0.38155870309255979 0 0.1558903846113012 -0.37659031989176989 0 0.16810710747809679 -0.37518962057274069 0 0.1649307776168841 -0.38155870309255979 0 0.1558903846113012 -0.37659031989176989 0 0.1652915464883338 -0.38862805969570902 0 0.14366952177242839 -0.37795442680103092 0 0.1652915464883338 -0.38862805969570902 0 0.14366952177242839 -0.37795442680103092 0 0.13876759589852761 -0.39191072153091883 0 0.1652915464883338 -0.38862805969570902 0 0.1558903846113012 -0.37659031989176989 0 0.14366952177242839 -0.37795442680103092 0 0.14366952177242839 -0.37795442680103092 0 0.13876759589852761 -0.39191072153091883 0 0.13876759589852761 -0.39191072153091883 0 0.1157209211003153 -0.38035524822790018 0 0.13876759589852761 -0.39191072153091883 0 0.12127911239061651 -0.39357318682290388 0 0.1157209211003153 -0.38035524822790018 0 0.12614331543758381 -0.36930267957049101 0 0.13876759589852761 -0.39191072153091883 0 0.1157209211003153 -0.38035524822790018 0 0.12614331543758381 -0.36930267957049101 0 0.14366952177242839 -0.37795442680103092 0 0.13876759589852761 -0.39191072153091883 0 0.13359024924424409 -0.39698632862739652 0 0.13876759589852761 -0.39191072153091883 0 0.12127911239061651 -0.39357318682290388 0 0.12828327019429181 -0.39904323640082773 0 0.125130390185476 -0.40623122613194529 0 0.13622469376696739 -0.39915062938152263 0 0.12828327019429181 -0.39904323640082773 0 0.13359024924424409 -0.39698632862739652 0 0.13622469376696739 -0.39915062938152263 0 0.12828327019429181 -0.39904323640082773 0 0.13359024924424409 -0.39698632862739652 0 0.12127911239061651 -0.39357318682290388 0 0.13359024924424409 -0.39698632862739652 0 0.13876759589852761 -0.39191072153091883 0 0.13622469376696739 -0.39915062938152263 0 0.14005567541338429 -0.39585742441227911 0 0.13622469376696739 -0.39915062938152263 0 0.1452755072711554 -0.39986231523270888 0 0.13359024924424409 -0.39698632862739652 0 0.13622469376696739 -0.39915062938152263 0 0.13876759589852761 -0.39191072153091883 0 0.13622469376696739 -0.39915062938152263 0 0.13876759589852761 -0.39191072153091883 0 0.14005567541338429 -0.39585742441227911 0 0.13622469376696739 -0.39915062938152263 0 0.1652915464883338 -0.38862805969570902 0 0.13876759589852761 -0.39191072153091883 0 0.1452755072711554 -0.39986231523270888 0 0.13622469376696739 -0.39915062938152263 0 0.1452755072711554 -0.39986231523270888 0 0.14773025664839051 -0.40860290602128418 0 0.1652915464883338 -0.38862805969570902 0 0.1452755072711554 -0.39986231523270888 0 0.14773025664839051 -0.40860290602128418 0 0.13622469376696739 -0.39915062938152263 0 0.14773025664839051 -0.40860290602128418 0 0.13876759589852761 -0.39191072153091883 0 0.14005567541338429 -0.39585742441227911 0 0.1452755072711554 -0.39986231523270888 0 0.14773025664839051 -0.40860290602128418 0 0.1381559639964508 -0.41949305282380378 0 0.16345289584779329 -0.42151967826020997 0 0.14773025664839051 -0.40860290602128418 0 0.16345289584779329 -0.42151967826020997 0 0.1381559639964508 -0.41949305282380378 0 0.16345289584779329 -0.42151967826020997 0 0.13622469376696739 -0.39915062938152263 0 0.14773025664839051 -0.40860290602128418 0 0.1381559639964508 -0.41949305282380378 0 0.14773025664839051 -0.40860290602128418 0 0.1381559639964508 -0.41949305282380378 0 0.13622469376696739 -0.39915062938152263 0 0.12932814441001131 -0.41878582540875581 0 0.125130390185476 -0.40623122613194529 0 0.13622469376696739 -0.39915062938152263 0 0.12932814441001131 -0.41878582540875581 0 0.13622469376696739 -0.39915062938152263 0 0.1381559639964508 -0.41949305282380378 0 0.12932814441001131 -0.41878582540875581 0 0.1381559639964508 -0.41949305282380378 0 0.12932814441001131 -0.41878582540875581 0 0.1381559639964508 -0.41949305282380378 0 0.12932814441001131 -0.41878582540875581 0 0.1230413639816082 -0.43668494563581539 0 0.1381559639964508 -0.41949305282380378 0 0.1230413639816082 -0.43668494563581539 0 0.12932814441001131 -0.41878582540875581 0 0.1230413639816082 -0.43668494563581539 0 0.1381559639964508 -0.41949305282380378 0 0.13634285797017059 -0.44042417739694473 0 0.1230413639816082 -0.43668494563581539 0 0.1381559639964508 -0.41949305282380378 0 0.1518952424046642 -0.43821800885427598 0 0.13634285797017059 -0.44042417739694473 0 0.1381559639964508 -0.41949305282380378 0 0.16345289584779329 -0.42151967826020997 0 0.1518952424046642 -0.43821800885427598 0 0.16345289584779329 -0.42151967826020997 0 0.18255856342702809 -0.43721574260816748 0 0.16652045943869209 -0.44870657160822658 0 0.16345289584779329 -0.42151967826020997 0 0.18027755151942709 -0.4228675601038781 0 0.16345289584779329 -0.42151967826020997 0 0.16652045943869209 -0.44870657160822658 0 0.1518952424046642 -0.43821800885427598 0 0.16809547659356039 -0.40491953610612602 0 0.16345289584779329 -0.42151967826020997 0 0.17718549949215601 -0.41182138311697081 0 0.16809547659356039 -0.40491953610612602 0 0.14773025664839051 -0.40860290602128418 0 0.16345289584779329 -0.42151967826020997 0 0.16345289584779329 -0.42151967826020997 0 0.17718549949215601 -0.41182138311697081 0 0.18027755151942709 -0.4228675601038781 0 0.189637915287097 -0.41170783905252578 0 0.1844636582129017 -0.39809230206211499 0 0.17718549949215601 -0.41182138311697081 0 0.189637915287097 -0.41170783905252578 0 0.17718549949215601 -0.41182138311697081 0 0.18027755151942709 -0.4228675601038781 0 0.16345289584779329 -0.42151967826020997 0 0.18027755151942709 -0.4228675601038781 0 0.18255856342702809 -0.43721574260816748 0 0.197102207191061 -0.42421544194754551 0 0.18027755151942709 -0.4228675601038781 0 0.18255856342702809 -0.43721574260816748 0 0.16345289584779329 -0.42151967826020997 0 0.18255856342702809 -0.43721574260816748 0 0.18255856342702809 -0.43721574260816748 0 0.1842960730136266 -0.45457679555835417 0 0.16652045943869209 -0.44870657160822658 0 0.1993535918400258 -0.47603901201108589 0 0.1842960730136266 -0.45457679555835417 0 0.1759323147176883 -0.46988929523247203 0 0.1842960730136266 -0.45457679555835417 0 0.16652045943869209 -0.44870657160822658 0 0.1759323147176883 -0.46988929523247203 0 0.15932441283243781 -0.46505700916566772 0 0.16652045943869209 -0.44870657160822658 0 0.1759323147176883 -0.46988929523247203 0 0.15932441283243781 -0.46505700916566772 0 0.16652045943869209 -0.44870657160822658 0 0.1464993878414852 -0.45294431597798779 0 0.16652045943869209 -0.44870657160822658 0 0.1518952424046642 -0.43821800885427598 0 0.1464993878414852 -0.45294431597798779 0 0.1518952424046642 -0.43821800885427598 0 0.1464993878414852 -0.45294431597798779 0 0.13634285797017059 -0.44042417739694473 0 0.1464993878414852 -0.45294431597798779 0 0.13634285797017059 -0.44042417739694473 0 0.13209743741069291 -0.45050741027659069 0 0.13209743741069291 -0.45050741027659069 0 0.12685342076346301 -0.44527305946200202 0 0.123664187920988 -0.45090286319719031 0 0.13634285797017059 -0.44042417739694473 0 0.13209743741069291 -0.45050741027659069 0 0.12685342076346301 -0.44527305946200202 0 0.13634285797017059 -0.44042417739694473 0 0.12685342076346301 -0.44527305946200202 0 0.1230413639816082 -0.43668494563581539 0 0.13360544280398701 -0.46056352827853358 0 0.14511138645283531 -0.47055035873052492 0 0.1206835888036206 -0.4701030942545964 0 0.13360544280398701 -0.46056352827853358 0 0.1206835888036206 -0.4701030942545964 0 0.1236354135113011 -0.45871246215296851 0 0.13209743741069291 -0.45050741027659069 0 0.1236354135113011 -0.45871246215296851 0 0.123664187920988 -0.45090286319719031 0 0.13209743741069291 -0.45050741027659069 0 0.13360544280398701 -0.46056352827853358 0 0.1236354135113011 -0.45871246215296851 0 0.1464993878414852 -0.45294431597798779 0 0.13209743741069291 -0.45050741027659069 0 0.13360544280398701 -0.46056352827853358 0 0.1464993878414852 -0.45294431597798779 0 0.13360544280398701 -0.46056352827853358 0 0.14511138645283531 -0.47055035873052492 0 0.15932441283243781 -0.46505700916566772 0 0.1464993878414852 -0.45294431597798779 0 0.14511138645283531 -0.47055035873052492 0 0.15932441283243781 -0.46505700916566772 0 0.14511138645283531 -0.47055035873052492 0 0.1611404708329908 -0.48197957110671352 0 0.14511138645283531 -0.47055035873052492 0 0.1461571722899937 -0.4857732969254101 0 0.1611404708329908 -0.48197957110671352 0 0.14511138645283531 -0.47055035873052492 0 0.13118168738333719 -0.48284646124279768 0 0.1461571722899937 -0.4857732969254101 0 0.14511138645283531 -0.47055035873052492 0 0.13118168738333719 -0.48284646124279768 0 0.1206835888036206 -0.4701030942545964 0 0.14511138645283531 -0.47055035873052492 0 0.1206835888036206 -0.4701030942545964 0 0.13118168738333719 -0.48284646124279768 0 0.1206835888036206 -0.4701030942545964 0 0.13118168738333719 -0.48284646124279768 0 0.1315855542995443 -0.5 0 0.1461571722899937 -0.4857732969254101 0 0.13118168738333719 -0.48284646124279768 0 0.1315855542995443 -0.5 0 0.1185024717111845 -0.48922088942300068 0 0.1315855542995443 -0.5 0 0.1461571722899937 -0.4857732969254101 0 0.15706469018842861 -0.5 0 0.1461571722899937 -0.4857732969254101 0 0.15706469018842861 -0.5 0 0.1611404708329908 -0.48197957110671352 0 0.15706469018842861 -0.5 0 0.1611404708329908 -0.48197957110671352 0 0.18254382607731279 -0.5 0 0.15932441283243781 -0.46505700916566772 0 0.1611404708329908 -0.48197957110671352 0 0.1759323147176883 -0.46988929523247203 0 0.1993535918400258 -0.47603901201108589 0 0.1759323147176883 -0.46988929523247203 0 0.18254382607731279 -0.5 0 0.1611404708329908 -0.48197957110671352 0 0.1759323147176883 -0.46988929523247203 0 0.18254382607731279 -0.5 0 0.072533775166486208 -0.49017953088159139 0 0.082156475379599803 -0.5 0 0.058206532348539702 -0.50000000000000244 0 0.072533775166486208 -0.49017953088159139 0 0.070087242354017323 -0.48068336972469961 0 0.083451806201539427 -0.48481694324661789 0 0.072533775166486208 -0.49017953088159139 0 0.062133969487522228 -0.49015579688471711 0 0.058206532348539702 -0.50000000000000244 0 0.070087242354017323 -0.48068336972469961 0 0.056778664148039712 -0.48440908744205741 0 0.062133969487522228 -0.49015579688471711 0 0.072533775166486208 -0.49017953088159139 0 0.070087242354017323 -0.48068336972469961 0 0.062133969487522228 -0.49015579688471711 0 0.083953380486034443 -0.46943057691963952 0 0.057511247689566232 -0.46894643066800112 0 0.070087242354017323 -0.48068336972469961 0 0.083953380486034443 -0.46943057691963952 0 0.057511247689566232 -0.46894643066800112 0 0.070087242354017323 -0.48068336972469961 0 0.083953380486034443 -0.46943057691963952 0 0.083451806201539427 -0.48481694324661789 0 0.083953380486034443 -0.46943057691963952 0 0.083451806201539427 -0.48481694324661789 0 0.096374296908082024 -0.479364074146233 0 0.083451806201539427 -0.48481694324661789 0 0.095605666915016776 -0.48924410780754379 0 0.096374296908082024 -0.479364074146233 0 0.083451806201539427 -0.48481694324661789 0 0.082156475379599803 -0.5 0 0.095605666915016776 -0.48924410780754379 0 0.072533775166486208 -0.49017953088159139 0 0.083451806201539427 -0.48481694324661789 0 0.082156475379599803 -0.5 0 0.082156475379599803 -0.5 0 0.095605666915016776 -0.48924410780754379 0 0.10610641841066 -0.50000000000000133 0 0.095605666915016776 -0.48924410780754379 0 0.1082509658465818 -0.48495736158563962 0 0.096374296908082024 -0.479364074146233 0 0.095605666915016776 -0.48924410780754379 0 0.1082509658465818 -0.48495736158563962 0 0.10610641841066 -0.50000000000000133 0 0.1082509658465818 -0.48495736158563962 0 0.10610641841066 -0.50000000000000133 0 0.1315855542995443 -0.5 0 0.10610641841066 -0.50000000000000133 0 0.1185024717111845 -0.48922088942300068 0 0.1082509658465818 -0.48495736158563962 0 0.1185024717111845 -0.48922088942300068 0 0.1178028454054454 -0.47940850593546241 0 0.1082509658465818 -0.48495736158563962 0 0.10610641841066 -0.50000000000000133 0 0.1185024717111845 -0.48922088942300068 0 0.13118168738333719 -0.48284646124279768 0 0.1185024717111845 -0.48922088942300068 0 0.1178028454054454 -0.47940850593546241 0 0.13118168738333719 -0.48284646124279768 0 0.1206835888036206 -0.4701030942545964 0 0.1178028454054454 -0.47940850593546241 0 0.1082509658465818 -0.48495736158563962 0 0.1178028454054454 -0.47940850593546241 0 0.1103955132825028 -0.46991472317127791 0 0.1206835888036206 -0.4701030942545964 0 0.1103955132825028 -0.46991472317127791 0 0.1206835888036206 -0.4701030942545964 0 0.1178028454054454 -0.47940850593546241 0 0.1103955132825028 -0.46991472317127791 0 0.083953380486034443 -0.46943057691963952 0 0.1103955132825028 -0.46991472317127791 0 0.096374296908082024 -0.479364074146233 0 0.083953380486034443 -0.46943057691963952 0 0.1103955132825028 -0.46991472317127791 0 0.1082509658465818 -0.48495736158563962 0 0.1103955132825028 -0.46991472317127791 0 0.096374296908082024 -0.479364074146233 0 0.1082509658465818 -0.48495736158563962 0 0.1103955132825028 -0.46991472317127791 0 0.083953380486034443 -0.46943057691963952 0 0.1103955132825028 -0.46991472317127791 0 0.1000248217872392 -0.46286479332746672 0 0.1000248217872392 -0.46286479332746672 0 0.1076115864021023 -0.45423533281110651 0 0.096470986310285778 -0.45144027092791811 0 0.1000248217872392 -0.46286479332746672 0 0.096470986310285778 -0.45144027092791811 0 0.087036814067601054 -0.45433420343180131 0 0.1000248217872392 -0.46286479332746672 0 0.1076115864021023 -0.45423533281110651 0 0.1118903719916552 -0.45942923860437368 0 0.1000248217872392 -0.46286479332746672 0 0.1076115864021023 -0.45423533281110651 0 0.1103955132825028 -0.46991472317127791 0 0.1000248217872392 -0.46286479332746672 0 0.1118903719916552 -0.45942923860437368 0 0.1206835888036206 -0.4701030942545964 0 0.1118903719916552 -0.45942923860437368 0 0.1206835888036206 -0.4701030942545964 0 0.1103955132825028 -0.46991472317127791 0 0.1118903719916552 -0.45942923860437368 0 0.1103955132825028 -0.46991472317127791 0 0.1118903719916552 -0.45942923860437368 0 0.1118903719916552 -0.45942923860437368 0 0.1180743835098429 -0.45366890095397389 0 0.1136022782695799 -0.44742130317391171 0 0.1076115864021023 -0.45423533281110651 0 0.1118903719916552 -0.45942923860437368 0 0.1136022782695799 -0.44742130317391171 0 0.1118903719916552 -0.45942923860437368 0 0.1136022782695799 -0.44742130317391171 0 0.1076115864021023 -0.45423533281110651 0 0.1118903719916552 -0.45942923860437368 0 0.1118903719916552 -0.45942923860437368 0 0.1180743835098429 -0.45366890095397389 0 0.1236354135113011 -0.45871246215296851 0 0.1180743835098429 -0.45366890095397389 0 0.1236354135113011 -0.45871246215296851 0 0.123664187920988 -0.45090286319719031 0 0.1206835888036206 -0.4701030942545964 0 0.1118903719916552 -0.45942923860437368 0 0.1236354135113011 -0.45871246215296851 0 0.1136022782695799 -0.44742130317391171 0 0.1230413639816082 -0.43668494563581539 0 0.11912125653385421 -0.4478459008034682 0 0.1230413639816082 -0.43668494563581539 0 0.12685342076346301 -0.44527305946200202 0 0.11912125653385421 -0.4478459008034682 0 0.1230413639816082 -0.43668494563581539 0 0.11912125653385421 -0.4478459008034682 0 0.1136022782695799 -0.44742130317391171 0 0.1230413639816082 -0.43668494563581539 0 0.12685342076346301 -0.44527305946200202 0 0.123664187920988 -0.45090286319719031 0 0.11912125653385421 -0.4478459008034682 0 0.1180743835098429 -0.45366890095397389 0 0.123664187920988 -0.45090286319719031 0 0.11912125653385421 -0.4478459008034682 0 0.1180743835098429 -0.45366890095397389 0 0.11912125653385421 -0.4478459008034682 0 0.1136022782695799 -0.44742130317391171 0 0.1076115864021023 -0.45423533281110651 0 0.1136022782695799 -0.44742130317391171 0 0.1076115864021023 -0.45423533281110651 0 0.096470986310285778 -0.45144027092791811 0 0.091210722984200313 -0.43432675414129829 0 0.1076115864021023 -0.45423533281110651 0 0.091210722984200313 -0.43432675414129829 0 0.1076115864021023 -0.45423533281110651 0 0.091210722984200313 -0.43432675414129829 0 0.1053107531192774 -0.43399756375962723 0 0.1076115864021023 -0.45423533281110651 0 0.1136022782695799 -0.44742130317391171 0 0.1053107531192774 -0.43399756375962723 0 0.096470986310285778 -0.45144027092791811 0 0.087036814067601054 -0.45433420343180131 0 0.091210722984200313 -0.43432675414129829 0 0.087036814067601054 -0.45433420343180131 0 0.07502122646380685 -0.44658390852658458 0 0.091210722984200313 -0.43432675414129829 0 0.07502122646380685 -0.44658390852658458 0 0.068768022043018379 -0.43702468635584302 0 0.091210722984200313 -0.43432675414129829 0 0.083953380486034443 -0.46943057691963952 0 0.1000248217872392 -0.46286479332746672 0 0.087036814067601054 -0.45433420343180131 0 0.083953380486034443 -0.46943057691963952 0 0.087036814067601054 -0.45433420343180131 0 0.074136419714120466 -0.45947481661499689 0 0.087036814067601054 -0.45433420343180131 0 0.074136419714120466 -0.45947481661499689 0 0.07502122646380685 -0.44658390852658458 0 0.083953380486034443 -0.46943057691963952 0 0.074136419714120466 -0.45947481661499689 0 0.057511247689566232 -0.46894643066800112 0 0.074136419714120466 -0.45947481661499689 0 0.06479534053000284 -0.45974793432000688 0 0.057511247689566232 -0.46894643066800112 0 0.074136419714120466 -0.45947481661499689 0 0.06479534053000284 -0.45974793432000688 0 0.067330913755229718 -0.45225480803382279 0 0.06479534053000284 -0.45974793432000688 0 0.067330913755229718 -0.45225480803382279 0 0.060202780961094937 -0.45831568196320682 0 0.067330913755229718 -0.45225480803382279 0 0.060497294088998732 -0.45272763285661771 0 0.060202780961094937 -0.45831568196320682 0 0.067330913755229718 -0.45225480803382279 0 0.07502122646380685 -0.44658390852658458 0 0.060176437074896713 -0.44322433466295719 0 0.067330913755229718 -0.45225480803382279 0 0.060176437074896713 -0.44322433466295719 0 0.060497294088998732 -0.45272763285661771 0 0.07502122646380685 -0.44658390852658458 0 0.068768022043018379 -0.43702468635584302 0 0.060176437074896713 -0.44322433466295719 0 0.074136419714120466 -0.45947481661499689 0 0.067330913755229718 -0.45225480803382279 0 0.07502122646380685 -0.44658390852658458 0 0.068768022043018379 -0.43702468635584302 0 0.070174666125718821 -0.42652362337055549 0 0.051713494190332131 -0.4291024268734997 0 0.068768022043018379 -0.43702468635584302 0 0.070174666125718821 -0.42652362337055549 0 0.091210722984200313 -0.43432675414129829 0 0.074809859566298292 -0.41441817547149012 0 0.064757211187772626 -0.40221552881903788 0 0.05571302704587433 -0.40482467093747337 0 0.070174666125718821 -0.42652362337055549 0 0.074809859566298292 -0.41441817547149012 0 0.061721507222729177 -0.42062246471686909 0 0.074809859566298292 -0.41441817547149012 0 0.064757211187772626 -0.40221552881903788 0 0.074809859566298292 -0.41441817547149012 0 0.079110447144144058 -0.40278909948349201 0 0.064757211187772626 -0.40221552881903788 0 0.074809859566298292 -0.41441817547149012 0 0.096313012502267883 -0.41614086804777012 0 0.079110447144144058 -0.40278909948349201 0 0.074809859566298292 -0.41441817547149012 0 0.091210722984200313 -0.43432675414129829 0 0.096313012502267883 -0.41614086804777012 0 0.074809859566298292 -0.41441817547149012 0 0.096313012502267883 -0.41614086804777012 0 0.074809859566298292 -0.41441817547149012 0 0.091210722984200313 -0.43432675414129829 0 0.070174666125718821 -0.42652362337055549 0 0.074809859566298292 -0.41441817547149012 0 0.091210722984200313 -0.43432675414129829 0 0.1053107531192774 -0.43399756375962723 0 0.1178161654382375 -0.41786356062405022 0 0.096313012502267883 -0.41614086804777012 0 0.091210722984200313 -0.43432675414129829 0 0.1053107531192774 -0.43399756375962723 0 0.096313012502267883 -0.41614086804777012 0 0.1136022782695799 -0.44742130317391171 0 0.1230413639816082 -0.43668494563581539 0 0.1178161654382375 -0.41786356062405022 0 0.12932814441001131 -0.41878582540875581 0 0.1230413639816082 -0.43668494563581539 0 0.1178161654382375 -0.41786356062405022 0 0.1136022782695799 -0.44742130317391171 0 0.1053107531192774 -0.43399756375962723 0 0.1178161654382375 -0.41786356062405022 0 0.1136022782695799 -0.44742130317391171 0 0.1178161654382375 -0.41786356062405022 0 0.12932814441001131 -0.41878582540875581 0 0.1178161654382375 -0.41786356062405022 0 0.125130390185476 -0.40623122613194529 0 0.12932814441001131 -0.41878582540875581 0 0.1178161654382375 -0.41786356062405022 0 0.1178161654382375 -0.41786356062405022 0 0.096313012502267883 -0.41614086804777012 0 0.1178161654382375 -0.41786356062405022 0 0.096313012502267883 -0.41614086804777012 0 0.1061174895388878 -0.40245443748958981 0 0.096313012502267883 -0.41614086804777012 0 0.1061174895388878 -0.40245443748958981 0 0.088736874075010158 -0.39223928156537502 0 0.1061174895388878 -0.40245443748958981 0 0.1031104004961783 -0.38874724555508572 0 0.088736874075010158 -0.39223928156537502 0 0.1178161654382375 -0.41786356062405022 0 0.12127911239061651 -0.39357318682290388 0 0.1061174895388878 -0.40245443748958981 0 0.12127911239061651 -0.39357318682290388 0 0.1031104004961783 -0.38874724555508572 0 0.125130390185476 -0.40623122613194529 0 0.1178161654382375 -0.41786356062405022 0 0.12127911239061651 -0.39357318682290388 0 0.1178161654382375 -0.41786356062405022 0 0.1061174895388878 -0.40245443748958981 0 0.12127911239061651 -0.39357318682290388 0 0.12828327019429181 -0.39904323640082773 0 0.125130390185476 -0.40623122613194529 0 0.12127911239061651 -0.39357318682290388 0 0.12127911239061651 -0.39357318682290388 0 0.1157209211003153 -0.38035524822790018 0 0.1031104004961783 -0.38874724555508572 0 0.1031104004961783 -0.38874724555508572 0 0.088736874075010158 -0.39223928156537502 0 0.09267424630210333 -0.36879977492488081 0 0.1157209211003153 -0.38035524822790018 0 0.1031104004961783 -0.38874724555508572 0 0.09267424630210333 -0.36879977492488081 0 0.088736874075010158 -0.39223928156537502 0 0.076828007485388899 -0.37616871870402557 0 0.09267424630210333 -0.36879977492488081 0 0.088736874075010158 -0.39223928156537502 0 0.076828007485388899 -0.37616871870402557 0 0.070935278389371609 -0.38893164351378651 0 0.096313012502267883 -0.41614086804777012 0 0.088736874075010158 -0.39223928156537502 0 0.079110447144144058 -0.40278909948349201 0 0.088736874075010158 -0.39223928156537502 0 0.079110447144144058 -0.40278909948349201 0 0.070935278389371609 -0.38893164351378651 0 0.079110447144144058 -0.40278909948349201 0 0.064757211187772626 -0.40221552881903788 0 0.070935278389371609 -0.38893164351378651 0 0.064757211187772626 -0.40221552881903788 0 0.070935278389371609 -0.38893164351378651 0 0.054704562809245169 -0.39001288216658719 0 0.070935278389371609 -0.38893164351378651 0 0.054704562809245169 -0.39001288216658719 0 0.06216606715656784 -0.37362859189422409 0 0.076828007485388899 -0.37616871870402557 0 0.070935278389371609 -0.38893164351378651 0 0.06216606715656784 -0.37362859189422409 0 0.0473116695134186 -0.38103884256713028 0 0.054704562809245169 -0.39001288216658719 0 0.06216606715656784 -0.37362859189422409 0 0.0473116695134186 -0.38103884256713028 0 0.048749839260993452 -0.39674223785953061 0 0.054704562809245169 -0.39001288216658719 0 0.06216606715656784 -0.37362859189422409 0 0.0473116695134186 -0.38103884256713028 0 0.054704562809245169 -0.39001288216658719 0 0.048749839260993452 -0.39674223785953061 0 0.0473116695134186 -0.38103884256713028 0 0.054704562809245169 -0.39001288216658719 0 0.048749839260993452 -0.39674223785953061 0 0.050188009008567243 -0.41244563315193089 0 0.05571302704587433 -0.40482467093747337 0 0.048749839260993452 -0.39674223785953061 0 0.050188009008567243 -0.41244563315193089 0 0.064757211187772626 -0.40221552881903788 0 0.054704562809245169 -0.39001288216658719 0 0.051873004897280438 -0.39623053809668868 0 0.064757211187772626 -0.40221552881903788 0 0.054704562809245169 -0.39001288216658719 0 0.064757211187772626 -0.40221552881903788 0 0.05571302704587433 -0.40482467093747337 0 0.051873004897280438 -0.39623053809668868 0 0.05571302704587433 -0.40482467093747337 0 0.051873004897280438 -0.39623053809668868 0 0.048749839260993452 -0.39674223785953061 0 0.054704562809245169 -0.39001288216658719 0 0.051873004897280438 -0.39623053809668868 0 0.054704562809245169 -0.39001288216658719 0 0.051873004897280438 -0.39623053809668868 0 0.048749839260993452 -0.39674223785953061 0 0.048749839260993452 -0.39674223785953061 0 0.041155325268192322 -0.40385196962213282 0 0.050188009008567243 -0.41244563315193089 0 0.0473116695134186 -0.38103884256713028 0 0.048749839260993452 -0.39674223785953061 0 0.037278870043799407 -0.39551952057401968 0 0.048749839260993452 -0.39674223785953061 0 0.041155325268192322 -0.40385196962213282 0 0.037278870043799407 -0.39551952057401968 0 0.041155325268192322 -0.40385196962213282 0 0.037278870043799407 -0.39551952057401968 0 0.028404582759408679 -0.41070048690305011 0 0.037278870043799407 -0.39551952057401968 0 0.03589401572514532 -0.37980061049829872 0 0.022787841576168099 -0.37509621500615842 0 0.0473116695134186 -0.38103884256713028 0 0.037278870043799407 -0.39551952057401968 0 0.03589401572514532 -0.37980061049829872 0 0.0473116695134186 -0.38103884256713028 0 0.03589401572514532 -0.37980061049829872 0 0.036197681767195559 -0.36754786384588622 0 0.022787841576168099 -0.37509621500615842 0 0.0074722142940108396 -0.37805269558291138 0 0.020835441276539361 -0.3978999313015697 0 0.037278870043799407 -0.39551952057401968 0 0.022787841576168099 -0.37509621500615842 0 0.037278870043799407 -0.39551952057401968 0 0.022787841576168099 -0.37509621500615842 0 0.020835441276539361 -0.3978999313015697 0 0.0074722142940108396 -0.37805269558291138 0 0.0079172350038417393 -0.39449841479751269 0 0.020835441276539361 -0.3978999313015697 0 0.0074722142940108396 -0.37805269558291138 0 0.020835441276539361 -0.3978999313015697 0 -0.003259872065433636 -0.39308569165140339 0 0.0074722142940108396 -0.37805269558291138 0 0.0079172350038417393 -0.39449841479751269 0 -0.003259872065433636 -0.39308569165140339 0 0.0079172350038417393 -0.39449841479751269 0 0.0066211565102503971 -0.40895534065416661 0 0.0079172350038417393 -0.39449841479751269 0 0.020835441276539361 -0.3978999313015697 0 0.0066211565102503971 -0.40895534065416661 0 0.037278870043799407 -0.39551952057401968 0 0.020835441276539361 -0.3978999313015697 0 0.028404582759408679 -0.41070048690305011 0 0.020835441276539361 -0.3978999313015697 0 0.028404582759408679 -0.41070048690305011 0 0.0066211565102503971 -0.40895534065416661 0 0.028404582759408679 -0.41070048690305011 0 0.013342025263345551 -0.41606880419866099 0 0.0066211565102503971 -0.40895534065416661 0 0.028404582759408679 -0.41070048690305011 0 0.0066211565102503971 -0.40895534065416661 0 0.028404582759408679 -0.41070048690305011 0 0.021938360862234659 -0.41690999447748772 0 0.031258308282738442 -0.42165993288725467 0 0.028404582759408679 -0.41070048690305011 0 0.021938360862234659 -0.41690999447748772 0 0.013342025263345551 -0.41606880419866099 0 0.021938360862234659 -0.41690999447748772 0 0.013342025263345551 -0.41606880419866099 0 0.01259307316826018 -0.42432886300992578 0 -0.002285203373328108 -0.42102840908881828 0 0.013342025263345551 -0.41606880419866099 0 0.01259307316826018 -0.42432886300992578 0 -0.002285203373328108 -0.42102840908881828 0 0.013342025263345551 -0.41606880419866099 0 0.0066211565102503971 -0.40895534065416661 0 -0.0090122328767619497 -0.43758507999149487 0 0.010591862992251601 -0.43484662377235328 0 -0.002285203373328108 -0.42102840908881828 0 0.010591862992251601 -0.43484662377235328 0 -0.002285203373328108 -0.42102840908881828 0 0.01259307316826018 -0.42432886300992578 0 0.010591862992251601 -0.43484662377235328 0 0.01259307316826018 -0.42432886300992578 0 0.010591862992251601 -0.43484662377235328 0 0.01965924190184597 -0.43358002008238028 0 0.010591862992251601 -0.43484662377235328 0 0.01965924190184597 -0.43358002008238028 0 0.01965924190184597 -0.43358002008238028 0 0.035686368046089129 -0.43134122347794068 0 0.02868383050804706 -0.43969836447532312 0 0.021938360862234659 -0.41690999447748772 0 0.01965924190184597 -0.43358002008238028 0 0.021938360862234659 -0.41690999447748772 0 0.01965924190184597 -0.43358002008238028 0 0.031258308282738442 -0.42165993288725467 0 0.01965924190184597 -0.43358002008238028 0 0.035686368046089129 -0.43134122347794068 0 0.031258308282738442 -0.42165993288725467 0 0.010591862992251601 -0.43484662377235328 0 0.01965924190184597 -0.43358002008238028 0 0.0183481340880161 -0.44316977875985059 0 0.021938360862234659 -0.41690999447748772 0 0.01259307316826018 -0.42432886300992578 0 0.01965924190184597 -0.43358002008238028 0 0.01965924190184597 -0.43358002008238028 0 0.035686368046089129 -0.43134122347794068 0 0.035686368046089129 -0.43134122347794068 0 0.051713494190332131 -0.4291024268734997 0 0.042081116812643787 -0.44391003137194829 0 0.035686368046089129 -0.43134122347794068 0 0.051713494190332131 -0.4291024268734997 0 0.035686368046089129 -0.43134122347794068 0 0.040572882977219359 -0.42116921805001228 0 0.051713494190332131 -0.4291024268734997 0 0.035686368046089129 -0.43134122347794068 0 0.031258308282738442 -0.42165993288725467 0 0.040572882977219359 -0.42116921805001228 0 0.028404582759408679 -0.41070048690305011 0 0.050188009008567243 -0.41244563315193089 0 0.041155325268192322 -0.40385196962213282 0 0.028404582759408679 -0.41070048690305011 0 0.050188009008567243 -0.41244563315193089 0 0.028404582759408679 -0.41070048690305011 0 0.031258308282738442 -0.42165993288725467 0 0.040572882977219359 -0.42116921805001228 0 0.028404582759408679 -0.41070048690305011 0 0.040572882977219359 -0.42116921805001228 0 0.050188009008567243 -0.41244563315193089 0 0.050188009008567243 -0.41244563315193089 0 0.051713494190332131 -0.4291024268734997 0 0.074809859566298292 -0.41441817547149012 0 0.05571302704587433 -0.40482467093747337 0 0.050188009008567243 -0.41244563315193089 0 0.074809859566298292 -0.41441817547149012 0 0.050188009008567243 -0.41244563315193089 0 0.050188009008567243 -0.41244563315193089 0 0.061721507222729177 -0.42062246471686909 0 0.051713494190332131 -0.4291024268734997 0 0.040572882977219359 -0.42116921805001228 0 0.050188009008567243 -0.41244563315193089 0 0.051713494190332131 -0.4291024268734997 0 0.074809859566298292 -0.41441817547149012 0 0.050188009008567243 -0.41244563315193089 0 0.061721507222729177 -0.42062246471686909 0 0.070174666125718821 -0.42652362337055549 0 0.051713494190332131 -0.4291024268734997 0 0.070174666125718821 -0.42652362337055549 0 0.061721507222729177 -0.42062246471686909 0 0.051713494190332131 -0.4291024268734997 0 0.068768022043018379 -0.43702468635584302 0 0.051713494190332131 -0.4291024268734997 0 0.060176437074896713 -0.44322433466295719 0 0.051713494190332131 -0.4291024268734997 0 0.054279044564771173 -0.45711570676648428 0 0.051713494190332131 -0.4291024268734997 0 0.054279044564771173 -0.45711570676648428 0 0.042081116812643787 -0.44391003137194829 0 0.051713494190332131 -0.4291024268734997 0 0.060176437074896713 -0.44322433466295719 0 0.054279044564771173 -0.45711570676648428 0 0.060176437074896713 -0.44322433466295719 0 0.060497294088998732 -0.45272763285661771 0 0.054279044564771173 -0.45711570676648428 0 0.060202780961094937 -0.45831568196320682 0 0.054279044564771173 -0.45711570676648428 0 0.060497294088998732 -0.45272763285661771 0 0.060202780961094937 -0.45831568196320682 0 0.054279044564771173 -0.45711570676648428 0 0.060202780961094937 -0.45831568196320682 0 0.054279044564771173 -0.45711570676648428 0 0.057511247689566232 -0.46894643066800112 0 0.06479534053000284 -0.45974793432000688 0 0.060202780961094937 -0.45831568196320682 0 0.057511247689566232 -0.46894643066800112 0 0.054279044564771173 -0.45711570676648428 0 0.026007241833358171 -0.45138866900276731 0 0.04139295299070004 -0.46789887822241127 0 0.026007241833358171 -0.45138866900276731 0 0.027484216239126641 -0.4652059863147926 0 0.04139295299070004 -0.46789887822241127 0 0.026007241833358171 -0.45138866900276731 0 0.054279044564771173 -0.45711570676648428 0 0.04139295299070004 -0.46789887822241127 0 0.026007241833358171 -0.45138866900276731 0 0.054279044564771173 -0.45711570676648428 0 0.042081116812643787 -0.44391003137194829 0 0.026007241833358171 -0.45138866900276731 0 0.042081116812643787 -0.44391003137194829 0 0.02868383050804706 -0.43969836447532312 0 0.026007241833358171 -0.45138866900276731 0 0.035686368046089129 -0.43134122347794068 0 0.042081116812643787 -0.44391003137194829 0 0.02868383050804706 -0.43969836447532312 0 0.02868383050804706 -0.43969836447532312 0 0.026007241833358171 -0.45138866900276731 0 0.0183481340880161 -0.44316977875985059 0 0.026007241833358171 -0.45138866900276731 0 0.01746113838765409 -0.44965747917977911 0 0.026007241833358171 -0.45138866900276731 0 0.0183481340880161 -0.44316977875985059 0 0.026007241833358171 -0.45138866900276731 0 0.01746113838765409 -0.44965747917977911 0 0.0183481340880161 -0.44316977875985059 0 0.01746113838765409 -0.44965747917977911 0 0.0183481340880161 -0.44316977875985059 0 0.01965924190184597 -0.43358002008238028 0 0.0183481340880161 -0.44316977875985059 0 0.01965924190184597 -0.43358002008238028 0 0.02868383050804706 -0.43969836447532312 0 0.0183481340880161 -0.44316977875985059 0 -0.005577595179060809 -0.44499050769520798 0 0.010591862992251601 -0.43484662377235328 0 0.01746113838765409 -0.44965747917977911 0 -0.005577595179060809 -0.44499050769520798 0 0.01746113838765409 -0.44965747917977911 0 0.0028291302825320728 -0.45876387370612298 0 -0.005577595179060809 -0.44499050769520798 0 0.01746113838765409 -0.44965747917977911 0 0.010591862992251601 -0.43484662377235328 0 0.01746113838765409 -0.44965747917977911 0 0.0183481340880161 -0.44316977875985059 0 0.010591862992251601 -0.43484662377235328 0 0.0183481340880161 -0.44316977875985059 0 0.01746113838765409 -0.44965747917977911 0 0.0028291302825320728 -0.45876387370612298 0 0.01401973414405658 -0.47482873958988919 0 -0.0035289706845435449 -0.47124467642878848 0 0.0028291302825320728 -0.45876387370612298 0 0.01401973414405658 -0.47482873958988919 0 0.01746113838765409 -0.44965747917977911 0 0.01401973414405658 -0.47482873958988919 0 0.01746113838765409 -0.44965747917977911 0 0.027484216239126641 -0.4652059863147926 0 0.01401973414405658 -0.47482873958988919 0 0.026007241833358171 -0.45138866900276731 0 0.01746113838765409 -0.44965747917977911 0 0.027484216239126641 -0.4652059863147926 0 0.027484216239126641 -0.4652059863147926 0 0.01401973414405658 -0.47482873958988919 0 0.038540013839862712 -0.4822561655791176 0 -0.0035289706845435449 -0.47124467642878848 0 0.01401973414405658 -0.47482873958988919 0 0.001175748076098193 -0.48555418352193808 0 0.01401973414405658 -0.47482873958988919 0 0.001175748076098193 -0.48555418352193808 0 0.01057832990045816 -0.4999999999999995 0 0.01401973414405658 -0.47482873958988919 0 0.01057832990045816 -0.4999999999999995 0 -0.0021207346619387391 -0.49999999999999961 0 0.001175748076098193 -0.48555418352193808 0 0.01057832990045816 -0.4999999999999995 0 0.01401973414405658 -0.47482873958988919 0 0.034392431124498968 -0.5 0 0.038540013839862712 -0.4822561655791176 0 0.01401973414405658 -0.47482873958988919 0 0.01057832990045816 -0.4999999999999995 0 0.034392431124498968 -0.5 0 0.034392431124498968 -0.5 0 0.038540013839862712 -0.4822561655791176 0 0.058206532348539702 -0.50000000000000244 0 0.04139295299070004 -0.46789887822241127 0 0.027484216239126641 -0.4652059863147926 0 0.038540013839862712 -0.4822561655791176 0 0.04139295299070004 -0.46789887822241127 0 0.038540013839862712 -0.4822561655791176 0 0.056778664148039712 -0.48440908744205741 0 0.054279044564771173 -0.45711570676648428 0 0.057511247689566232 -0.46894643066800112 0 0.056778664148039712 -0.48440908744205741 0 0.054279044564771173 -0.45711570676648428 0 0.04139295299070004 -0.46789887822241127 0 0.056778664148039712 -0.48440908744205741 0 0.054279044564771173 -0.45711570676648428 0 0.056778664148039712 -0.48440908744205741 0 0.04139295299070004 -0.46789887822241127 0 0.056778664148039712 -0.48440908744205741 0 0.070087242354017323 -0.48068336972469961 0 0.057511247689566232 -0.46894643066800112 0 0.056778664148039712 -0.48440908744205741 0 0.038540013839862712 -0.4822561655791176 0 0.056778664148039712 -0.48440908744205741 0 0.058206532348539702 -0.50000000000000244 0 0.056778664148039712 -0.48440908744205741 0 0.062133969487522228 -0.49015579688471711 0 0.058206532348539702 -0.50000000000000244 0 0.056778664148039712 -0.48440908744205741 0 0.062133969487522228 -0.49015579688471711 0 0.056778664148039712 -0.48440908744205741 0 0.058206532348539702 -0.50000000000000244 0 0.092846321440614971 -0.29273393359868799 0 0.092357168972804007 -0.27027890884325251 0 0.091505452835862477 -0.2825207245446178 0 0.092846321440614971 -0.29273393359868799 0 0.092357168972804007 -0.27027890884325251 0 0.082758343948641788 -0.2892011837020142 0 0.084070733579261703 -0.29826775051847992 0 0.075656461515145601 -0.30231499996449279 0 0.082758343948641788 -0.2892011837020142 0 0.07081601980559836 -0.2855683457230479 0 0.08083520083936728 -0.27530034832676431 0 0.082758343948641788 -0.2892011837020142 0 0.091505452835862477 -0.2825207245446178 0 0.08083520083936728 -0.27530034832676431 0 0.082758343948641788 -0.2892011837020142 0 0.091505452835862477 -0.2825207245446178 0 0.092846321440614971 -0.29273393359868799 0 0.082758343948641788 -0.2892011837020142 0 0.092846321440614971 -0.29273393359868799 0 0.084070733579261703 -0.29826775051847992 0 0.092846321440614971 -0.29273393359868799 0 0.092880280234862361 -0.31515728855883612 0 0.084772751429226245 -0.30726977368883629 0 0.077121225098625235 -0.31168057684658401 0 0.092880280234862361 -0.31515728855883612 0 0.092846321440614971 -0.29273393359868799 0 0.084772751429226245 -0.30726977368883629 0 0.092880280234862361 -0.31515728855883612 0 0.092846321440614971 -0.29273393359868799 0 0.084772751429226245 -0.30726977368883629 0 0.084070733579261703 -0.29826775051847992 0 0.084772751429226245 -0.30726977368883629 0 0.075656461515145601 -0.30231499996449279 0 0.077121225098625235 -0.31168057684658401 0 0.084772751429226245 -0.30726977368883629 0 0.084070733579261703 -0.29826775051847992 0 0.075656461515145601 -0.30231499996449279 0 0.075656461515145601 -0.30231499996449279 0 0.077121225098625235 -0.31168057684658401 0 0.060978257271283053 -0.31017325429112808 0 0.075656461515145601 -0.30231499996449279 0 0.065402478343309367 -0.29757510710614199 0 0.060978257271283053 -0.31017325429112808 0 0.082758343948641788 -0.2892011837020142 0 0.075656461515145601 -0.30231499996449279 0 0.07081601980559836 -0.2855683457230479 0 0.065402478343309367 -0.29757510710614199 0 0.07081601980559836 -0.2855683457230479 0 0.05415917478121049 -0.29224382844589908 0 0.075656461515145601 -0.30231499996449279 0 0.065402478343309367 -0.29757510710614199 0 0.07081601980559836 -0.2855683457230479 0 0.07081601980559836 -0.2855683457230479 0 0.071738500833000721 -0.26617685341580882 0 0.08083520083936728 -0.27530034832676431 0 0.07081601980559836 -0.2855683457230479 0 0.071738500833000721 -0.26617685341580882 0 0.060676267733221642 -0.27623882641986541 0 0.071738500833000721 -0.26617685341580882 0 0.057992510048195958 -0.25746532976577868 0 0.060676267733221642 -0.27623882641986541 0 0.071738500833000721 -0.26617685341580882 0 0.077223338902591948 -0.2527121843264914 0 0.057992510048195958 -0.25746532976577868 0 0.077223338902591948 -0.2527121843264914 0 0.057992510048195958 -0.25746532976577868 0 0.067566341853016507 -0.2408697871219001 0 0.071738500833000721 -0.26617685341580882 0 0.077223338902591948 -0.2527121843264914 0 0.082976154604450569 -0.26588757067149749 0 0.093578279611430365 -0.25272774274380522 0 0.092357168972804007 -0.27027890884325251 0 0.077223338902591948 -0.2527121843264914 0 0.093578279611430365 -0.25272774274380522 0 0.082976154604450569 -0.26588757067149749 0 0.093578279611430365 -0.25272774274380522 0 0.082976154604450569 -0.26588757067149749 0 0.092357168972804007 -0.27027890884325251 0 0.091505452835862477 -0.2825207245446178 0 0.08083520083936728 -0.27530034832676431 0 0.082976154604450569 -0.26588757067149749 0 0.091505452835862477 -0.2825207245446178 0 0.082976154604450569 -0.26588757067149749 0 0.092357168972804007 -0.27027890884325251 0 0.071738500833000721 -0.26617685341580882 0 0.08083520083936728 -0.27530034832676431 0 0.082976154604450569 -0.26588757067149749 0 0.091505452835862477 -0.2825207245446178 0 0.092357168972804007 -0.27027890884325251 0 0.092357168972804007 -0.27027890884325251 0 0.10609972953607261 -0.27026493425997822 0 0.10199045983390261 -0.28161929198119873 0 0.092357168972804007 -0.27027890884325251 0 0.10609972953607261 -0.27026493425997822 0 0.1026211418963886 -0.25966686954472118 0 0.10609972953607261 -0.27026493425997822 0 0.1127247407701476 -0.28161560459483292 0 0.10199045983390261 -0.28161929198119873 0 0.093578279611430365 -0.25272774274380522 0 0.092357168972804007 -0.27027890884325251 0 0.1026211418963886 -0.25966686954472118 0 0.093578279611430365 -0.25272774274380522 0 0.1026211418963886 -0.25966686954472118 0 0.1069214286544353 -0.24535777194678091 0 0.10609972953607261 -0.27026493425997822 0 0.1026211418963886 -0.25966686954472118 0 0.11369390903363651 -0.25967332013450212 0 0.1026211418963886 -0.25966686954472118 0 0.11369390903363651 -0.25967332013450212 0 0.1069214286544353 -0.24535777194678091 0 0.11369390903363651 -0.25967332013450212 0 0.1224052182762337 -0.24746994087236879 0 0.1069214286544353 -0.24535777194678091 0 0.11369390903363651 -0.25967332013450212 0 0.1245898803102246 -0.25859373775762762 0 0.1175882542522228 -0.27034127858094709 0 0.11369390903363651 -0.25967332013450212 0 0.1245898803102246 -0.25859373775762762 0 0.1224052182762337 -0.24746994087236879 0 0.10609972953607261 -0.27026493425997822 0 0.1175882542522228 -0.27034127858094709 0 0.1127247407701476 -0.28161560459483292 0 0.10609972953607261 -0.27026493425997822 0 0.11369390903363651 -0.25967332013450212 0 0.1175882542522228 -0.27034127858094709 0 0.1288563768323259 -0.2695457617500755 0 0.1175882542522228 -0.27034127858094709 0 0.1226880249071774 -0.2797686671778018 0 0.1288563768323259 -0.2695457617500755 0 0.1245898803102246 -0.25859373775762762 0 0.1175882542522228 -0.27034127858094709 0 0.1175882542522228 -0.27034127858094709 0 0.1226880249071774 -0.2797686671778018 0 0.1127247407701476 -0.28161560459483292 0 0.1226880249071774 -0.2797686671778018 0 0.11975871269048451 -0.2924514282965619 0 0.1127247407701476 -0.28161560459483292 0 0.11975871269048451 -0.2924514282965619 0 0.1127247407701476 -0.28161560459483292 0 0.10581307131072221 -0.29339205484975511 0 0.1127247407701476 -0.28161560459483292 0 0.10199045983390261 -0.28161929198119873 0 0.10581307131072221 -0.29339205484975511 0 0.092846321440614971 -0.29273393359868799 0 0.092357168972804007 -0.27027890884325251 0 0.10199045983390261 -0.28161929198119873 0 0.092846321440614971 -0.29273393359868799 0 0.10581307131072221 -0.29339205484975511 0 0.1006699382244659 -0.30234650747845238 0 0.092846321440614971 -0.29273393359868799 0 0.10199045983390261 -0.28161929198119873 0 0.10581307131072221 -0.29339205484975511 0 0.092846321440614971 -0.29273393359868799 0 0.1006699382244659 -0.30234650747845238 0 0.092880280234862361 -0.31515728855883612 0 0.1006699382244659 -0.30234650747845238 0 0.11114007991166421 -0.30810275290653072 0 0.092880280234862361 -0.31515728855883612 0 0.11114007991166421 -0.30810275290653072 0 0.092880280234862361 -0.31515728855883612 0 0.10581307131072221 -0.29339205484975511 0 0.1006699382244659 -0.30234650747845238 0 0.11114007991166421 -0.30810275290653072 0 0.12939987958846499 -0.30104821725422282 0 0.11114007991166421 -0.30810275290653072 0 0.12939987958846499 -0.30104821725422282 0 0.11114007991166421 -0.30810275290653072 0 0.12336036326408149 -0.31727952510539542 0 0.12939987958846499 -0.30104821725422282 0 0.11975871269048451 -0.2924514282965619 0 0.11114007991166421 -0.30810275290653072 0 0.11975871269048451 -0.2924514282965619 0 0.10581307131072221 -0.29339205484975511 0 0.11114007991166421 -0.30810275290653072 0 0.12336036326408149 -0.31727952510539542 0 0.1173208469396987 -0.33351083295656841 0 0.106328987150591 -0.32325921308637762 0 0.12336036326408149 -0.31727952510539542 0 0.1173208469396987 -0.33351083295656841 0 0.11114007991166421 -0.30810275290653072 0 0.12336036326408149 -0.31727952510539542 0 0.106328987150591 -0.32325921308637762 0 0.1267773170918127 -0.32793770643083259 0 0.12336036326408149 -0.31727952510539542 0 0.1173208469396987 -0.33351083295656841 0 0.1309625065958904 -0.33698580710867321 0 0.1173208469396987 -0.33351083295656841 0 0.11981630243200241 -0.34670221186904848 0 0.1173208469396987 -0.33351083295656841 0 0.1053968912477358 -0.33857568961036649 0 0.11981630243200241 -0.34670221186904848 0 0.1173208469396987 -0.33351083295656841 0 0.1053968912477358 -0.33857568961036649 0 0.106328987150591 -0.32325921308637762 0 0.1053968912477358 -0.33857568961036649 0 0.092927996728337861 -0.34666499943050549 0 0.092904138481599716 -0.33091114399467081 0 0.1053968912477358 -0.33857568961036649 0 0.106328987150591 -0.32325921308637762 0 0.092904138481599716 -0.33091114399467081 0 0.106328987150591 -0.32325921308637762 0 0.092880280234862361 -0.31515728855883612 0 0.092904138481599716 -0.33091114399467081 0 0.11114007991166421 -0.30810275290653072 0 0.106328987150591 -0.32325921308637762 0 0.092880280234862361 -0.31515728855883612 0 0.12614331543758381 -0.36930267957049101 0 0.12047723202667419 -0.35870304346200699 0 0.1086171091027391 -0.36065093233995121 0 0.12614331543758381 -0.36930267957049101 0 0.1086171091027391 -0.36065093233995121 0 0.12614331543758381 -0.36930267957049101 0 0.1157209211003153 -0.38035524822790018 0 0.1086171091027391 -0.36065093233995121 0 0.12047723202667419 -0.35870304346200699 0 0.11981630243200241 -0.34670221186904848 0 0.1087441069245756 -0.3492827144326211 0 0.12047723202667419 -0.35870304346200699 0 0.1087441069245756 -0.3492827144326211 0 0.1086171091027391 -0.36065093233995121 0 0.12975083983729241 -0.3605742752065062 0 0.12047723202667419 -0.35870304346200699 0 0.11981630243200241 -0.34670221186904848 0 0.1053968912477358 -0.33857568961036649 0 0.11981630243200241 -0.34670221186904848 0 0.1087441069245756 -0.3492827144326211 0 0.1053968912477358 -0.33857568961036649 0 0.1087441069245756 -0.3492827144326211 0 0.092927996728337861 -0.34666499943050549 0 0.1087441069245756 -0.3492827144326211 0 0.1086171091027391 -0.36065093233995121 0 0.092927996728337861 -0.34666499943050549 0 0.1086171091027391 -0.36065093233995121 0 0.09267424630210333 -0.36879977492488081 0 0.092927996728337861 -0.34666499943050549 0 0.1157209211003153 -0.38035524822790018 0 0.09267424630210333 -0.36879977492488081 0 0.1157209211003153 -0.38035524822790018 0 0.1086171091027391 -0.36065093233995121 0 0.09267424630210333 -0.36879977492488081 0 0.076828007485388899 -0.37616871870402557 0 0.09267424630210333 -0.36879977492488081 0 0.069627571503891539 -0.35724430162186138 0 0.09267424630210333 -0.36879977492488081 0 0.069627571503891539 -0.35724430162186138 0 0.09267424630210333 -0.36879977492488081 0 0.083123490392890007 -0.35329616463277508 0 0.069627571503891539 -0.35724430162186138 0 0.09267424630210333 -0.36879977492488081 0 0.092927996728337861 -0.34666499943050549 0 0.083123490392890007 -0.35329616463277508 0 0.092927996728337861 -0.34666499943050549 0 0.083123490392890007 -0.35329616463277508 0 0.077264147037227324 -0.3404755825538528 0 0.083123490392890007 -0.35329616463277508 0 0.069627571503891539 -0.35724430162186138 0 0.077264147037227324 -0.3404755825538528 0 0.069627571503891539 -0.35724430162186138 0 0.077264147037227324 -0.3404755825538528 0 0.069627571503891539 -0.35724430162186138 0 0.062525460494438287 -0.3441407301706077 0 0.077264147037227324 -0.3404755825538528 0 0.069627571503891539 -0.35724430162186138 0 0.06216606715656784 -0.37362859189422409 0 0.076828007485388899 -0.37616871870402557 0 0.069627571503891539 -0.35724430162186138 0 0.06216606715656784 -0.37362859189422409 0 0.077121225098625235 -0.31168057684658401 0 0.092880280234862361 -0.31515728855883612 0 0.071318375042608934 -0.32348756772962678 0 0.092880280234862361 -0.31515728855883612 0 0.084900722570563109 -0.3237068634858441 0 0.092904138481599716 -0.33091114399467081 0 0.092880280234862361 -0.31515728855883612 0 0.071318375042608934 -0.32348756772962678 0 0.092880280234862361 -0.31515728855883612 0 0.084900722570563109 -0.3237068634858441 0 0.071318375042608934 -0.32348756772962678 0 0.092880280234862361 -0.31515728855883612 0 0.092904138481599716 -0.33091114399467081 0 0.084900722570563109 -0.3237068634858441 0 0.092904138481599716 -0.33091114399467081 0 0.077264147037227324 -0.3404755825538528 0 0.092927996728337861 -0.34666499943050549 0 0.092904138481599716 -0.33091114399467081 0 0.077264147037227324 -0.3404755825538528 0 0.092927996728337861 -0.34666499943050549 0 0.092904138481599716 -0.33091114399467081 0 0.084900722570563109 -0.3237068634858441 0 0.077264147037227324 -0.3404755825538528 0 0.062525460494438287 -0.3441407301706077 0 0.077264147037227324 -0.3404755825538528 0 0.059256573233775783 -0.33447154496799392 0 0.077264147037227324 -0.3404755825538528 0 0.071318375042608934 -0.32348756772962678 0 0.059256573233775783 -0.33447154496799392 0 0.084900722570563109 -0.3237068634858441 0 0.077264147037227324 -0.3404755825538528 0 0.071318375042608934 -0.32348756772962678 0 0.077121225098625235 -0.31168057684658401 0 0.071318375042608934 -0.32348756772962678 0 0.060978257271283053 -0.31017325429112808 0 0.071318375042608934 -0.32348756772962678 0 0.055128513871181437 -0.32280213198322483 0 0.060978257271283053 -0.31017325429112808 0 0.071318375042608934 -0.32348756772962678 0 0.055128513871181437 -0.32280213198322483 0 0.059256573233775783 -0.33447154496799392 0 0.055128513871181437 -0.32280213198322483 0 0.043265156175825062 -0.31540398167146177 0 0.060978257271283053 -0.31017325429112808 0 0.055128513871181437 -0.32280213198322483 0 0.042622199075013717 -0.32983445022713309 0 0.043265156175825062 -0.31540398167146177 0 0.059256573233775783 -0.33447154496799392 0 0.042622199075013717 -0.32983445022713309 0 0.043953550202859487 -0.34437149153872088 0 0.062525460494438287 -0.3441407301706077 0 0.059256573233775783 -0.33447154496799392 0 0.043953550202859487 -0.34437149153872088 0 0.055128513871181437 -0.32280213198322483 0 0.059256573233775783 -0.33447154496799392 0 0.042622199075013717 -0.32983445022713309 0 0.042622199075013717 -0.32983445022713309 0 0.032371137570447531 -0.33856413489702819 0 0.043953550202859487 -0.34437149153872088 0 0.042622199075013717 -0.32983445022713309 0 0.043953550202859487 -0.34437149153872088 0 0.032371137570447531 -0.33856413489702819 0 0.043953550202859487 -0.34437149153872088 0 0.043265156175825062 -0.31540398167146177 0 0.026161553421197279 -0.32171523698361743 0 0.02966069833158707 -0.30678539725278592 0 0.042622199075013717 -0.32983445022713309 0 0.032371137570447531 -0.33856413489702819 0 0.043265156175825062 -0.31540398167146177 0 0.032371137570447531 -0.33856413489702819 0 0.043265156175825062 -0.31540398167146177 0 0.026161553421197279 -0.32171523698361743 0 0.032371137570447531 -0.33856413489702819 0 0.043265156175825062 -0.31540398167146177 0 0.0473116695134186 -0.38103884256713028 0 0.06216606715656784 -0.37362859189422409 0 0.045632609858139897 -0.3627051670529256 0 0.069627571503891539 -0.35724430162186138 0 0.06216606715656784 -0.37362859189422409 0 0.045632609858139897 -0.3627051670529256 0 0.069627571503891539 -0.35724430162186138 0 0.043953550202859487 -0.34437149153872088 0 0.045632609858139897 -0.3627051670529256 0 0.069627571503891539 -0.35724430162186138 0 0.062525460494438287 -0.3441407301706077 0 0.043953550202859487 -0.34437149153872088 0 0.069627571503891539 -0.35724430162186138 0 0.043953550202859487 -0.34437149153872088 0 0.032371137570447531 -0.33856413489702819 0 0.043953550202859487 -0.34437149153872088 0 0.036548924337243251 -0.35421754008756701 0 0.043953550202859487 -0.34437149153872088 0 0.045632609858139897 -0.3627051670529256 0 0.032371137570447531 -0.33856413489702819 0 0.036548924337243251 -0.35421754008756701 0 0.0250836940209733 -0.35405688512464129 0 0.043953550202859487 -0.34437149153872088 0 0.036548924337243251 -0.35421754008756701 0 0.045632609858139897 -0.3627051670529256 0 0.036548924337243251 -0.35421754008756701 0 0.036197681767195559 -0.36754786384588622 0 0.0250836940209733 -0.35405688512464129 0 0.0473116695134186 -0.38103884256713028 0 0.045632609858139897 -0.3627051670529256 0 0.036197681767195559 -0.36754786384588622 0 0.0473116695134186 -0.38103884256713028 0 0.045632609858139897 -0.3627051670529256 0 0.036548924337243251 -0.35421754008756701 0 0.045632609858139897 -0.3627051670529256 0 0.036197681767195559 -0.36754786384588622 0 0.03589401572514532 -0.37980061049829872 0 0.022787841576168099 -0.37509621500615842 0 0.036197681767195559 -0.36754786384588622 0 0.0473116695134186 -0.38103884256713028 0 0.036197681767195559 -0.36754786384588622 0 0.022787841576168099 -0.37509621500615842 0 0.021242148652574872 -0.36222382356837668 0 0.0082968131085368151 -0.35467290943829721 0 0.022787841576168099 -0.37509621500615842 0 0.036197681767195559 -0.36754786384588622 0 0.021242148652574872 -0.36222382356837668 0 0.036197681767195559 -0.36754786384588622 0 0.0250836940209733 -0.35405688512464129 0 0.036197681767195559 -0.36754786384588622 0 0.021242148652574872 -0.36222382356837668 0 0.0250836940209733 -0.35405688512464129 0 0.021242148652574872 -0.36222382356837668 0 0.0250836940209733 -0.35405688512464129 0 0.021242148652574872 -0.36222382356837668 0 0.0250836940209733 -0.35405688512464129 0 0.01688344929065827 -0.35140168020259982 0 0.032371137570447531 -0.33856413489702819 0 0.0250836940209733 -0.35405688512464129 0 0.024411485243943931 -0.34352959648175868 0 0.032371137570447531 -0.33856413489702819 0 0.0250836940209733 -0.35405688512464129 0 0.0250836940209733 -0.35405688512464129 0 0.01688344929065827 -0.35140168020259982 0 0.024411485243943931 -0.34352959648175868 0 0.01688344929065827 -0.35140168020259982 0 0.024411485243943931 -0.34352959648175868 0 0.01441460389107831 -0.34320618505482953 0 -0.0061942153590944342 -0.3342496038704359 0 0.0082968131085368151 -0.35467290943829721 0 0.0082968131085368151 -0.35467290943829721 0 0.0075969955087246722 -0.33864679812252979 0 0.0027171044227525189 -0.33950663027710132 0 0.0082968131085368151 -0.35467290943829721 0 0.01441460389107831 -0.34320618505482953 0 0.0075969955087246722 -0.33864679812252979 0 0.01688344929065827 -0.35140168020259982 0 0.0082968131085368151 -0.35467290943829721 0 0.01441460389107831 -0.34320618505482953 0 0.021242148652574872 -0.36222382356837668 0 0.01688344929065827 -0.35140168020259982 0 0.0082968131085368151 -0.35467290943829721 0 0.022787841576168099 -0.37509621500615842 0 0.0074722142940108396 -0.37805269558291138 0 0.0082968131085368151 -0.35467290943829721 0 0.022787841576168099 -0.37509621500615842 0 0.0082968131085368151 -0.35467290943829721 0 -0.005891012688517723 -0.35820545986425312 0 0.0074722142940108396 -0.37805269558291138 0 0.0082968131085368151 -0.35467290943829721 0 -0.005891012688517723 -0.35820545986425312 0 0.0074722142940108396 -0.37805269558291138 0 0.01651888345525436 -0.31691865541228847 0 0.026161553421197279 -0.32171523698361743 0 0.015075042499540611 -0.32989196997135911 0 0.01651888345525436 -0.31691865541228847 0 0.026161553421197279 -0.32171523698361743 0 0.02966069833158707 -0.30678539725278592 0 0.032371137570447531 -0.33856413489702819 0 0.026161553421197279 -0.32171523698361743 0 0.015075042499540611 -0.32989196997135911 0 0.032371137570447531 -0.33856413489702819 0 0.015075042499540611 -0.32989196997135911 0 0.032371137570447531 -0.33856413489702819 0 0.024411485243943931 -0.34352959648175868 0 0.015075042499540611 -0.32989196997135911 0 0.024411485243943931 -0.34352959648175868 0 0.015075042499540611 -0.32989196997135911 0 0.01441460389107831 -0.34320618505482953 0 -0.0061942153590944342 -0.3342496038704359 0 0.0082968131085368151 -0.35467290943829721 0 0.0027171044227525189 -0.33950663027710132 0 0.015075042499540611 -0.32989196997135911 0 0.0075969955087246722 -0.33864679812252979 0 0.001168824432842991 -0.33045720967714221 0 0.015075042499540611 -0.32989196997135911 0 0.01441460389107831 -0.34320618505482953 0 0.0075969955087246722 -0.33864679812252979 0 0.0075969955087246722 -0.33864679812252979 0 0.0027171044227525189 -0.33950663027710132 0 0.001168824432842991 -0.33045720967714221 0 -0.0022210525713660619 -0.32121980504568931 0 0.01651888345525436 -0.31691865541228847 0 0.015075042499540611 -0.32989196997135911 0 -0.0022210525713660619 -0.32121980504568931 0 0.015075042499540611 -0.32989196997135911 0 -0.0022210525713660619 -0.32121980504568931 0 -0.0052544135516779328 -0.31969889488692221 0 0.0139181755953133 -0.30498086780799027 0 -0.0022210525713660619 -0.32121980504568931 0 0.01651888345525436 -0.31691865541228847 0 0.0139181755953133 -0.30498086780799027 0 -0.0022210525713660619 -0.32121980504568931 0 0.0139181755953133 -0.30498086780799027 0 -0.0022210525713660619 -0.32121980504568931 0 0.015075042499540611 -0.32989196997135911 0 0.001168824432842991 -0.33045720967714221 0 -0.0036000506603035519 -0.29408482094543792 0 -0.0052544135516779328 -0.31969889488692221 0 0.0139181755953133 -0.30498086780799027 0 -0.0036000506603035519 -0.29408482094543792 0 0.015290363523017681 -0.28832677687415331 0 0.01160607113429483 -0.27983882489219408 0 -0.0036000506603035519 -0.29408482094543792 0 0.0139181755953133 -0.30498086780799027 0 0.015290363523017681 -0.28832677687415331 0 -0.0036000506603035519 -0.29408482094543792 0 0.01160607113429483 -0.27983882489219408 0 0.0068445872669037136 -0.27132600848816218 0 0.0139181755953133 -0.30498086780799027 0 0.03005740376199471 -0.28874193057029351 0 0.0139181755953133 -0.30498086780799027 0 0.015290363523017681 -0.28832677687415331 0 0.03005740376199471 -0.28874193057029351 0 0.015290363523017681 -0.28832677687415331 0 0.03005740376199471 -0.28874193057029351 0 0.024284008101106189 -0.27504217203493259 0 0.01651888345525436 -0.31691865541228847 0 0.0139181755953133 -0.30498086780799027 0 0.02966069833158707 -0.30678539725278592 0 0.0139181755953133 -0.30498086780799027 0 0.03005740376199471 -0.28874193057029351 0 0.02966069833158707 -0.30678539725278592 0 0.043265156175825062 -0.31540398167146177 0 0.02966069833158707 -0.30678539725278592 0 0.05415917478121049 -0.29224382844589908 0 0.03005740376199471 -0.28874193057029351 0 0.05415917478121049 -0.29224382844589908 0 0.046196631928676138 -0.27250299333259659 0 0.03005740376199471 -0.28874193057029351 0 0.02966069833158707 -0.30678539725278592 0 0.05415917478121049 -0.29224382844589908 0 0.07081601980559836 -0.2855683457230479 0 0.05415917478121049 -0.29224382844589908 0 0.060676267733221642 -0.27623882641986541 0 0.043265156175825062 -0.31540398167146177 0 0.05415917478121049 -0.29224382844589908 0 0.043265156175825062 -0.31540398167146177 0 0.05415917478121049 -0.29224382844589908 0 0.060978257271283053 -0.31017325429112808 0 0.065402478343309367 -0.29757510710614199 0 0.05415917478121049 -0.29224382844589908 0 0.060978257271283053 -0.31017325429112808 0 0.057992510048195958 -0.25746532976577868 0 0.046196631928676138 -0.27250299333259659 0 0.0429607568692294 -0.25641018460610449 0 0.057992510048195958 -0.25746532976577868 0 0.0429607568692294 -0.25641018460610449 0 0.049725976381606807 -0.24578893790694459 0 0.057992510048195958 -0.25746532976577868 0 0.060676267733221642 -0.27623882641986541 0 0.046196631928676138 -0.27250299333259659 0 0.05415917478121049 -0.29224382844589908 0 0.060676267733221642 -0.27623882641986541 0 0.046196631928676138 -0.27250299333259659 0 0.03005740376199471 -0.28874193057029351 0 0.046196631928676138 -0.27250299333259659 0 0.024284008101106189 -0.27504217203493259 0 0.03005740376199471 -0.28874193057029351 0 0.046196631928676138 -0.27250299333259659 0 0.046196631928676138 -0.27250299333259659 0 0.032665146478496103 -0.26269680356640868 0 0.024284008101106189 -0.27504217203493259 0 0.046196631928676138 -0.27250299333259659 0 0.032665146478496103 -0.26269680356640868 0 0.0429607568692294 -0.25641018460610449 0 0.032665146478496103 -0.26269680356640868 0 0.0429607568692294 -0.25641018460610449 0 0.031783808530893499 -0.25372773659761783 0 0.0429607568692294 -0.25641018460610449 0 0.031783808530893499 -0.25372773659761783 0 0.037117111341344863 -0.24741624819472799 0 0.032665146478496103 -0.26269680356640868 0 0.031783808530893499 -0.25372773659761783 0 0.020781790506379839 -0.25552367306019957 0 0.031783808530893499 -0.25372773659761783 0 0.020781790506379839 -0.25552367306019957 0 0.024598975454080289 -0.24689816072733231 0 0.032665146478496103 -0.26269680356640868 0 0.021165133039852041 -0.26499337542207341 0 0.020781790506379839 -0.25552367306019957 0 0.021165133039852041 -0.26499337542207341 0 0.020781790506379839 -0.25552367306019957 0 0.012883272672527989 -0.26128988233054118 0 0.021165133039852041 -0.26499337542207341 0 0.015211447440750101 -0.27041434611828508 0 0.012883272672527989 -0.26128988233054118 0 0.020781790506379839 -0.25552367306019957 0 0.01162436083497506 -0.2518744513653472 0 0.01577573045445094 -0.2429652994235818 0 0.032665146478496103 -0.26269680356640868 0 0.021165133039852041 -0.26499337542207341 0 0.024284008101106189 -0.27504217203493259 0 0.021165133039852041 -0.26499337542207341 0 0.024284008101106189 -0.27504217203493259 0 0.015211447440750101 -0.27041434611828508 0 0.024284008101106189 -0.27504217203493259 0 0.01160607113429483 -0.27983882489219408 0 0.015211447440750101 -0.27041434611828508 0 0.015290363523017681 -0.28832677687415331 0 0.024284008101106189 -0.27504217203493259 0 0.01160607113429483 -0.27983882489219408 0 -0.0036000506603035519 -0.29408482094543792 0 -0.001945687768929825 -0.26847074700395329 0 0.0068445872669037136 -0.27132600848816218 0 0.01160607113429483 -0.27983882489219408 0 0.015211447440750101 -0.27041434611828508 0 0.0068445872669037136 -0.27132600848816218 0 0.015211447440750101 -0.27041434611828508 0 0.0068445872669037136 -0.27132600848816218 0 0.007057689407819547 -0.26555049077263188 0 0.015211447440750101 -0.27041434611828508 0 0.012883272672527989 -0.26128988233054118 0 0.007057689407819547 -0.26555049077263188 0 -0.001945687768929825 -0.26847074700395329 0 0.00192333823438529 -0.2632535055597901 0 0.007057689407819547 -0.26555049077263188 0 -0.001945687768929825 -0.26847074700395329 0 0.0068445872669037136 -0.27132600848816218 0 0.007057689407819547 -0.26555049077263188 0 -0.001945687768929825 -0.26847074700395329 0 0.0068445872669037136 -0.27132600848816218 0 0.00192333823438529 -0.2632535055597901 0 0.0071165205243126544 -0.25687589348258122 0 0.00207560332451072 -0.24231303762551121 0 -0.0013499795393466961 -0.2592475501348519 0 0.00192333823438529 -0.2632535055597901 0 0.00207560332451072 -0.24231303762551121 0 0.00192333823438529 -0.2632535055597901 0 0.00207560332451072 -0.24231303762551121 0 0.01162436083497506 -0.2518744513653472 0 0.012883272672527989 -0.26128988233054118 0 0.0071165205243126544 -0.25687589348258122 0 0.020781790506379839 -0.25552367306019957 0 0.01162436083497506 -0.2518744513653472 0 0.012883272672527989 -0.26128988233054118 0 0.012883272672527989 -0.26128988233054118 0 0.007057689407819547 -0.26555049077263188 0 0.0071165205243126544 -0.25687589348258122 0 0.00192333823438529 -0.2632535055597901 0 0.007057689407819547 -0.26555049077263188 0 0.0071165205243126544 -0.25687589348258122 0 0.01162436083497506 -0.2518744513653472 0 0.0071165205243126544 -0.25687589348258122 0 0.00207560332451072 -0.24231303762551121 0 0.01162436083497506 -0.2518744513653472 0 0.00207560332451072 -0.24231303762551121 0 0.01577573045445094 -0.2429652994235818 0 0.00207560332451072 -0.24231303762551121 0 0.0092965904572848059 -0.23484827834910429 0 0.01577573045445094 -0.2429652994235818 0 0.0092965904572848059 -0.23484827834910429 0 0.01577573045445094 -0.2429652994235818 0 0.019672489877989481 -0.23439440894298069 0 0.0022278684146351522 -0.22137256969123209 0 0.022981693636105329 -0.22062122688343061 0 0.019672489877989481 -0.23439440894298069 0 0.0092965904572848059 -0.23484827834910429 0 0.0022278684146351522 -0.22137256969123209 0 0.019672489877989481 -0.23439440894298069 0 0.00207560332451072 -0.24231303762551121 0 0.0092965904572848059 -0.23484827834910429 0 0.0022278684146351522 -0.22137256969123209 0 0.00207560332451072 -0.24231303762551121 0 0.0022278684146351522 -0.22137256969123209 0 0.0022278684146351522 -0.22137256969123209 0 0.019672489877989481 -0.23439440894298069 0 0.022981693636105329 -0.22062122688343061 0 0.019672489877989481 -0.23439440894298069 0 0.032942904111859059 -0.23696012836389649 0 0.022981693636105329 -0.22062122688343061 0 0.032942904111859059 -0.23696012836389649 0 0.037059527420981557 -0.21905088632048511 0 0.019672489877989481 -0.23439440894298069 0 0.037117111341344863 -0.24741624819472799 0 0.019672489877989481 -0.23439440894298069 0 0.037117111341344863 -0.24741624819472799 0 0.032942904111859059 -0.23696012836389649 0 0.024598975454080289 -0.24689816072733231 0 0.019672489877989481 -0.23439440894298069 0 0.037117111341344863 -0.24741624819472799 0 0.031783808530893499 -0.25372773659761783 0 0.024598975454080289 -0.24689816072733231 0 0.037117111341344863 -0.24741624819472799 0 0.020781790506379839 -0.25552367306019957 0 0.024598975454080289 -0.24689816072733231 0 0.01577573045445094 -0.2429652994235818 0 0.024598975454080289 -0.24689816072733231 0 0.01577573045445094 -0.2429652994235818 0 0.019672489877989481 -0.23439440894298069 0 0.011739434620925131 -0.18936526409111551 0 0.0024102953517908042 -0.19628405186558409 0 0.012939438483818179 -0.1983989224454771 0 0.0024102953517908042 -0.19628405186558409 0 0.012939438483818179 -0.1983989224454771 0 0.01499768524840181 -0.2089205011100729 0 0.0022278684146351522 -0.22137256969123209 0 0.022981693636105329 -0.22062122688343061 0 0.01499768524840181 -0.2089205011100729 0 0.0022278684146351522 -0.22137256969123209 0 0.0024102953517908042 -0.19628405186558409 0 0.0022278684146351522 -0.22137256969123209 0 0.0024102953517908042 -0.19628405186558409 0 0.01499768524840181 -0.2089205011100729 0 0.022981693636105329 -0.22062122688343061 0 0.01499768524840181 -0.2089205011100729 0 0.029904073938466669 -0.20797838670647889 0 0.022981693636105329 -0.22062122688343061 0 0.029904073938466669 -0.20797838670647889 0 0.037059527420981557 -0.21905088632048511 0 0.01499768524840181 -0.2089205011100729 0 0.029904073938466669 -0.20797838670647889 0 0.026457792675514499 -0.1952534541840947 0 0.012939438483818179 -0.1983989224454771 0 0.01499768524840181 -0.2089205011100729 0 0.026457792675514499 -0.1952534541840947 0 0.026457792675514499 -0.1952534541840947 0 0.032073054836970018 -0.1877919054722966 0 0.02260414066723293 -0.18725508933248769 0 0.011739434620925131 -0.18936526409111551 0 0.026457792675514499 -0.1952534541840947 0 0.02260414066723293 -0.18725508933248769 0 0.011739434620925131 -0.18936526409111551 0 0.026457792675514499 -0.1952534541840947 0 0.011739434620925131 -0.18936526409111551 0 0.012939438483818179 -0.1983989224454771 0 0.026457792675514499 -0.1952534541840947 0 0.041176150730104027 -0.20114164427707371 0 0.03780555687963387 -0.1854897053058765 0 0.044992967693991068 -0.18453670044114151 0 0.032073054836970018 -0.1877919054722966 0 0.041176150730104027 -0.20114164427707371 0 0.03780555687963387 -0.1854897053058765 0 0.041176150730104027 -0.20114164427707371 0 0.053645755123758167 -0.2061302035159342 0 0.044992967693991068 -0.18453670044114151 0 0.041176150730104027 -0.20114164427707371 0 0.044992967693991068 -0.18453670044114151 0 0.026457792675514499 -0.1952534541840947 0 0.032073054836970018 -0.1877919054722966 0 0.041176150730104027 -0.20114164427707371 0 0.029904073938466669 -0.20797838670647889 0 0.026457792675514499 -0.1952534541840947 0 0.041176150730104027 -0.20114164427707371 0 0.026457792675514499 -0.1952534541840947 0 0.041176150730104027 -0.20114164427707371 0 0.041176150730104027 -0.20114164427707371 0 0.049474116446135287 -0.21788126575220049 0 0.037059527420981557 -0.21905088632048511 0 0.041176150730104027 -0.20114164427707371 0 0.037059527420981557 -0.21905088632048511 0 0.029904073938466669 -0.20797838670647889 0 0.041176150730104027 -0.20114164427707371 0 0.037059527420981557 -0.21905088632048511 0 0.053645755123758167 -0.2061302035159342 0 0.060606048488387868 -0.2234999953189169 0 0.041176150730104027 -0.20114164427707371 0 0.049474116446135287 -0.21788126575220049 0 0.053645755123758167 -0.2061302035159342 0 0.049474116446135287 -0.21788126575220049 0 0.053645755123758167 -0.2061302035159342 0 0.060606048488387868 -0.2234999953189169 0 0.041176150730104027 -0.20114164427707371 0 0.053645755123758167 -0.2061302035159342 0 0.053645755123758167 -0.2061302035159342 0 0.05799625265385254 -0.19185651286245611 0 0.044992967693991068 -0.18453670044114151 0 0.053645755123758167 -0.2061302035159342 0 0.044992967693991068 -0.18453670044114151 0 0.042342594013298117 -0.23880770881336441 0 0.032942904111859059 -0.23696012836389649 0 0.042439137231366011 -0.2292928716379477 0 0.0429607568692294 -0.25641018460610449 0 0.037117111341344863 -0.24741624819472799 0 0.049725976381606807 -0.24578893790694459 0 0.042342594013298117 -0.23880770881336441 0 0.037117111341344863 -0.24741624819472799 0 0.049725976381606807 -0.24578893790694459 0 0.042342594013298117 -0.23880770881336441 0 0.037117111341344863 -0.24741624819472799 0 0.032942904111859059 -0.23696012836389649 0 0.032942904111859059 -0.23696012836389649 0 0.037059527420981557 -0.21905088632048511 0 0.032942904111859059 -0.23696012836389649 0 0.037059527420981557 -0.21905088632048511 0 0.042439137231366011 -0.2292928716379477 0 0.049474116446135287 -0.21788126575220049 0 0.037059527420981557 -0.21905088632048511 0 0.042439137231366011 -0.2292928716379477 0 0.042342594013298117 -0.23880770881336441 0 0.042439137231366011 -0.2292928716379477 0 0.051265247328798183 -0.2329483799162789 0 0.051265247328798183 -0.2329483799162789 0 0.060606048488387868 -0.2234999953189169 0 0.067566341853016507 -0.2408697871219001 0 0.049474116446135287 -0.21788126575220049 0 0.042439137231366011 -0.2292928716379477 0 0.051265247328798183 -0.2329483799162789 0 0.049474116446135287 -0.21788126575220049 0 0.051265247328798183 -0.2329483799162789 0 0.060606048488387868 -0.2234999953189169 0 0.051265247328798183 -0.2329483799162789 0 0.049725976381606807 -0.24578893790694459 0 0.067566341853016507 -0.2408697871219001 0 0.057992510048195958 -0.25746532976577868 0 0.049725976381606807 -0.24578893790694459 0 0.067566341853016507 -0.2408697871219001 0 0.042342594013298117 -0.23880770881336441 0 0.051265247328798183 -0.2329483799162789 0 0.049725976381606807 -0.24578893790694459 0 0.067566341853016507 -0.2408697871219001 0 0.081708517562946947 -0.23940547519345609 0 0.073601781645054196 -0.22837187641002901 0 0.077223338902591948 -0.2527121843264914 0 0.067566341853016507 -0.2408697871219001 0 0.081708517562946947 -0.23940547519345609 0 0.093578279611430365 -0.25272774274380522 0 0.081708517562946947 -0.23940547519345609 0 0.095651106386999973 -0.22293476094299261 0 0.077223338902591948 -0.2527121843264914 0 0.093578279611430365 -0.25272774274380522 0 0.081708517562946947 -0.23940547519345609 0 0.073601781645054196 -0.22837187641002901 0 0.074648430755379025 -0.2145324822294635 0 0.095651106386999973 -0.22293476094299261 0 0.081708517562946947 -0.23940547519345609 0 0.073601781645054196 -0.22837187641002901 0 0.095651106386999973 -0.22293476094299261 0 0.060606048488387868 -0.2234999953189169 0 0.067566341853016507 -0.2408697871219001 0 0.073601781645054196 -0.22837187641002901 0 0.060606048488387868 -0.2234999953189169 0 0.067566341853016507 -0.2408697871219001 0 0.060606048488387868 -0.2234999953189169 0 0.073601781645054196 -0.22837187641002901 0 0.074648430755379025 -0.2145324822294635 0 0.053645755123758167 -0.2061302035159342 0 0.060606048488387868 -0.2234999953189169 0 0.074648430755379025 -0.2145324822294635 0 0.053645755123758167 -0.2061302035159342 0 0.074648430755379025 -0.2145324822294635 0 0.079282126348336715 -0.19974959575262941 0 0.053645755123758167 -0.2061302035159342 0 0.074648430755379025 -0.2145324822294635 0 0.05799625265385254 -0.19185651286245611 0 0.079282126348336715 -0.19974959575262941 0 0.071798386893944979 -0.18618499066387231 0 0.053645755123758167 -0.2061302035159342 0 0.05799625265385254 -0.19185651286245611 0 0.079282126348336715 -0.19974959575262941 0 0.079282126348336715 -0.19974959575262941 0 0.097871662420328645 -0.19101844923354561 0 0.071798386893944979 -0.18618499066387231 0 0.079282126348336715 -0.19974959575262941 0 0.097871662420328645 -0.19101844923354561 0 0.094768961292634915 -0.20015309400940809 0 0.087031069455204529 -0.18772288166490869 0 0.097871662420328645 -0.19101844923354561 0 0.071798386893944979 -0.18618499066387231 0 0.097871662420328645 -0.19101844923354561 0 0.071798386893944979 -0.18618499066387231 0 0.088320890094516102 -0.20745372436028309 0 0.097253825689229079 -0.19989868886692219 0 0.094768961292634915 -0.20015309400940809 0 0.079282126348336715 -0.19974959575262941 0 0.088320890094516102 -0.20745372436028309 0 0.094768961292634915 -0.20015309400940809 0 0.074648430755379025 -0.2145324822294635 0 0.088320890094516102 -0.20745372436028309 0 0.095651106386999973 -0.22293476094299261 0 0.088320890094516102 -0.20745372436028309 0 0.097253825689229079 -0.19989868886692219 0 0.095651106386999973 -0.22293476094299261 0 0.074648430755379025 -0.2145324822294635 0 0.095651106386999973 -0.22293476094299261 0 0.074648430755379025 -0.2145324822294635 0 0.079282126348336715 -0.19974959575262941 0 0.088320890094516102 -0.20745372436028309 0 0.097253825689229079 -0.19989868886692219 0 0.11023467005157279 -0.21237561252810269 0 0.095651106386999973 -0.22293476094299261 0 0.097253825689229079 -0.19989868886692219 0 0.095651106386999973 -0.22293476094299261 0 0.097253825689229079 -0.19989868886692219 0 0.12143599976831219 -0.19742287189649671 0 0.097253825689229079 -0.19989868886692219 0 0.1032241908002547 -0.19201069986739261 0 0.12143599976831219 -0.19742287189649671 0 0.087031069455204529 -0.18772288166490869 0 0.097871662420328645 -0.19101844923354561 0 0.098193808692145862 -0.18638820317210611 0 0.097871662420328645 -0.19101844923354561 0 0.097253825689229079 -0.19989868886692219 0 0.1032241908002547 -0.19201069986739261 0 0.097871662420328645 -0.19101844923354561 0 0.098193808692145862 -0.18638820317210611 0 0.097871662420328645 -0.19101844923354561 0 0.1032241908002547 -0.19201069986739261 0 0.098193808692145862 -0.18638820317210611 0 0.097871662420328645 -0.19101844923354561 0 0.1032241908002547 -0.19201069986739261 0 0.097871662420328645 -0.19101844923354561 0 0.097253825689229079 -0.19989868886692219 0 0.094768961292634915 -0.20015309400940809 0 0.097871662420328645 -0.19101844923354561 0 0.097253825689229079 -0.19989868886692219 0 0.097253825689229079 -0.19989868886692219 0 0.094768961292634915 -0.20015309400940809 0 0.1032241908002547 -0.19201069986739261 0 0.12143599976831219 -0.19742287189649671 0 0.1239636128173006 -0.18330702366951579 0 0.12143599976831219 -0.19742287189649671 0 0.11023467005157279 -0.21237561252810269 0 0.1353895578685973 -0.21437637252844141 0 0.097253825689229079 -0.19989868886692219 0 0.12143599976831219 -0.19742287189649671 0 0.11023467005157279 -0.21237561252810269 0 0.11023467005157279 -0.21237561252810269 0 0.1135112540669537 -0.23007984765974429 0 0.1353895578685973 -0.21437637252844141 0 0.1135112540669537 -0.23007984765974429 0 0.1224052182762337 -0.24746994087236879 0 0.1069214286544353 -0.24535777194678091 0 0.1135112540669537 -0.23007984765974429 0 0.1224052182762337 -0.24746994087236879 0 0.13295340379124021 -0.23611156067439579 0 0.093578279611430365 -0.25272774274380522 0 0.095651106386999973 -0.22293476094299261 0 0.093578279611430365 -0.25272774274380522 0 0.1069214286544353 -0.24535777194678091 0 0.095651106386999973 -0.22293476094299261 0 0.1135112540669537 -0.23007984765974429 0 0.1069214286544353 -0.24535777194678091 0 0.095651106386999973 -0.22293476094299261 0 0.11023467005157279 -0.21237561252810269 0 0.1135112540669537 -0.23007984765974429 0 0.095651106386999973 -0.22293476094299261 0 0.1135112540669537 -0.23007984765974429 0 0.095651106386999973 -0.22293476094299261 0 0.1055063076622703 -0.14869257150210741 0 0.099923802565797637 -0.16152279878783549 0 0.093568820428786142 -0.1442900094456703 0 0.1055063076622703 -0.14869257150210741 0 0.1199774048008859 -0.1518246264036438 0 0.099923802565797637 -0.16152279878783549 0 0.1055063076622703 -0.14869257150210741 0 0.1085552028536118 -0.1371328513712799 0 0.093568820428786142 -0.1442900094456703 0 0.096740449229263753 -0.1261362836634943 0 0.1085552028536118 -0.1371328513712799 0 0.093568820428786142 -0.1442900094456703 0 0.1085552028536118 -0.1371328513712799 0 0.1248974087783342 -0.1344038613932082 0 0.1228594994384777 -0.11216250567778779 0 0.096740449229263753 -0.1261362836634943 0 0.1085552028536118 -0.1371328513712799 0 0.1228594994384777 -0.11216250567778779 0 0.1085552028536118 -0.1371328513712799 0 0.1248974087783342 -0.1344038613932082 0 0.1199774048008859 -0.1518246264036438 0 0.1055063076622703 -0.14869257150210741 0 0.1085552028536118 -0.1371328513712799 0 0.1199774048008859 -0.1518246264036438 0 0.1199774048008859 -0.1518246264036438 0 0.1172074244291887 -0.17071274400242811 0 0.13238546620762839 -0.16326162299819899 0 0.1199774048008859 -0.1518246264036438 0 0.1172074244291887 -0.17071274400242811 0 0.099923802565797637 -0.16152279878783549 0 0.1239636128173006 -0.18330702366951579 0 0.1063113649069863 -0.17343369056823421 0 0.098511950942567372 -0.18181550737890109 0 0.1239636128173006 -0.18330702366951579 0 0.098193808692145862 -0.18638820317210611 0 0.1172074244291887 -0.17071274400242811 0 0.1239636128173006 -0.18330702366951579 0 0.1063113649069863 -0.17343369056823421 0 0.1239636128173006 -0.18330702366951579 0 0.098511950942567372 -0.18181550737890109 0 0.098193808692145862 -0.18638820317210611 0 0.1063113649069863 -0.17343369056823421 0 0.098511950942567372 -0.18181550737890109 0 0.099923802565797637 -0.16152279878783549 0 0.1032241908002547 -0.19201069986739261 0 0.1239636128173006 -0.18330702366951579 0 0.098193808692145862 -0.18638820317210611 0 0.087031069455204529 -0.18772288166490869 0 0.098511950942567372 -0.18181550737890109 0 0.098193808692145862 -0.18638820317210611 0 0.098511950942567372 -0.18181550737890109 0 0.098193808692145862 -0.18638820317210611 0 0.1172074244291887 -0.17071274400242811 0 0.1063113649069863 -0.17343369056823421 0 0.099923802565797637 -0.16152279878783549 0 0.098511950942567372 -0.18181550737890109 0 0.099923802565797637 -0.16152279878783549 0 0.099923802565797637 -0.16152279878783549 0 0.078384197856020285 -0.1631807308553653 0 0.081865152220920251 -0.17436884619300921 0 0.099923802565797637 -0.16152279878783549 0 0.078384197856020285 -0.1631807308553653 0 0.084073603286821341 -0.15363732119047019 0 0.087031069455204529 -0.18772288166490869 0 0.098511950942567372 -0.18181550737890109 0 0.081865152220920251 -0.17436884619300921 0 0.098511950942567372 -0.18181550737890109 0 0.081865152220920251 -0.17436884619300921 0 0.098511950942567372 -0.18181550737890109 0 0.099923802565797637 -0.16152279878783549 0 0.081865152220920251 -0.17436884619300921 0 0.087031069455204529 -0.18772288166490869 0 0.098193808692145862 -0.18638820317210611 0 0.087031069455204529 -0.18772288166490869 0 0.071798386893944979 -0.18618499066387231 0 0.077191847619985432 -0.1802808173139524 0 0.087031069455204529 -0.18772288166490869 0 0.081865152220920251 -0.17436884619300921 0 0.077191847619985432 -0.1802808173139524 0 0.071798386893944979 -0.18618499066387231 0 0.077191847619985432 -0.1802808173139524 0 0.068072781909871996 -0.17284655073401931 0 0.081865152220920251 -0.17436884619300921 0 0.077191847619985432 -0.1802808173139524 0 0.068072781909871996 -0.17284655073401931 0 0.071798386893944979 -0.18618499066387231 0 0.068072781909871996 -0.17284655073401931 0 0.058223637493484283 -0.17423725314262689 0 0.078384197856020285 -0.1631807308553653 0 0.081865152220920251 -0.17436884619300921 0 0.065218353499272838 -0.16692218500711781 0 0.081865152220920251 -0.17436884619300921 0 0.068072781909871996 -0.17284655073401931 0 0.065218353499272838 -0.16692218500711781 0 0.081865152220920251 -0.17436884619300921 0 0.065218353499272838 -0.16692218500711781 0 0.078384197856020285 -0.1631807308553653 0 0.069191464132019501 -0.15559793815106029 0 0.084073603286821341 -0.15363732119047019 0 0.078384197856020285 -0.1631807308553653 0 0.065218353499272838 -0.16692218500711781 0 0.069191464132019501 -0.15559793815106029 0 0.068072781909871996 -0.17284655073401931 0 0.065218353499272838 -0.16692218500711781 0 0.058223637493484283 -0.17423725314262689 0 0.068072781909871996 -0.17284655073401931 0 0.065218353499272838 -0.16692218500711781 0 0.065218353499272838 -0.16692218500711781 0 0.069191464132019501 -0.15559793815106029 0 0.054222626666072929 -0.14438335530926111 0 0.064847957682670238 -0.14165543439466011 0 0.069166297267655025 -0.14425682718776581 0 0.069115882663692313 -0.13611025225835419 0 0.069191464132019501 -0.15559793815106029 0 0.062694022643797837 -0.1451949441078085 0 0.069166297267655025 -0.14425682718776581 0 0.064847957682670238 -0.14165543439466011 0 0.062694022643797837 -0.1451949441078085 0 0.069166297267655025 -0.14425682718776581 0 0.064847957682670238 -0.14165543439466011 0 0.062694022643797837 -0.1451949441078085 0 0.061077669960163228 -0.14157955987473689 0 0.069191464132019501 -0.15559793815106029 0 0.069166297267655025 -0.14425682718776581 0 0.07815669276156563 -0.14477255745401821 0 0.069166297267655025 -0.14425682718776581 0 0.07815669276156563 -0.14477255745401821 0 0.069115882663692313 -0.13611025225835419 0 0.069191464132019501 -0.15559793815106029 0 0.084073603286821341 -0.15363732119047019 0 0.07815669276156563 -0.14477255745401821 0 0.099923802565797637 -0.16152279878783549 0 0.084073603286821341 -0.15363732119047019 0 0.093568820428786142 -0.1442900094456703 0 0.084073603286821341 -0.15363732119047019 0 0.07815669276156563 -0.14477255745401821 0 0.093568820428786142 -0.1442900094456703 0 0.07815669276156563 -0.14477255745401821 0 0.093568820428786142 -0.1442900094456703 0 0.081483727782377585 -0.13370628609407781 0 0.096740449229263753 -0.1261362836634943 0 0.081483727782377585 -0.13370628609407781 0 0.078468035540153733 -0.119691177032344 0 0.096740449229263753 -0.1261362836634943 0 0.093568820428786142 -0.1442900094456703 0 0.081483727782377585 -0.13370628609407781 0 0.081483727782377585 -0.13370628609407781 0 0.071462430678860128 -0.12708967450895889 0 0.069115882663692313 -0.13611025225835419 0 0.081483727782377585 -0.13370628609407781 0 0.071462430678860128 -0.12708967450895889 0 0.078468035540153733 -0.119691177032344 0 0.07815669276156563 -0.14477255745401821 0 0.081483727782377585 -0.13370628609407781 0 0.069115882663692313 -0.13611025225835419 0 0.069115882663692313 -0.13611025225835419 0 0.063705212013215259 -0.13389534239860101 0 0.061562634390581267 -0.13820686510034319 0 0.069115882663692313 -0.13611025225835419 0 0.063705212013215259 -0.13389534239860101 0 0.065024284650824979 -0.12926501689672121 0 0.064847957682670238 -0.14165543439466011 0 0.069115882663692313 -0.13611025225835419 0 0.061562634390581267 -0.13820686510034319 0 0.071462430678860128 -0.12708967450895889 0 0.069115882663692313 -0.13611025225835419 0 0.065024284650824979 -0.12926501689672121 0 0.071462430678860128 -0.12708967450895889 0 0.065024284650824979 -0.12926501689672121 0 0.064670263353776528 -0.12479716283724571 0 0.063705212013215259 -0.13389534239860101 0 0.065024284650824979 -0.12926501689672121 0 0.059671118047453828 -0.1316942367510372 0 0.065024284650824979 -0.12926501689672121 0 0.060374050000443519 -0.1275532196661501 0 0.064670263353776528 -0.12479716283724571 0 0.053163921896686978 -0.12981450152049229 0 0.054222626666072929 -0.14438335530926111 0 0.043813798389492113 -0.12249703417094381 0 0.054222626666072929 -0.14438335530926111 0 0.043813798389492113 -0.12249703417094381 0 0.054222626666072929 -0.14438335530926111 0 0.044888353631975332 -0.14051841097890039 0 0.043813798389492113 -0.12249703417094381 0 0.065024284650824979 -0.12926501689672121 0 0.060374050000443519 -0.1275532196661501 0 0.059671118047453828 -0.1316942367510372 0 0.059671118047453828 -0.1316942367510372 0 0.053163921896686978 -0.12981450152049229 0 0.058899041228120147 -0.13541025385304101 0 0.060374050000443519 -0.1275532196661501 0 0.059671118047453828 -0.1316942367510372 0 0.053163921896686978 -0.12981450152049229 0 0.060374050000443519 -0.1275532196661501 0 0.053163921896686978 -0.12981450152049229 0 0.059340662053475331 -0.1221951803252543 0 0.053163921896686978 -0.12981450152049229 0 0.056442263765250057 -0.13867551253172061 0 0.054222626666072929 -0.14438335530926111 0 0.056442263765250057 -0.13867551253172061 0 0.058899041228120147 -0.13541025385304101 0 0.059147082290038067 -0.13949432489331839 0 0.053163921896686978 -0.12981450152049229 0 0.056442263765250057 -0.13867551253172061 0 0.058899041228120147 -0.13541025385304101 0 0.056442263765250057 -0.13867551253172061 0 0.059147082290038067 -0.13949432489331839 0 0.058349772175084719 -0.14223795326128441 0 0.063705212013215259 -0.13389534239860101 0 0.059671118047453828 -0.1316942367510372 0 0.058899041228120147 -0.13541025385304101 0 0.063705212013215259 -0.13389534239860101 0 0.058899041228120147 -0.13541025385304101 0 0.061562634390581267 -0.13820686510034319 0 0.058899041228120147 -0.13541025385304101 0 0.059147082290038067 -0.13949432489331839 0 0.061562634390581267 -0.13820686510034319 0 0.059147082290038067 -0.13949432489331839 0 0.061562634390581267 -0.13820686510034319 0 0.061077669960163228 -0.14157955987473689 0 0.064847957682670238 -0.14165543439466011 0 0.061562634390581267 -0.13820686510034319 0 0.061077669960163228 -0.14157955987473689 0 0.062694022643797837 -0.1451949441078085 0 0.058349772175084719 -0.14223795326128441 0 0.054222626666072929 -0.14438335530926111 0 0.054222626666072929 -0.14438335530926111 0 0.050550095088130853 -0.16036059004815059 0 0.062694022643797837 -0.1451949441078085 0 0.061077669960163228 -0.14157955987473689 0 0.058349772175084719 -0.14223795326128441 0 0.069191464132019501 -0.15559793815106029 0 0.062694022643797837 -0.1451949441078085 0 0.054222626666072929 -0.14438335530926111 0 0.065218353499272838 -0.16692218500711781 0 0.054222626666072929 -0.14438335530926111 0 0.054222626666072929 -0.14438335530926111 0 0.048139432676035217 -0.14822660340045091 0 0.050550095088130853 -0.16036059004815059 0 0.059147082290038067 -0.13949432489331839 0 0.061077669960163228 -0.14157955987473689 0 0.058349772175084719 -0.14223795326128441 0 0.056442263765250057 -0.13867551253172061 0 0.058349772175084719 -0.14223795326128441 0 0.054222626666072929 -0.14438335530926111 0 0.054222626666072929 -0.14438335530926111 0 0.048139432676035217 -0.14822660340045091 0 0.044888353631975332 -0.14051841097890039 0 0.041528495042556672 -0.14798224734717799 0 0.050550095088130853 -0.16036059004815059 0 0.02616273382991904 -0.1494513203714718 0 0.050550095088130853 -0.16036059004815059 0 0.02616273382991904 -0.1494513203714718 0 0.041528495042556672 -0.14798224734717799 0 0.035882315213591608 -0.13971418346772199 0 0.044888353631975332 -0.14051841097890039 0 0.048139432676035217 -0.14822660340045091 0 0.041528495042556672 -0.14798224734717799 0 0.044888353631975332 -0.14051841097890039 0 0.048139432676035217 -0.14822660340045091 0 0.041528495042556672 -0.14798224734717799 0 0.050550095088130853 -0.16036059004815059 0 0.041528495042556672 -0.14798224734717799 0 0.035882315213591608 -0.13971418346772199 0 0.02616273382991904 -0.1494513203714718 0 0.035882315213591608 -0.13971418346772199 0 0.044888353631975332 -0.14051841097890039 0 0.043813798389492113 -0.12249703417094381 0 0.02035966690808487 -0.13403304341706221 0 0.043813798389492113 -0.12249703417094381 0 0.035882315213591608 -0.13971418346772199 0 0.02035966690808487 -0.13403304341706221 0 0.043813798389492113 -0.12249703417094381 0 0.071798386893944979 -0.18618499066387231 0 0.045725111367562452 -0.1813515320941938 0 0.05799625265385254 -0.19185651286245611 0 0.071798386893944979 -0.18618499066387231 0 0.045725111367562452 -0.1813515320941938 0 0.071798386893944979 -0.18618499066387231 0 0.058223637493484283 -0.17423725314262689 0 0.045725111367562452 -0.1813515320941938 0 0.058223637493484283 -0.17423725314262689 0 0.050550095088130853 -0.16036059004815059 0 0.045725111367562452 -0.1813515320941938 0 0.05799625265385254 -0.19185651286245611 0 0.045725111367562452 -0.1813515320941938 0 0.044992967693991068 -0.18453670044114151 0 0.050550095088130853 -0.16036059004815059 0 0.045725111367562452 -0.1813515320941938 0 0.065218353499272838 -0.16692218500711781 0 0.054222626666072929 -0.14438335530926111 0 0.050550095088130853 -0.16036059004815059 0 0.065218353499272838 -0.16692218500711781 0 0.058223637493484283 -0.17423725314262689 0 0.050550095088130853 -0.16036059004815059 0 0.065218353499272838 -0.16692218500711781 0 0.050550095088130853 -0.16036059004815059 0 0.050550095088130853 -0.16036059004815059 0 0.037038529733306971 -0.16468596656418241 0 0.04355546042909092 -0.1809493226398757 0 0.050550095088130853 -0.16036059004815059 0 0.037038529733306971 -0.16468596656418241 0 0.02616273382991904 -0.1494513203714718 0 0.031566678318141458 -0.1717350613739351 0 0.037038529733306971 -0.16468596656418241 0 0.025526442574645879 -0.16469522270923859 0 0.031566678318141458 -0.1717350613739351 0 0.037038529733306971 -0.16468596656418241 0 0.04355546042909092 -0.1809493226398757 0 0.04355546042909092 -0.1809493226398757 0 0.020146280535522081 -0.17660973358244381 0 0.050550095088130853 -0.16036059004815059 0 0.04355546042909092 -0.1809493226398757 0 0.045725111367562452 -0.1813515320941938 0 0.037038529733306971 -0.16468596656418241 0 0.04355546042909092 -0.1809493226398757 0 0.03780555687963387 -0.1854897053058765 0 0.04355546042909092 -0.1809493226398757 0 0.020146280535522081 -0.17660973358244381 0 0.031566678318141458 -0.1717350613739351 0 0.04355546042909092 -0.1809493226398757 0 0.020146280535522081 -0.17660973358244381 0 0.03780555687963387 -0.1854897053058765 0 0.04355546042909092 -0.1809493226398757 0 0.044992967693991068 -0.18453670044114151 0 0.04355546042909092 -0.1809493226398757 0 0.045725111367562452 -0.1813515320941938 0 0.044992967693991068 -0.18453670044114151 0 0.04355546042909092 -0.1809493226398757 0 0.044992967693991068 -0.18453670044114151 0 0.04355546042909092 -0.1809493226398757 0 0.045725111367562452 -0.1813515320941938 0 0.045725111367562452 -0.1813515320941938 0 0.044992967693991068 -0.18453670044114151 0 0.032073054836970018 -0.1877919054722966 0 0.03780555687963387 -0.1854897053058765 0 0.020146280535522081 -0.17660973358244381 0 0.011739434620925131 -0.18936526409111551 0 0.02260414066723293 -0.18725508933248769 0 0.020146280535522081 -0.17660973358244381 0 0.032073054836970018 -0.1877919054722966 0 0.02260414066723293 -0.18725508933248769 0 0.020146280535522081 -0.17660973358244381 0 0.020146280535522081 -0.17660973358244381 0 0.025526442574645879 -0.16469522270923859 0 0.016241919636490541 -0.15964169927861541 0 0.031566678318141458 -0.1717350613739351 0 0.020146280535522081 -0.17660973358244381 0 0.025526442574645879 -0.16469522270923859 0 0.037038529733306971 -0.16468596656418241 0 0.025526442574645879 -0.16469522270923859 0 0.02616273382991904 -0.1494513203714718 0 0.025526442574645879 -0.16469522270923859 0 0.016241919636490541 -0.15964169927861541 0 0.02616273382991904 -0.1494513203714718 0 0.002592722288945457 -0.17119553403993629 0 0.002775149226100111 -0.1461070162142882 0 0.002592722288945457 -0.17119553403993629 0 0.0091416165132007926 -0.15602867972450149 0 0.002775149226100111 -0.1461070162142882 0 0.020146280535522081 -0.17660973358244381 0 0.016241919636490541 -0.15964169927861541 0 0.002592722288945457 -0.17119553403993629 0 0.016241919636490541 -0.15964169927861541 0 0.002592722288945457 -0.17119553403993629 0 0.0091416165132007926 -0.15602867972450149 0 0.011739434620925131 -0.18936526409111551 0 0.0024102953517908042 -0.19628405186558409 0 0.002592722288945457 -0.17119553403993629 0 0.011739434620925131 -0.18936526409111551 0 0.020146280535522081 -0.17660973358244381 0 0.002592722288945457 -0.17119553403993629 0 0.0024102953517908042 -0.19628405186558409 0 0.002592722288945457 -0.17119553403993629 0 0.035882315213591608 -0.13971418346772199 0 0.02035966690808487 -0.13403304341706221 0 0.02616273382991904 -0.1494513203714718 0 0.016241919636490541 -0.15964169927861541 0 0.02616273382991904 -0.1494513203714718 0 0.014956674901267069 -0.14717046936516609 0 0.02035966690808487 -0.13403304341706221 0 0.02616273382991904 -0.1494513203714718 0 0.014956674901267069 -0.14717046936516609 0 -0.003094464573322353 -0.14556905266318071 0 0.02035966690808487 -0.13403304341706221 0 0.002775149226100111 -0.1461070162142882 0 0.02035966690808487 -0.13403304341706221 0 0.014956674901267069 -0.14717046936516609 0 0.002775149226100111 -0.1461070162142882 0 0.014956674901267069 -0.14717046936516609 0 0.0091416165132007926 -0.15602867972450149 0 0.002775149226100111 -0.1461070162142882 0 0.016241919636490541 -0.15964169927861541 0 0.014956674901267069 -0.14717046936516609 0 0.0091416165132007926 -0.15602867972450149 0 -0.0028890046353027888 -0.13536793891998999 0 -0.003094464573322353 -0.14556905266318071 0 0.02035966690808487 -0.13403304341706221 0 -0.0028890046353027888 -0.13536793891998999 0 0.02035966690808487 -0.13403304341706221 0 0.002064890662622494 -0.12644808147915401 0 0.02035966690808487 -0.13403304341706221 0 0.002064890662622494 -0.12644808147915401 0 0.01347467362235181 -0.1247837114235946 0 -0.003094464573322353 -0.14556905266318071 0 0.02035966690808487 -0.13403304341706221 0 0.0061193529768620884 -0.117556587176987 0 0.01955176281987716 -0.1149846164778717 0 0.003459360455224499 -0.1064706842325762 0 -0.0079539226757655221 -0.1150958422717388 0 0.002064890662622494 -0.12644808147915401 0 0.0061193529768620884 -0.117556587176987 0 0.002064890662622494 -0.12644808147915401 0 0.0061193529768620884 -0.117556587176987 0 0.01347467362235181 -0.1247837114235946 0 -0.0079539226757655221 -0.1150958422717388 0 0.0061193529768620884 -0.117556587176987 0 0.003459360455224499 -0.1064706842325762 0 0.0061193529768620884 -0.117556587176987 0 0.01347467362235181 -0.1247837114235946 0 0.01955176281987716 -0.1149846164778717 0 0.02035966690808487 -0.13403304341706221 0 0.01347467362235181 -0.1247837114235946 0 0.01955176281987716 -0.1149846164778717 0 0.02035966690808487 -0.13403304341706221 0 0.01955176281987716 -0.1149846164778717 0 0.030708700954436261 -0.11632157342948719 0 0.01955176281987716 -0.1149846164778717 0 0.030708700954436261 -0.11632157342948719 0 0.026325399063835419 -0.10759258755569739 0 0.02619357721188656 -0.098302951944368083 0 0.025147618997233782 -0.083755381715051799 0 0.034480708693362568 -0.103126207942998 0 0.01955176281987716 -0.1149846164778717 0 0.026325399063835419 -0.10759258755569739 0 0.01882058209311448 -0.098737630563725184 0 0.02619357721188656 -0.098302951944368083 0 0.026325399063835419 -0.10759258755569739 0 0.01882058209311448 -0.098737630563725184 0 0.030708700954436261 -0.11632157342948719 0 0.026325399063835419 -0.10759258755569739 0 0.034480708693362568 -0.103126207942998 0 0.02619357721188656 -0.098302951944368083 0 0.026325399063835419 -0.10759258755569739 0 0.034480708693362568 -0.103126207942998 0 0.01882058209311448 -0.098737630563725184 0 0.003459360455224499 -0.1064706842325762 0 0.0069325651104038752 -0.095052248547683071 0 0.01955176281987716 -0.1149846164778717 0 0.01882058209311448 -0.098737630563725184 0 0.003459360455224499 -0.1064706842325762 0 -0.008003249791205572 -0.09561207256085448 0 0.003459360455224499 -0.1064706842325762 0 0.0069325651104038752 -0.095052248547683071 0 0.0020876159228450362 -0.083587805440608301 0 0.0043923339882334317 -0.072413952491771169 0 0.025147618997233782 -0.083755381715051799 0 -0.008003249791205572 -0.09561207256085448 0 0.0069325651104038752 -0.095052248547683071 0 0.0020876159228450362 -0.083587805440608301 0 0.0069325651104038752 -0.095052248547683071 0 0.0020876159228450362 -0.083587805440608301 0 0.025147618997233782 -0.083755381715051799 0 0.0043923339882334317 -0.072413952491771169 0 0.01581452930110442 -0.064384555487105921 0 0.025147618997233782 -0.083755381715051799 0 -0.012154785791383569 -0.056904002061058452 0 0.0043923339882334317 -0.072413952491771169 0 0.01581452930110442 -0.064384555487105921 0 0.01581452930110442 -0.064384555487105921 0 0.025147618997233782 -0.083755381715051799 0 0.036970317162578897 -0.070042792052594158 0 0.01581452930110442 -0.064384555487105921 0 0.036970317162578897 -0.070042792052594158 0 0.01581452930110442 -0.064384555487105921 0 0.025147618997233782 -0.083755381715051799 0 0.025147618997233782 -0.083755381715051799 0 0.034480708693362568 -0.103126207942998 0 0.01882058209311448 -0.098737630563725184 0 0.0069325651104038752 -0.095052248547683071 0 0.025147618997233782 -0.083755381715051799 0 0.02619357721188656 -0.098302951944368083 0 0.01882058209311448 -0.098737630563725184 0 0.025147618997233782 -0.083755381715051799 0 0.025147618997233782 -0.083755381715051799 0 0.042327808316206833 -0.088987494069532297 0 0.037891163343026273 -0.095770313516484823 0 0.025147618997233782 -0.083755381715051799 0 0.042327808316206833 -0.088987494069532297 0 0.036970317162578897 -0.070042792052594158 0 0.042327808316206833 -0.088987494069532297 0 0.036970317162578897 -0.070042792052594158 0 0.050428965608168161 -0.083944772772369003 0 0.036970317162578897 -0.070042792052594158 0 0.058126105024053583 -0.075701028618081451 0 0.050428965608168161 -0.083944772772369003 0 0.036970317162578897 -0.070042792052594158 0 0.058126105024053583 -0.075701028618081451 0 0.050673552749537262 -0.061186455987787429 0 0.036970317162578897 -0.070042792052594158 0 0.058126105024053583 -0.075701028618081451 0 0.058126105024053583 -0.075701028618081451 0 0.050673552749537262 -0.061186455987787429 0 0.069259223211010551 -0.058739629833054793 0 0.058126105024053583 -0.075701028618081451 0 0.050428965608168161 -0.083944772772369003 0 0.055529330906203392 -0.094004173683731734 0 0.058126105024053583 -0.075701028618081451 0 0.055529330906203392 -0.094004173683731734 0 0.068750242844015319 -0.091083318529088825 0 0.042327808316206833 -0.088987494069532297 0 0.055529330906203392 -0.094004173683731734 0 0.046696451588756432 -0.097802878130999304 0 0.042327808316206833 -0.088987494069532297 0 0.050428965608168161 -0.083944772772369003 0 0.055529330906203392 -0.094004173683731734 0 0.040803229119571779 -0.1051796057238427 0 0.068155319225873756 -0.1075072390418244 0 0.054972624502914187 -0.10073053024195019 0 0.055529330906203392 -0.094004173683731734 0 0.063678791674165652 -0.099158754629352849 0 0.054972624502914187 -0.10073053024195019 0 0.040803229119571779 -0.1051796057238427 0 0.068155319225873756 -0.1075072390418244 0 0.055106787242653887 -0.1114886547817843 0 0.040803229119571779 -0.1051796057238427 0 0.068155319225873756 -0.1075072390418244 0 0.054972624502914187 -0.10073053024195019 0 0.055529330906203392 -0.094004173683731734 0 0.046696451588756432 -0.097802878130999304 0 0.054972624502914187 -0.10073053024195019 0 0.046696451588756432 -0.097802878130999304 0 0.040803229119571779 -0.1051796057238427 0 0.054972624502914187 -0.10073053024195019 0 0.068155319225873756 -0.1075072390418244 0 0.063678791674165652 -0.099158754629352849 0 0.043813798389492113 -0.12249703417094381 0 0.067654802235677935 -0.1107707401905263 0 0.055106787242653887 -0.1114886547817843 0 0.043813798389492113 -0.12249703417094381 0 0.067654802235677935 -0.1107707401905263 0 0.059340662053475331 -0.1221951803252543 0 0.043813798389492113 -0.12249703417094381 0 0.067654802235677935 -0.1107707401905263 0 0.060374050000443519 -0.1275532196661501 0 0.059340662053475331 -0.1221951803252543 0 0.064670263353776528 -0.12479716283724571 0 0.053163921896686978 -0.12981450152049229 0 0.059340662053475331 -0.1221951803252543 0 0.043813798389492113 -0.12249703417094381 0 0.043813798389492113 -0.12249703417094381 0 0.034480708693362568 -0.103126207942998 0 0.043813798389492113 -0.12249703417094381 0 0.034480708693362568 -0.103126207942998 0 0.040803229119571779 -0.1051796057238427 0 0.055106787242653887 -0.1114886547817843 0 0.043813798389492113 -0.12249703417094381 0 0.040803229119571779 -0.1051796057238427 0 0.030708700954436261 -0.11632157342948719 0 0.043813798389492113 -0.12249703417094381 0 0.034480708693362568 -0.103126207942998 0 0.02035966690808487 -0.13403304341706221 0 0.030708700954436261 -0.11632157342948719 0 0.043813798389492113 -0.12249703417094381 0 0.025147618997233782 -0.083755381715051799 0 0.034480708693362568 -0.103126207942998 0 0.037891163343026273 -0.095770313516484823 0 0.034480708693362568 -0.103126207942998 0 0.037891163343026273 -0.095770313516484823 0 0.040803229119571779 -0.1051796057238427 0 0.042327808316206833 -0.088987494069532297 0 0.037891163343026273 -0.095770313516484823 0 0.046696451588756432 -0.097802878130999304 0 0.037891163343026273 -0.095770313516484823 0 0.046696451588756432 -0.097802878130999304 0 0.040803229119571779 -0.1051796057238427 0 0.029461474512617769 0.0091796361634523208 0 0.022339275083212859 -0.0015369494510790759 0 0.037895535239882719 -0.0087994323662799953 0 0.01935389797815475 -0.01358635523373667 0 0.022339275083212859 -0.0015369494510790759 0 0.037895535239882719 -0.0087994323662799953 0 0.010796000673796239 0.001043184006459454 0 0.01935389797815475 -0.01358635523373667 0 0.022339275083212859 -0.0015369494510790759 0 0.01935389797815475 -0.01358635523373667 0 0.0032282499690442449 -0.0088745875952064811 0 0.0089932597543199086 -0.019803541159899019 0 0.010796000673796239 0.001043184006459454 0 0.01935389797815475 -0.01358635523373667 0 0.0032282499690442449 -0.0088745875952064811 0 0.010796000673796239 0.001043184006459454 0 0.0032282499690442449 -0.0088745875952064811 0 -0.002425590017454001 -0.02652719064859925 0 0.0089932597543199086 -0.019803541159899019 0 0.015816481087536961 -0.03022603116205299 0 -0.002425590017454001 -0.02652719064859925 0 0.0032282499690442449 -0.0088745875952064811 0 0.0089932597543199086 -0.019803541159899019 0 -0.002425590017454001 -0.02652719064859925 0 0.0032282499690442449 -0.0088745875952064811 0 0.01935389797815475 -0.01358635523373667 0 0.0089932597543199086 -0.019803541159899019 0 0.015816481087536961 -0.03022603116205299 0 0.01935389797815475 -0.01358635523373667 0 0.03495982146815637 -0.027837101938657551 0 0.037895535239882719 -0.0087994323662799953 0 0.01935389797815475 -0.01358635523373667 0 0.015816481087536961 -0.03022603116205299 0 0.03495982146815637 -0.027837101938657551 0 0.015816481087536961 -0.03022603116205299 0 0.03027881400104852 -0.049119336344089458 0 0.03495982146815637 -0.027837101938657551 0 0.015816481087536961 -0.03022603116205299 0 0.006694469641824588 -0.045455873067852828 0 0.03027881400104852 -0.049119336344089458 0 -0.002425590017454001 -0.02652719064859925 0 0.006694469641824588 -0.045455873067852828 0 -0.002425590017454001 -0.02652719064859925 0 0.015816481087536961 -0.03022603116205299 0 0.006694469641824588 -0.045455873067852828 0 -0.0072901879044174342 -0.041715596354829257 0 0.006694469641824588 -0.045455873067852828 0 0.00076600631178217024 -0.05211500674271155 0 0.01581452930110442 -0.064384555487105921 0 0.006694469641824588 -0.045455873067852828 0 -0.012154785791383569 -0.056904002061058452 0 0.01581452930110442 -0.064384555487105921 0 0.01581452930110442 -0.064384555487105921 0 0.006694469641824588 -0.045455873067852828 0 0.00076600631178217024 -0.05211500674271155 0 -0.012154785791383569 -0.056904002061058452 0 0.01581452930110442 -0.064384555487105921 0 0.00076600631178217024 -0.05211500674271155 0 0.01581452930110442 -0.064384555487105921 0 0.036970317162578897 -0.070042792052594158 0 0.03027881400104852 -0.049119336344089458 0 0.01581452930110442 -0.064384555487105921 0 0.006694469641824588 -0.045455873067852828 0 0.03027881400104852 -0.049119336344089458 0 0.03027881400104852 -0.049119336344089458 0 0.050673552749537262 -0.061186455987787429 0 0.052234532451936558 -0.044945252325091223 0 0.036970317162578897 -0.070042792052594158 0 0.03027881400104852 -0.049119336344089458 0 0.050673552749537262 -0.061186455987787429 0 0.050673552749537262 -0.061186455987787429 0 0.052234532451936558 -0.044945252325091223 0 0.069259223211010551 -0.058739629833054793 0 0.052234532451936558 -0.044945252325091223 0 0.051495269860870982 -0.025705288154583349 0 0.079028650314971513 -0.03290540113351749 0 0.052234532451936558 -0.044945252325091223 0 0.03495982146815637 -0.027837101938657551 0 0.051495269860870982 -0.025705288154583349 0 0.03027881400104852 -0.049119336344089458 0 0.052234532451936558 -0.044945252325091223 0 0.03495982146815637 -0.027837101938657551 0 0.03495982146815637 -0.027837101938657551 0 0.051495269860870982 -0.025705288154583349 0 0.037895535239882719 -0.0087994323662799953 0 0.047704183673405648 0.010706721758899061 0 0.061846694789907057 -0.0094704265167526863 0 0.037895535239882719 -0.0087994323662799953 0 0.051495269860870982 -0.025705288154583349 0 0.061846694789907057 -0.0094704265167526863 0 0.037895535239882719 -0.0087994323662799953 0 0.074325727717583515 0.01378843070404526 0 0.061846694789907057 -0.0094704265167526863 0 0.083345215077867602 -0.0079048656384585556 0 0.061846694789907057 -0.0094704265167526863 0 0.083345215077867602 -0.0079048656384585556 0 0.079028650314971513 -0.03290540113351749 0 0.061846694789907057 -0.0094704265167526863 0 0.079028650314971513 -0.03290540113351749 0 0.051495269860870982 -0.025705288154583349 0 0.061846694789907057 -0.0094704265167526863 0 0.079028650314971513 -0.03290540113351749 0 0.083345215077867602 -0.0079048656384585556 0 0.079028650314971513 -0.03290540113351749 0 0.101048807594178 -0.017757655260091289 0 0.079028650314971513 -0.03290540113351749 0 0.096210605840036129 -0.056340375750282487 0 0.079028650314971513 -0.03290540113351749 0 0.096210605840036129 -0.056340375750282487 0 0.10449238007363421 -0.037784183895521677 0 0.052234532451936558 -0.044945252325091223 0 0.079028650314971513 -0.03290540113351749 0 0.069259223211010551 -0.058739629833054793 0 0.079028650314971513 -0.03290540113351749 0 0.069259223211010551 -0.058739629833054793 0 0.096210605840036129 -0.056340375750282487 0 0.096210605840036129 -0.056340375750282487 0 0.1236041787132157 -0.055477178961408607 0 0.10449238007363421 -0.037784183895521677 0 0.1236041787132157 -0.055477178961408607 0 0.12387061976482459 -0.031668313795711119 0 0.10449238007363421 -0.037784183895521677 0 0.079028650314971513 -0.03290540113351749 0 0.10449238007363421 -0.037784183895521677 0 0.101048807594178 -0.017757655260091289 0 0.12387061976482459 -0.031668313795711119 0 0.101048807594178 -0.017757655260091289 0 0.122836876780338 -0.0080023686202002862 0 0.12387061976482459 -0.031668313795711119 0 0.10449238007363421 -0.037784183895521677 0 0.101048807594178 -0.017757655260091289 0 0.1021263642761613 0.0080934557538357536 0 0.083345215077867602 -0.0079048656384585556 0 0.101048807594178 -0.017757655260091289 0 0.1021263642761613 0.0080934557538357536 0 0.101048807594178 -0.017757655260091289 0 0.122836876780338 -0.0080023686202002862 0 0.068155319225873756 -0.1075072390418244 0 0.095507409332175719 -0.1098348723598061 0 0.084516030009852916 -0.095251654868035301 0 0.068155319225873756 -0.1075072390418244 0 0.095507409332175719 -0.1098348723598061 0 0.096740449229263753 -0.1261362836634943 0 0.078468035540153733 -0.119691177032344 0 0.095507409332175719 -0.1098348723598061 0 0.078468035540153733 -0.119691177032344 0 0.068155319225873756 -0.1075072390418244 0 0.095507409332175719 -0.1098348723598061 0 0.078468035540153733 -0.119691177032344 0 0.068485934911068552 -0.120323168693099 0 0.067654802235677935 -0.1107707401905263 0 0.078468035540153733 -0.119691177032344 0 0.067654802235677935 -0.1107707401905263 0 0.068155319225873756 -0.1075072390418244 0 0.071462430678860128 -0.12708967450895889 0 0.078468035540153733 -0.119691177032344 0 0.068485934911068552 -0.120323168693099 0 0.059340662053475331 -0.1221951803252543 0 0.068485934911068552 -0.120323168693099 0 0.064670263353776528 -0.12479716283724571 0 0.059340662053475331 -0.1221951803252543 0 0.068485934911068552 -0.120323168693099 0 0.067654802235677935 -0.1107707401905263 0 0.071462430678860128 -0.12708967450895889 0 0.068485934911068552 -0.120323168693099 0 0.064670263353776528 -0.12479716283724571 0 0.055106787242653887 -0.1114886547817843 0 0.067654802235677935 -0.1107707401905263 0 0.068155319225873756 -0.1075072390418244 0 0.068155319225873756 -0.1075072390418244 0 0.071525554648294604 -0.098336569048198194 0 0.063678791674165652 -0.099158754629352849 0 0.084516030009852916 -0.095251654868035301 0 0.071525554648294604 -0.098336569048198194 0 0.068750242844015319 -0.091083318529088825 0 0.084516030009852916 -0.095251654868035301 0 0.068155319225873756 -0.1075072390418244 0 0.071525554648294604 -0.098336569048198194 0 0.071525554648294604 -0.098336569048198194 0 0.063678791674165652 -0.099158754629352849 0 0.068750242844015319 -0.091083318529088825 0 0.055529330906203392 -0.094004173683731734 0 0.063678791674165652 -0.099158754629352849 0 0.068750242844015319 -0.091083318529088825 0 0.058126105024053583 -0.075701028618081451 0 0.079281892885528268 -0.081359265183568744 0 0.084516030009852916 -0.095251654868035301 0 0.068750242844015319 -0.091083318529088825 0 0.079281892885528268 -0.081359265183568744 0 0.084516030009852916 -0.095251654868035301 0 0.079281892885528268 -0.081359265183568744 0 0.1133925613651007 -0.079775350367047512 0 0.058126105024053583 -0.075701028618081451 0 0.068750242844015319 -0.091083318529088825 0 0.079281892885528268 -0.081359265183568744 0 0.058126105024053583 -0.075701028618081451 0 0.069259223211010551 -0.058739629833054793 0 0.079281892885528268 -0.081359265183568744 0 0.069259223211010551 -0.058739629833054793 0 0.096210605840036129 -0.056340375750282487 0 0.079281892885528268 -0.081359265183568744 0 0.1133925613651007 -0.079775350367047512 0 0.1228594994384777 -0.11216250567778779 0 0.13637913026657961 -0.080283144323831865 0 0.096210605840036129 -0.056340375750282487 0 0.079281892885528268 -0.081359265183568744 0 0.1133925613651007 -0.079775350367047512 0 0.096210605840036129 -0.056340375750282487 0 0.1133925613651007 -0.079775350367047512 0 0.1236041787132157 -0.055477178961408607 0 0.1133925613651007 -0.079775350367047512 0 0.13637913026657961 -0.080283144323831865 0 0.096210605840036129 -0.056340375750282487 0 0.1236041787132157 -0.055477178961408607 0 0.1133925613651007 -0.079775350367047512 0 0.1133925613651007 -0.079775350367047512 0 0.095507409332175719 -0.1098348723598061 0 0.1228594994384777 -0.11216250567778779 0 0.084516030009852916 -0.095251654868035301 0 0.1133925613651007 -0.079775350367047512 0 0.095507409332175719 -0.1098348723598061 0 0.095507409332175719 -0.1098348723598061 0 0.1228594994384777 -0.11216250567778779 0 0.096740449229263753 -0.1261362836634943 0 0.095507409332175719 -0.1098348723598061 0 0.1228594994384777 -0.11216250567778779 0 0.1248974087783342 -0.1344038613932082 0 0.1228594994384777 -0.11216250567778779 0 0.13673274764512369 -0.12740791794242909 0 0.1228594994384777 -0.11216250567778779 0 0.15021158954477959 -0.1144901389957695 0 0.1228594994384777 -0.11216250567778779 0 0.14986891880036129 -0.095886396326945678 0 0.13637913026657961 -0.080283144323831865 0 0.1228594994384777 -0.11216250567778779 0 0.15021158954477959 -0.1144901389957695 0 0.13673274764512369 -0.12740791794242909 0 0.1228594994384777 -0.11216250567778779 0 0.15021158954477959 -0.1144901389957695 0 0.14986891880036129 -0.095886396326945678 0 0.1236041787132157 -0.055477178961408607 0 0.13637913026657961 -0.080283144323831865 0 0.1515742735527093 -0.059978761524416391 0 0.13637913026657961 -0.080283144323831865 0 0.15515729746160481 -0.078416631187229108 0 0.1515742735527093 -0.059978761524416391 0 0.14986891880036129 -0.095886396326945678 0 0.13637913026657961 -0.080283144323831865 0 0.15515729746160481 -0.078416631187229108 0 0.14986891880036129 -0.095886396326945678 0 0.15515729746160481 -0.078416631187229108 0 0.16562527180170389 -0.088165903943006829 0 0.15515729746160481 -0.078416631187229108 0 0.16562527180170389 -0.088165903943006829 0 0.17119087145799419 -0.071224656734943978 0 0.15515729746160481 -0.078416631187229108 0 0.17119087145799419 -0.071224656734943978 0 0.1515742735527093 -0.059978761524416391 0 0.17119087145799419 -0.071224656734943978 0 0.18421010288651099 -0.08872037598693612 0 0.1898750056928479 -0.071071789284550241 0 0.17119087145799419 -0.071224656734943978 0 0.17729561744431019 -0.052637434955394309 0 0.1898750056928479 -0.071071789284550241 0 0.16562527180170389 -0.088165903943006829 0 0.17119087145799419 -0.071224656734943978 0 0.18421010288651099 -0.08872037598693612 0 0.16562527180170389 -0.088165903943006829 0 0.18421010288651099 -0.08872037598693612 0 0.16898072428902219 -0.1018000538340491 0 0.18550682122928369 -0.106261721703763 0 0.17756367965108169 -0.11681777231375121 0 0.16898072428902219 -0.1018000538340491 0 0.18421010288651099 -0.08872037598693612 0 0.18550682122928369 -0.106261721703763 0 0.16898072428902219 -0.1018000538340491 0 0.17756367965108169 -0.11681777231375121 0 0.19591758866586109 -0.1222806876043501 0 0.1838500666790534 -0.13221698249948119 0 0.18550682122928369 -0.106261721703763 0 0.17756367965108169 -0.11681777231375121 0 0.19591758866586109 -0.1222806876043501 0 0.15021158954477959 -0.1144901389957695 0 0.17756367965108169 -0.11681777231375121 0 0.16898072428902219 -0.1018000538340491 0 0.15021158954477959 -0.1144901389957695 0 0.17756367965108169 -0.11681777231375121 0 0.1692833858395808 -0.1328212922047777 0 0.15021158954477959 -0.1144901389957695 0 0.17756367965108169 -0.11681777231375121 0 0.14986891880036129 -0.095886396326945678 0 0.16562527180170389 -0.088165903943006829 0 0.16898072428902219 -0.1018000538340491 0 0.15021158954477959 -0.1144901389957695 0 0.14986891880036129 -0.095886396326945678 0 0.16898072428902219 -0.1018000538340491 0 0.1419725902365104 0.00067524315852505318 0 0.1411544689898705 -0.02078314649373747 0 0.16102176066391491 -0.014168695802312401 0 0.16271339257430739 0.0049797236585138599 0 0.1419725902365104 0.00067524315852505318 0 0.16102176066391491 -0.014168695802312401 0 0.1419725902365104 0.00067524315852505318 0 0.16102176066391491 -0.014168695802312401 0 0.1419725902365104 0.00067524315852505318 0 0.122836876780338 -0.0080023686202002862 0 0.1411544689898705 -0.02078314649373747 0 0.12387061976482459 -0.031668313795711119 0 0.122836876780338 -0.0080023686202002862 0 0.1411544689898705 -0.02078314649373747 0 0.1411544689898705 -0.02078314649373747 0 0.15839678616377151 -0.036397697174499387 0 0.16102176066391491 -0.014168695802312401 0 0.1411544689898705 -0.02078314649373747 0 0.139602812491949 -0.041332192013695937 0 0.15839678616377151 -0.036397697174499387 0 0.139602812491949 -0.041332192013695937 0 0.1515742735527093 -0.059978761524416391 0 0.15839678616377151 -0.036397697174499387 0 0.12387061976482459 -0.031668313795711119 0 0.1411544689898705 -0.02078314649373747 0 0.139602812491949 -0.041332192013695937 0 0.1236041787132157 -0.055477178961408607 0 0.12387061976482459 -0.031668313795711119 0 0.139602812491949 -0.041332192013695937 0 0.1236041787132157 -0.055477178961408607 0 0.139602812491949 -0.041332192013695937 0 0.1515742735527093 -0.059978761524416391 0 0.17119087145799419 -0.071224656734943978 0 0.1515742735527093 -0.059978761524416391 0 0.17729561744431019 -0.052637434955394309 0 0.1515742735527093 -0.059978761524416391 0 0.17729561744431019 -0.052637434955394309 0 0.15839678616377151 -0.036397697174499387 0 0.17729561744431019 -0.052637434955394309 0 0.19219591329176269 -0.05715636337558036 0 0.1898750056928479 -0.071071789284550241 0 0.17729561744431019 -0.052637434955394309 0 0.15839678616377151 -0.036397697174499387 0 0.18007093109131939 -0.029012634763149851 0 0.17729561744431019 -0.052637434955394309 0 0.18007093109131939 -0.029012634763149851 0 0.19912010151872381 -0.043856573723987269 0 0.15839678616377151 -0.036397697174499387 0 0.18007093109131939 -0.029012634763149851 0 0.16102176066391491 -0.014168695802312401 0 0.18007093109131939 -0.029012634763149851 0 0.16102176066391491 -0.014168695802312401 0 0.18007093109131939 -0.029012634763149851 0 0.17739857159394909 -0.0043179500811540133 0 0.16102176066391491 -0.014168695802312401 0 0.18007093109131939 -0.029012634763149851 0 0.17739857159394909 -0.0043179500811540133 0 0.19331264946341581 -0.0135190697661496 0 0.16271339257430739 0.0049797236585138599 0 0.17739857159394909 -0.0043179500811540133 0 0.16102176066391491 -0.014168695802312401 0 0.20840023066242969 -0.00016392964902278939 0 0.19331264946341581 -0.0135190697661496 0 0.21098379844744669 -0.017945294351456049 0 0.20840023066242969 -0.00016392964902278939 0 0.21098379844744669 -0.017945294351456049 0 0.22810163109014539 -0.005375944402069642 0 0.19209443694944831 0.0053480433798115757 0 0.17739857159394909 -0.0043179500811540133 0 0.19331264946341581 -0.0135190697661496 0 0.19209443694944831 0.0053480433798115757 0 0.20840023066242969 -0.00016392964902278939 0 0.19331264946341581 -0.0135190697661496 0 0.18007093109131939 -0.029012634763149851 0 0.19331264946341581 -0.0135190697661496 0 0.19913956253097939 -0.028193897775694109 0 0.19331264946341581 -0.0135190697661496 0 0.19913956253097939 -0.028193897775694109 0 0.21098379844744669 -0.017945294351456049 0 0.19913956253097939 -0.028193897775694109 0 0.21098379844744669 -0.017945294351456049 0 0.2198743004634571 -0.037152030952944927 0 0.19912010151872381 -0.043856573723987269 0 0.21816927194612909 -0.058700512684823583 0 0.2198743004634571 -0.037152030952944927 0 0.19913956253097939 -0.028193897775694109 0 0.19912010151872381 -0.043856573723987269 0 0.2198743004634571 -0.037152030952944927 0 0.18007093109131939 -0.029012634763149851 0 0.19912010151872381 -0.043856573723987269 0 0.18007093109131939 -0.029012634763149851 0 0.19913956253097939 -0.028193897775694109 0 0.19912010151872381 -0.043856573723987269 0 0.19912010151872381 -0.043856573723987269 0 0.19219591329176269 -0.05715636337558036 0 0.20402213881948841 -0.064886150984686614 0 0.17729561744431019 -0.052637434955394309 0 0.19912010151872381 -0.043856573723987269 0 0.19219591329176269 -0.05715636337558036 0 0.19912010151872381 -0.043856573723987269 0 0.21816927194612909 -0.058700512684823583 0 0.19912010151872381 -0.043856573723987269 0 0.21816927194612909 -0.058700512684823583 0 0.20402213881948841 -0.064886150984686614 0 0.21816927194612909 -0.058700512684823583 0 0.20402213881948841 -0.064886150984686614 0 0.21816927194612909 -0.058700512684823583 0 0.2369775767644795 -0.050476841528380959 0 0.21816927194612909 -0.058700512684823583 0 0.2369775767644795 -0.050476841528380959 0 0.2198743004634571 -0.037152030952944927 0 0.21816927194612909 -0.058700512684823583 0 0.2369775767644795 -0.050476841528380959 0 0.23410453905136769 -0.071117963257607678 0 0.2484029069974942 -0.061374248800601452 0 0.2369775767644795 -0.050476841528380959 0 0.23410453905136769 -0.071117963257607678 0 0.25578588158283011 -0.042253170371938917 0 0.2484029069974942 -0.061374248800601452 0 0.2369775767644795 -0.050476841528380959 0 0.25578588158283011 -0.042253170371938917 0 0.2369775767644795 -0.050476841528380959 0 0.23964314873187881 -0.036371367284043297 0 0.25578588158283011 -0.042253170371938917 0 0.25339072374993599 -0.028668097594149119 0 0.23964314873187881 -0.036371367284043297 0 0.25578588158283011 -0.042253170371938917 0 0.2369775767644795 -0.050476841528380959 0 0.2369775767644795 -0.050476841528380959 0 0.23964314873187881 -0.036371367284043297 0 0.2198743004634571 -0.037152030952944927 0 0.23964314873187881 -0.036371367284043297 0 0.2198743004634571 -0.037152030952944927 0 0.23218726109869139 -0.02330669597280258 0 0.21098379844744669 -0.017945294351456049 0 0.2198743004634571 -0.037152030952944927 0 0.23218726109869139 -0.02330669597280258 0 0.21098379844744669 -0.017945294351456049 0 0.23218726109869139 -0.02330669597280258 0 0.25339072374993599 -0.028668097594149119 0 0.23964314873187881 -0.036371367284043297 0 0.23218726109869139 -0.02330669597280258 0 0.25339072374993599 -0.028668097594149119 0 0.23218726109869139 -0.02330669597280258 0 0.25339072374993599 -0.028668097594149119 0 0.23218726109869139 -0.02330669597280258 0 0.24449674383892731 -0.011473417160980499 0 0.2442639786172042 0.0070688571158914679 0 0.25328617053865732 -0.0061358056175155294 0 0.24449674383892731 -0.011473417160980499 0 0.23218726109869139 -0.02330669597280258 0 0.24449674383892731 -0.011473417160980499 0 0.22810163109014539 -0.005375944402069642 0 0.2442639786172042 0.0070688571158914679 0 0.24449674383892731 -0.011473417160980499 0 0.22810163109014539 -0.005375944402069642 0 0.21098379844744669 -0.017945294351456049 0 0.23218726109869139 -0.02330669597280258 0 0.22810163109014539 -0.005375944402069642 0 0.20513104026540971 -0.097519372086350073 0 0.2206240300367546 -0.09084258223858041 0 0.22294162904213249 -0.1058485262910976 0 0.20513104026540971 -0.097519372086350073 0 0.21279403669795949 -0.1192661086458517 0 0.22294162904213249 -0.1058485262910976 0 0.20513104026540971 -0.097519372086350073 0 0.21279403669795949 -0.1192661086458517 0 0.19591758866586109 -0.1222806876043501 0 0.20513104026540971 -0.097519372086350073 0 0.19591758866586109 -0.1222806876043501 0 0.18421010288651099 -0.08872037598693612 0 0.18550682122928369 -0.106261721703763 0 0.20513104026540971 -0.097519372086350073 0 0.18550682122928369 -0.106261721703763 0 0.20513104026540971 -0.097519372086350073 0 0.19591758866586109 -0.1222806876043501 0 0.18421010288651099 -0.08872037598693612 0 0.20513104026540971 -0.097519372086350073 0 0.2023731868003861 -0.080385570779123103 0 0.18421010288651099 -0.08872037598693612 0 0.2023731868003861 -0.080385570779123103 0 0.1898750056928479 -0.071071789284550241 0 0.2023731868003861 -0.080385570779123103 0 0.1898750056928479 -0.071071789284550241 0 0.20402213881948841 -0.064886150984686614 0 0.1898750056928479 -0.071071789284550241 0 0.20402213881948841 -0.064886150984686614 0 0.19219591329176269 -0.05715636337558036 0 0.1898750056928479 -0.071071789284550241 0 0.20402213881948841 -0.064886150984686614 0 0.2023731868003861 -0.080385570779123103 0 0.20402213881948841 -0.064886150984686614 0 0.21906491578381709 -0.07551638757015891 0 0.21816927194612909 -0.058700512684823583 0 0.20402213881948841 -0.064886150984686614 0 0.21906491578381709 -0.07551638757015891 0 0.2023731868003861 -0.080385570779123103 0 0.2206240300367546 -0.09084258223858041 0 0.21906491578381709 -0.07551638757015891 0 0.20513104026540971 -0.097519372086350073 0 0.2023731868003861 -0.080385570779123103 0 0.2206240300367546 -0.09084258223858041 0 0.2206240300367546 -0.09084258223858041 0 0.23464530119511451 -0.085568793692146317 0 0.2395881071336681 -0.1002168430126066 0 0.2206240300367546 -0.09084258223858041 0 0.21906491578381709 -0.07551638757015891 0 0.23464530119511451 -0.085568793692146317 0 0.21816927194612909 -0.058700512684823583 0 0.23410453905136769 -0.071117963257607678 0 0.21816927194612909 -0.058700512684823583 0 0.21906491578381709 -0.07551638757015891 0 0.23410453905136769 -0.071117963257607678 0 0.21906491578381709 -0.07551638757015891 0 0.23410453905136769 -0.071117963257607678 0 0.23464530119511451 -0.085568793692146317 0 0.25003980615660742 -0.083535413830390357 0 0.2484029069974942 -0.061374248800601452 0 0.23410453905136769 -0.071117963257607678 0 0.25003980615660742 -0.083535413830390357 0 0.23410453905136769 -0.071117963257607678 0 0.25003980615660742 -0.083535413830390357 0 0.2395881071336681 -0.1002168430126066 0 0.25003980615660742 -0.083535413830390357 0 0.23464530119511451 -0.085568793692146317 0 0.2395881071336681 -0.1002168430126066 0 0.25003980615660742 -0.083535413830390357 0 0.23410453905136769 -0.071117963257607678 0 0.23464530119511451 -0.085568793692146317 0 0.26094565753913429 -0.1037101887603526 0 0.2395881071336681 -0.1002168430126066 0 0.23839366808956949 -0.1193040881922396 0 0.2395881071336681 -0.1002168430126066 0 0.22294162904213249 -0.1058485262910976 0 0.23839366808956949 -0.1193040881922396 0 0.2206240300367546 -0.09084258223858041 0 0.2395881071336681 -0.1002168430126066 0 0.22294162904213249 -0.1058485262910976 0 0.21279403669795949 -0.1192661086458517 0 0.23839366808956949 -0.1193040881922396 0 0.21584167864000459 -0.13489798762412661 0 0.21279403669795949 -0.1192661086458517 0 0.22294162904213249 -0.1058485262910976 0 0.23839366808956949 -0.1193040881922396 0 0.25411809373254007 -0.1218374527257427 0 0.23839366808956949 -0.1193040881922396 0 0.24525710042236801 -0.13208633388166979 0 0.26094565753913429 -0.1037101887603526 0 0.23839366808956949 -0.1193040881922396 0 0.23839366808956949 -0.1193040881922396 0 0.24525710042236801 -0.13208633388166979 0 0.23124951676752059 -0.14017239399735329 0 0.25170293511638508 -0.14198310364294889 0 0.24525710042236801 -0.13208633388166979 0 0.24187987050451751 -0.1468481791685522 0 0.24525710042236801 -0.13208633388166979 0 0.24187987050451751 -0.1468481791685522 0 0.23124951676752059 -0.14017239399735329 0 0.25144013321275083 -0.15159102871840449 0 0.24187987050451751 -0.1468481791685522 0 0.24258011115663619 -0.15871761198029519 0 0.25170293511638508 -0.14198310364294889 0 0.25144013321275083 -0.15159102871840449 0 0.24187987050451751 -0.1468481791685522 0 0.24187987050451751 -0.1468481791685522 0 0.2290494263514441 -0.15653860279064141 0 0.24258011115663619 -0.15871761198029519 0 0.21980327806420949 -0.14844630365017589 0 0.23124951676752059 -0.14017239399735329 0 0.2290494263514441 -0.15653860279064141 0 0.24187987050451751 -0.1468481791685522 0 0.23124951676752059 -0.14017239399735329 0 0.2290494263514441 -0.15653860279064141 0 0.21980327806420949 -0.14844630365017589 0 0.23124951676752059 -0.14017239399735329 0 0.21584167864000459 -0.13489798762412661 0 0.21980327806420949 -0.14844630365017589 0 0.2166417662613 -0.15855234905211921 0 0.2290494263514441 -0.15653860279064141 0 0.23839366808956949 -0.1193040881922396 0 0.23124951676752059 -0.14017239399735329 0 0.21584167864000459 -0.13489798762412661 0 0.23839366808956949 -0.1193040881922396 0 0.21584167864000459 -0.13489798762412661 0 0.21279403669795949 -0.1192661086458517 0 0.21584167864000459 -0.13489798762412661 0 0.19853861548477991 -0.13574599007694599 0 0.21584167864000459 -0.13489798762412661 0 0.2062340023007784 -0.1520701847866392 0 0.1932896891904396 -0.1504918870560138 0 0.21584167864000459 -0.13489798762412661 0 0.1932896891904396 -0.1504918870560138 0 0.21980327806420949 -0.14844630365017589 0 0.21584167864000459 -0.13489798762412661 0 0.2062340023007784 -0.1520701847866392 0 0.21980327806420949 -0.14844630365017589 0 0.2062340023007784 -0.1520701847866392 0 0.2166417662613 -0.15855234905211921 0 0.2062340023007784 -0.1520701847866392 0 0.19628617356048669 -0.15603927628709641 0 0.1932896891904396 -0.1504918870560138 0 0.2062340023007784 -0.1520701847866392 0 0.19628617356048669 -0.15603927628709641 0 0.20159818279963729 -0.1582418217796705 0 0.1932896891904396 -0.1504918870560138 0 0.18783960563216809 -0.15618922641657851 0 0.18670413706631259 -0.14704200312235 0 0.19628617356048669 -0.15603927628709641 0 0.1932896891904396 -0.1504918870560138 0 0.18783960563216809 -0.15618922641657851 0 0.1932896891904396 -0.1504918870560138 0 0.19853861548477991 -0.13574599007694599 0 0.18670413706631259 -0.14704200312235 0 0.21279403669795949 -0.1192661086458517 0 0.19591758866586109 -0.1222806876043501 0 0.19853861548477991 -0.13574599007694599 0 0.19591758866586109 -0.1222806876043501 0 0.18670413706631259 -0.14704200312235 0 0.19591758866586109 -0.1222806876043501 0 0.1838500666790534 -0.13221698249948119 0 0.18670413706631259 -0.14704200312235 0 0.19591758866586109 -0.1222806876043501 0 0.19853861548477991 -0.13574599007694599 0 0.18670413706631259 -0.14704200312235 0 0.21584167864000459 -0.13489798762412661 0 0.1932896891904396 -0.1504918870560138 0 0.19853861548477991 -0.13574599007694599 0 0.1965250741672345 -0.17463117629778149 0 0.1941861010806572 -0.18997457817236699 0 0.1755032210676101 -0.1771446646643344 0 0.1965250741672345 -0.17463117629778149 0 0.19392452753968681 -0.17210062059548489 0 0.1755032210676101 -0.1771446646643344 0 0.1965250741672345 -0.17463117629778149 0 0.20670748918739651 -0.18105034019761479 0 0.1941861010806572 -0.18997457817236699 0 0.1903808709954031 -0.16842344646574081 0 0.188223468008381 -0.16693637581548049 0 0.184912896847575 -0.16929531972285419 0 0.19392452753968681 -0.17210062059548489 0 0.1903808709954031 -0.16842344646574081 0 0.184912896847575 -0.16929531972285419 0 0.188223468008381 -0.16693637581548049 0 0.1918386465633603 -0.16507741028613421 0 0.18646087667375311 -0.16351881724751849 0 0.1903808709954031 -0.16842344646574081 0 0.188223468008381 -0.16693637581548049 0 0.1918386465633603 -0.16507741028613421 0 0.1903808709954031 -0.16842344646574081 0 0.1918386465633603 -0.16507741028613421 0 0.193294716972611 -0.16835021135533759 0 0.1918386465633603 -0.16507741028613421 0 0.193294716972611 -0.16835021135533759 0 0.1974986643193517 -0.16722769678853081 0 0.19392452753968681 -0.17210062059548489 0 0.193294716972611 -0.16835021135533759 0 0.1974986643193517 -0.16722769678853081 0 0.19392452753968681 -0.17210062059548489 0 0.1903808709954031 -0.16842344646574081 0 0.193294716972611 -0.16835021135533759 0 0.19628617356048669 -0.15603927628709641 0 0.18783960563216809 -0.15618922641657851 0 0.19186997678880369 -0.16031838560897729 0 0.18783960563216809 -0.15618922641657851 0 0.19186997678880369 -0.16031838560897729 0 0.18646087667375311 -0.16351881724751849 0 0.1918386465633603 -0.16507741028613421 0 0.19186997678880369 -0.16031838560897729 0 0.18646087667375311 -0.16351881724751849 0 0.1918386465633603 -0.16507741028613421 0 0.19186997678880369 -0.16031838560897729 0 0.19732120004741571 -0.1611871383226002 0 0.19628617356048669 -0.15603927628709641 0 0.19186997678880369 -0.16031838560897729 0 0.19732120004741571 -0.1611871383226002 0 0.19732120004741571 -0.1611871383226002 0 0.20159818279963729 -0.1582418217796705 0 0.20655135528986829 -0.16367068772234619 0 0.19732120004741571 -0.1611871383226002 0 0.1974986643193517 -0.16722769678853081 0 0.20655135528986829 -0.16367068772234619 0 0.19628617356048669 -0.15603927628709641 0 0.19732120004741571 -0.1611871383226002 0 0.20159818279963729 -0.1582418217796705 0 0.1965250741672345 -0.17463117629778149 0 0.1974986643193517 -0.16722769678853081 0 0.20655135528986829 -0.16367068772234619 0 0.1965250741672345 -0.17463117629778149 0 0.19392452753968681 -0.17210062059548489 0 0.1974986643193517 -0.16722769678853081 0 0.1918386465633603 -0.16507741028613421 0 0.19732120004741571 -0.1611871383226002 0 0.1974986643193517 -0.16722769678853081 0 0.1965250741672345 -0.17463117629778149 0 0.20655135528986829 -0.16367068772234619 0 0.21754692726685851 -0.17211768793122581 0 0.2062340023007784 -0.1520701847866392 0 0.20159818279963729 -0.1582418217796705 0 0.20655135528986829 -0.16367068772234619 0 0.2062340023007784 -0.1520701847866392 0 0.20655135528986829 -0.16367068772234619 0 0.2166417662613 -0.15855234905211921 0 0.20655135528986829 -0.16367068772234619 0 0.2166417662613 -0.15855234905211921 0 0.21754692726685851 -0.17211768793122581 0 0.2166417662613 -0.15855234905211921 0 0.21754692726685851 -0.17211768793122581 0 0.1965250741672345 -0.17463117629778149 0 0.21754692726685851 -0.17211768793122581 0 0.20670748918739651 -0.18105034019761479 0 0.20670748918739651 -0.18105034019761479 0 0.21857185423483561 -0.18747791838908501 0 0.1941861010806572 -0.18997457817236699 0 0.1965250741672345 -0.17463117629778149 0 0.21754692726685851 -0.17211768793122581 0 0.21754692726685851 -0.17211768793122581 0 0.21857185423483561 -0.18747791838908501 0 0.21754692726685851 -0.17211768793122581 0 0.20670748918739651 -0.18105034019761479 0 0.21857185423483561 -0.18747791838908501 0 0.22816669959096239 -0.1861916549419301 0 0.2367550277378207 -0.16982106180370901 0 0.21754692726685851 -0.17211768793122581 0 0.21857185423483561 -0.18747791838908501 0 0.22816669959096239 -0.1861916549419301 0 0.21754692726685851 -0.17211768793122581 0 0.22816669959096239 -0.1861916549419301 0 0.2367550277378207 -0.16982106180370901 0 0.21754692726685851 -0.17211768793122581 0 0.2367550277378207 -0.16982106180370901 0 0.21754692726685851 -0.17211768793122581 0 0.2290494263514441 -0.15653860279064141 0 0.2367550277378207 -0.16982106180370901 0 0.2166417662613 -0.15855234905211921 0 0.21754692726685851 -0.17211768793122581 0 0.2290494263514441 -0.15653860279064141 0 0.26115779961563201 -0.1669033321946192 0 0.2367550277378207 -0.16982106180370901 0 0.25312937396458451 -0.16432342264118821 0 0.2367550277378207 -0.16982106180370901 0 0.2461464393348303 -0.16309120823700429 0 0.2367550277378207 -0.16982106180370901 0 0.24258011115663619 -0.15871761198029519 0 0.2461464393348303 -0.16309120823700429 0 0.2290494263514441 -0.15653860279064141 0 0.2367550277378207 -0.16982106180370901 0 0.24258011115663619 -0.15871761198029519 0 0.2367550277378207 -0.16982106180370901 0 0.24258011115663619 -0.15871761198029519 0 0.25212124448027978 -0.15950273652282421 0 0.24258011115663619 -0.15871761198029519 0 0.2461464393348303 -0.16309120823700429 0 0.25212124448027978 -0.15950273652282421 0 0.25144013321275083 -0.15159102871840449 0 0.24258011115663619 -0.15871761198029519 0 0.22816669959096239 -0.1861916549419301 0 0.2367550277378207 -0.16982106180370901 0 0.240606971442966 -0.18253824768359339 0 0.25310032305402841 -0.17233484377170791 0 0.2367550277378207 -0.16982106180370901 0 0.2490821810095811 -0.177020029302313 0 0.2367550277378207 -0.16982106180370901 0 0.240606971442966 -0.18253824768359339 0 0.2490821810095811 -0.177020029302313 0 0.25452631915530111 -0.1872025564447036 0 0.240606971442966 -0.18253824768359339 0 0.2490821810095811 -0.177020029302313 0 0.22816669959096239 -0.1861916549419301 0 0.240606971442966 -0.18253824768359339 0 0.23942357238690809 -0.198782107605848 0 0.25551259201776633 -0.2018500530230013 0 0.25452631915530111 -0.1872025564447036 0 0.23942357238690809 -0.198782107605848 0 0.25452631915530111 -0.1872025564447036 0 0.240606971442966 -0.18253824768359339 0 0.23942357238690809 -0.198782107605848 0 0.23942357238690809 -0.198782107605848 0 0.24511752324188171 -0.21502126601511071 0 0.23132238316470499 -0.21555241897756761 0 0.25551259201776633 -0.2018500530230013 0 0.23942357238690809 -0.198782107605848 0 0.24511752324188171 -0.21502126601511071 0 0.24511752324188171 -0.21502126601511071 0 0.23132238316470499 -0.21555241897756761 0 0.2392739712435725 -0.22539868632884061 0 0.23132238316470499 -0.21555241897756761 0 0.21957837144410511 -0.20256224808015169 0 0.2214600936236687 -0.2307629757797072 0 0.21957837144410511 -0.20256224808015169 0 0.2214600936236687 -0.2307629757797072 0 0.23942357238690809 -0.198782107605848 0 0.23132238316470499 -0.21555241897756761 0 0.21957837144410511 -0.20256224808015169 0 0.22816669959096239 -0.1861916549419301 0 0.23942357238690809 -0.198782107605848 0 0.21957837144410511 -0.20256224808015169 0 0.22816669959096239 -0.1861916549419301 0 0.21957837144410511 -0.20256224808015169 0 0.21857185423483561 -0.18747791838908501 0 0.22816669959096239 -0.1861916549419301 0 0.21957837144410511 -0.20256224808015169 0 0.21857185423483561 -0.18747791838908501 0 0.21957837144410511 -0.20256224808015169 0 0.25387513984481591 -0.25857931195517603 0 0.2381591848617218 -0.25228348889829172 0 0.24332510085663281 -0.23797516366695659 0 0.25514475533097453 -0.2276816072048613 0 0.24332510085663281 -0.23797516366695659 0 0.2392739712435725 -0.22539868632884061 0 0.25514475533097453 -0.2276816072048613 0 0.24511752324188171 -0.21502126601511071 0 0.2392739712435725 -0.22539868632884061 0 0.24332510085663281 -0.23797516366695659 0 0.2392739712435725 -0.22539868632884061 0 0.2214600936236687 -0.2307629757797072 0 0.23132238316470499 -0.21555241897756761 0 0.2392739712435725 -0.22539868632884061 0 0.2214600936236687 -0.2307629757797072 0 0.2381591848617218 -0.25228348889829172 0 0.2233418158032322 -0.25896370347926301 0 0.2214600936236687 -0.2307629757797072 0 0.2233418158032322 -0.25896370347926301 0 0.2214600936236687 -0.2307629757797072 0 0.2381591848617218 -0.25228348889829172 0 0.24332510085663281 -0.23797516366695659 0 0.2214600936236687 -0.2307629757797072 0 0.2233418158032322 -0.25896370347926301 0 0.2214600936236687 -0.2307629757797072 0 0.20158087660853621 -0.23686807110207961 0 0.2214600936236687 -0.2307629757797072 0 0.21057962402632061 -0.21971515959111559 0 0.20158087660853621 -0.23686807110207961 0 0.21057962402632061 -0.21971515959111559 0 0.19765880684838061 -0.22387356406575989 0 0.20158087660853621 -0.23686807110207961 0 0.21057962402632061 -0.21971515959111559 0 0.20158087660853621 -0.23686807110207961 0 0.19765880684838061 -0.22387356406575989 0 0.1841036841889383 -0.2153674336905981 0 0.18657401407441901 -0.24009283179335739 0 0.19765880684838061 -0.22387356406575989 0 0.20158087660853621 -0.23686807110207961 0 0.18657401407441901 -0.24009283179335739 0 0.19459367959613491 -0.25885292547783839 0 0.20158087660853621 -0.23686807110207961 0 0.18657401407441901 -0.24009283179335739 0 0.21857185423483561 -0.18747791838908501 0 0.20308544543628271 -0.20513543657944561 0 0.1941861010806572 -0.18997457817236699 0 0.21857185423483561 -0.18747791838908501 0 0.21957837144410511 -0.20256224808015169 0 0.20308544543628271 -0.20513543657944561 0 0.21857185423483561 -0.18747791838908501 0 0.1941861010806572 -0.18997457817236699 0 0.21057962402632061 -0.21971515959111559 0 0.19765880684838061 -0.22387356406575989 0 0.20308544543628271 -0.20513543657944561 0 0.21957837144410511 -0.20256224808015169 0 0.21057962402632061 -0.21971515959111559 0 0.21957837144410511 -0.20256224808015169 0 0.21057962402632061 -0.21971515959111559 0 0.20308544543628271 -0.20513543657944561 0 0.21957837144410511 -0.20256224808015169 0 0.2214600936236687 -0.2307629757797072 0 0.21057962402632061 -0.21971515959111559 0 0.20308544543628271 -0.20513543657944561 0 0.1941861010806572 -0.18997457817236699 0 0.1841036841889383 -0.2153674336905981 0 0.19765880684838061 -0.22387356406575989 0 0.20308544543628271 -0.20513543657944561 0 0.1841036841889383 -0.2153674336905981 0 0.1941861010806572 -0.18997457817236699 0 0.1841036841889383 -0.2153674336905981 0 0.16980034792647919 -0.1924712379556523 0 0.1941861010806572 -0.18997457817236699 0 0.16980034792647919 -0.1924712379556523 0 0.16060916982537091 -0.21717269304929279 0 0.16980034792647919 -0.1924712379556523 0 0.1841036841889383 -0.2153674336905981 0 0.16060916982537091 -0.21717269304929279 0 0.16980034792647919 -0.1924712379556523 0 0.16980034792647919 -0.1924712379556523 0 0.14561817384739559 -0.19494705492607431 0 0.16060916982537091 -0.21717269304929279 0 0.16980034792647919 -0.1924712379556523 0 0.14561817384739559 -0.19494705492607431 0 0.17279167474191279 -0.2546933480936433 0 0.18657401407441901 -0.24009283179335739 0 0.17109930691098069 -0.23384009095396491 0 0.1841036841889383 -0.2153674336905981 0 0.18657401407441901 -0.24009283179335739 0 0.17109930691098069 -0.23384009095396491 0 0.1841036841889383 -0.2153674336905981 0 0.16060916982537091 -0.21717269304929279 0 0.17109930691098069 -0.23384009095396491 0 0.16060916982537091 -0.21717269304929279 0 0.17109930691098069 -0.23384009095396491 0 0.15141799172426251 -0.24187414814293301 0 0.17279167474191279 -0.2546933480936433 0 0.17109930691098069 -0.23384009095396491 0 0.15141799172426251 -0.24187414814293301 0 0.15141799172426251 -0.24187414814293301 0 0.14558983587969801 -0.22685100688446841 0 0.13295340379124021 -0.23611156067439579 0 0.16060916982537091 -0.21717269304929279 0 0.15141799172426251 -0.24187414814293301 0 0.16060916982537091 -0.21717269304929279 0 0.15141799172426251 -0.24187414814293301 0 0.14558983587969801 -0.22685100688446841 0 0.16060916982537091 -0.21717269304929279 0 0.14558983587969801 -0.22685100688446841 0 0.1353895578685973 -0.21437637252844141 0 0.1135112540669537 -0.23007984765974429 0 0.13295340379124021 -0.23611156067439579 0 0.1353895578685973 -0.21437637252844141 0 0.14558983587969801 -0.22685100688446841 0 0.13295340379124021 -0.23611156067439579 0 0.1353895578685973 -0.21437637252844141 0 0.1350240927259482 -0.25580971960953952 0 0.15141799172426251 -0.24187414814293301 0 0.13295340379124021 -0.23611156067439579 0 0.1350240927259482 -0.25580971960953952 0 0.1224052182762337 -0.24746994087236879 0 0.13295340379124021 -0.23611156067439579 0 0.16980034792647919 -0.1924712379556523 0 0.14561817384739559 -0.19494705492607431 0 0.14973341694245559 -0.18022584416692661 0 0.16060916982537091 -0.21717269304929279 0 0.14561817384739559 -0.19494705492607431 0 0.1353895578685973 -0.21437637252844141 0 0.12143599976831219 -0.19742287189649671 0 0.1239636128173006 -0.18330702366951579 0 0.14561817384739559 -0.19494705492607431 0 0.12143599976831219 -0.19742287189649671 0 0.14561817384739559 -0.19494705492607431 0 0.12143599976831219 -0.19742287189649671 0 0.14561817384739559 -0.19494705492607431 0 0.1353895578685973 -0.21437637252844141 0 0.1172074244291887 -0.17071274400242811 0 0.1239636128173006 -0.18330702366951579 0 0.14734905494797679 -0.17125803132138931 0 0.1239636128173006 -0.18330702366951579 0 0.14973341694245559 -0.18022584416692661 0 0.14734905494797679 -0.17125803132138931 0 0.1239636128173006 -0.18330702366951579 0 0.14561817384739559 -0.19494705492607431 0 0.14973341694245559 -0.18022584416692661 0 0.1239636128173006 -0.18330702366951579 0 0.14973341694245559 -0.18022584416692661 0 0.15036021513511341 -0.1625038974801461 0 0.15835911523973389 -0.16445046575460739 0 0.1564778344051258 -0.1568707500538746 0 0.15036021513511341 -0.1625038974801461 0 0.14619396387243039 -0.1548148167256988 0 0.1564778344051258 -0.1568707500538746 0 0.15036021513511341 -0.1625038974801461 0 0.14734905494797679 -0.17125803132138931 0 0.15835911523973389 -0.16445046575460739 0 0.14734905494797679 -0.17125803132138931 0 0.142607209134584 -0.16151995524343801 0 0.13238546620762839 -0.16326162299819899 0 0.15036021513511341 -0.1625038974801461 0 0.14734905494797679 -0.17125803132138931 0 0.142607209134584 -0.16151995524343801 0 0.142607209134584 -0.16151995524343801 0 0.13550524663382019 -0.15498248538837611 0 0.14619396387243039 -0.1548148167256988 0 0.15036021513511341 -0.1625038974801461 0 0.142607209134584 -0.16151995524343801 0 0.14619396387243039 -0.1548148167256988 0 0.1172074244291887 -0.17071274400242811 0 0.14734905494797679 -0.17125803132138931 0 0.13238546620762839 -0.16326162299819899 0 0.142607209134584 -0.16151995524343801 0 0.13238546620762839 -0.16326162299819899 0 0.13550524663382019 -0.15498248538837611 0 0.1172074244291887 -0.17071274400242811 0 0.14734905494797679 -0.17125803132138931 0 0.1199774048008859 -0.1518246264036438 0 0.13238546620762839 -0.16326162299819899 0 0.13550524663382019 -0.15498248538837611 0 0.1248974087783342 -0.1344038613932082 0 0.1199774048008859 -0.1518246264036438 0 0.13636218915357209 -0.14349140557090059 0 0.1199774048008859 -0.1518246264036438 0 0.13636218915357209 -0.14349140557090059 0 0.13550524663382019 -0.15498248538837611 0 0.13636218915357209 -0.14349140557090059 0 0.13550524663382019 -0.15498248538837611 0 0.14619396387243039 -0.1548148167256988 0 0.1248974087783342 -0.1344038613932082 0 0.13636218915357209 -0.14349140557090059 0 0.13673274764512369 -0.12740791794242909 0 0.13636218915357209 -0.14349140557090059 0 0.13673274764512369 -0.12740791794242909 0 0.15179981894433481 -0.13428439542417911 0 0.15021158954477959 -0.1144901389957695 0 0.13673274764512369 -0.12740791794242909 0 0.15179981894433481 -0.13428439542417911 0 0.13636218915357209 -0.14349140557090059 0 0.14619396387243039 -0.1548148167256988 0 0.1534737310622267 -0.146309080591004 0 0.13636218915357209 -0.14349140557090059 0 0.15179981894433481 -0.13428439542417911 0 0.1534737310622267 -0.146309080591004 0 0.15179981894433481 -0.13428439542417911 0 0.1534737310622267 -0.146309080591004 0 0.1629157816416516 -0.14256669824426621 0 0.14619396387243039 -0.1548148167256988 0 0.1534737310622267 -0.146309080591004 0 0.1564778344051258 -0.1568707500538746 0 0.1534737310622267 -0.146309080591004 0 0.1663472006871273 -0.15291700755643739 0 0.1564778344051258 -0.1568707500538746 0 0.1534737310622267 -0.146309080591004 0 0.1629157816416516 -0.14256669824426621 0 0.1663472006871273 -0.15291700755643739 0 0.1629157816416516 -0.14256669824426621 0 0.1692833858395808 -0.1328212922047777 0 0.17367477167498829 -0.14650171544493301 0 0.1629157816416516 -0.14256669824426621 0 0.1663472006871273 -0.15291700755643739 0 0.17367477167498829 -0.14650171544493301 0 0.1663472006871273 -0.15291700755643739 0 0.1735950126508996 -0.15314424458671999 0 0.17367477167498829 -0.14650171544493301 0 0.1663472006871273 -0.15291700755643739 0 0.1735950126508996 -0.15314424458671999 0 0.17189888750643589 -0.15951079490884421 0 0.15021158954477959 -0.1144901389957695 0 0.15179981894433481 -0.13428439542417911 0 0.1692833858395808 -0.1328212922047777 0 0.15179981894433481 -0.13428439542417911 0 0.1629157816416516 -0.14256669824426621 0 0.1692833858395808 -0.1328212922047777 0 0.17756367965108169 -0.11681777231375121 0 0.1692833858395808 -0.1328212922047777 0 0.1838500666790534 -0.13221698249948119 0 0.1692833858395808 -0.1328212922047777 0 0.17976483490536099 -0.140609749609448 0 0.1838500666790534 -0.13221698249948119 0 0.1692833858395808 -0.1328212922047777 0 0.17976483490536099 -0.140609749609448 0 0.17367477167498829 -0.14650171544493301 0 0.17976483490536099 -0.140609749609448 0 0.1838500666790534 -0.13221698249948119 0 0.18670413706631259 -0.14704200312235 0 0.17840993830560359 -0.14910898424536351 0 0.1735950126508996 -0.15314424458671999 0 0.17764426508034281 -0.15768272077802201 0 0.17840993830560359 -0.14910898424536351 0 0.1735950126508996 -0.15314424458671999 0 0.17367477167498829 -0.14650171544493301 0 0.17976483490536099 -0.140609749609448 0 0.17840993830560359 -0.14910898424536351 0 0.17367477167498829 -0.14650171544493301 0 0.17976483490536099 -0.140609749609448 0 0.17840993830560359 -0.14910898424536351 0 0.18670413706631259 -0.14704200312235 0 0.17840993830560359 -0.14910898424536351 0 0.18670413706631259 -0.14704200312235 0 0.17764426508034281 -0.15768272077802201 0 0.18783960563216809 -0.15618922641657851 0 0.18646087667375311 -0.16351881724751849 0 0.17749068546676491 -0.1718033186403502 0 0.18670413706631259 -0.14704200312235 0 0.17749068546676491 -0.1718033186403502 0 0.18783960563216809 -0.15618922641657851 0 0.18670413706631259 -0.14704200312235 0 0.17749068546676491 -0.1718033186403502 0 0.18670413706631259 -0.14704200312235 0 0.17764426508034281 -0.15768272077802201 0 0.17749068546676491 -0.1718033186403502 0 0.19392452753968681 -0.17210062059548489 0 0.17749068546676491 -0.1718033186403502 0 0.184912896847575 -0.16929531972285419 0 0.17764426508034281 -0.15768272077802201 0 0.17326524905431351 -0.16369993339582151 0 0.17189888750643589 -0.15951079490884421 0 0.1735950126508996 -0.15314424458671999 0 0.17764426508034281 -0.15768272077802201 0 0.17189888750643589 -0.15951079490884421 0 0.17326524905431351 -0.16369993339582151 0 0.17749068546676491 -0.1718033186403502 0 0.16602715816371039 -0.16580289925606961 0 0.17764426508034281 -0.15768272077802201 0 0.17326524905431351 -0.16369993339582151 0 0.17749068546676491 -0.1718033186403502 0 0.18646087667375311 -0.16351881724751849 0 0.17749068546676491 -0.1718033186403502 0 0.184912896847575 -0.16929531972285419 0 0.188223468008381 -0.16693637581548049 0 0.18646087667375311 -0.16351881724751849 0 0.184912896847575 -0.16929531972285419 0 0.1965250741672345 -0.17463117629778149 0 0.1755032210676101 -0.1771446646643344 0 0.1941861010806572 -0.18997457817236699 0 0.16980034792647919 -0.1924712379556523 0 0.1755032210676101 -0.1771446646643344 0 0.19392452753968681 -0.17210062059548489 0 0.17749068546676491 -0.1718033186403502 0 0.1755032210676101 -0.1771446646643344 0 0.19392452753968681 -0.17210062059548489 0 0.17749068546676491 -0.1718033186403502 0 0.16980034792647919 -0.1924712379556523 0 0.1755032210676101 -0.1771446646643344 0 0.17749068546676491 -0.1718033186403502 0 0.1755032210676101 -0.1771446646643344 0 0.14734905494797679 -0.17125803132138931 0 0.17749068546676491 -0.1718033186403502 0 0.1755032210676101 -0.1771446646643344 0 0.14973341694245559 -0.18022584416692661 0 0.14734905494797679 -0.17125803132138931 0 0.1755032210676101 -0.1771446646643344 0 0.14973341694245559 -0.18022584416692661 0 0.1755032210676101 -0.1771446646643344 0 0.16980034792647919 -0.1924712379556523 0 0.14973341694245559 -0.18022584416692661 0 0.1755032210676101 -0.1771446646643344 0 0.14734905494797679 -0.17125803132138931 0 0.17749068546676491 -0.1718033186403502 0 0.14734905494797679 -0.17125803132138931 0 0.17749068546676491 -0.1718033186403502 0 0.16602715816371039 -0.16580289925606961 0 0.14734905494797679 -0.17125803132138931 0 0.15835911523973389 -0.16445046575460739 0 0.16602715816371039 -0.16580289925606961 0 0.15835911523973389 -0.16445046575460739 0 0.1564778344051258 -0.1568707500538746 0 0.16413278043412291 -0.16022923221535371 0 0.1663472006871273 -0.15291700755643739 0 0.1564778344051258 -0.1568707500538746 0 0.16413278043412291 -0.16022923221535371 0 0.15835911523973389 -0.16445046575460739 0 0.16413278043412291 -0.16022923221535371 0 0.16602715816371039 -0.16580289925606961 0 0.17189888750643589 -0.15951079490884421 0 0.16413278043412291 -0.16022923221535371 0 0.16602715816371039 -0.16580289925606961 0 0.1663472006871273 -0.15291700755643739 0 0.17189888750643589 -0.15951079490884421 0 0.16413278043412291 -0.16022923221535371 0 0.17326524905431351 -0.16369993339582151 0 0.17189888750643589 -0.15951079490884421 0 0.16602715816371039 -0.16580289925606961 0 
</DataArray>
</Points>
<Cells>
<DataArray type="UInt32" Name="connectivity" format="ascii">
0 1 2 3 4 5 6 7 8 9 10 11 12 13 14 15 16 17 18 19 20 21 22 23 24 25 26 27 28 29 30 31 32 33 34 35 36 37 38 39 40 41 42 43 44 45 46 47 48 49 50 51 52 53 54 55 56 57 58 59 60 61 62 63 64 65 66 67 68 69 70 71 72 73 74 75 76 77 78 79 80 81 82 83 84 85 86 87 88 89 90 91 92 93 94 95 96 97 98 99 100 101 102 103 104 105 106 107 108 109 110 111 112 113 114 115 116 117 118 119 120 121 122 123 124 125 126 127 128 129 130 131 132 133 134 135 136 137 138 139 140 141 142 143 144 145 146 147 148 149 150 151 152 153 154 155 156 157 158 159 160 161 162 163 164 165 166 167 168 169 170 171 172 173 174 175 176 177 178 179 180 181 182 183 184 185 186 187 188 189 190 191 192 193 194 195 196 197 198 199 200 201 202 203 204 205 206 207 208 209 210 211 212 213 214 215 216 217 218 219 220 221 222 223 224 225 226 227 228 229 230 231 232 233 234 235 236 237 238 239 240 241 242 243 244 245 246 247 248 249 250 251 252 253 254 255 256 257 258 259 260 261 262 263 264 265 266 267 268 269 270 271 272 273 274 275 276 277 278 279 280 281 282 283 284 285 286 287 288 289 290 291 292 293 294 295 296 297 298 299 300 301 302 303 304 305 306 307 308 309 310 311 312 313 314 315 316 317 318 319 320 321 322 323 324 325 326 327 328 329 330 331 332 333 334 335 336 337 338 339 340 341 342 343 344 345 346 347 348 349 350 351 352 353 354 355 356 357 358 359 360 361 362 363 364 365 366 367 368 369 370 371 372 373 374 375 376 377 378 379 380 381 382 383 384 385 386 387 388 389 390 391 392 393 394 395 396 397 398 399 400 401 402 403 404 405 406 407 408 409 410 411 412 413 414 415 416 417 418 419 420 421 422 423 424 425 426 427 428 429 430 431 432 433 434 435 436 437 438 439 440 441 442 443 444 445 446 447 448 449 450 451 452 453 454 455 456 457 458 459 460 461 462 463 464 465 466 467 468 469 470 471 472 473 474 475 476 477 478 479 480 481 482 483 484 485 486 487 488 489 490 491 492 493 494 495 496 497 498 499 500 501 502 503 504 505 506 507 508 509 510 511 512 513 514 515 516 517 518 519 520 521 522 523 524 525 526 527 528 529 530 531 532 533 534 535 536 537 538 539 540 541 542 543 544 545 546 547 548 549 550 551 552 553 554 555 556 557 558 559 560 561 562 563 564 565 566 567 568 569 570 571 572 573 574 575 576 577 578 579 580 581 582 583 584 585 586 587 588 589 590 591 592 593 594 595 596 597 598 599 600 601 602 603 604 605 606 607 608 609 610 611 612 613 614 615 616 617 618 619 620 621 622 623 624 625 626 627 628 629 630 631 632 633 634 635 636 637 638 639 640 641 642 643 644 645 646 647 648 649 650 651 652 653 654 655 656 657 658 659 660 661 662 663 664 665 666 667 668 669 670 671 672 673 674 675 676 677 678 679 680 681 682 683 684 685 686 687 688 689 690 691 692 693 694 695 696 697 698 699 700 701 702 703 704 705 706 707 708 709 710 711 712 713 714 715 716 717 718 719 720 721 722 723 724 725 726 727 728 729 730 731 732 733 734 735 736 737 738 739 740 741 742 743 744 745 746 747 748 749 750 751 752 753 754 755 756 757 758 759 760 761 762 763 764 765 766 767 768 769 770 771 772 773 774 775 776 777 778 779 780 781 782 783 784 785 786 787 788 789 790 791 792 793 794 795 796 797 798 799 800 801 802 803 804 805 806 807 808 809 810 811 812 813 814 815 816 817 818 819 820 821 822 823 824 825 826 827 828 829 830 831 832 833 834 835 836 837 838 839 840 841 842 843 844 845 846 847 848 849 850 851 852 853 854 855 856 857 858 859 860 861 862 863 864 865 866 867 868 869 870 871 872 873 874 875 876 877 878 879 880 881 882 883 884 885 886 887 888 889 890 891 892 893 894 895 896 897 898 899 900 901 902 903 904 905 906 907 908 909 910 911 912 913 914 915 916 917 918 919 920 921 922 923 924 925 926 927 928 929 930 931 932 933 934 935 936 937 938 939 940 941 942 943 944 945 946 947 948 949 950 951 952 953 954 955 956 957 958 959 960 961 962 963 964 965 966 967 968 969 970 971 972 973 974 975 976 977 978 979 980 981 982 983 984 985 986 987 988 989 990 991 992 993 994 995 996 997 998 999 1000 1001 1002 1003 1004 1005 1006 1007 1008 1009 1010 1011 1012 1013 1014 1015 1016 1017 1018 1019 1020 1021 1022 1023 1024 1025 1026 1027 1028 1029 1030 1031 1032 1033 1034 1035 1036 1037 1038 1039 1040 1041 1042 1043 1044 1045 1046 1047 1048 1049 1050 1051 1052 1053 1054 1055 1056 1057 1058 1059 1060 1061 1062 1063 1064 1065 1066 1067 1068 1069 1070 1071 1072 1073 1074 1075 1076 1077 1078 1079 1080 1081 1082 1083 1084 1085 1086 1087 1088 1089 1090 1091 1092 1093 1094 1095 1096 1097 1098 1099 1100 1101 1102 1103 1104 1105 1106 1107 1108 1109 1110 1111 1112 1113 1114 1115 1116 1117 1118 1119 1120 1121 1122 1123 1124 1125 1126 1127 1128 1129 1130 1131 1132 1133 1134 1135 1136 1137 1138 1139 1140 1141 1142 1143 1144 1145 1146 1147 1148 1149 1150 1151 1152 1153 1154 1155 1156 1157 1158 1159 1160 1161 1162 1163 1164 1165 1166 1167 1168 1169 1170 1171 1172 1173 1174 1175 1176 1177 1178 1179 1180 1181 1182 1183 1184 1185 1186 1187 1188 1189 1190 1191 1192 1193 1194 1195 1196 1197 1198 1199 1200 1201 1202 1203 1204 1205 1206 1207 1208 1209 1210 1211 1212 1213 1214 1215 1216 1217 1218 1219 1220 1221 1222 1223 1224 1225 1226 1227 1228 1229 1230 1231 1232 1233 1234 1235 1236 1237 1238 1239 1240 1241 1242 1243 1244 1245 1246 1247 1248 1249 1250 1251 1252 1253 1254 1255 1256 1257 1258 1259 1260 1261 1262 1263 1264 1265 1266 1267 1268 1269 1270 1271 1272 1273 1274 1275 1276 1277 1278 1279 1280 1281 1282 1283 1284 1285 1286 1287 1288 1289 1290 1291 1292 1293 1294 1295 1296 1297 1298 1299 1300 1301 1302 1303 1304 1305 1306 1307 1308 1309 1310 1311 1312 1313 1314 1315 1316 1317 1318 1319 1320 1321 1322 1323 1324 1325 1326 1327 1328 1329 1330 1331 1332 1333 1334 1335 1336 1337 1338 1339 1340 1341 1342 1343 1344 1345 1346 1347 1348 1349 1350 1351 1352 1353 1354 1355 1356 1357 1358 1359 1360 1361 1362 1363 1364 1365 1366 1367 1368 1369 1370 1371 1372 1373 1374 1375 1376 1377 1378 1379 1380 1381 1382 1383 1384 1385 1386 1387 1388 1389 1390 1391 1392 1393 1394 1395 1396 1397 1398 1399 1400 1401 1402 1403 1404 1405 1406 1407 1408 1409 1410 1411 1412 1413 1414 1415 1416 1417 1418 1419 1420 1421 1422 1423 1424 1425 1426 1427 1428 1429 1430 1431 1432 1433 1434 1435 1436 1437 1438 1439 1440 1441 1442 1443 1444 1445 1446 1447 1448 1449 1450 1451 1452 1453 1454 1455 1456 1457 1458 1459 1460 1461 1462 1463 1464 1465 1466 1467 1468 1469 1470 1471 1472 1473 1474 1475 1476 1477 1478 1479 1480 1481 1482 1483 1484 1485 1486 1487 1488 1489 1490 1491 1492 1493 1494 1495 1496 1497 1498 1499 1500 1501 1502 1503 1504 1505 1506 1507 1508 1509 1510 1511 1512 1513 1514 1515 1516 1517 1518 1519 1520 1521 1522 1523 1524 1525 1526 1527 1528 1529 1530 1531 1532 1533 1534 1535 1536 1537 1538 1539 1540 1541 1542 1543 1544 1545 1546 1547 1548 1549 1550 1551 1552 1553 1554 1555 1556 1557 1558 1559 1560 1561 1562 1563 1564 1565 1566 1567 1568 1569 1570 1571 1572 1573 1574 1575 1576 1577 1578 1579 1580 1581 1582 1583 1584 1585 1586 1587 1588 1589 1590 1591 1592 1593 1594 1595 1596 1597 1598 1599 1600 1601 1602 1603 1604 1605 1606 1607 1608 1609 1610 1611 1612 1613 1614 1615 1616 1617 1618 1619 1620 1621 1622 1623 1624 1625 1626 1627 1628 1629 1630 1631 1632 1633 1634 1635 1636 1637 1638 1639 1640 1641 1642 1643 1644 1645 1646 1647 1648 1649 1650 1651 1652 1653 1654 1655 1656 1657 1658 1659 1660 1661 1662 1663 1664 1665 1666 1667 1668 1669 1670 1671 1672 1673 1674 1675 1676 1677 1678 1679 1680 1681 1682 1683 1684 1685 1686 1687 1688 1689 1690 1691 1692 1693 1694 1695 1696 1697 1698 1699 1700 1701 1702 1703 1704 1705 1706 1707 1708 1709 1710 1711 1712 1713 1714 1715 1716 1717 1718 1719 1720 1721 1722 1723 1724 1725 1726 1727 1728 1729 1730 1731 1732 1733 1734 1735 1736 1737 1738 1739 1740 1741 1742 1743 1744 1745 1746 1747 1748 1749 1750 1751 1752 1753 1754 1755 1756 1757 1758 1759 1760 1761 1762 1763 1764 1765 1766 1767 1768 1769 1770 1771 1772 1773 1774 1775 1776 1777 1778 1779 1780 1781 1782 1783 1784 1785 1786 1787 1788 1789 1790 1791 1792 1793 1794 1795 1796 1797 1798 1799 1800 1801 1802 1803 1804 1805 1806 1807 1808 1809 1810 1811 1812 1813 1814 1815 1816 1817 1818 1819 1820 1821 1822 1823 1824 1825 1826 1827 1828 1829 1830 1831 1832 1833 1834 1835 1836 1837 1838 1839 1840 1841 1842 1843 1844 1845 1846 1847 1848 1849 1850 1851 1852 1853 1854 1855 1856 1857 1858 1859 1860 1861 1862 1863 1864 1865 1866 1867 1868 1869 1870 1871 1872 1873 1874 1875 1876 1877 1878 1879 1880 1881 1882 1883 1884 1885 1886 1887 1888 1889 1890 1891 1892 1893 1894 1895 1896 1897 1898 1899 1900 1901 1902 1903 1904 1905 1906 1907 1908 1909 1910 1911 1912 1913 1914 1915 1916 1917 1918 1919 1920 1921 1922 1923 1924 1925 1926 1927 1928 1929 1930 1931 1932 1933 1934 1935 1936 1937 1938 1939 1940 1941 1942 1943 1944 1945 1946 1947 1948 1949 1950 1951 1952 1953 1954 1955 1956 1957 1958 1959 1960 1961 1962 1963 1964 1965 1966 1967 1968 1969 1970 1971 1972 1973 1974 1975 1976 1977 1978 1979 1980 1981 1982 1983 1984 1985 1986 1987 1988 1989 1990 1991 1992 1993 1994 1995 1996 1997 1998 1999 2000 2001 2002 2003 2004 2005 2006 2007 2008 2009 2010 2011 2012 2013 2014 2015 2016 2017 2018 2019 2020 2021 2022 2023 2024 2025 2026 2027 2028 2029 2030 2031 2032 2033 2034 2035 2036 2037 2038 2039 2040 2041 2042 2043 2044 2045 2046 2047 2048 2049 2050 2051 2052 2053 2054 2055 2056 2057 2058 2059 2060 2061 2062 2063 2064 2065 2066 2067 2068 2069 2070 2071 2072 2073 2074 2075 2076 2077 2078 2079 2080 2081 2082 2083 2084 2085 2086 2087 2088 2089 2090 2091 2092 2093 2094 2095 2096 2097 2098 2099 2100 2101 2102 2103 2104 2105 2106 2107 2108 2109 2110 2111 2112 2113 2114 2115 2116 2117 2118 2119 2120 2121 2122 2123 2124 2125 2126 2127 2128 2129 2130 2131 2132 2133 2134 2135 2136 2137 2138 2139 2140 2141 2142 2143 2144 2145 2146 2147 2148 2149 2150 2151 2152 2153 2154 2155 2156 2157 2158 2159 2160 2161 2162 2163 2164 2165 2166 2167 2168 2169 2170 2171 2172 2173 2174 2175 2176 2177 2178 2179 2180 2181 2182 2183 2184 2185 2186 2187 2188 2189 2190 2191 2192 2193 2194 2195 2196 2197 2198 2199 2200 2201 2202 2203 2204 2205 2206 2207 2208 2209 2210 2211 2212 2213 2214 2215 2216 2217 2218 2219 2220 2221 2222 2223 2224 2225 2226 2227 2228 2229 2230 2231 2232 2233 2234 2235 2236 2237 2238 2239 2240 2241 2242 2243 2244 2245 2246 2247 2248 2249 2250 2251 2252 2253 2254 2255 2256 2257 2258 2259 2260 2261 2262 2263 2264 2265 2266 2267 2268 2269 2270 2271 2272 2273 2274 2275 2276 2277 2278 2279 2280 2281 2282 2283 2284 2285 2286 2287 2288 2289 2290 2291 2292 2293 2294 2295 2296 2297 2298 2299 2300 2301 2302 2303 2304 2305 2306 2307 2308 2309 2310 2311 2312 2313 2314 2315 2316 2317 2318 2319 2320 2321 2322 2323 2324 2325 2326 2327 2328 2329 2330 2331 2332 2333 2334 2335 2336 2337 2338 2339 2340 2341 2342 2343 2344 2345 2346 2347 2348 2349 2350 2351 2352 2353 2354 2355 2356 2357 2358 2359 2360 2361 2362 2363 2364 2365 2366 2367 2368 2369 2370 2371 2372 2373 2374 2375 2376 2377 2378 2379 2380 2381 2382 2383 2384 2385 2386 2387 2388 2389 2390 2391 2392 2393 2394 2395 2396 2397 2398 2399 2400 2401 2402 2403 2404 2405 2406 2407 2408 2409 2410 2411 2412 2413 2414 2415 2416 2417 2418 2419 2420 2421 2422 2423 2424 2425 2426 2427 2428 2429 2430 2431 2432 2433 2434 2435 2436 2437 2438 2439 2440 2441 2442 2443 2444 2445 2446 2447 2448 2449 2450 2451 2452 2453 2454 2455 2456 2457 2458 2459 2460 2461 2462 2463 2464 2465 2466 2467 2468 2469 2470 2471 2472 2473 2474 2475 2476 2477 2478 2479 2480 2481 2482 2483 2484 2485 2486 2487 2488 2489 2490 2491 2492 2493 2494 2495 2496 2497 2498 2499 2500 2501 2502 2503 2504 2505 2506 2507 2508 2509 2510 2511 2512 2513 2514 2515 2516 2517 2518 2519 2520 2521 2522 2523 2524 2525 2526 2527 2528 2529 2530 2531 2532 2533 2534 2535 2536 2537 2538 2539 2540 2541 2542 2543 2544 2545 2546 2547 2548 2549 2550 2551 2552 2553 2554 2555 2556 2557 2558 2559 2560 2561 2562 2563 2564 2565 2566 2567 2568 2569 2570 2571 2572 2573 2574 2575 2576 2577 2578 2579 2580 2581 2582 2583 2584 2585 2586 2587 2588 2589 2590 2591 2592 2593 2594 2595 2596 2597 2598 2599 2600 2601 2602 2603 2604 2605 2606 2607 2608 2609 2610 2611 2612 2613 2614 2615 2616 2617 2618 2619 2620 2621 2622 2623 2624 2625 2626 2627 2628 2629 2630 2631 2632 2633 2634 2635 2636 2637 2638 2639 2640 2641 2642 2643 2644 2645 2646 2647 2648 2649 2650 2651 2652 2653 2654 2655 2656 2657 2658 2659 2660 2661 2662 2663 2664 2665 2666 2667 2668 2669 2670 2671 2672 2673 2674 2675 2676 2677 2678 2679 2680 2681 2682 2683 2684 2685 2686 2687 2688 2689 2690 2691 2692 2693 2694 2695 2696 2697 2698 2699 2700 2701 2702 2703 2704 2705 2706 2707 2708 2709 2710 2711 2712 2713 2714 2715 2716 2717 2718 2719 2720 2721 2722 2723 2724 2725 2726 2727 2728 2729 2730 2731 2732 2733 2734 2735 2736 2737 2738 2739 2740 2741 2742 2743 2744 2745 2746 2747 2748 2749 2750 2751 2752 2753 2754 2755 2756 2757 2758 2759 2760 2761 2762 2763 2764 2765 2766 2767 2768 2769 2770 2771 2772 2773 2774 2775 2776 2777 2778 2779 2780 2781 2782 2783 2784 2785 2786 2787 2788 2789 2790 2791 2792 2793 2794 2795 2796 2797 2798 2799 2800 2801 2802 2803 2804 2805 2806 2807 2808 2809 2810 2811 2812 2813 2814 2815 2816 2817 2818 2819 2820 2821 2822 2823 2824 2825 2826 2827 2828 2829 2830 2831 2832 2833 2834 2835 2836 2837 2838 2839 2840 2841 2842 2843 2844 2845 2846 2847 2848 2849 2850 2851 2852 2853 2854 2855 2856 2857 2858 2859 2860 2861 2862 2863 2864 2865 2866 2867 2868 2869 2870 2871 2872 2873 2874 2875 2876 2877 2878 2879 2880 2881 2882 2883 2884 2885 2886 2887 2888 2889 2890 2891 2892 2893 2894 2895 2896 2897 2898 2899 2900 2901 2902 2903 2904 2905 2906 2907 2908 2909 2910 2911 2912 2913 2914 2915 2916 2917 2918 2919 2920 2921 2922 2923 2924 2925 2926 2927 2928 2929 2930 2931 2932 2933 2934 2935 2936 2937 2938 2939 2940 2941 2942 2943 2944 2945 2946 2947 2948 2949 2950 2951 2952 2953 2954 2955 2956 2957 2958 2959 2960 2961 2962 2963 2964 2965 2966 2967 2968 2969 2970 2971 2972 2973 2974 2975 2976 2977 2978 2979 2980 2981 2982 2983 2984 2985 2986 2987 2988 2989 2990 2991 2992 2993 2994 2995 2996 2997 2998 2999 3000 3001 3002 3003 3004 3005 3006 3007 3008 3009 3010 3011 3012 3013 3014 3015 3016 3017 3018 3019 3020 3021 3022 3023 3024 3025 3026 3027 3028 3029 3030 3031 3032 3033 3034 3035 3036 3037 3038 3039 3040 3041 3042 3043 3044 3045 3046 3047 3048 3049 3050 3051 3052 3053 3054 3055 3056 3057 3058 3059 3060 3061 3062 3063 3064 3065 3066 3067 3068 3069 3070 3071 3072 3073 3074 3075 3076 3077 3078 3079 3080 3081 3082 3083 3084 3085 3086 3087 3088 3089 3090 3091 3092 3093 3094 3095 3096 3097 3098 3099 3100 3101 3102 3103 3104 3105 3106 3107 3108 3109 3110 3111 3112 3113 3114 3115 3116 3117 3118 3119 3120 3121 3122 3123 3124 3125 3126 3127 3128 3129 3130 3131 3132 3133 3134 3135 3136 3137 3138 3139 3140 3141 3142 3143 3144 3145 3146 3147 3148 3149 3150 3151 3152 3153 3154 3155 3156 3157 3158 3159 3160 3161 3162 3163 3164 3165 3166 3167 3168 3169 3170 3171 3172 3173 3174 3175 3176 3177 3178 3179 3180 3181 3182 3183 3184 3185 3186 3187 3188 3189 3190 3191 3192 3193 3194 3195 3196 3197 3198 3199 3200 3201 3202 3203 3204 3205 3206 3207 3208 3209 3210 3211 3212 3213 3214 3215 3216 3217 3218 3219 3220 3221 3222 3223 3224 3225 3226 3227 3228 3229 3230 3231 3232 3233 3234 3235 3236 3237 3238 3239 3240 3241 3242 3243 3244 3245 3246 3247 3248 3249 3250 3251 3252 3253 3254 3255 3256 3257 3258 3259 3260 3261 3262 3263 3264 3265 3266 3267 3268 3269 3270 3271 3272 3273 3274 3275 3276 3277 3278 3279 3280 3281 3282 3283 3284 3285 3286 3287 3288 3289 3290 3291 3292 3293 3294 3295 3296 3297 3298 3299 3300 3301 3302 3303 3304 3305 3306 3307 3308 3309 3310 3311 3312 3313 3314 3315 3316 3317 3318 3319 3320 3321 3322 3323 3324 3325 3326 3327 3328 3329 3330 3331 3332 3333 3334 3335 3336 3337 3338 3339 3340 3341 3342 3343 3344 3345 3346 3347 3348 3349 3350 3351 3352 3353 3354 3355 3356 3357 3358 3359 3360 3361 3362 3363 3364 3365 3366 3367 3368 3369 3370 3371 3372 3373 3374 3375 3376 3377 3378 3379 3380 3381 3382 3383 3384 3385 3386 3387 3388 3389 3390 3391 3392 3393 3394 3395 3396 3397 3398 3399 3400 3401 3402 3403 3404 3405 3406 3407 3408 3409 3410 3411 3412 3413 3414 3415 3416 3417 3418 3419 3420 3421 3422 3423 3424 3425 3426 3427 3428 3429 3430 3431 3432 3433 3434 3435 3436 3437 3438 3439 3440 3441 3442 3443 3444 3445 3446 3447 3448 3449 3450 3451 3452 3453 3454 3455 3456 3457 3458 3459 3460 3461 3462 3463 3464 3465 3466 3467 3468 3469 3470 3471 3472 3473 3474 3475 3476 3477 3478 3479 3480 3481 3482 3483 3484 3485 3486 3487 3488 3489 3490 3491 3492 3493 3494 3495 3496 3497 3498 3499 3500 3501 3502 3503 3504 3505 3506 3507 3508 3509 3510 3511 3512 3513 3514 3515 3516 3517 3518 3519 3520 3521 3522 3523 3524 3525 3526 3527 3528 3529 3530 3531 3532 3533 3534 3535 3536 3537 3538 3539 3540 3541 3542 3543 3544 3545 3546 3547 3548 3549 3550 3551 3552 3553 3554 3555 3556 3557 3558 3559 3560 3561 3562 3563 3564 3565 3566 3567 3568 3569 3570 3571 3572 3573 3574 3575 3576 3577 3578 3579 3580 3581 3582 3583 3584 3585 3586 3587 3588 3589 3590 3591 3592 3593 3594 3595 3596 3597 3598 3599 3600 3601 3602 3603 3604 3605 3606 3607 3608 3609 3610 3611 3612 3613 3614 3615 3616 3617 3618 3619 3620 3621 3622 3623 3624 3625 3626 3627 3628 3629 3630 3631 3632 3633 3634 3635 3636 3637 3638 3639 3640 3641 3642 3643 3644 3645 3646 3647 3648 3649 3650 3651 3652 3653 3654 3655 3656 3657 3658 3659 3660 3661 3662 3663 3664 3665 3666 3667 3668 3669 3670 3671 3672 3673 3674 3675 3676 3677 3678 3679 3680 3681 3682 3683 3684 3685 3686 3687 3688 3689 3690 3691 3692 3693 3694 3695 3696 3697 3698 3699 3700 3701 3702 3703 3704 3705 3706 3707 3708 3709 3710 3711 3712 3713 3714 3715 3716 3717 3718 3719 3720 3721 3722 3723 3724 3725 3726 3727 3728 3729 3730 3731 3732 3733 3734 3735 3736 3737 3738 3739 3740 3741 3742 3743 3744 3745 3746 3747 3748 3749 3750 3751 3752 3753 3754 3755 3756 3757 3758 3759 3760 3761 3762 3763 3764 3765 3766 3767 3768 3769 3770 3771 3772 3773 3774 3775 3776 3777 3778 3779 3780 3781 3782 3783 3784 3785 3786 3787 3788 3789 3790 3791 3792 3793 3794 3795 3796 3797 3798 3799 3800 3801 3802 3803 3804 3805 3806 3807 3808 3809 3810 3811 3812 3813 3814 3815 3816 3817 3818 3819 3820 3821 3822 3823 3824 3825 3826 3827 3828 3829 3830 3831 3832 3833 3834 3835 3836 3837 3838 3839 3840 3841 3842 3843 3844 3845 3846 3847 3848 3849 3850 3851 3852 3853 3854 3855 3856 3857 3858 3859 3860 3861 3862 3863 3864 3865 3866 3867 3868 3869 3870 3871 3872 3873 3874 3875 3876 3877 3878 3879 3880 3881 3882 3883 3884 3885 3886 3887 3888 3889 3890 3891 3892 3893 3894 3895 3896 3897 3898 3899 3900 3901 3902 3903 3904 3905 3906 3907 3908 3909 3910 3911 3912 3913 3914 3915 3916 3917 3918 3919 3920 3921 3922 3923 3924 3925 3926 3927 3928 3929 3930 3931 3932 3933 3934 3935 3936 3937 3938 3939 3940 3941 3942 3943 3944 3945 3946 3947 3948 3949 3950 3951 3952 3953 3954 3955 3956 3957 3958 3959 3960 3961 3962 3963 3964 3965 3966 3967 3968 3969 3970 3971 3972 3973 3974 3975 3976 3977 3978 3979 3980 3981 3982 3983 3984 3985 3986 3987 3988 3989 3990 3991 3992 3993 3994 3995 3996 3997 3998 3999 4000 4001 4002 4003 4004 4005 4006 4007 4008 4009 4010 4011 4012 4013 4014 4015 4016 4017 4018 4019 4020 4021 4022 4023 4024 4025 4026 4027 4028 4029 4030 4031 4032 4033 4034 4035 4036 4037 4038 4039 4040 4041 4042 4043 4044 4045 4046 4047 4048 4049 4050 4051 4052 4053 4054 4055 4056 4057 4058 4059 4060 4061 4062 4063 4064 4065 4066 4067 4068 4069 4070 4071 4072 4073 4074 4075 4076 4077 4078 4079 4080 4081 4082 4083 4084 4085 4086 4087 4088 4089 4090 4091 4092 4093 4094 4095 4096 4097 4098 4099 4100 4101 4102 4103 4104 4105 4106 4107 4108 4109 4110 4111 4112 4113 4114 4115 4116 4117 4118 4119 4120 4121 4122 4123 4124 4125 4126 4127 4128 4129 4130 4131 4132 4133 4134 4135 4136 4137 4138 4139 4140 4141 4142 4143 4144 4145 4146 4147 4148 4149 4150 4151 4152 4153 4154 4155 4156 4157 4158 4159 4160 4161 4162 4163 4164 4165 4166 4167 4168 4169 4170 4171 4172 4173 4174 4175 4176 4177 4178 4179 4180 4181 4182 4183 4184 4185 4186 4187 4188 4189 4190 4191 4192 4193 4194 4195 4196 4197 4198 4199 4200 4201 4202 4203 4204 4205 4206 4207 4208 4209 4210 4211 4212 4213 4214 4215 4216 4217 4218 4219 4220 4221 4222 4223 4224 4225 4226 4227 4228 4229 4230 4231 4232 4233 4234 4235 4236 4237 4238 4239 4240 4241 4242 4243 4244 4245 4246 4247 4248 4249 4250 4251 4252 4253 4254 4255 4256 4257 4258 4259 4260 4261 4262 4263 4264 4265 4266 4267 4268 4269 4270 4271 4272 4273 4274 4275 4276 4277 4278 4279 4280 4281 4282 4283 4284 4285 4286 4287 4288 4289 4290 4291 4292 4293 4294 4295 4296 4297 4298 4299 4300 4301 4302 4303 4304 4305 4306 4307 4308 4309 4310 4311 4312 4313 4314 4315 4316 4317 4318 4319 4320 4321 4322 4323 4324 4325 4326 4327 4328 4329 4330 4331 4332 4333 4334 4335 4336 4337 4338 4339 4340 4341 4342 4343 4344 4345 4346 4347 4348 4349 4350 4351 4352 4353 4354 4355 4356 4357 4358 4359 4360 4361 4362 4363 4364 4365 4366 4367 4368 4369 4370 4371 4372 4373 4374 4375 4376 4377 4378 4379 4380 4381 4382 4383 4384 4385 4386 4387 4388 4389 4390 4391 4392 4393 4394 4395 4396 4397 4398 4399 4400 4401 4402 4403 4404 4405 4406 4407 4408 4409 4410 4411 4412 4413 4414 4415 4416 4417 4418 4419 4420 4421 4422 4423 4424 4425 4426 4427 4428 4429 4430 4431 4432 4433 4434 4435 4436 4437 4438 4439 4440 4441 4442 4443 4444 4445 4446 4447 4448 4449 4450 4451 4452 4453 4454 4455 4456 4457 4458 4459 4460 4461 4462 4463 4464 4465 4466 4467 4468 4469 4470 4471 4472 4473 4474 4475 4476 4477 4478 4479 4480 4481 4482 4483 4484 4485 4486 4487 4488 4489 4490 4491 4492 4493 4494 4495 4496 4497 4498 4499 4500 4501 4502 4503 4504 4505 4506 4507 4508 4509 4510 4511 4512 4513 4514 4515 4516 4517 4518 4519 4520 4521 4522 4523 4524 4525 4526 4527 4528 4529 4530 4531 4532 4533 4534 4535 4536 4537 4538 4539 4540 4541 4542 4543 4544 4545 4546 4547 4548 4549 4550 4551 4552 4553 4554 4555 4556 4557 4558 4559 4560 4561 4562 4563 4564 4565 4566 4567 4568 4569 4570 4571 4572 4573 4574 4575 4576 4577 4578 4579 4580 4581 4582 4583 4584 4585 4586 4587 4588 4589 4590 4591 4592 4593 4594 4595 4596 4597 4598 4599 4600 4601 4602 4603 4604 4605 4606 4607 4608 4609 4610 4611 4612 4613 4614 4615 4616 4617 4618 4619 4620 4621 4622 4623 4624 4625 4626 4627 4628 4629 4630 4631 4632 4633 4634 4635 4636 4637 4638 4639 4640 4641 4642 4643 4644 4645 4646 4647 4648 4649 4650 4651 4652 4653 4654 4655 4656 4657 4658 4659 4660 4661 4662 4663 4664 4665 4666 4667 4668 4669 4670 4671 4672 4673 4674 4675 4676 4677 4678 4679 4680 4681 4682 4683 4684 4685 4686 4687 4688 4689 4690 4691 4692 4693 4694 4695 4696 4697 4698 4699 4700 4701 4702 4703 4704 4705 4706 4707 4708 4709 4710 4711 4712 4713 4714 4715 4716 4717 4718 4719 4720 4721 4722 4723 4724 4725 4726 4727 4728 4729 4730 4731 4732 4733 4734 4735 4736 4737 4738 4739 4740 4741 4742 4743 4744 4745 4746 4747 4748 4749 4750 4751 4752 4753 4754 4755 4756 4757 4758 4759 4760 4761 4762 4763 4764 4765 4766 4767 4768 4769 4770 4771 4772 4773 4774 4775 4776 4777 4778 4779 4780 4781 4782 4783 4784 4785 4786 4787 4788 4789 4790 4791 4792 4793 4794 4795 4796 4797 4798 4799 4800 4801 4802 4803 4804 4805 4806 4807 4808 4809 4810 4811 4812 4813 4814 4815 4816 4817 4818 4819 4820 4821 4822 4823 4824 4825 4826 4827 4828 4829 4830 4831 4832 4833 4834 4835 4836 4837 4838 4839 4840 4841 4842 4843 4844 4845 4846 4847 4848 4849 4850 4851 4852 4853 4854 4855 4856 4857 4858 4859 4860 4861 4862 4863 4864 4865 4866 4867 4868 4869 4870 4871 4872 4873 4874 4875 4876 4877 4878 4879 4880 4881 4882 4883 4884 4885 4886 4887 4888 4889 4890 4891 4892 4893 4894 4895 4896 4897 4898 4899 4900 4901 4902 4903 4904 4905 4906 4907 4908 4909 4910 4911 4912 4913 4914 4915 4916 4917 4918 4919 4920 4921 4922 4923 4924 4925 4926 4927 4928 4929 4930 4931 4932 4933 4934 4935 4936 4937 4938 4939 4940 4941 4942 4943 4944 4945 4946 4947 4948 4949 4950 4951 4952 4953 4954 4955 4956 4957 4958 4959 4960 4961 4962 4963 4964 4965 4966 4967 4968 4969 4970 4971 4972 4973 4974 4975 4976 4977 4978 4979 4980 4981 4982 4983 4984 4985 4986 4987 4988 4989 4990 4991 4992 4993 4994 4995 4996 4997 4998 4999 5000 5001 5002 5003 5004 5005 5006 5007 5008 5009 5010 5011 5012 5013 5014 5015 5016 5017 5018 5019 5020 5021 5022 5023 5024 5025 5026 5027 5028 5029 5030 5031 5032 5033 5034 5035 5036 5037 5038 5039 5040 5041 5042 5043 5044 5045 5046 5047 5048 5049 5050 5051 5052 5053 5054 5055 5056 5057 5058 5059 5060 5061 5062 5063 5064 5065 5066 5067 5068 5069 5070 5071 5072 5073 5074 5075 5076 5077 5078 5079 5080 5081 5082 5083 5084 5085 5086 5087 5088 5089 5090 5091 5092 5093 5094 5095 5096 5097 5098 5099 5100 5101 5102 5103 5104 5105 5106 5107 5108 5109 5110 5111 5112 5113 5114 5115 5116 5117 5118 5119 5120 5121 5122 5123 5124 5125 5126 5127 5128 5129 5130 5131 5132 5133 5134 5135 5136 5137 5138 5139 5140 5141 5142 5143 5144 5145 5146 5147 5148 5149 5150 5151 5152 5153 5154 5155 5156 5157 5158 5159 5160 5161 5162 5163 5164 5165 5166 5167 5168 5169 5170 5171 5172 5173 5174 5175 5176 5177 5178 5179 5180 5181 5182 5183 5184 5185 5186 5187 5188 5189 5190 5191 5192 5193 5194 5195 5196 5197 5198 5199 5200 5201 5202 5203 5204 5205 5206 5207 5208 5209 5210 5211 5212 5213 5214 5215 5216 5217 5218 5219 5220 5221 5222 5223 5224 5225 5226 5227 5228 5229 5230 5231 5232 5233 5234 5235 5236 5237 5238 5239 5240 5241 5242 5243 5244 5245 5246 5247 5248 5249 5250 5251 5252 5253 5254 5255 5256 5257 5258 5259 5260 5261 5262 5263 5264 5265 5266 5267 5268 5269 5270 5271 5272 5273 5274 5275 5276 5277 5278 5279 5280 5281 5282 5283 5284 5285 5286 5287 5288 5289 5290 5291 5292 5293 5294 5295 5296 5297 5298 5299 5300 5301 5302 5303 5304 5305 5306 5307 5308 5309 5310 5311 5312 5313 5314 5315 5316 5317 5318 5319 5320 5321 5322 5323 5324 5325 5326 5327 5328 5329 5330 5331 5332 5333 5334 5335 5336 5337 5338 5339 5340 5341 5342 5343 5344 5345 5346 5347 5348 5349 5350 5351 5352 5353 5354 5355 5356 5357 5358 5359 5360 5361 5362 5363 5364 5365 5366 5367 5368 5369 5370 5371 5372 5373 5374 5375 5376 5377 5378 5379 5380 5381 5382 5383 5384 5385 5386 5387 5388 5389 5390 5391 5392 5393 5394 5395 5396 5397 5398 5399 5400 5401 5402 5403 5404 5405 5406 5407 5408 5409 5410 5411 5412 5413 5414 5415 5416 5417 5418 5419 5420 5421 5422 5423 5424 5425 5426 5427 5428 5429 5430 5431 5432 5433 5434 5435 5436 5437 5438 5439 5440 5441 5442 5443 5444 5445 5446 5447 5448 5449 5450 5451 5452 5453 5454 5455 5456 5457 5458 5459 5460 5461 5462 5463 5464 5465 5466 5467 5468 5469 5470 5471 5472 5473 5474 5475 5476 5477 5478 5479 5480 5481 5482 5483 5484 5485 5486 5487 5488 5489 5490 5491 5492 5493 5494 5495 5496 5497 5498 5499 5500 5501 5502 5503 5504 5505 5506 5507 5508 5509 5510 5511 5512 5513 5514 5515 5516 5517 5518 5519 5520 5521 5522 5523 5524 5525 5526 5527 5528 5529 5530 5531 5532 5533 5534 5535 5536 5537 5538 5539 5540 5541 5542 5543 5544 5545 5546 5547 5548 5549 5550 5551 5552 5553 5554 5555 5556 5557 5558 5559 5560 5561 5562 5563 5564 5565 5566 5567 5568 5569 5570 5571 5572 5573 5574 5575 5576 5577 5578 5579 5580 5581 5582 5583 5584 5585 5586 5587 5588 5589 5590 5591 5592 5593 5594 5595 5596 5597 5598 5599 5600 5601 5602 5603 5604 5605 5606 5607 5608 5609 5610 5611 5612 5613 5614 5615 5616 5617 5618 5619 5620 5621 5622 5623 5624 5625 5626 5627 5628 5629 5630 5631 5632 5633 5634 5635 5636 5637 5638 5639 5640 5641 5642 5643 5644 5645 5646 5647 5648 5649 5650 5651 5652 5653 5654 5655 5656 5657 5658 5659 5660 5661 5662 5663 5664 5665 5666 5667 5668 5669 5670 5671 5672 5673 5674 5675 5676 5677 5678 5679 5680 5681 5682 5683 5684 5685 5686 5687 5688 5689 5690 5691 5692 5693 5694 5695 5696 5697 5698 5699 5700 5701 5702 5703 5704 5705 5706 5707 5708 5709 5710 5711 5712 5713 5714 5715 5716 5717 5718 5719 5720 5721 5722 5723 5724 5725 5726 5727 5728 5729 5730 5731 5732 5733 5734 5735 5736 5737 5738 5739 5740 5741 5742 5743 5744 5745 5746 5747 5748 5749 5750 5751 5752 5753 5754 5755 5756 5757 5758 5759 5760 5761 5762 5763 5764 5765 5766 5767 5768 5769 5770 5771 5772 5773 5774 5775 5776 5777 5778 5779 5780 5781 5782 5783 5784 5785 5786 5787 5788 5789 5790 5791 5792 5793 5794 5795 5796 5797 5798 5799 5800 5801 5802 5803 5804 5805 5806 5807 5808 5809 5810 5811 5812 5813 5814 5815 5816 5817 5818 5819 5820 5821 5822 5823 5824 5825 5826 5827 5828 5829 5830 5831 5832 5833 5834 5835 5836 5837 5838 5839 5840 5841 5842 5843 5844 5845 5846 5847 5848 5849 5850 5851 5852 5853 5854 5855 5856 5857 5858 5859 5860 5861 5862 5863 5864 5865 5866 5867 5868 5869 5870 5871 5872 5873 5874 5875 5876 5877 5878 5879 5880 5881 5882 5883 5884 5885 5886 5887 5888 5889 5890 5891 5892 5893 5894 5895 5896 5897 5898 5899 5900 5901 5902 5903 5904 5905 5906 5907 5908 5909 5910 5911 5912 5913 5914 5915 5916 5917 5918 5919 5920 5921 5922 5923 5924 5925 5926 5927 5928 5929 5930 5931 5932 5933 5934 5935 5936 5937 5938 5939 5940 5941 5942 5943 5944 5945 5946 5947 5948 5949 5950 5951 5952 5953 5954 5955 5956 5957 5958 5959 5960 5961 5962 5963 5964 5965 5966 5967 5968 5969 5970 5971 5972 5973 5974 5975 5976 5977 5978 5979 5980 5981 5982 5983 5984 5985 5986 5987 5988 5989 5990 5991 5992 5993 5994 5995 5996 5997 5998 5999 6000 6001 6002 6003 6004 6005 6006 6007 6008 6009 6010 6011 6012 6013 6014 6015 6016 6017 6018 6019 6020 6021 6022 6023 6024 6025 6026 6027 6028 6029 6030 6031 6032 6033 6034 6035 6036 6037 6038 6039 6040 6041 6042 6043 6044 6045 6046 6047 6048 6049 6050 6051 6052 6053 6054 6055 6056 6057 6058 6059 6060 6061 6062 6063 6064 6065 6066 6067 6068 6069 6070 6071 6072 6073 6074 6075 6076 6077 6078 6079 6080 6081 6082 6083 6084 6085 6086 6087 6088 6089 6090 6091 6092 6093 6094 6095 6096 6097 6098 6099 6100 6101 6102 6103 6104 6105 6106 6107 6108 6109 6110 6111 6112 6113 6114 6115 6116 6117 6118 6119 6120 6121 6122 6123 6124 6125 6126 6127 6128 6129 6130 6131 6132 6133 6134 6135 6136 6137 6138 6139 6140 6141 6142 6143 6144 6145 6146 6147 6148 6149 6150 6151 6152 6153 6154 6155 6156 6157 6158 6159 6160 6161 6162 6163 6164 6165 6166 6167 6168 6169 6170 6171 6172 6173 6174 6175 6176 6177 6178 6179 6180 6181 6182 6183 6184 6185 6186 6187 6188 6189 6190 6191 6192 6193 6194 6195 6196 6197 6198 6199 6200 6201 6202 6203 6204 6205 6206 6207 6208 6209 6210 6211 6212 6213 6214 6215 6216 6217 6218 6219 6220 6221 6222 6223 6224 6225 6226 6227 6228 6229 6230 6231 6232 6233 6234 6235 6236 6237 6238 6239 6240 6241 6242 6243 6244 6245 6246 6247 6248 6249 6250 6251 6252 6253 6254 6255 6256 6257 6258 6259 6260 6261 6262 6263 6264 6265 6266 6267 6268 6269 6270 6271 6272 6273 6274 6275 6276 6277 6278 6279 6280 6281 6282 6283 6284 6285 6286 6287 6288 6289 6290 6291 6292 6293 6294 6295 6296 6297 6298 6299 6300 6301 6302 6303 6304 6305 6306 6307 6308 6309 6310 6311 6312 6313 6314 6315 6316 6317 6318 6319 6320 6321 6322 6323 6324 6325 6326 6327 6328 6329 6330 6331 6332 6333 6334 6335 6336 6337 6338 6339 6340 6341 6342 6343 6344 6345 6346 6347 6348 6349 6350 6351 6352 6353 6354 6355 6356 6357 6358 6359 6360 6361 6362 6363 6364 6365 6366 6367 6368 6369 6370 6371 6372 6373 6374 6375 6376 6377 6378 6379 6380 6381 6382 6383 6384 6385 6386 6387 6388 6389 6390 6391 6392 6393 6394 6395 6396 6397 6398 6399 6400 6401 6402 6403 6404 6405 6406 6407 6408 6409 6410 6411 6412 6413 6414 6415 6416 6417 6418 6419 6420 6421 6422 6423 6424 6425 6426 6427 6428 6429 6430 6431 6432 6433 6434 6435 6436 6437 6438 6439 6440 6441 6442 6443 6444 6445 6446 6447 6448 6449 6450 6451 6452 6453 6454 6455 6456 6457 6458 6459 6460 6461 6462 6463 6464 6465 6466 6467 6468 6469 6470 6471 6472 6473 6474 6475 6476 6477 6478 6479 6480 6481 6482 6483 6484 6485 6486 6487 6488 6489 6490 6491 6492 6493 6494 6495 6496 6497 6498 6499 6500 6501 6502 6503 6504 6505 6506 6507 6508 6509 6510 6511 6512 6513 6514 6515 6516 6517 6518 6519 6520 6521 6522 6523 6524 6525 6526 6527 6528 6529 6530 6531 6532 6533 6534 6535 6536 6537 6538 6539 6540 6541 6542 6543 6544 6545 6546 6547 6548 6549 6550 6551 6552 6553 6554 6555 6556 6557 6558 6559 6560 6561 6562 6563 6564 6565 6566 6567 6568 6569 6570 6571 6572 6573 6574 6575 6576 6577 6578 6579 6580 6581 6582 6583 6584 6585 6586 6587 6588 6589 6590 6591 6592 6593 6594 6595 6596 6597 6598 6599 6600 6601 6602 6603 6604 6605 6606 6607 6608 6609 6610 6611 6612 6613 6614 6615 6616 6617 6618 6619 6620 6621 6622 6623 6624 6625 6626 6627 6628 6629 6630 6631 6632 6633 6634 6635 6636 6637 6638 6639 6640 6641 6642 6643 6644 6645 6646 6647 6648 6649 6650 6651 6652 6653 6654 6655 6656 6657 6658 6659 6660 6661 6662 6663 6664 6665 6666 6667 6668 6669 6670 6671 6672 6673 6674 6675 6676 6677 6678 6679 6680 6681 6682 6683 6684 6685 6686 6687 6688 6689 6690 6691 6692 6693 6694 6695 6696 6697 6698 6699 6700 6701 6702 6703 6704 6705 6706 6707 6708 6709 6710 6711 6712 6713 6714 6715 6716 6717 6718 6719 6720 6721 6722 6723 6724 6725 6726 6727 6728 6729 6730 6731 6732 6733 6734 6735 6736 6737 6738 6739 6740 6741 6742 6743 6744 6745 6746 6747 6748 6749 6750 6751 6752 6753 6754 6755 6756 6757 6758 6759 6760 6761 6762 6763 6764 6765 6766 6767 6768 6769 6770 6771 6772 6773 6774 6775 6776 6777 6778 6779 6780 6781 6782 6783 6784 6785 6786 6787 6788 6789 6790 6791 6792 6793 6794 6795 6796 6797 6798 6799 6800 6801 6802 6803 6804 6805 6806 6807 6808 6809 6810 6811 6812 6813 6814 6815 6816 6817 6818 6819 6820 6821 6822 6823 6824 6825 6826 6827 6828 6829 6830 6831 6832 6833 6834 6835 6836 6837 6838 6839 6840 6841 6842 6843 6844 6845 6846 6847 6848 6849 6850 6851 6852 6853 6854 6855 6856 6857 6858 6859 6860 6861 6862 6863 6864 6865 6866 6867 6868 6869 6870 6871 6872 6873 6874 6875 6876 6877 6878 6879 6880 6881 6882 6883 6884 6885 6886 6887 6888 6889 6890 6891 6892 6893 6894 6895 6896 6897 6898 6899 6900 6901 6902 6903 6904 6905 6906 6907 6908 6909 6910 6911 6912 6913 6914 6915 6916 6917 6918 6919 6920 6921 6922 6923 6924 6925 6926 6927 6928 6929 6930 6931 6932 6933 6934 6935 6936 6937 6938 6939 6940 6941 6942 6943 6944 6945 6946 6947 6948 6949 6950 6951 6952 6953 6954 6955 6956 6957 6958 6959 6960 6961 6962 6963 6964 6965 6966 6967 6968 6969 6970 6971 6972 6973 6974 6975 6976 6977 6978 6979 6980 6981 6982 6983 6984 6985 6986 6987 6988 6989 6990 6991 6992 6993 6994 6995 6996 6997 6998 6999 7000 7001 7002 7003 7004 7005 7006 7007 7008 7009 7010 7011 7012 7013 7014 7015 7016 7017 7018 7019 7020 7021 7022 7023 7024 7025 7026 7027 7028 7029 7030 7031 7032 7033 7034 7035 7036 7037 7038 7039 7040 7041 7042 7043 7044 7045 7046 7047 7048 7049 7050 7051 7052 7053 7054 7055 7056 7057 7058 7059 7060 7061 7062 7063 7064 7065 7066 7067 7068 7069 7070 7071 7072 7073 7074 7075 7076 7077 7078 7079 7080 7081 7082 7083 7084 7085 7086 7087 7088 7089 7090 7091 7092 7093 7094 7095 7096 7097 7098 7099 7100 7101 7102 7103 7104 7105 7106 7107 7108 7109 7110 7111 7112 7113 7114 7115 7116 7117 7118 7119 7120 7121 7122 7123 7124 7125 7126 7127 7128 7129 7130 7131 7132 7133 7134 7135 7136 7137 7138 7139 7140 7141 7142 7143 7144 7145 7146 7147 7148 7149 7150 7151 7152 7153 7154 7155 7156 7157 7158 7159 7160 7161 7162 7163 7164 7165 7166 7167 7168 7169 7170 7171 7172 7173 7174 7175 7176 7177 7178 7179 7180 7181 7182 7183 7184 7185 7186 7187 7188 7189 7190 7191 7192 7193 7194 7195 7196 7197 7198 7199 7200 7201 7202 7203 7204 7205 7206 7207 7208 7209 7210 7211 7212 7213 7214 7215 7216 7217 7218 7219 7220 7221 7222 7223 7224 7225 7226 7227 7228 7229 7230 7231 7232 7233 7234 7235 7236 7237 7238 7239 7240 7241 7242 7243 7244 7245 7246 7247 7248 7249 7250 7251 7252 7253 7254 7255 7256 7257 7258 7259 7260 7261 7262 7263 7264 7265 7266 7267 7268 7269 7270 7271 7272 7273 7274 7275 7276 7277 7278 7279 7280 7281 7282 7283 7284 7285 7286 7287 7288 7289 7290 7291 7292 7293 7294 7295 7296 7297 7298 7299 7300 7301 7302 7303 7304 7305 7306 7307 7308 7309 7310 7311 7312 7313 7314 7315 7316 7317 7318 7319 7320 7321 7322 7323 7324 7325 7326 7327 7328 7329 7330 7331 7332 7333 7334 7335 7336 7337 7338 7339 7340 7341 7342 7343 7344 7345 7346 7347 7348 7349 7350 7351 7352 7353 7354 7355 7356 7357 7358 7359 7360 7361 7362 7363 7364 7365 7366 7367 7368 7369 7370 7371 7372 7373 7374 7375 7376 7377 7378 7379 7380 7381 7382 7383 7384 7385 7386 7387 7388 7389 7390 7391 7392 7393 7394 7395 7396 7397 7398 7399 7400 7401 7402 7403 7404 7405 7406 7407 7408 7409 7410 7411 7412 7413 7414 7415 7416 7417 7418 7419 7420 7421 7422 7423 7424 7425 7426 7427 7428 7429 7430 7431 7432 7433 7434 7435 7436 7437 7438 7439 7440 7441 7442 7443 7444 7445 7446 7447 7448 7449 7450 7451 7452 7453 7454 7455 7456 7457 7458 7459 7460 7461 7462 7463 7464 7465 7466 7467 7468 7469 7470 7471 7472 7473 7474 7475 7476 7477 7478 7479 7480 7481 7482 7483 7484 7485 7486 7487 7488 7489 7490 7491 7492 7493 7494 7495 7496 7497 7498 7499 7500 7501 7502 7503 7504 7505 7506 7507 7508 7509 7510 7511 7512 7513 7514 7515 7516 7517 7518 7519 7520 7521 7522 7523 7524 7525 7526 7527 7528 7529 7530 7531 7532 7533 7534 7535 7536 7537 7538 7539 7540 7541 7542 7543 7544 7545 7546 7547 7548 7549 7550 7551 7552 7553 7554 7555 7556 7557 7558 7559 7560 7561 7562 7563 7564 7565 7566 7567 7568 7569 7570 7571 7572 7573 7574 7575 7576 7577 7578 7579 7580 7581 7582 7583 7584 7585 7586 7587 7588 7589 7590 7591 7592 7593 7594 7595 7596 7597 7598 7599 7600 7601 7602 7603 7604 7605 7606 7607 7608 7609 7610 7611 7612 7613 7614 7615 7616 7617 7618 7619 7620 7621 7622 7623 7624 7625 7626 7627 7628 7629 7630 7631 7632 7633 7634 7635 7636 7637 7638 7639 7640 7641 7642 7643 7644 7645 7646 7647 7648 7649 7650 7651 7652 7653 7654 7655 7656 7657 7658 7659 7660 7661 7662 7663 7664 7665 7666 7667 7668 7669 7670 7671 7672 7673 7674 7675 7676 7677 7678 7679 7680 7681 7682 7683 7684 7685 7686 7687 7688 7689 7690 7691 7692 7693 7694 7695 7696 7697 7698 7699 7700 7701 7702 7703 7704 7705 7706 7707 7708 7709 7710 7711 7712 7713 7714 7715 7716 7717 7718 7719 7720 7721 7722 7723 7724 7725 7726 7727 7728 7729 7730 7731 7732 7733 7734 7735 7736 7737 7738 7739 7740 7741 7742 7743 7744 7745 7746 7747 7748 7749 7750 7751 7752 7753 7754 7755 7756 7757 7758 7759 7760 7761 7762 7763 7764 7765 7766 7767 7768 7769 7770 7771 7772 7773 7774 7775 7776 7777 7778 7779 7780 7781 7782 7783 7784 7785 7786 7787 7788 7789 7790 7791 7792 7793 7794 7795 7796 7797 7798 7799 7800 7801 7802 7803 7804 7805 7806 7807 7808 7809 7810 7811 7812 7813 7814 7815 7816 7817 7818 7819 7820 7821 7822 7823 7824 7825 7826 7827 7828 7829 7830 7831 7832 7833 7834 7835 7836 7837 7838 7839 7840 7841 7842 7843 7844 7845 7846 7847 7848 7849 7850 7851 7852 7853 7854 7855 7856 7857 7858 7859 7860 7861 7862 7863 7864 7865 7866 7867 7868 7869 7870 7871 7872 7873 7874 7875 7876 7877 7878 7879 7880 7881 7882 7883 7884 7885 7886 7887 7888 7889 7890 7891 7892 7893 7894 7895 7896 7897 7898 7899 7900 7901 7902 7903 7904 7905 7906 7907 7908 7909 7910 7911 7912 7913 7914 7915 7916 7917 7918 7919 7920 7921 7922 7923 7924 7925 7926 7927 7928 7929 7930 7931 7932 7933 7934 7935 7936 7937 7938 7939 7940 7941 7942 7943 7944 7945 7946 7947 7948 7949 7950 7951 7952 7953 7954 7955 7956 7957 7958 7959 7960 7961 7962 7963 7964 7965 7966 7967 7968 7969 7970 7971 7972 7973 7974 7975 7976 7977 7978 7979 7980 7981 7982 7983 7984 7985 7986 7987 7988 7989 7990 7991 7992 7993 7994 7995 7996 7997 7998 7999 8000 8001 8002 8003 8004 8005 8006 8007 8008 8009 8010 8011 8012 8013 8014 8015 8016 8017 8018 8019 8020 8021 8022 8023 8024 8025 8026 8027 8028 8029 8030 8031 8032 8033 8034 8035 8036 8037 8038 8039 8040 8041 8042 8043 8044 8045 8046 8047 8048 8049 8050 8051 8052 8053 8054 8055 8056 8057 8058 8059 8060 8061 8062 8063 8064 8065 8066 8067 8068 8069 8070 8071 8072 8073 8074 8075 8076 8077 8078 8079 8080 8081 8082 8083 8084 8085 8086 8087 8088 8089 8090 8091 8092 8093 8094 8095 8096 8097 8098 8099 8100 8101 8102 8103 8104 8105 8106 8107 8108 8109 8110 8111 8112 8113 8114 8115 8116 8117 8118 8119 8120 8121 8122 8123 8124 8125 8126 8127 8128 8129 8130 8131 8132 8133 8134 8135 8136 8137 8138 8139 8140 8141 8142 8143 8144 8145 8146 8147 8148 8149 8150 8151 8152 8153 8154 8155 8156 8157 8158 8159 8160 8161 8162 8163 8164 8165 8166 8167 8168 8169 8170 8171 8172 8173 8174 8175 8176 8177 8178 8179 8180 8181 8182 8183 8184 8185 8186 8187 8188 8189 8190 8191 8192 8193 8194 8195 8196 8197 8198 8199 8200 8201 8202 8203 8204 8205 8206 8207 8208 8209 8210 8211 8212 8213 8214 8215 8216 8217 8218 8219 8220 8221 8222 8223 8224 8225 8226 8227 8228 8229 8230 8231 8232 8233 8234 8235 8236 8237 8238 8239 8240 8241 8242 8243 8244 8245 8246 8247 8248 8249 8250 8251 8252 8253 8254 8255 8256 8257 8258 8259 8260 8261 8262 8263 8264 8265 8266 8267 8268 8269 8270 8271 8272 8273 8274 8275 8276 8277 8278 8279 8280 8281 8282 8283 8284 8285 8286 8287 8288 8289 8290 8291 8292 8293 8294 8295 8296 8297 8298 8299 8300 8301 8302 8303 8304 8305 8306 8307 8308 8309 8310 8311 8312 8313 8314 8315 8316 8317 8318 8319 8320 8321 8322 8323 8324 8325 8326 8327 8328 8329 8330 8331 8332 8333 8334 8335 8336 8337 8338 8339 8340 8341 8342 8343 8344 8345 8346 8347 8348 8349 8350 8351 8352 8353 8354 8355 8356 8357 8358 8359 8360 8361 8362 8363 8364 8365 8366 8367 8368 8369 8370 8371 8372 8373 8374 8375 8376 8377 8378 8379 8380 8381 8382 8383 8384 8385 8386 8387 8388 8389 8390 8391 8392 8393 8394 8395 8396 8397 8398 8399 8400 8401 8402 8403 8404 8405 8406 8407 8408 8409 8410 8411 8412 8413 8414 8415 8416 8417 8418 8419 8420 8421 8422 8423 8424 8425 8426 8427 8428 8429 8430 8431 8432 8433 8434 8435 8436 8437 8438 8439 8440 8441 8442 8443 8444 8445 8446 8447 8448 8449 8450 8451 8452 8453 8454 8455 8456 8457 8458 8459 8460 8461 8462 8463 8464 8465 8466 8467 8468 8469 8470 8471 8472 8473 8474 8475 8476 8477 8478 8479 8480 8481 8482 8483 8484 8485 8486 8487 8488 8489 8490 8491 8492 8493 8494 8495 8496 8497 8498 8499 8500 8501 8502 8503 8504 8505 8506 8507 8508 8509 8510 8511 8512 8513 8514 8515 8516 8517 8518 8519 8520 8521 8522 8523 8524 8525 8526 8527 8528 8529 8530 8531 8532 8533 8534 8535 8536 8537 8538 8539 8540 8541 8542 8543 8544 8545 8546 8547 8548 8549 8550 8551 8552 8553 8554 8555 8556 8557 8558 8559 8560 8561 8562 8563 8564 8565 8566 8567 8568 8569 8570 8571 8572 8573 8574 8575 8576 8577 8578 8579 8580 8581 8582 8583 8584 8585 8586 8587 8588 8589 8590 8591 8592 8593 8594 8595 8596 8597 8598 8599 8600 8601 8602 8603 8604 8605 8606 8607 8608 8609 8610 8611 8612 8613 8614 8615 8616 8617 8618 8619 8620 8621 8622 8623 8624 8625 8626 8627 8628 8629 8630 8631 8632 8633 8634 8635 8636 8637 8638 8639 8640 8641 8642 8643 8644 8645 8646 8647 8648 8649 8650 8651 8652 8653 8654 8655 8656 8657 8658 8659 8660 8661 8662 8663 8664 8665 8666 8667 8668 8669 8670 8671 8672 8673 8674 8675 8676 8677 8678 8679 8680 8681 8682 8683 8684 8685 8686 8687 8688 8689 8690 8691 8692 8693 8694 8695 8696 8697 8698 8699 8700 8701 8702 8703 8704 8705 8706 8707 8708 8709 8710 8711 8712 8713 8714 8715 8716 8717 8718 8719 8720 8721 8722 8723 8724 8725 8726 8727 8728 8729 8730 8731 8732 8733 8734 8735 8736 8737 8738 8739 8740 8741 8742 8743 8744 8745 8746 8747 8748 8749 8750 8751 8752 8753 8754 8755 8756 8757 8758 8759 8760 8761 8762 8763 8764 8765 8766 8767 8768 8769 8770 8771 8772 8773 8774 8775 8776 8777 8778 8779 8780 8781 8782 8783 8784 8785 8786 8787 8788 8789 8790 8791 8792 8793 8794 8795 8796 8797 8798 8799 8800 8801 8802 8803 8804 8805 8806 8807 8808 8809 8810 8811 8812 8813 8814 8815 8816 8817 8818 8819 8820 8821 8822 8823 8824 8825 8826 8827 8828 8829 8830 8831 8832 8833 8834 8835 8836 8837 8838 8839 8840 8841 8842 8843 8844 8845 8846 8847 8848 8849 8850 8851 8852 8853 8854 8855 8856 8857 8858 8859 8860 8861 8862 8863 8864 8865 8866 8867 8868 8869 8870 8871 8872 8873 8874 8875 8876 8877 8878 8879 8880 8881 8882 8883 8884 8885 8886 8887 8888 8889 8890 8891 8892 8893 8894 8895 8896 8897 8898 8899 8900 8901 8902 8903 8904 8905 8906 8907 8908 8909 8910 8911 8912 8913 8914 8915 8916 8917 8918 8919 8920 8921 8922 8923 8924 8925 8926 8927 8928 8929 8930 8931 8932 8933 8934 8935 8936 8937 8938 8939 8940 8941 8942 8943 8944 8945 8946 8947 8948 8949 8950 8951 8952 8953 8954 8955 8956 8957 8958 8959 8960 8961 8962 8963 8964 8965 8966 8967 8968 8969 8970 8971 8972 8973 8974 8975 8976 8977 8978 8979 8980 8981 8982 8983 8984 8985 8986 8987 8988 8989 8990 8991 8992 8993 8994 8995 8996 8997 8998 8999 9000 9001 9002 9003 9004 9005 9006 9007 9008 9009 9010 9011 9012 9013 9014 9015 9016 9017 9018 9019 9020 9021 9022 9023 9024 9025 9026 9027 9028 9029 9030 9031 9032 9033 9034 9035 9036 9037 9038 9039 9040 9041 9042 9043 9044 9045 9046 9047 9048 9049 9050 9051 9052 9053 9054 9055 9056 9057 9058 9059 9060 9061 9062 9063 9064 9065 9066 9067 9068 9069 9070 9071 9072 9073 9074 9075 9076 9077 9078 9079 9080 9081 9082 9083 9084 9085 9086 9087 9088 9089 9090 9091 9092 9093 9094 9095 9096 9097 9098 9099 9100 9101 9102 9103 9104 9105 9106 9107 9108 9109 9110 9111 9112 9113 9114 9115 9116 9117 9118 9119 9120 9121 9122 9123 9124 9125 9126 9127 9128 9129 9130 9131 9132 9133 9134 9135 9136 9137 9138 9139 9140 9141 9142 9143 9144 9145 9146 9147 9148 9149 9150 9151 9152 9153 9154 9155 9156 9157 9158 9159 9160 9161 9162 9163 9164 9165 9166 9167 9168 9169 9170 9171 9172 9173 9174 9175 9176 9177 9178 9179 9180 9181 9182 9183 9184 9185 9186 9187 9188 9189 9190 9191 9192 9193 9194 9195 9196 9197 9198 9199 9200 9201 9202 9203 9204 9205 9206 9207 9208 9209 9210 9211 9212 9213 9214 9215 9216 9217 9218 9219 9220 9221 9222 9223 9224 9225 9226 9227 9228 9229 9230 9231 9232 9233 9234 9235 9236 9237 9238 9239 9240 9241 9242 9243 9244 9245 9246 9247 9248 9249 9250 9251 9252 9253 9254 9255 9256 9257 9258 9259 9260 9261 9262 9263 9264 9265 9266 9267 9268 9269 9270 9271 9272 9273 9274 9275 9276 9277 9278 9279 9280 9281 9282 9283 9284 9285 9286 9287 9288 9289 9290 9291 9292 9293 9294 9295 9296 9297 9298 9299 9300 9301 9302 9303 9304 9305 9306 9307 9308 9309 9310 9311 9312 9313 9314 9315 9316 9317 9318 9319 9320 9321 9322 9323 9324 9325 9326 9327 9328 9329 9330 9331 9332 9333 9334 9335 9336 9337 9338 9339 9340 9341 9342 9343 9344 9345 9346 9347 9348 9349 9350 9351 9352 9353 9354 9355 9356 9357 9358 9359 9360 9361 9362 9363 9364 9365 9366 9367 9368 9369 9370 9371 9372 9373 9374 9375 9376 9377 9378 9379 9380 9381 9382 9383 9384 9385 9386 9387 9388 9389 9390 9391 9392 9393 9394 9395 9396 9397 9398 9399 9400 9401 9402 9403 9404 9405 9406 9407 9408 9409 9410 9411 9412 9413 9414 9415 9416 9417 9418 9419 9420 9421 9422 9423 9424 9425 9426 9427 9428 9429 9430 9431 9432 9433 9434 9435 9436 9437 9438 9439 9440 9441 9442 9443 9444 9445 9446 9447 9448 9449 9450 9451 9452 9453 9454 9455 9456 9457 9458 9459 9460 9461 9462 9463 9464 9465 9466 9467 9468 9469 9470 9471 9472 9473 9474 9475 9476 9477 9478 9479 9480 9481 9482 9483 9484 9485 9486 9487 9488 9489 9490 9491 9492 9493 9494 9495 9496 9497 9498 9499 9500 9501 9502 9503 9504 9505 9506 9507 9508 9509 9510 9511 9512 9513 9514 9515 9516 9517 9518 9519 9520 9521 9522 9523 9524 9525 9526 9527 9528 9529 9530 9531 9532 9533 9534 9535 9536 9537 9538 9539 9540 9541 9542 9543 9544 9545 9546 9547 9548 9549 9550 9551 9552 9553 9554 9555 9556 9557 9558 9559 9560 9561 9562 9563 9564 9565 9566 9567 9568 9569 9570 9571 9572 9573 9574 9575 9576 9577 9578 9579 9580 9581 9582 9583 9584 9585 9586 9587 9588 9589 9590 9591 9592 9593 9594 9595 9596 9597 9598 9599 9600 9601 9602 9603 9604 9605 9606 9607 9608 9609 9610 9611 9612 9613 9614 9615 9616 9617 9618 9619 9620 9621 9622 9623 9624 9625 9626 9627 9628 9629 9630 9631 9632 9633 9634 9635 9636 9637 9638 9639 9640 9641 9642 9643 9644 9645 9646 9647 9648 9649 9650 9651 9652 9653 9654 9655 9656 9657 9658 9659 9660 9661 9662 9663 9664 9665 9666 9667 9668 9669 9670 9671 9672 9673 9674 9675 9676 9677 9678 9679 9680 9681 9682 9683 9684 9685 9686 9687 9688 9689 9690 9691 9692 9693 9694 9695 9696 9697 9698 9699 9700 9701 9702 9703 9704 9705 9706 9707 9708 9709 9710 9711 9712 9713 9714 9715 9716 9717 9718 9719 9720 9721 9722 9723 9724 9725 9726 9727 9728 9729 9730 9731 9732 9733 9734 9735 9736 9737 9738 9739 9740 9741 9742 9743 9744 9745 9746 9747 9748 9749 9750 9751 9752 9753 9754 9755 9756 9757 9758 9759 9760 9761 9762 9763 9764 9765 9766 9767 9768 9769 9770 9771 9772 9773 9774 9775 9776 9777 9778 9779 9780 9781 9782 9783 9784 9785 9786 9787 9788 9789 9790 9791 9792 9793 9794 9795 9796 9797 9798 9799 9800 9801 9802 9803 9804 9805 9806 9807 9808 9809 9810 9811 9812 9813 9814 9815 9816 9817 9818 9819 9820 9821 9822 9823 9824 9825 9826 9827 9828 9829 9830 9831 9832 9833 9834 9835 9836 9837 9838 9839 9840 9841 9842 9843 9844 9845 9846 9847 9848 9849 9850 9851 9852 9853 9854 9855 9856 9857 9858 9859 9860 9861 9862 9863 9864 9865 9866 9867 9868 9869 9870 9871 9872 9873 9874 9875 9876 9877 9878 9879 9880 9881 9882 9883 9884 9885 9886 9887 9888 9889 9890 9891 9892 9893 9894 9895 9896 9897 9898 9899 9900 9901 9902 9903 9904 9905 9906 9907 9908 9909 9910 9911 9912 9913 9914 9915 9916 9917 9918 9919 9920 9921 9922 9923 9924 9925 9926 9927 9928 9929 9930 9931 9932 9933 9934 9935 9936 9937 9938 9939 9940 9941 9942 9943 9944 9945 9946 9947 9948 9949 9950 9951 9952 9953 9954 9955 9956 9957 9958 9959 9960 9961 9962 9963 9964 9965 9966 9967 9968 9969 9970 9971 9972 9973 9974 9975 9976 9977 9978 9979 9980 9981 9982 9983 9984 9985 9986 9987 9988 9989 9990 9991 9992 9993 9994 9995 9996 9997 9998 9999 10000 10001 10002 10003 10004 10005 10006 10007 10008 10009 10010 10011 10012 10013 10014 10015 10016 10017 10018 10019 10020 10021 10022 10023 10024 10025 10026 10027 10028 10029 10030 10031 10032 10033 10034 10035 10036 10037 10038 10039 10040 10041 10042 10043 10044 10045 10046 10047 10048 10049 10050 10051 10052 10053 10054 10055 10056 10057 10058 10059 10060 10061 10062 10063 10064 10065 10066 10067 10068 10069 10070 10071 10072 10073 10074 10075 10076 10077 10078 10079 10080 10081 10082 10083 10084 10085 10086 10087 10088 10089 10090 10091 10092 10093 10094 10095 10096 10097 10098 10099 10100 10101 10102 10103 10104 10105 10106 10107 10108 10109 10110 10111 10112 10113 10114 10115 10116 10117 10118 10119 10120 10121 10122 10123 10124 10125 10126 10127 10128 10129 10130 10131 10132 10133 10134 10135 10136 10137 10138 10139 10140 10141 10142 10143 10144 10145 10146 10147 10148 10149 10150 10151 10152 10153 10154 10155 10156 10157 10158 10159 10160 10161 10162 10163 10164 10165 10166 10167 10168 10169 10170 10171 10172 10173 10174 10175 10176 10177 10178 10179 10180 10181 10182 10183 10184 10185 10186 10187 10188 10189 10190 10191 10192 10193 10194 10195 10196 10197 10198 10199 10200 10201 10202 10203 10204 10205 10206 10207 10208 10209 10210 10211 10212 10213 10214 10215 10216 10217 10218 10219 10220 10221 10222 10223 10224 10225 10226 10227 10228 10229 10230 10231 10232 10233 10234 10235 10236 10237 10238 10239 10240 10241 10242 10243 10244 10245 10246 10247 10248 10249 10250 10251 10252 10253 10254 10255 10256 10257 10258 10259 10260 10261 10262 10263 10264 10265 10266 10267 10268 10269 10270 10271 10272 10273 10274 10275 10276 10277 10278 10279 10280 10281 10282 10283 10284 10285 10286 10287 10288 10289 10290 10291 10292 10293 10294 10295 10296 10297 10298 10299 10300 10301 10302 10303 10304 10305 10306 10307 10308 10309 10310 10311 10312 10313 10314 10315 10316 10317 10318 10319 10320 10321 10322 10323 10324 10325 10326 10327 10328 10329 10330 10331 10332 10333 10334 10335 10336 10337 10338 10339 10340 10341 10342 10343 10344 10345 10346 10347 10348 10349 10350 10351 10352 10353 10354 10355 10356 10357 10358 10359 10360 10361 10362 10363 10364 10365 10366 10367 10368 10369 10370 10371 10372 10373 10374 10375 10376 10377 10378 10379 10380 10381 10382 10383 10384 10385 10386 10387 10388 10389 10390 10391 10392 10393 10394 10395 10396 10397 10398 10399 10400 10401 10402 10403 10404 10405 10406 10407 10408 10409 10410 10411 10412 10413 10414 10415 10416 10417 10418 10419 10420 10421 10422 10423 10424 10425 10426 10427 10428 10429 10430 10431 10432 10433 10434 10435 10436 10437 10438 10439 10440 10441 10442 10443 10444 10445 10446 10447 10448 10449 10450 10451 10452 10453 10454 10455 10456 10457 10458 10459 10460 10461 10462 10463 10464 10465 10466 10467 10468 10469 10470 10471 10472 10473 10474 10475 10476 10477 10478 10479 10480 10481 10482 10483 10484 10485 10486 10487 10488 10489 10490 10491 10492 10493 10494 10495 10496 10497 10498 10499 10500 10501 10502 10503 10504 10505 10506 10507 10508 10509 10510 10511 10512 10513 10514 10515 10516 10517 10518 10519 10520 10521 10522 10523 10524 10525 10526 10527 10528 10529 10530 10531 10532 10533 10534 10535 10536 10537 10538 10539 10540 10541 10542 10543 10544 10545 10546 10547 10548 10549 10550 10551 10552 10553 10554 10555 10556 10557 10558 10559 10560 10561 10562 10563 10564 10565 10566 10567 10568 10569 10570 10571 10572 10573 10574 10575 10576 10577 10578 10579 10580 10581 10582 10583 10584 10585 10586 10587 10588 10589 10590 10591 10592 10593 10594 10595 10596 10597 10598 10599 10600 10601 10602 10603 10604 10605 10606 10607 10608 10609 10610 10611 10612 10613 10614 10615 10616 10617 10618 10619 10620 10621 10622 10623 10624 10625 10626 10627 10628 10629 10630 10631 10632 10633 10634 10635 10636 10637 10638 10639 10640 10641 10642 10643 10644 10645 10646 10647 10648 10649 10650 10651 10652 10653 10654 10655 10656 10657 10658 10659 10660 10661 10662 10663 10664 10665 10666 10667 10668 10669 10670 10671 10672 10673 10674 10675 10676 10677 10678 10679 10680 10681 10682 10683 10684 10685 10686 10687 10688 10689 10690 10691 10692 10693 10694 10695 10696 10697 10698 10699 10700 10701 10702 10703 10704 10705 10706 10707 10708 10709 10710 10711 10712 10713 10714 10715 10716 10717 10718 10719 10720 10721 10722 10723 10724 10725 10726 10727 10728 10729 10730 10731 10732 10733 10734 10735 10736 10737 10738 10739 10740 10741 10742 10743 10744 10745 10746 10747 10748 10749 10750 10751 10752 10753 10754 10755 10756 10757 10758 10759 10760 10761 10762 10763 10764 10765 10766 10767 10768 10769 10770 10771 10772 10773 10774 10775 10776 10777 10778 10779 10780 10781 10782 10783 10784 10785 10786 10787 10788 10789 10790 10791 10792 10793 10794 10795 10796 10797 10798 10799 10800 10801 10802 10803 10804 10805 10806 10807 10808 10809 10810 10811 10812 10813 10814 10815 10816 10817 10818 10819 10820 10821 10822 10823 10824 10825 10826 10827 10828 10829 10830 10831 10832 10833 10834 10835 10836 10837 10838 10839 10840 10841 10842 10843 10844 10845 10846 10847 10848 10849 10850 10851 10852 10853 10854 10855 10856 10857 10858 10859 10860 10861 10862 10863 10864 10865 10866 10867 10868 10869 10870 10871 10872 10873 10874 10875 10876 10877 10878 10879 10880 10881 10882 10883 10884 10885 10886 10887 10888 10889 10890 10891 10892 10893 10894 10895 10896 10897 10898 10899 10900 10901 10902 10903 10904 10905 10906 10907 10908 10909 10910 10911 10912 10913 10914 10915 10916 10917 10918 10919 10920 10921 10922 10923 10924 10925 10926 10927 10928 10929 10930 10931 10932 10933 10934 10935 10936 10937 10938 10939 10940 10941 10942 10943 10944 10945 10946 10947 10948 10949 10950 10951 10952 10953 10954 10955 10956 10957 10958 10959 10960 10961 10962 10963 10964 10965 10966 10967 10968 10969 10970 10971 10972 10973 10974 10975 10976 10977 10978 10979 10980 10981 10982 10983 10984 10985 10986 10987 10988 10989 10990 10991 10992 10993 10994 10995 10996 10997 10998 10999 11000 11001 11002 11003 11004 11005 11006 11007 11008 11009 11010 11011 11012 11013 11014 11015 11016 11017 11018 11019 11020 11021 11022 11023 11024 11025 11026 11027 11028 11029 11030 11031 11032 11033 11034 11035 11036 11037 11038 11039 11040 11041 11042 11043 11044 11045 11046 11047 11048 11049 11050 11051 11052 11053 11054 11055 11056 11057 11058 11059 11060 11061 11062 11063 11064 11065 11066 11067 11068 11069 11070 11071 11072 11073 11074 11075 11076 11077 11078 11079 11080 11081 11082 11083 11084 11085 11086 11087 11088 11089 11090 11091 11092 11093 11094 11095 11096 11097 11098 11099 11100 11101 11102 11103 11104 11105 11106 11107 11108 11109 11110 11111 11112 11113 11114 11115 11116 11117 11118 11119 11120 11121 11122 11123 11124 11125 11126 11127 11128 11129 11130 11131 11132 11133 11134 11135 11136 11137 11138 11139 11140 11141 11142 11143 11144 11145 11146 11147 11148 11149 11150 11151 11152 11153 11154 11155 11156 11157 11158 11159 11160 11161 11162 11163 11164 11165 11166 11167 11168 11169 11170 11171 11172 11173 11174 11175 11176 11177 11178 11179 11180 11181 11182 11183 11184 11185 11186 11187 11188 11189 11190 11191 11192 11193 11194 11195 11196 11197 11198 11199 11200 11201 11202 11203 11204 11205 11206 11207 11208 11209 11210 11211 11212 11213 11214 11215 11216 11217 11218 11219 11220 11221 11222 11223 11224 11225 11226 11227 11228 11229 11230 11231 11232 11233 11234 11235 11236 11237 11238 11239 11240 11241 11242 11243 11244 11245 11246 11247 11248 11249 11250 11251 11252 11253 11254 11255 11256 11257 11258 11259 11260 11261 11262 11263 11264 11265 11266 11267 11268 11269 11270 11271 11272 11273 11274 11275 11276 11277 11278 11279 11280 11281 11282 11283 11284 11285 11286 11287 11288 11289 11290 11291 11292 11293 11294 11295 11296 11297 11298 11299 11300 11301 11302 11303 11304 11305 11306 11307 11308 11309 11310 11311 11312 11313 11314 11315 11316 11317 11318 11319 11320 11321 11322 11323 11324 11325 11326 11327 11328 11329 11330 11331 11332 11333 11334 11335 11336 11337 11338 11339 11340 11341 11342 11343 11344 11345 11346 11347 11348 11349 11350 11351 11352 11353 11354 11355 11356 11357 11358 11359 11360 11361 11362 11363 11364 11365 11366 11367 11368 11369 11370 11371 11372 11373 11374 11375 11376 11377 11378 11379 11380 11381 11382 11383 11384 11385 11386 11387 11388 11389 11390 11391 11392 11393 11394 11395 11396 11397 11398 11399 11400 11401 11402 11403 11404 11405 11406 11407 11408 11409 11410 11411 11412 11413 11414 11415 11416 11417 11418 11419 11420 11421 11422 11423 11424 11425 11426 11427 11428 11429 11430 11431 11432 11433 11434 11435 11436 11437 11438 11439 11440 11441 11442 11443 11444 11445 11446 11447 11448 11449 11450 11451 11452 11453 11454 11455 11456 11457 11458 11459 11460 11461 11462 11463 11464 11465 11466 11467 11468 11469 11470 11471 11472 11473 11474 11475 11476 11477 11478 11479 11480 11481 11482 11483 11484 11485 11486 11487 11488 11489 11490 11491 11492 11493 11494 11495 11496 11497 11498 11499 11500 11501 11502 11503 11504 11505 11506 11507 11508 11509 11510 11511 11512 11513 11514 11515 11516 11517 11518 11519 11520 11521 11522 11523 11524 11525 11526 11527 11528 11529 11530 11531 11532 11533 11534 11535 11536 11537 11538 11539 11540 11541 11542 11543 11544 11545 11546 11547 11548 11549 11550 11551 11552 11553 11554 11555 11556 11557 11558 11559 11560 11561 11562 11563 11564 11565 11566 11567 11568 11569 11570 11571 11572 11573 11574 11575 11576 11577 11578 11579 11580 11581 11582 11583 11584 11585 11586 11587 11588 11589 11590 11591 11592 11593 11594 11595 11596 11597 11598 11599 11600 11601 11602 11603 11604 11605 11606 11607 11608 11609 11610 11611 11612 11613 11614 11615 11616 11617 11618 11619 11620 11621 11622 11623 11624 11625 11626 11627 11628 11629 11630 11631 11632 11633 11634 11635 11636 11637 11638 11639 11640 11641 11642 11643 11644 11645 11646 11647 11648 11649 11650 11651 11652 11653 11654 11655 11656 11657 11658 11659 11660 11661 11662 11663 11664 11665 11666 11667 11668 11669 11670 11671 11672 11673 11674 11675 11676 11677 11678 11679 11680 11681 11682 11683 11684 11685 11686 11687 11688 11689 11690 11691 11692 11693 11694 11695 11696 11697 11698 11699 11700 11701 11702 11703 11704 11705 11706 11707 11708 11709 11710 11711 11712 11713 11714 11715 11716 11717 11718 11719 11720 11721 11722 11723 11724 11725 11726 11727 11728 11729 11730 11731 11732 11733 11734 11735 11736 11737 11738 11739 11740 11741 11742 11743 11744 11745 11746 11747 11748 11749 11750 11751 11752 11753 11754 11755 11756 11757 11758 11759 11760 11761 11762 11763 11764 11765 11766 11767 11768 11769 11770 11771 11772 11773 11774 11775 11776 11777 11778 11779 11780 11781 11782 11783 11784 11785 11786 11787 11788 11789 11790 11791 11792 11793 11794 11795 11796 11797 11798 11799 11800 11801 11802 11803 11804 11805 11806 11807 11808 11809 11810 11811 11812 11813 11814 11815 11816 11817 11818 11819 11820 11821 11822 11823 11824 11825 11826 11827 11828 11829 11830 11831 11832 11833 11834 11835 11836 11837 11838 11839 11840 11841 11842 11843 11844 11845 11846 11847 11848 11849 11850 11851 11852 11853 11854 11855 11856 11857 11858 11859 11860 11861 11862 11863 11864 11865 11866 11867 11868 11869 11870 11871 11872 11873 11874 11875 11876 11877 11878 11879 11880 11881 11882 11883 11884 11885 11886 11887 11888 11889 11890 11891 11892 11893 11894 11895 11896 11897 11898 11899 11900 11901 11902 11903 11904 11905 11906 11907 11908 11909 11910 11911 11912 11913 11914 11915 11916 11917 11918 11919 11920 11921 11922 11923 11924 11925 11926 11927 11928 11929 11930 11931 11932 11933 11934 11935 11936 11937 11938 11939 11940 11941 11942 11943 11944 11945 11946 11947 11948 11949 11950 11951 11952 11953 11954 11955 11956 11957 11958 11959 11960 11961 11962 11963 11964 11965 11966 11967 11968 11969 11970 11971 11972 11973 11974 11975 11976 11977 11978 11979 11980 11981 11982 11983 11984 11985 11986 11987 11988 11989 11990 11991 11992 11993 11994 11995 11996 11997 11998 11999 12000 12001 12002 12003 12004 12005 12006 12007 12008 12009 12010 12011 12012 12013 12014 12015 12016 12017 12018 12019 12020 12021 12022 12023 12024 12025 12026 12027 12028 12029 12030 12031 12032 12033 12034 12035 12036 12037 12038 12039 12040 12041 12042 12043 12044 12045 12046 12047 12048 12049 12050 12051 12052 12053 12054 12055 12056 12057 12058 12059 12060 12061 12062 12063 12064 12065 12066 12067 12068 12069 12070 12071 12072 12073 12074 12075 12076 12077 12078 12079 12080 12081 12082 12083 12084 12085 12086 12087 12088 12089 12090 12091 12092 12093 12094 12095 12096 12097 12098 12099 12100 12101 12102 12103 12104 12105 12106 12107 12108 12109 12110 12111 12112 12113 12114 12115 12116 12117 12118 12119 12120 12121 12122 12123 12124 12125 12126 12127 12128 12129 12130 12131 12132 12133 12134 12135 12136 12137 12138 12139 12140 12141 12142 12143 12144 12145 12146 12147 12148 12149 12150 12151 12152 12153 12154 12155 12156 12157 12158 12159 12160 12161 12162 12163 12164 12165 12166 12167 12168 12169 12170 12171 12172 12173 12174 12175 12176 12177 12178 12179 12180 12181 12182 12183 12184 12185 12186 12187 12188 12189 12190 12191 12192 12193 12194 12195 12196 12197 12198 12199 12200 12201 12202 12203 12204 12205 12206 12207 12208 12209 12210 12211 12212 12213 12214 12215 12216 12217 12218 12219 12220 12221 12222 12223 12224 12225 12226 12227 12228 12229 12230 12231 12232 12233 12234 12235 12236 12237 12238 12239 12240 12241 12242 12243 12244 12245 12246 12247 12248 12249 12250 12251 12252 12253 12254 12255 12256 12257 12258 12259 12260 12261 12262 12263 12264 12265 12266 12267 12268 12269 12270 12271 12272 12273 12274 12275 12276 12277 12278 12279 12280 12281 12282 12283 12284 12285 12286 12287 12288 12289 12290 12291 12292 12293 12294 12295 12296 12297 12298 12299 12300 12301 12302 12303 12304 12305 12306 12307 12308 12309 12310 12311 12312 12313 12314 12315 12316 12317 12318 12319 12320 12321 12322 12323 12324 12325 12326 12327 12328 12329 12330 12331 12332 12333 12334 12335 12336 12337 12338 12339 12340 12341 12342 12343 12344 12345 12346 12347 12348 12349 12350 12351 12352 12353 12354 12355 12356 12357 12358 12359 12360 12361 12362 12363 12364 12365 12366 12367 12368 12369 12370 12371 12372 12373 12374 12375 12376 12377 12378 12379 12380 12381 12382 12383 12384 12385 12386 12387 12388 12389 12390 12391 12392 12393 12394 12395 12396 12397 12398 12399 12400 12401 12402 12403 12404 12405 12406 12407 12408 12409 12410 12411 12412 12413 12414 12415 12416 12417 12418 12419 12420 12421 12422 12423 12424 12425 12426 12427 12428 12429 12430 12431 12432 12433 12434 12435 12436 12437 12438 12439 12440 12441 12442 12443 12444 12445 12446 12447 12448 12449 12450 12451 12452 12453 12454 12455 12456 12457 12458 12459 12460 12461 12462 12463 12464 12465 12466 12467 12468 12469 12470 12471 12472 12473 12474 12475 12476 12477 12478 12479 12480 12481 12482 12483 12484 12485 12486 12487 12488 12489 12490 12491 12492 12493 12494 12495 12496 12497 12498 12499 12500 12501 12502 12503 12504 12505 12506 12507 12508 12509 12510 12511 12512 12513 12514 12515 12516 12517 12518 12519 12520 12521 12522 12523 12524 12525 12526 12527 12528 12529 12530 12531 12532 12533 12534 12535 12536 12537 12538 12539 12540 12541 12542 12543 12544 12545 12546 12547 12548 12549 12550 12551 12552 12553 12554 12555 12556 12557 12558 12559 12560 12561 12562 12563 12564 12565 12566 12567 12568 12569 12570 12571 12572 12573 12574 12575 12576 12577 12578 12579 12580 12581 12582 12583 12584 12585 12586 12587 12588 12589 12590 12591 12592 12593 12594 12595 12596 12597 12598 12599 12600 12601 12602 12603 12604 12605 12606 12607 12608 12609 12610 12611 12612 12613 12614 12615 12616 12617 12618 12619 12620 12621 12622 12623 12624 12625 12626 12627 12628 12629 12630 12631 12632 12633 12634 12635 12636 12637 12638 12639 12640 12641 12642 12643 12644 12645 12646 12647 12648 12649 12650 12651 12652 12653 12654 12655 12656 12657 12658 12659 12660 12661 12662 12663 12664 12665 12666 12667 12668 12669 12670 12671 12672 12673 12674 12675 12676 12677 12678 12679 12680 12681 12682 12683 12684 12685 12686 12687 12688 12689 12690 12691 12692 12693 12694 12695 12696 12697 12698 12699 12700 12701 12702 12703 12704 12705 12706 12707 12708 12709 12710 12711 12712 12713 12714 12715 12716 12717 12718 12719 12720 12721 12722 12723 12724 12725 12726 12727 12728 12729 12730 12731 12732 12733 12734 12735 12736 12737 12738 12739 12740 12741 12742 12743 12744 12745 12746 12747 12748 12749 12750 12751 12752 12753 12754 12755 12756 12757 12758 12759 12760 12761 12762 12763 12764 12765 12766 12767 12768 12769 12770 12771 12772 12773 12774 12775 12776 12777 12778 12779 12780 12781 12782 12783 12784 12785 12786 12787 12788 12789 12790 12791 12792 12793 12794 12795 12796 12797 12798 12799 12800 12801 12802 12803 12804 12805 12806 12807 12808 12809 12810 12811 12812 12813 12814 12815 12816 12817 12818 12819 12820 12821 12822 12823 12824 12825 12826 12827 12828 12829 12830 12831 12832 12833 12834 12835 12836 12837 12838 12839 12840 12841 12842 12843 12844 12845 12846 12847 12848 12849 12850 12851 12852 12853 12854 12855 12856 12857 12858 12859 12860 12861 12862 12863 12864 12865 12866 12867 12868 12869 12870 12871 12872 12873 12874 12875 12876 12877 12878 12879 12880 12881 12882 12883 12884 12885 12886 12887 12888 12889 12890 12891 12892 12893 12894 12895 12896 12897 12898 12899 12900 12901 12902 12903 12904 12905 12906 12907 12908 12909 12910 12911 12912 12913 12914 12915 12916 12917 12918 12919 12920 12921 12922 12923 12924 12925 12926 12927 12928 12929 12930 12931 12932 12933 12934 12935 12936 12937 12938 12939 12940 12941 12942 12943 12944 12945 12946 12947 12948 12949 12950 12951 12952 12953 12954 12955 12956 12957 12958 12959 12960 12961 12962 12963 12964 12965 12966 12967 12968 12969 12970 12971 12972 12973 12974 12975 12976 12977 12978 12979 12980 12981 12982 12983 12984 12985 12986 12987 12988 12989 12990 12991 12992 12993 12994 12995 12996 12997 12998 12999 13000 13001 13002 13003 13004 13005 13006 13007 13008 13009 13010 13011 13012 13013 13014 13015 13016 13017 13018 13019 13020 13021 13022 13023 13024 13025 13026 13027 13028 13029 13030 13031 13032 13033 13034 13035 13036 13037 13038 13039 13040 13041 13042 13043 13044 13045 13046 13047 13048 13049 13050 13051 13052 13053 13054 13055 13056 13057 13058 13059 13060 13061 13062 13063 13064 13065 13066 13067 13068 13069 13070 13071 13072 13073 13074 13075 13076 13077 13078 13079 13080 13081 13082 13083 13084 13085 13086 13087 13088 13089 13090 13091 13092 13093 13094 13095 13096 13097 13098 13099 13100 13101 13102 13103 13104 13105 13106 13107 13108 13109 13110 13111 13112 13113 13114 13115 13116 13117 13118 13119 13120 13121 13122 13123 13124 13125 13126 13127 13128 13129 13130 13131 13132 13133 13134 13135 13136 13137 13138 13139 13140 13141 13142 13143 13144 13145 13146 13147 13148 13149 13150 13151 13152 13153 13154 13155 13156 13157 13158 13159 13160 13161 13162 13163 13164 13165 13166 13167 13168 13169 13170 13171 13172 13173 13174 13175 13176 13177 13178 13179 13180 13181 13182 13183 13184 13185 13186 13187 13188 13189 13190 13191 13192 13193 13194 13195 13196 13197 13198 13199 13200 13201 13202 13203 13204 13205 13206 13207 13208 13209 13210 13211 13212 13213 13214 13215 13216 13217 13218 13219 13220 13221 13222 13223 13224 13225 13226 13227 13228 13229 13230 13231 13232 13233 13234 13235 13236 13237 13238 13239 13240 13241 13242 13243 13244 13245 13246 13247 13248 13249 13250 13251 13252 13253 13254 13255 13256 13257 13258 13259 13260 13261 13262 13263 13264 13265 13266 13267 13268 13269 13270 13271 13272 13273 13274 13275 13276 13277 13278 13279 13280 13281 13282 13283 13284 13285 13286 13287 13288 13289 13290 13291 13292 13293 13294 13295 13296 13297 13298 13299 13300 13301 13302 13303 13304 13305 13306 13307 13308 13309 13310 13311 13312 13313 13314 13315 13316 13317 13318 13319 13320 13321 13322 13323 13324 13325 13326 13327 13328 13329 13330 13331 13332 13333 13334 13335 13336 13337 13338 13339 13340 13341 13342 13343 13344 13345 13346 13347 13348 13349 13350 13351 13352 13353 13354 13355 13356 13357 13358 13359 13360 13361 13362 13363 13364 13365 13366 13367 13368 13369 13370 13371 13372 13373 13374 13375 13376 13377 13378 13379 13380 13381 13382 13383 13384 13385 13386 13387 13388 13389 13390 13391 13392 13393 13394 13395 13396 13397 13398 13399 13400 13401 13402 13403 13404 13405 13406 13407 13408 13409 13410 13411 13412 13413 13414 13415 13416 13417 13418 13419 13420 13421 13422 13423 13424 13425 13426 13427 13428 13429 13430 13431 13432 13433 13434 13435 13436 13437 13438 13439 13440 13441 13442 13443 13444 13445 13446 13447 13448 13449 13450 13451 13452 13453 13454 13455 13456 13457 13458 13459 13460 13461 13462 13463 13464 13465 13466 13467 13468 13469 13470 13471 13472 13473 13474 13475 13476 13477 13478 13479 13480 13481 13482 13483 13484 13485 13486 13487 13488 13489 13490 13491 13492 13493 13494 13495 13496 13497 13498 13499 13500 13501 13502 13503 13504 13505 13506 13507 13508 13509 13510 13511 13512 13513 13514 13515 13516 13517 13518 13519 13520 13521 13522 13523 13524 13525 13526 13527 13528 13529 13530 13531 13532 13533 13534 13535 13536 13537 13538 13539 13540 13541 13542 13543 13544 13545 13546 13547 13548 13549 13550 13551 13552 13553 13554 13555 13556 13557 13558 13559 13560 13561 13562 13563 13564 13565 13566 13567 13568 13569 13570 13571 13572 13573 13574 13575 13576 13577 13578 13579 13580 13581 13582 13583 13584 13585 13586 13587 13588 13589 13590 13591 13592 13593 13594 13595 13596 13597 13598 13599 13600 13601 13602 13603 13604 13605 13606 13607 13608 13609 13610 13611 13612 13613 13614 13615 13616 13617 13618 13619 13620 13621 13622 13623 13624 13625 13626 13627 13628 13629 13630 13631 13632 13633 13634 13635 13636 13637 13638 13639 13640 13641 13642 13643 13644 13645 13646 13647 13648 13649 13650 13651 13652 13653 13654 13655 13656 13657 13658 13659 13660 13661 13662 13663 13664 13665 13666 13667 13668 13669 13670 13671 13672 13673 13674 13675 13676 13677 13678 13679 13680 13681 13682 13683 13684 13685 13686 13687 13688 13689 13690 13691 13692 13693 13694 13695 13696 13697 13698 13699 13700 13701 13702 13703 13704 13705 13706 13707 13708 13709 13710 13711 13712 13713 13714 13715 13716 13717 13718 13719 13720 13721 13722 13723 13724 13725 13726 13727 13728 13729 13730 13731 13732 13733 13734 13735 13736 13737 13738 13739 13740 13741 13742 13743 13744 13745 13746 13747 13748 13749 13750 13751 13752 13753 13754 13755 13756 13757 13758 13759 13760 13761 13762 13763 13764 13765 13766 13767 13768 13769 13770 13771 13772 13773 13774 13775 13776 13777 13778 13779 13780 13781 13782 13783 13784 13785 13786 13787 13788 13789 13790 13791 13792 13793 13794 13795 13796 13797 13798 13799 13800 13801 13802 13803 13804 13805 13806 13807 13808 13809 13810 13811 13812 13813 13814 13815 13816 13817 13818 13819 13820 13821 13822 13823 13824 13825 13826 13827 13828 13829 13830 13831 13832 13833 13834 13835 13836 13837 13838 13839 13840 13841 13842 13843 13844 13845 13846 13847 13848 13849 13850 13851 13852 13853 13854 13855 13856 13857 13858 13859 13860 13861 13862 13863 13864 13865 13866 13867 13868 13869 13870 13871 13872 13873 13874 13875 13876 13877 13878 13879 13880 13881 13882 13883 13884 13885 13886 13887 13888 13889 13890 13891 13892 13893 13894 13895 13896 13897 13898 13899 13900 13901 13902 13903 13904 13905 13906 13907 13908 13909 13910 13911 13912 13913 13914 13915 13916 13917 13918 13919 13920 13921 13922 13923 13924 13925 13926 13927 13928 13929 13930 13931 13932 13933 13934 13935 13936 13937 13938 13939 13940 13941 13942 13943 13944 13945 13946 13947 13948 13949 13950 13951 13952 13953 13954 13955 13956 13957 13958 13959 13960 13961 13962 13963 13964 13965 13966 13967 13968 13969 13970 13971 13972 13973 13974 13975 13976 13977 13978 13979 13980 13981 13982 13983 13984 13985 13986 13987 13988 13989 13990 13991 13992 13993 13994 13995 13996 13997 13998 13999 14000 14001 14002 14003 14004 14005 14006 14007 14008 14009 14010 14011 14012 14013 14014 14015 14016 14017 14018 14019 14020 14021 14022 14023 14024 14025 14026 14027 14028 14029 14030 14031 14032 14033 14034 14035 14036 14037 14038 14039 14040 14041 14042 14043 14044 14045 14046 14047 14048 14049 14050 14051 14052 14053 14054 14055 14056 14057 14058 14059 14060 14061 14062 14063 14064 14065 14066 14067 14068 14069 14070 14071 14072 14073 14074 14075 14076 14077 14078 14079 14080 14081 14082 14083 14084 14085 14086 14087 14088 14089 14090 14091 14092 14093 14094 14095 14096 14097 14098 14099 14100 14101 14102 14103 14104 14105 14106 14107 14108 14109 14110 14111 14112 14113 14114 14115 14116 14117 14118 14119 14120 14121 14122 14123 14124 14125 14126 14127 14128 14129 14130 14131 14132 14133 14134 14135 14136 14137 14138 14139 14140 14141 14142 14143 14144 14145 14146 14147 14148 14149 14150 14151 14152 14153 14154 14155 14156 14157 14158 14159 14160 14161 14162 14163 14164 14165 14166 14167 14168 14169 14170 14171 14172 14173 14174 14175 14176 14177 14178 14179 14180 14181 14182 14183 14184 14185 14186 14187 14188 14189 14190 14191 14192 14193 14194 14195 14196 14197 14198 14199 14200 14201 14202 14203 14204 14205 14206 14207 14208 14209 14210 14211 14212 14213 14214 14215 14216 14217 14218 14219 14220 14221 14222 14223 14224 14225 14226 14227 14228 14229 14230 14231 14232 14233 14234 14235 14236 14237 14238 14239 14240 14241 14242 14243 14244 14245 14246 14247 14248 14249 14250 14251 14252 14253 14254 14255 14256 14257 14258 14259 14260 14261 14262 14263 14264 14265 14266 14267 14268 14269 14270 14271 14272 14273 14274 14275 14276 14277 14278 14279 14280 14281 14282 14283 14284 14285 14286 14287 14288 14289 14290 14291 14292 14293 14294 14295 14296 14297 14298 14299 14300 14301 14302 14303 14304 14305 14306 14307 14308 14309 14310 14311 14312 14313 14314 14315 14316 14317 14318 14319 14320 14321 14322 14323 14324 14325 14326 14327 14328 14329 14330 14331 14332 14333 14334 14335 14336 14337 14338 14339 14340 14341 14342 14343 14344 14345 14346 14347 14348 14349 14350 14351 14352 14353 14354 14355 14356 14357 14358 14359 14360 14361 14362 14363 14364 14365 14366 14367 14368 14369 14370 14371 14372 14373 14374 14375 14376 14377 14378 14379 14380 14381 14382 14383 14384 14385 14386 14387 14388 14389 14390 14391 14392 14393 14394 14395 14396 14397 14398 14399 14400 14401 14402 14403 14404 14405 14406 14407 14408 14409 14410 14411 14412 14413 14414 14415 14416 14417 14418 14419 14420 14421 14422 14423 14424 14425 14426 14427 14428 14429 14430 14431 14432 14433 14434 14435 14436 14437 14438 14439 14440 14441 14442 14443 14444 14445 14446 14447 14448 14449 14450 14451 14452 14453 14454 14455 14456 14457 14458 14459 14460 14461 14462 14463 14464 14465 14466 14467 14468 14469 14470 14471 14472 14473 14474 14475 14476 14477 14478 14479 14480 14481 14482 14483 14484 14485 14486 14487 14488 14489 14490 14491 14492 14493 14494 14495 14496 14497 14498 14499 14500 14501 14502 14503 14504 14505 14506 14507 14508 14509 14510 14511 14512 14513 14514 14515 14516 14517 14518 14519 14520 14521 14522 14523 14524 14525 14526 14527 14528 14529 14530 14531 14532 14533 14534 14535 14536 14537 14538 14539 14540 14541 14542 14543 14544 14545 14546 14547 14548 14549 14550 14551 14552 14553 14554 14555 14556 14557 14558 14559 14560 14561 14562 14563 14564 14565 14566 14567 14568 14569 14570 14571 14572 14573 14574 14575 14576 14577 14578 14579 14580 14581 14582 14583 14584 14585 14586 14587 14588 14589 14590 14591 14592 14593 14594 14595 14596 14597 14598 14599 14600 14601 14602 14603 14604 14605 14606 14607 14608 14609 14610 14611 14612 14613 14614 14615 14616 14617 14618 14619 14620 14621 14622 14623 14624 14625 14626 14627 14628 14629 14630 14631 14632 14633 14634 14635 14636 14637 14638 14639 14640 14641 14642 14643 14644 14645 14646 14647 14648 14649 14650 14651 14652 14653 14654 14655 14656 14657 14658 14659 14660 14661 14662 14663 14664 14665 14666 14667 14668 14669 14670 14671 14672 14673 14674 14675 14676 14677 14678 14679 14680 14681 14682 14683 14684 14685 14686 14687 14688 14689 14690 14691 14692 14693 14694 14695 14696 14697 14698 14699 14700 14701 14702 14703 14704 14705 14706 14707 14708 14709 14710 14711 14712 14713 14714 14715 14716 14717 14718 14719 14720 14721 14722 14723 14724 14725 14726 14727 14728 14729 14730 14731 14732 14733 14734 14735 14736 14737 14738 14739 14740 14741 14742 14743 14744 14745 14746 14747 14748 14749 14750 14751 14752 14753 14754 14755 14756 14757 14758 14759 14760 14761 14762 14763 14764 14765 14766 14767 14768 14769 14770 14771 14772 14773 14774 14775 14776 14777 14778 14779 14780 14781 14782 14783 14784 14785 14786 14787 14788 14789 14790 14791 14792 14793 14794 14795 14796 14797 14798 14799 14800 14801 14802 14803 14804 14805 14806 14807 14808 14809 14810 14811 14812 14813 14814 14815 14816 14817 14818 14819 14820 14821 14822 14823 14824 14825 14826 14827 14828 14829 14830 14831 14832 14833 14834 14835 14836 14837 14838 14839 14840 14841 14842 14843 14844 14845 14846 14847 14848 14849 14850 14851 14852 14853 14854 14855 14856 14857 14858 14859 14860 14861 14862 14863 14864 14865 14866 14867 14868 14869 14870 14871 14872 14873 14874 14875 14876 14877 14878 14879 14880 14881 14882 14883 14884 14885 14886 14887 14888 14889 14890 14891 14892 14893 14894 14895 14896 14897 14898 14899 14900 14901 14902 14903 14904 14905 14906 14907 14908 14909 14910 14911 14912 14913 14914 14915 14916 14917 14918 14919 14920 14921 14922 14923 14924 14925 14926 14927 14928 14929 14930 14931 14932 14933 14934 14935 14936 14937 14938 14939 14940 14941 14942 14943 14944 14945 14946 14947 14948 14949 14950 14951 14952 14953 14954 14955 14956 14957 14958 14959 14960 14961 14962 14963 14964 14965 14966 14967 14968 14969 14970 14971 14972 14973 14974 14975 14976 14977 14978 14979 14980 14981 14982 14983 14984 14985 14986 14987 14988 14989 14990 14991 14992 14993 14994 14995 14996 14997 14998 14999 15000 15001 15002 15003 15004 15005 15006 15007 15008 15009 15010 15011 15012 15013 15014 15015 15016 15017 15018 15019 15020 15021 15022 15023 15024 15025 15026 15027 15028 15029 15030 15031 15032 15033 15034 15035 15036 15037 15038 15039 15040 15041 15042 15043 15044 15045 15046 15047 15048 15049 15050 15051 15052 15053 15054 15055 15056 15057 15058 15059 15060 15061 15062 15063 15064 15065 15066 15067 15068 15069 15070 15071 15072 15073 15074 15075 15076 15077 15078 15079 15080 15081 15082 15083 15084 15085 15086 15087 15088 15089 15090 15091 15092 15093 15094 15095 15096 15097 15098 15099 15100 15101 15102 15103 15104 15105 15106 15107 15108 15109 15110 15111 15112 15113 15114 15115 15116 15117 15118 15119 15120 15121 15122 15123 15124 15125 15126 15127 15128 15129 15130 15131 15132 15133 15134 15135 15136 15137 15138 15139 15140 15141 15142 15143 15144 15145 15146 15147 15148 15149 15150 15151 15152 15153 15154 15155 15156 15157 15158 15159 15160 15161 15162 15163 15164 15165 15166 15167 15168 15169 15170 15171 15172 15173 15174 15175 15176 15177 15178 15179 15180 15181 15182 15183 15184 15185 15186 15187 15188 15189 15190 15191 15192 15193 15194 15195 15196 15197 15198 15199 15200 15201 15202 15203 15204 15205 15206 15207 15208 15209 15210 15211 15212 15213 15214 15215 15216 15217 15218 15219 15220 15221 15222 15223 15224 15225 15226 15227 15228 15229 15230 15231 15232 15233 15234 15235 15236 15237 15238 15239 15240 15241 15242 15243 15244 15245 15246 15247 15248 15249 15250 15251 15252 15253 15254 15255 15256 15257 15258 15259 15260 15261 15262 15263 15264 15265 15266 15267 15268 15269 15270 15271 15272 15273 15274 15275 15276 15277 15278 15279 15280 15281 15282 15283 15284 15285 15286 15287 15288 15289 15290 15291 15292 15293 15294 15295 15296 15297 15298 15299 15300 15301 15302 15303 15304 15305 15306 15307 15308 15309 15310 15311 15312 15313 15314 15315 15316 15317 15318 15319 15320 15321 15322 15323 15324 15325 15326 15327 15328 15329 15330 15331 15332 15333 15334 15335 15336 15337 15338 15339 15340 15341 15342 15343 15344 15345 15346 15347 15348 15349 15350 15351 15352 15353 15354 15355 15356 15357 15358 15359 15360 15361 15362 15363 15364 15365 15366 15367 15368 15369 15370 15371 15372 15373 15374 15375 15376 15377 15378 15379 15380 15381 15382 15383 15384 15385 15386 15387 15388 15389 15390 15391 15392 15393 15394 15395 15396 15397 15398 15399 15400 15401 15402 15403 15404 15405 15406 15407 15408 15409 15410 15411 15412 15413 15414 15415 15416 15417 15418 15419 15420 15421 15422 15423 15424 15425 15426 15427 15428 15429 15430 15431 15432 15433 15434 15435 15436 15437 15438 15439 15440 15441 15442 15443 15444 15445 15446 15447 15448 15449 15450 15451 15452 15453 15454 15455 15456 15457 15458 15459 15460 15461 15462 15463 15464 15465 15466 15467 15468 15469 15470 15471 15472 15473 15474 15475 15476 15477 15478 15479 15480 15481 15482 15483 15484 15485 15486 15487 15488 15489 15490 15491 15492 15493 15494 15495 15496 15497 15498 15499 15500 15501 15502 15503 15504 15505 15506 15507 15508 15509 15510 15511 15512 15513 15514 15515 15516 15517 15518 15519 15520 15521 15522 15523 15524 15525 15526 15527 15528 15529 15530 15531 15532 15533 15534 15535 15536 15537 15538 15539 15540 15541 15542 15543 15544 15545 15546 15547 15548 15549 15550 15551 15552 15553 15554 15555 15556 15557 15558 15559 15560 15561 15562 15563 15564 15565 15566 15567 15568 15569 15570 15571 15572 15573 15574 15575 15576 15577 15578 15579 15580 15581 15582 15583 15584 15585 15586 15587 15588 15589 15590 15591 15592 15593 15594 15595 15596 15597 15598 15599 15600 15601 15602 15603 15604 15605 15606 15607 15608 15609 15610 15611 15612 15613 15614 15615 15616 15617 15618 15619 15620 15621 15622 15623 15624 15625 15626 15627 15628 15629 15630 15631 15632 15633 15634 15635 15636 15637 15638 15639 15640 15641 15642 15643 15644 15645 15646 15647 15648 15649 15650 15651 15652 15653 15654 15655 15656 15657 15658 15659 15660 15661 15662 15663 15664 15665 15666 15667 15668 15669 15670 15671 15672 15673 15674 15675 15676 15677 15678 15679 15680 15681 15682 15683 15684 15685 15686 15687 15688 15689 15690 15691 15692 15693 15694 15695 15696 15697 15698 15699 15700 15701 15702 15703 15704 15705 15706 15707 15708 15709 15710 15711 15712 15713 15714 15715 15716 15717 15718 15719 15720 15721 15722 15723 15724 15725 15726 15727 15728 15729 15730 15731 15732 15733 15734 15735 15736 15737 15738 15739 15740 15741 15742 15743 15744 15745 15746 15747 15748 15749 15750 15751 15752 15753 15754 15755 15756 15757 15758 15759 15760 15761 15762 15763 15764 15765 15766 15767 15768 15769 15770 15771 15772 15773 15774 15775 15776 15777 15778 15779 15780 15781 15782 15783 15784 15785 15786 15787 15788 15789 15790 15791 15792 15793 15794 15795 15796 15797 15798 15799 15800 15801 15802 15803 15804 15805 15806 15807 15808 15809 15810 15811 15812 15813 15814 15815 15816 15817 15818 15819 15820 15821 15822 15823 15824 15825 15826 15827 15828 15829 15830 15831 15832 15833 15834 15835 15836 15837 15838 15839 15840 15841 15842 15843 15844 15845 15846 15847 15848 15849 15850 15851 15852 15853 15854 15855 15856 15857 15858 15859 15860 15861 15862 15863 15864 15865 15866 15867 15868 15869 15870 15871 15872 15873 15874 15875 15876 15877 15878 15879 15880 15881 15882 15883 15884 15885 15886 15887 15888 15889 15890 15891 15892 15893 15894 15895 15896 15897 15898 15899 15900 15901 15902 15903 15904 15905 15906 15907 15908 15909 15910 15911 15912 15913 15914 15915 15916 15917 15918 15919 15920 15921 15922 15923 15924 15925 15926 15927 15928 15929 15930 15931 15932 15933 15934 15935 15936 15937 15938 15939 15940 15941 15942 15943 15944 15945 15946 15947 15948 15949 15950 15951 15952 15953 15954 15955 15956 15957 15958 15959 15960 15961 15962 15963 15964 15965 15966 15967 15968 15969 15970 15971 15972 15973 15974 15975 15976 15977 15978 15979 15980 15981 15982 15983 15984 15985 15986 15987 15988 15989 15990 15991 15992 15993 15994 15995 15996 15997 15998 15999 16000 16001 16002 16003 16004 16005 16006 16007 16008 16009 16010 16011 16012 16013 16014 16015 16016 16017 16018 16019 16020 16021 16022 16023 16024 16025 16026 16027 16028 16029 16030 16031 16032 16033 16034 16035 16036 16037 16038 16039 16040 16041 16042 16043 16044 16045 16046 16047 16048 16049 16050 16051 16052 16053 16054 16055 16056 16057 16058 16059 16060 16061 16062 16063 16064 16065 16066 16067 16068 16069 16070 16071 16072 16073 16074 16075 16076 16077 16078 16079 16080 16081 16082 16083 16084 16085 16086 16087 16088 16089 16090 16091 16092 16093 16094 16095 16096 16097 16098 16099 16100 16101 16102 16103 16104 16105 16106 16107 16108 16109 16110 16111 16112 16113 16114 16115 16116 16117 16118 16119 16120 16121 16122 16123 16124 16125 16126 16127 16128 16129 16130 16131 16132 16133 16134 16135 16136 16137 16138 16139 16140 16141 16142 16143 16144 16145 16146 16147 16148 16149 16150 16151 16152 16153 16154 16155 16156 16157 16158 16159 16160 16161 16162 16163 16164 16165 16166 16167 16168 16169 16170 16171 16172 16173 16174 16175 16176 16177 16178 16179 16180 16181 16182 16183 16184 16185 16186 16187 16188 16189 16190 16191 16192 16193 16194 16195 16196 16197 16198 16199 16200 16201 16202 16203 16204 16205 16206 16207 16208 16209 16210 16211 16212 16213 16214 16215 16216 16217 16218 16219 16220 16221 16222 16223 16224 16225 16226 16227 16228 16229 16230 16231 16232 16233 16234 16235 16236 16237 16238 16239 16240 16241 16242 16243 16244 16245 16246 16247 16248 16249 16250 16251 16252 16253 16254 16255 16256 16257 16258 16259 16260 16261 16262 16263 16264 16265 16266 16267 16268 16269 16270 16271 16272 16273 16274 16275 16276 16277 16278 16279 16280 16281 16282 16283 16284 16285 16286 16287 16288 16289 16290 16291 16292 16293 16294 16295 16296 16297 16298 16299 16300 16301 16302 16303 16304 16305 16306 16307 16308 16309 16310 16311 16312 16313 16314 16315 16316 16317 16318 16319 16320 16321 16322 16323 16324 16325 16326 16327 16328 16329 16330 16331 16332 16333 16334 16335 16336 16337 16338 16339 16340 16341 16342 16343 16344 16345 16346 16347 16348 16349 16350 16351 16352 16353 16354 16355 16356 16357 16358 16359 16360 16361 16362 16363 16364 16365 16366 16367 16368 16369 16370 16371 16372 16373 16374 16375 16376 16377 16378 16379 16380 16381 16382 16383 16384 16385 16386 16387 16388 16389 16390 16391 16392 16393 16394 16395 16396 16397 16398 16399 16400 16401 16402 16403 16404 16405 16406 16407 16408 16409 16410 16411 16412 16413 16414 16415 16416 16417 16418 16419 16420 16421 16422 16423 16424 16425 16426 16427 16428 16429 16430 16431 16432 16433 16434 16435 16436 16437 16438 16439 16440 16441 16442 16443 16444 16445 16446 16447 16448 16449 16450 16451 16452 16453 16454 16455 16456 16457 16458 16459 16460 16461 16462 16463 16464 16465 16466 16467 16468 16469 16470 16471 16472 16473 16474 16475 16476 16477 16478 16479 16480 16481 16482 16483 16484 16485 16486 16487 16488 16489 16490 16491 16492 16493 16494 16495 16496 16497 16498 16499 16500 16501 16502 16503 16504 16505 16506 16507 16508 16509 16510 16511 16512 16513 16514 16515 16516 16517 16518 16519 16520 16521 16522 16523 16524 16525 16526 16527 16528 16529 16530 16531 16532 16533 16534 16535 16536 16537 16538 16539 16540 16541 16542 16543 16544 16545 16546 16547 16548 16549 16550 16551 16552 16553 16554 16555 16556 16557 16558 16559 16560 16561 16562 16563 16564 16565 16566 16567 16568 16569 16570 16571 16572 16573 16574 16575 16576 16577 16578 16579 16580 16581 16582 16583 16584 16585 16586 16587 16588 16589 16590 16591 16592 16593 16594 16595 16596 16597 16598 16599 16600 16601 16602 16603 16604 16605 16606 16607 16608 16609 16610 16611 16612 16613 16614 16615 16616 16617 16618 16619 16620 16621 16622 16623 16624 16625 16626 16627 16628 16629 16630 16631 16632 16633 16634 16635 16636 16637 16638 16639 16640 16641 16642 16643 16644 16645 16646 16647 16648 16649 16650 16651 16652 16653 16654 16655 16656 16657 16658 16659 16660 16661 16662 16663 16664 16665 16666 16667 16668 16669 16670 16671 16672 16673 16674 16675 16676 16677 16678 16679 16680 16681 16682 16683 16684 16685 16686 16687 16688 16689 16690 16691 16692 16693 16694 16695 16696 16697 16698 16699 16700 16701 16702 16703 16704 16705 16706 16707 16708 16709 16710 16711 16712 16713 16714 16715 16716 16717 16718 16719 16720 16721 16722 16723 16724 16725 16726 16727 16728 16729 16730 16731 16732 16733 16734 16735 16736 16737 16738 16739 16740 16741 16742 16743 16744 16745 16746 16747 16748 16749 16750 16751 16752 16753 16754 16755 16756 16757 16758 16759 16760 16761 16762 16763 16764 16765 16766 16767 16768 16769 16770 16771 16772 16773 16774 16775 16776 16777 16778 16779 16780 16781 16782 16783 16784 16785 16786 16787 16788 16789 16790 16791 16792 16793 16794 16795 16796 16797 16798 16799 16800 16801 16802 16803 16804 16805 16806 16807 16808 16809 16810 16811 16812 16813 16814 16815 16816 16817 16818 16819 16820 16821 16822 16823 16824 16825 16826 16827 16828 16829 16830 16831 16832 16833 16834 16835 16836 16837 16838 16839 16840 16841 16842 16843 16844 16845 16846 16847 16848 16849 16850 16851 16852 16853 16854 16855 16856 16857 16858 16859 16860 16861 16862 16863 16864 16865 16866 16867 16868 16869 16870 16871 16872 16873 16874 16875 16876 16877 16878 16879 16880 16881 16882 16883 16884 16885 16886 16887 16888 16889 16890 16891 16892 16893 16894 16895 16896 16897 16898 16899 16900 16901 16902 16903 16904 16905 16906 16907 16908 16909 16910 16911 16912 16913 16914 16915 16916 16917 16918 16919 16920 16921 16922 16923 16924 16925 16926 16927 16928 16929 16930 16931 16932 16933 16934 16935 16936 16937 16938 16939 16940 16941 16942 16943 16944 16945 16946 16947 16948 16949 16950 16951 16952 16953 16954 16955 16956 16957 16958 16959 16960 16961 16962 16963 16964 16965 16966 16967 16968 16969 16970 16971 16972 16973 16974 16975 16976 16977 16978 16979 16980 16981 16982 16983 16984 16985 16986 16987 16988 16989 16990 16991 16992 16993 16994 16995 16996 16997 16998 16999 17000 17001 17002 17003 17004 17005 17006 17007 17008 17009 17010 17011 17012 17013 17014 17015 17016 17017 17018 17019 17020 17021 17022 17023 17024 17025 17026 17027 17028 17029 17030 17031 17032 17033 17034 17035 17036 17037 17038 17039 17040 17041 17042 17043 17044 17045 17046 17047 17048 17049 17050 17051 17052 17053 17054 17055 17056 17057 17058 17059 17060 17061 17062 17063 17064 17065 17066 17067 17068 17069 17070 17071 17072 17073 17074 17075 17076 17077 17078 17079 17080 17081 17082 17083 17084 17085 17086 17087 17088 17089 17090 17091 17092 17093 17094 17095 17096 17097 17098 17099 17100 17101 17102 17103 17104 17105 17106 17107 17108 17109 17110 17111 17112 17113 17114 17115 17116 17117 17118 17119 17120 17121 17122 17123 17124 17125 17126 17127 17128 17129 17130 17131 17132 17133 17134 17135 17136 17137 17138 17139 17140 17141 17142 17143 17144 17145 17146 17147 17148 17149 17150 17151 17152 17153 17154 17155 17156 17157 17158 17159 17160 17161 17162 17163 17164 17165 17166 17167 17168 17169 17170 17171 17172 17173 17174 17175 17176 17177 17178 17179 17180 17181 17182 17183 17184 17185 17186 17187 17188 17189 17190 17191 17192 17193 17194 17195 17196 17197 17198 17199 17200 17201 17202 17203 17204 17205 17206 17207 17208 17209 17210 17211 17212 17213 17214 17215 17216 17217 17218 17219 17220 17221 17222 17223 17224 17225 17226 17227 17228 17229 17230 17231 17232 17233 17234 17235 17236 17237 17238 17239 17240 17241 17242 17243 17244 17245 17246 17247 17248 17249 17250 17251 17252 17253 17254 17255 17256 17257 17258 17259 17260 17261 17262 17263 17264 17265 17266 17267 17268 17269 17270 17271 17272 17273 17274 17275 17276 17277 17278 17279 17280 17281 17282 17283 17284 17285 17286 17287 17288 17289 17290 17291 17292 17293 17294 17295 17296 17297 17298 17299 17300 17301 17302 17303 17304 17305 17306 17307 17308 17309 17310 17311 17312 17313 17314 17315 17316 17317 17318 17319 17320 17321 17322 17323 17324 17325 17326 17327 17328 17329 17330 17331 17332 17333 17334 17335 17336 17337 17338 17339 17340 17341 17342 17343 17344 17345 17346 17347 17348 17349 17350 17351 17352 17353 17354 17355 17356 17357 17358 17359 17360 17361 17362 17363 17364 17365 17366 17367 17368 17369 17370 17371 17372 17373 17374 17375 17376 17377 17378 17379 17380 17381 17382 17383 17384 17385 17386 17387 17388 17389 17390 17391 17392 17393 17394 17395 17396 17397 17398 17399 17400 17401 17402 17403 17404 17405 17406 17407 17408 17409 17410 17411 17412 17413 17414 17415 17416 17417 17418 17419 17420 17421 17422 17423 17424 17425 17426 17427 17428 17429 17430 17431 17432 17433 17434 17435 17436 17437 17438 17439 17440 17441 17442 17443 17444 17445 17446 17447 17448 17449 17450 17451 17452 17453 17454 17455 17456 17457 17458 17459 17460 17461 17462 17463 17464 17465 17466 17467 17468 17469 17470 17471 17472 17473 17474 17475 17476 17477 17478 17479 17480 17481 17482 17483 17484 17485 17486 17487 17488 17489 17490 17491 17492 17493 17494 17495 17496 17497 17498 17499 17500 17501 17502 17503 17504 17505 17506 17507 17508 17509 17510 17511 17512 17513 17514 17515 17516 17517 17518 17519 17520 17521 17522 17523 17524 17525 17526 17527 17528 17529 17530 17531 17532 17533 17534 17535 17536 17537 17538 17539 17540 17541 17542 17543 17544 17545 17546 17547 17548 17549 17550 17551 17552 17553 17554 17555 17556 17557 17558 17559 17560 17561 17562 17563 17564 17565 17566 17567 17568 17569 17570 17571 17572 17573 17574 17575 17576 17577 17578 17579 17580 17581 17582 17583 17584 17585 17586 17587 17588 17589 17590 17591 17592 17593 17594 17595 17596 17597 17598 17599 17600 17601 17602 17603 17604 17605 17606 17607 17608 17609 17610 17611 17612 17613 17614 17615 17616 17617 17618 17619 17620 17621 17622 17623 17624 17625 17626 17627 17628 17629 17630 17631 17632 17633 17634 17635 17636 17637 17638 17639 17640 17641 17642 17643 17644 17645 17646 17647 17648 17649 17650 17651 17652 17653 17654 17655 17656 17657 17658 17659 17660 17661 17662 17663 17664 17665 17666 17667 17668 17669 17670 17671 17672 17673 17674 17675 17676 17677 17678 17679 17680 17681 17682 17683 17684 17685 17686 17687 17688 17689 17690 17691 17692 17693 17694 17695 17696 17697 17698 17699 17700 17701 17702 17703 17704 17705 17706 17707 17708 17709 17710 17711 17712 17713 17714 17715 17716 17717 17718 17719 17720 17721 17722 17723 17724 17725 17726 17727 17728 17729 17730 17731 17732 17733 17734 17735 17736 17737 17738 17739 17740 17741 17742 17743 17744 17745 17746 17747 17748 17749 17750 17751 17752 17753 17754 17755 17756 17757 17758 17759 17760 17761 17762 17763 17764 17765 17766 17767 17768 17769 17770 17771 17772 17773 17774 17775 17776 17777 17778 17779 17780 17781 17782 17783 17784 17785 17786 17787 17788 17789 17790 17791 17792 17793 17794 17795 17796 17797 17798 17799 17800 17801 17802 17803 17804 17805 17806 17807 17808 17809 17810 17811 17812 17813 17814 17815 17816 17817 17818 17819 17820 17821 17822 17823 17824 17825 17826 17827 17828 17829 17830 17831 17832 17833 17834 17835 17836 17837 17838 17839 17840 17841 17842 17843 17844 17845 17846 17847 17848 17849 17850 17851 17852 17853 17854 17855 17856 17857 17858 17859 17860 17861 17862 17863 17864 17865 17866 17867 17868 17869 17870 17871 17872 17873 17874 17875 17876 17877 17878 17879 17880 17881 17882 17883 17884 17885 17886 17887 17888 17889 17890 17891 17892 17893 17894 17895 17896 17897 17898 17899 17900 17901 17902 17903 17904 17905 17906 17907 17908 17909 17910 17911 17912 17913 17914 17915 17916 17917 17918 17919 17920 17921 17922 17923 17924 17925 17926 17927 17928 17929 17930 17931 17932 17933 17934 17935 17936 17937 17938 17939 17940 17941 17942 17943 17944 17945 17946 17947 17948 17949 17950 17951 17952 17953 17954 17955 17956 17957 17958 17959 17960 17961 17962 17963 17964 17965 17966 17967 17968 17969 17970 17971 17972 17973 17974 17975 17976 17977 17978 17979 17980 17981 17982 17983 17984 17985 17986 17987 17988 17989 17990 17991 17992 17993 17994 17995 17996 17997 17998 17999 18000 18001 18002 18003 18004 18005 18006 18007 18008 18009 18010 18011 18012 18013 18014 18015 18016 18017 18018 18019 18020 18021 18022 18023 18024 18025 18026 18027 18028 18029 18030 18031 18032 18033 18034 18035 18036 18037 18038 18039 18040 18041 18042 18043 18044 18045 18046 18047 18048 18049 18050 18051 18052 18053 18054 18055 18056 18057 18058 18059 18060 18061 18062 18063 18064 18065 18066 18067 18068 18069 18070 18071 18072 18073 18074 18075 18076 18077 18078 18079 18080 18081 18082 18083 18084 18085 18086 18087 18088 18089 18090 18091 18092 18093 18094 18095 18096 18097 18098 18099 18100 18101 18102 18103 18104 18105 18106 18107 18108 18109 18110 18111 18112 18113 18114 18115 18116 18117 18118 18119 18120 18121 18122 18123 18124 18125 18126 18127 18128 18129 18130 18131 18132 18133 18134 18135 18136 18137 18138 18139 18140 18141 18142 18143 18144 18145 18146 18147 18148 18149 18150 18151 18152 18153 18154 18155 18156 18157 18158 18159 18160 18161 18162 18163 18164 18165 18166 18167 18168 18169 18170 18171 18172 18173 18174 18175 18176 18177 18178 18179 18180 18181 18182 18183 18184 18185 18186 18187 18188 18189 18190 18191 18192 18193 18194 18195 18196 18197 18198 18199 18200 18201 18202 18203 18204 18205 18206 18207 18208 18209 18210 18211 18212 18213 18214 18215 18216 18217 18218 18219 18220 18221 18222 18223 18224 18225 18226 18227 18228 18229 18230 18231 18232 18233 18234 18235 18236 18237 18238 18239 18240 18241 18242 18243 18244 18245 18246 18247 18248 18249 18250 18251 18252 18253 18254 18255 18256 18257 18258 18259 18260 18261 18262 18263 18264 18265 18266 18267 18268 18269 18270 18271 18272 18273 18274 18275 18276 18277 18278 18279 18280 18281 18282 18283 18284 18285 18286 18287 18288 18289 18290 18291 18292 18293 18294 18295 18296 18297 18298 18299 18300 18301 18302 18303 18304 18305 18306 18307 18308 18309 18310 18311 18312 18313 18314 18315 18316 18317 18318 18319 18320 18321 18322 18323 18324 18325 18326 18327 18328 18329 18330 18331 18332 18333 18334 18335 18336 18337 18338 18339 18340 18341 18342 18343 18344 18345 18346 18347 18348 18349 18350 18351 18352 18353 18354 18355 18356 18357 18358 18359 18360 18361 18362 18363 18364 18365 18366 18367 18368 18369 18370 18371 18372 18373 18374 18375 18376 18377 18378 18379 18380 18381 18382 18383 18384 18385 18386 18387 18388 18389 18390 18391 18392 18393 18394 18395 18396 18397 18398 18399 18400 18401 18402 18403 18404 18405 18406 18407 18408 18409 18410 18411 18412 18413 18414 18415 18416 18417 18418 18419 18420 18421 18422 18423 18424 18425 18426 18427 18428 18429 18430 18431 18432 18433 18434 18435 18436 18437 18438 18439 18440 18441 18442 18443 18444 18445 18446 18447 18448 18449 18450 18451 18452 18453 18454 18455 18456 18457 18458 18459 18460 18461 18462 18463 18464 18465 18466 18467 18468 18469 18470 18471 18472 18473 18474 18475 18476 18477 18478 18479 18480 18481 18482 18483 18484 18485 18486 18487 18488 18489 18490 18491 18492 18493 18494 18495 18496 18497 18498 18499 18500 18501 18502 18503 18504 18505 18506 18507 18508 18509 18510 18511 18512 18513 18514 18515 18516 18517 18518 18519 18520 18521 18522 18523 18524 18525 18526 18527 18528 18529 18530 18531 18532 18533 18534 18535 18536 18537 18538 18539 18540 18541 18542 18543 18544 18545 18546 18547 18548 18549 18550 18551 18552 18553 18554 18555 18556 18557 18558 18559 18560 18561 18562 18563 18564 18565 18566 18567 18568 18569 18570 18571 18572 18573 18574 18575 18576 18577 18578 18579 18580 18581 18582 18583 18584 18585 18586 18587 18588 18589 18590 18591 18592 18593 18594 18595 18596 18597 18598 18599 18600 18601 18602 18603 18604 18605 18606 18607 18608 18609 18610 18611 18612 18613 18614 18615 18616 18617 18618 18619 18620 18621 18622 18623 18624 18625 18626 18627 18628 18629 18630 18631 18632 18633 18634 18635 18636 18637 18638 18639 18640 18641 18642 18643 18644 18645 18646 18647 18648 18649 18650 18651 18652 18653 18654 18655 18656 18657 18658 18659 18660 18661 18662 18663 18664 18665 18666 18667 18668 18669 18670 18671 18672 18673 18674 18675 18676 18677 18678 18679 18680 18681 18682 18683 18684 18685 18686 18687 18688 18689 18690 18691 18692 18693 18694 18695 18696 18697 18698 18699 18700 18701 18702 18703 18704 18705 18706 18707 18708 18709 18710 18711 18712 18713 18714 18715 18716 18717 18718 18719 18720 18721 18722 18723 18724 18725 18726 18727 18728 18729 18730 18731 18732 18733 18734 18735 18736 18737 18738 18739 18740 18741 18742 18743 18744 18745 18746 18747 18748 18749 18750 18751 18752 18753 18754 18755 18756 18757 18758 18759 18760 18761 18762 18763 18764 18765 18766 18767 18768 18769 18770 18771 18772 18773 18774 18775 18776 18777 18778 18779 18780 18781 18782 18783 18784 18785 18786 18787 18788 18789 18790 18791 18792 18793 18794 18795 18796 18797 18798 18799 18800 18801 18802 18803 18804 18805 18806 18807 18808 18809 18810 18811 18812 18813 18814 18815 18816 18817 18818 18819 18820 18821 18822 18823 18824 18825 18826 18827 18828 18829 18830 18831 18832 18833 18834 18835 18836 18837 18838 18839 18840 18841 18842 18843 18844 18845 18846 18847 18848 18849 18850 18851 18852 18853 18854 18855 18856 18857 18858 18859 18860 18861 18862 18863 18864 18865 18866 18867 18868 18869 18870 18871 18872 18873 18874 18875 18876 18877 18878 18879 18880 18881 18882 18883 18884 18885 18886 18887 18888 18889 18890 18891 18892 18893 18894 18895 18896 18897 18898 18899 18900 18901 18902 18903 18904 18905 18906 18907 18908 18909 18910 18911 18912 18913 18914 18915 18916 18917 18918 18919 18920 18921 18922 18923 18924 18925 18926 18927 18928 18929 18930 18931 18932 18933 18934 18935 18936 18937 18938 18939 18940 18941 18942 18943 18944 18945 18946 18947 18948 18949 18950 18951 18952 18953 18954 18955 18956 18957 18958 18959 18960 18961 18962 18963 18964 18965 18966 18967 18968 18969 18970 18971 18972 18973 18974 18975 18976 18977 18978 18979 18980 18981 18982 18983 18984 18985 18986 18987 18988 18989 18990 18991 18992 18993 18994 18995 18996 18997 18998 18999 19000 19001 19002 19003 19004 19005 19006 19007 19008 19009 19010 19011 19012 19013 19014 19015 19016 19017 19018 19019 19020 19021 19022 19023 19024 19025 19026 19027 19028 19029 19030 19031 19032 19033 19034 19035 19036 19037 19038 19039 19040 19041 19042 19043 19044 19045 19046 19047 19048 19049 19050 19051 19052 19053 19054 19055 19056 19057 19058 19059 19060 19061 19062 19063 19064 19065 19066 19067 19068 19069 19070 19071 19072 19073 19074 19075 19076 19077 19078 19079 19080 19081 19082 19083 19084 19085 19086 19087 19088 19089 19090 19091 19092 19093 19094 19095 19096 19097 19098 19099 19100 19101 19102 19103 19104 19105 19106 19107 19108 19109 19110 19111 19112 19113 19114 19115 19116 19117 19118 19119 19120 19121 19122 19123 19124 19125 19126 19127 19128 19129 19130 19131 19132 19133 19134 19135 19136 19137 19138 19139 19140 19141 19142 19143 19144 19145 19146 19147 19148 19149 19150 19151 19152 19153 19154 19155 19156 19157 19158 19159 19160 19161 19162 19163 19164 19165 19166 19167 19168 19169 19170 19171 19172 19173 19174 19175 19176 19177 19178 19179 19180 19181 19182 19183 19184 19185 19186 19187 19188 19189 19190 19191 19192 19193 19194 19195 19196 19197 19198 19199 19200 19201 19202 19203 19204 19205 19206 19207 19208 19209 19210 19211 19212 19213 19214 19215 19216 19217 19218 19219 19220 19221 19222 19223 19224 19225 19226 19227 19228 19229 19230 19231 19232 19233 19234 19235 19236 19237 19238 19239 19240 19241 19242 19243 19244 19245 19246 19247 19248 19249 19250 19251 19252 19253 19254 19255 19256 19257 19258 19259 19260 19261 19262 19263 19264 19265 19266 19267 19268 19269 19270 19271 19272 19273 19274 19275 19276 19277 19278 19279 19280 19281 19282 19283 19284 19285 19286 19287 19288 19289 19290 19291 19292 19293 19294 19295 19296 19297 19298 19299 19300 19301 19302 19303 19304 19305 19306 19307 19308 19309 19310 19311 19312 19313 19314 19315 19316 19317 19318 19319 19320 19321 19322 19323 19324 19325 19326 19327 19328 19329 19330 19331 19332 19333 19334 19335 19336 19337 19338 19339 19340 19341 19342 19343 19344 19345 19346 19347 19348 19349 19350 19351 19352 19353 19354 19355 19356 19357 19358 19359 19360 19361 19362 19363 19364 19365 19366 19367 19368 19369 19370 19371 19372 19373 19374 19375 19376 19377 19378 19379 19380 19381 19382 19383 19384 19385 19386 19387 19388 19389 19390 19391 19392 19393 19394 19395 19396 19397 19398 19399 19400 19401 19402 19403 19404 19405 19406 19407 19408 19409 19410 19411 19412 19413 19414 19415 19416 19417 19418 19419 19420 19421 19422 19423 19424 19425 19426 19427 19428 19429 19430 19431 19432 19433 19434 19435 19436 19437 19438 19439 19440 19441 19442 19443 19444 19445 19446 19447 19448 19449 19450 19451 19452 19453 19454 19455 19456 19457 19458 19459 19460 19461 19462 19463 19464 19465 19466 19467 19468 19469 19470 19471 19472 19473 19474 19475 19476 19477 19478 19479 19480 19481 19482 19483 19484 19485 19486 19487 19488 19489 19490 19491 19492 19493 19494 19495 19496 19497 19498 19499 19500 19501 19502 19503 19504 19505 19506 19507 19508 19509 19510 19511 19512 19513 19514 19515 19516 19517 19518 19519 19520 19521 19522 19523 19524 19525 19526 19527 19528 19529 19530 19531 19532 19533 19534 19535 19536 19537 19538 19539 19540 19541 19542 19543 19544 19545 19546 19547 19548 19549 19550 19551 19552 19553 19554 19555 19556 19557 19558 19559 19560 19561 19562 19563 19564 19565 19566 19567 19568 19569 19570 19571 19572 19573 19574 19575 19576 19577 19578 19579 19580 19581 19582 19583 19584 19585 19586 19587 19588 19589 19590 19591 19592 19593 19594 19595 19596 19597 19598 19599 19600 19601 19602 19603 19604 19605 19606 19607 19608 19609 19610 19611 19612 19613 19614 19615 19616 19617 19618 19619 19620 19621 19622 19623 19624 19625 19626 19627 19628 19629 19630 19631 19632 19633 19634 19635 19636 19637 19638 19639 19640 19641 19642 19643 19644 19645 19646 19647 19648 19649 19650 19651 19652 19653 19654 19655 19656 19657 19658 19659 19660 19661 19662 19663 19664 19665 19666 19667 19668 19669 19670 19671 19672 19673 19674 19675 19676 19677 19678 19679 19680 19681 19682 19683 19684 19685 19686 19687 19688 19689 19690 19691 19692 19693 19694 19695 19696 19697 19698 19699 19700 19701 19702 19703 19704 19705 19706 19707 19708 19709 19710 19711 19712 19713 19714 19715 19716 19717 19718 19719 19720 19721 19722 19723 19724 19725 19726 19727 19728 19729 19730 19731 19732 19733 19734 19735 19736 19737 19738 19739 19740 19741 19742 19743 19744 19745 19746 19747 19748 19749 19750 19751 19752 19753 19754 19755 19756 19757 19758 19759 19760 19761 19762 19763 19764 19765 19766 19767 19768 19769 19770 19771 19772 19773 19774 19775 19776 19777 19778 19779 19780 19781 19782 19783 19784 19785 19786 19787 19788 19789 19790 19791 19792 19793 19794 19795 19796 19797 19798 19799 19800 19801 19802 19803 19804 19805 19806 19807 19808 19809 19810 19811 19812 19813 19814 19815 19816 19817 19818 19819 19820 19821 19822 19823 19824 19825 19826 19827 19828 19829 19830 19831 19832 19833 19834 19835 19836 19837 19838 19839 19840 19841 19842 19843 19844 19845 19846 19847 19848 19849 19850 19851 19852 19853 19854 19855 19856 19857 19858 19859 19860 19861 19862 19863 19864 19865 19866 19867 19868 19869 19870 19871 19872 19873 19874 19875 19876 19877 19878 19879 19880 19881 19882 19883 19884 19885 19886 19887 19888 19889 19890 19891 19892 19893 19894 19895 19896 19897 19898 19899 19900 19901 19902 19903 19904 19905 19906 19907 19908 19909 19910 19911 19912 19913 19914 19915 19916 19917 19918 19919 19920 19921 19922 19923 19924 19925 19926 19927 19928 19929 19930 19931 19932 19933 19934 19935 19936 19937 19938 19939 19940 19941 19942 19943 19944 19945 19946 19947 19948 19949 19950 19951 19952 19953 19954 19955 19956 19957 19958 19959 19960 19961 19962 19963 19964 19965 19966 19967 19968 19969 19970 19971 19972 19973 19974 19975 19976 19977 19978 19979 19980 19981 19982 19983 19984 19985 19986 19987 19988 19989 19990 19991 19992 19993 19994 19995 19996 19997 19998 19999 20000 20001 20002 20003 20004 20005 20006 20007 20008 20009 20010 20011 20012 20013 20014 20015 20016 20017 20018 20019 20020 20021 20022 20023 20024 20025 20026 20027 20028 20029 20030 20031 20032 20033 20034 20035 20036 20037 20038 20039 20040 20041 20042 20043 20044 20045 20046 20047 20048 20049 20050 20051 20052 20053 20054 20055 20056 20057 20058 20059 20060 20061 20062 20063 20064 20065 20066 20067 20068 20069 20070 20071 20072 20073 20074 20075 20076 20077 20078 20079 20080 20081 20082 20083 20084 20085 20086 20087 20088 20089 20090 20091 20092 20093 20094 20095 20096 20097 20098 20099 20100 20101 20102 20103 20104 20105 20106 20107 20108 20109 20110 20111 20112 20113 20114 20115 20116 20117 20118 20119 20120 20121 20122 20123 20124 20125 20126 20127 20128 20129 20130 20131 20132 20133 20134 20135 20136 20137 20138 20139 20140 20141 20142 20143 20144 20145 20146 20147 20148 20149 20150 20151 20152 20153 20154 20155 20156 20157 20158 20159 20160 20161 20162 20163 20164 20165 20166 20167 20168 20169 20170 20171 20172 20173 20174 20175 20176 20177 20178 20179 20180 20181 20182 20183 20184 20185 20186 20187 20188 20189 20190 20191 20192 20193 20194 20195 20196 20197 20198 20199 20200 20201 20202 20203 20204 20205 20206 20207 20208 20209 20210 20211 20212 20213 20214 20215 20216 20217 20218 20219 20220 20221 20222 20223 20224 20225 20226 20227 20228 20229 20230 20231 20232 20233 20234 20235 20236 20237 20238 20239 20240 20241 20242 20243 20244 20245 20246 20247 20248 20249 20250 20251 20252 20253 20254 20255 20256 20257 20258 20259 20260 20261 20262 20263 20264 20265 20266 20267 20268 20269 20270 20271 20272 20273 20274 20275 20276 20277 20278 20279 20280 20281 20282 20283 20284 20285 20286 20287 20288 20289 20290 20291 20292 20293 20294 20295 20296 20297 20298 20299 20300 20301 20302 20303 20304 20305 20306 20307 20308 20309 20310 20311 20312 20313 20314 20315 20316 20317 20318 20319 20320 20321 20322 20323 20324 20325 20326 20327 20328 20329 20330 20331 20332 20333 20334 20335 20336 20337 20338 20339 20340 20341 20342 20343 20344 20345 20346 20347 20348 20349 20350 20351 20352 20353 20354 20355 20356 20357 20358 20359 20360 20361 20362 20363 20364 20365 20366 20367 20368 20369 20370 20371 20372 20373 20374 20375 20376 20377 20378 20379 20380 20381 20382 20383 20384 20385 20386 20387 20388 20389 20390 20391 20392 20393 20394 20395 20396 20397 20398 20399 20400 20401 20402 20403 20404 20405 20406 20407 20408 20409 20410 20411 20412 20413 20414 20415 20416 20417 20418 20419 20420 20421 20422 20423 20424 20425 20426 20427 20428 20429 20430 20431 20432 20433 20434 20435 20436 20437 20438 20439 20440 20441 20442 20443 20444 20445 20446 20447 20448 20449 20450 20451 20452 20453 20454 20455 20456 20457 20458 20459 20460 20461 20462 20463 20464 20465 20466 20467 20468 20469 20470 20471 20472 20473 20474 20475 20476 20477 20478 20479 20480 20481 20482 20483 20484 20485 20486 20487 20488 20489 20490 20491 20492 20493 20494 20495 20496 20497 20498 20499 20500 20501 20502 20503 20504 20505 20506 20507 20508 20509 20510 20511 20512 20513 20514 20515 20516 20517 20518 20519 20520 20521 20522 20523 20524 20525 20526 20527 20528 20529 20530 20531 20532 20533 20534 20535 20536 20537 20538 20539 20540 20541 20542 20543 20544 20545 20546 20547 20548 20549 20550 20551 20552 20553 20554 20555 20556 20557 20558 20559 20560 20561 20562 20563 20564 20565 20566 20567 20568 20569 20570 20571 20572 20573 20574 20575 20576 20577 20578 20579 20580 20581 20582 20583 20584 20585 20586 20587 20588 20589 20590 20591 20592 20593 20594 20595 20596 20597 20598 20599 20600 20601 20602 20603 20604 20605 20606 20607 20608 20609 20610 20611 20612 20613 20614 20615 20616 20617 20618 20619 20620 20621 20622 20623 20624 20625 20626 20627 20628 20629 20630 20631 20632 20633 20634 20635 20636 20637 20638 20639 20640 20641 20642 20643 20644 20645 20646 20647 20648 20649 20650 20651 20652 20653 20654 20655 20656 20657 20658 20659 20660 20661 20662 20663 20664 20665 20666 20667 20668 20669 20670 20671 20672 20673 20674 20675 20676 20677 20678 20679 20680 20681 20682 20683 20684 20685 20686 20687 20688 20689 20690 20691 20692 20693 20694 20695 20696 20697 20698 20699 20700 20701 20702 20703 20704 20705 20706 20707 20708 20709 20710 20711 20712 20713 20714 20715 20716 20717 20718 20719 20720 20721 20722 20723 20724 20725 20726 20727 20728 20729 20730 20731 20732 20733 20734 20735 20736 20737 20738 20739 20740 20741 20742 20743 20744 20745 20746 20747 20748 20749 20750 20751 20752 20753 20754 20755 20756 20757 20758 20759 20760 20761 20762 20763 20764 20765 20766 20767 20768 20769 20770 20771 20772 20773 20774 20775 20776 20777 20778 20779 20780 20781 20782 20783 20784 20785 20786 20787 20788 20789 20790 20791 20792 20793 20794 20795 20796 20797 20798 20799 20800 20801 20802 20803 20804 20805 20806 20807 20808 20809 20810 20811 20812 20813 20814 20815 20816 20817 20818 20819 20820 20821 20822 20823 20824 20825 20826 20827 20828 20829 20830 20831 20832 20833 20834 20835 20836 20837 20838 20839 20840 20841 20842 20843 20844 20845 20846 20847 20848 20849 20850 20851 20852 20853 20854 20855 20856 20857 20858 20859 20860 20861 20862 20863 20864 20865 20866 20867 20868 20869 20870 20871 20872 20873 20874 20875 20876 20877 20878 20879 20880 20881 20882 20883 20884 20885 20886 20887 20888 20889 20890 20891 20892 20893 20894 20895 20896 20897 20898 20899 20900 20901 20902 20903 20904 20905 20906 20907 20908 20909 20910 20911 20912 20913 20914 20915 20916 20917 20918 20919 20920 20921 20922 20923 20924 20925 20926 20927 20928 20929 20930 20931 20932 20933 20934 20935 20936 20937 20938 20939 20940 20941 20942 20943 20944 20945 20946 20947 20948 20949 20950 20951 20952 20953 20954 20955 20956 20957 20958 20959 20960 20961 20962 20963 20964 20965 20966 20967 20968 20969 20970 20971 20972 20973 20974 20975 20976 20977 20978 20979 20980 20981 20982 20983 20984 20985 20986 20987 20988 20989 20990 20991 20992 20993 20994 20995 20996 20997 20998 20999 21000 21001 21002 21003 21004 21005 21006 21007 21008 21009 21010 21011 21012 21013 21014 21015 21016 21017 21018 21019 21020 21021 21022 21023 21024 21025 21026 21027 21028 21029 21030 21031 21032 21033 21034 21035 21036 21037 21038 21039 21040 21041 21042 21043 21044 21045 21046 21047 21048 21049 21050 21051 21052 21053 21054 21055 21056 21057 21058 21059 21060 21061 21062 21063 21064 21065 21066 21067 21068 21069 21070 21071 21072 21073 21074 21075 21076 21077 21078 21079 21080 21081 21082 21083 21084 21085 21086 21087 21088 21089 21090 21091 21092 21093 21094 21095 21096 21097 21098 21099 21100 21101 21102 21103 21104 21105 21106 21107 21108 21109 21110 21111 21112 21113 21114 21115 21116 21117 21118 21119 21120 21121 21122 21123 21124 21125 21126 21127 21128 21129 21130 21131 21132 21133 21134 21135 21136 21137 21138 21139 21140 21141 21142 21143 21144 21145 21146 21147 21148 21149 21150 21151 21152 21153 21154 21155 21156 21157 21158 21159 21160 21161 21162 21163 21164 21165 21166 21167 21168 21169 21170 21171 21172 21173 21174 21175 21176 21177 21178 21179 21180 21181 21182 21183 21184 21185 21186 21187 21188 21189 21190 21191 21192 21193 21194 21195 21196 21197 21198 21199 21200 21201 21202 21203 21204 21205 21206 21207 21208 21209 21210 21211 21212 21213 21214 21215 21216 21217 21218 21219 21220 21221 21222 21223 21224 21225 21226 21227 21228 21229 21230 21231 21232 21233 21234 21235 21236 21237 21238 21239 21240 21241 21242 21243 21244 21245 21246 21247 21248 21249 21250 21251 21252 21253 21254 21255 21256 21257 21258 21259 21260 21261 21262 21263 21264 21265 21266 21267 21268 21269 21270 21271 21272 21273 21274 21275 21276 21277 21278 21279 21280 21281 21282 21283 21284 21285 21286 21287 21288 21289 21290 21291 21292 21293 21294 21295 21296 21297 21298 21299 21300 21301 21302 21303 21304 21305 21306 21307 21308 21309 21310 21311 21312 21313 21314 21315 21316 21317 21318 21319 21320 21321 21322 21323 21324 21325 21326 21327 21328 21329 21330 21331 21332 21333 21334 21335 21336 21337 21338 21339 21340 21341 21342 21343 21344 21345 21346 21347 21348 21349 21350 21351 21352 21353 21354 21355 21356 21357 21358 21359 21360 21361 21362 21363 21364 21365 21366 21367 21368 21369 21370 21371 21372 21373 21374 21375 21376 21377 21378 21379 21380 21381 21382 21383 21384 21385 21386 21387 21388 21389 21390 21391 21392 21393 21394 21395 21396 21397 21398 21399 21400 21401 21402 21403 21404 21405 21406 21407 21408 21409 21410 21411 21412 21413 21414 21415 21416 21417 21418 21419 21420 21421 21422 21423 21424 21425 21426 21427 21428 21429 21430 21431 21432 21433 21434 21435 21436 21437 21438 21439 21440 21441 21442 21443 21444 21445 21446 21447 21448 21449 21450 21451 21452 21453 21454 21455 21456 21457 21458 21459 21460 21461 21462 21463 21464 21465 21466 21467 21468 21469 21470 21471 21472 21473 21474 21475 21476 21477 21478 21479 21480 21481 21482 21483 21484 21485 21486 21487 21488 21489 21490 21491 21492 21493 21494 21495 21496 21497 21498 21499 21500 21501 21502 21503 21504 21505 21506 21507 21508 21509 21510 21511 21512 21513 21514 21515 21516 21517 21518 21519 21520 21521 21522 21523 21524 21525 21526 21527 21528 21529 21530 21531 21532 21533 21534 21535 21536 21537 21538 21539 21540 21541 21542 21543 21544 21545 21546 21547 21548 21549 21550 21551 21552 21553 21554 21555 21556 21557 21558 21559 21560 21561 21562 21563 21564 21565 21566 21567 21568 21569 21570 21571 21572 21573 21574 21575 21576 21577 21578 21579 21580 21581 21582 21583 21584 21585 21586 21587 21588 21589 21590 21591 21592 21593 21594 21595 21596 21597 21598 21599 21600 21601 21602 21603 21604 21605 21606 21607 21608 21609 21610 21611 21612 21613 21614 21615 21616 21617 21618 21619 21620 21621 21622 21623 21624 21625 21626 21627 21628 21629 21630 21631 21632 21633 21634 21635 21636 21637 21638 21639 21640 21641 21642 21643 21644 21645 21646 21647 21648 21649 21650 21651 21652 21653 21654 21655 21656 21657 21658 21659 21660 21661 21662 21663 21664 21665 21666 21667 21668 21669 21670 21671 21672 21673 21674 21675 21676 21677 21678 21679 21680 21681 21682 21683 21684 21685 21686 21687 21688 21689 21690 21691 21692 21693 21694 21695 21696 21697 21698 21699 21700 21701 21702 21703 21704 21705 21706 21707 21708 21709 21710 21711 21712 21713 21714 21715 21716 21717 21718 21719 21720 21721 21722 21723 21724 21725 21726 21727 21728 21729 21730 21731 21732 21733 21734 21735 21736 21737 21738 21739 21740 21741 21742 21743 21744 21745 21746 21747 21748 21749 21750 21751 21752 21753 21754 21755 21756 21757 21758 21759 21760 21761 21762 21763 21764 21765 21766 21767 21768 21769 21770 21771 21772 21773 21774 21775 21776 21777 21778 21779 21780 21781 21782 21783 21784 21785 21786 21787 21788 21789 21790 21791 21792 21793 21794 21795 21796 21797 21798 21799 21800 21801 21802 21803 21804 21805 21806 21807 21808 21809 21810 21811 21812 21813 21814 21815 21816 21817 21818 21819 21820 21821 21822 21823 21824 21825 21826 21827 21828 21829 21830 21831 21832 21833 21834 21835 21836 21837 21838 21839 21840 21841 21842 21843 21844 21845 21846 21847 21848 21849 21850 21851 21852 21853 21854 21855 21856 21857 21858 21859 21860 21861 21862 21863 21864 21865 21866 21867 21868 21869 21870 21871 21872 21873 21874 21875 21876 21877 21878 21879 21880 21881 21882 21883 21884 21885 21886 21887 21888 21889 21890 21891 21892 21893 21894 21895 21896 21897 21898 21899 21900 21901 21902 21903 21904 21905 21906 21907 21908 21909 21910 21911 21912 21913 21914 21915 21916 21917 21918 21919 21920 21921 21922 21923 21924 21925 21926 21927 21928 21929 21930 21931 21932 21933 21934 21935 21936 21937 21938 21939 21940 21941 21942 21943 21944 21945 21946 21947 21948 21949 21950 21951 21952 21953 21954 21955 21956 21957 21958 21959 21960 21961 21962 21963 21964 21965 21966 21967 21968 21969 21970 21971 21972 21973 21974 21975 21976 21977 21978 21979 21980 21981 21982 21983 21984 21985 21986 21987 21988 21989 21990 21991 21992 21993 21994 21995 21996 21997 21998 21999 22000 22001 22002 22003 22004 22005 22006 22007 22008 22009 22010 22011 22012 22013 22014 22015 22016 22017 22018 22019 22020 22021 22022 22023 22024 22025 22026 22027 22028 22029 22030 22031 22032 22033 22034 22035 22036 22037 22038 22039 22040 22041 22042 22043 22044 22045 22046 22047 22048 22049 22050 22051 22052 22053 22054 22055 22056 22057 22058 22059 22060 22061 22062 22063 22064 22065 22066 22067 22068 22069 22070 22071 22072 22073 22074 22075 22076 22077 22078 22079 22080 22081 22082 22083 22084 22085 22086 22087 22088 22089 22090 22091 22092 22093 22094 22095 22096 22097 22098 22099 22100 22101 22102 22103 22104 22105 22106 22107 22108 22109 22110 22111 22112 22113 22114 22115 22116 22117 22118 22119 22120 22121 22122 22123 22124 22125 22126 22127 22128 22129 22130 22131 22132 22133 22134 22135 22136 22137 22138 22139 22140 22141 22142 22143 22144 22145 22146 22147 22148 22149 22150 22151 22152 22153 22154 22155 22156 22157 22158 22159 22160 22161 22162 22163 22164 22165 22166 22167 22168 22169 22170 22171 22172 22173 22174 22175 22176 22177 22178 22179 22180 22181 22182 22183 22184 22185 22186 22187 22188 22189 22190 22191 22192 22193 22194 22195 22196 22197 22198 22199 22200 22201 22202 22203 22204 22205 22206 22207 22208 22209 22210 22211 22212 22213 22214 22215 22216 22217 22218 22219 22220 22221 22222 22223 22224 22225 22226 22227 22228 22229 22230 22231 22232 22233 22234 22235 22236 22237 22238 22239 22240 22241 22242 22243 22244 22245 22246 22247 22248 22249 22250 22251 22252 22253 22254 22255 22256 22257 22258 22259 22260 22261 22262 22263 22264 22265 22266 22267 22268 22269 22270 22271 22272 22273 22274 22275 22276 22277 22278 22279 22280 22281 22282 22283 22284 22285 22286 22287 22288 22289 22290 22291 22292 22293 22294 22295 22296 22297 22298 22299 22300 22301 22302 22303 22304 22305 22306 22307 22308 22309 22310 22311 22312 22313 22314 22315 22316 22317 22318 22319 22320 22321 22322 22323 22324 22325 22326 22327 22328 22329 22330 22331 22332 22333 22334 22335 22336 22337 22338 22339 22340 22341 22342 22343 22344 22345 22346 22347 22348 22349 22350 22351 22352 22353 22354 22355 22356 22357 22358 22359 22360 22361 22362 22363 22364 22365 22366 22367 22368 22369 22370 22371 22372 22373 22374 22375 22376 22377 22378 22379 22380 22381 22382 22383 22384 22385 22386 22387 22388 22389 22390 22391 22392 22393 22394 22395 22396 22397 22398 22399 22400 22401 22402 22403 22404 22405 22406 22407 22408 22409 22410 22411 22412 22413 22414 22415 22416 22417 22418 22419 22420 22421 22422 22423 22424 22425 22426 22427 22428 22429 22430 22431 22432 22433 22434 22435 22436 22437 22438 22439 22440 22441 22442 22443 22444 22445 22446 22447 22448 22449 22450 22451 22452 22453 22454 22455 22456 22457 22458 22459 22460 22461 22462 22463 22464 22465 22466 22467 22468 22469 22470 22471 22472 22473 22474 22475 22476 22477 22478 22479 22480 22481 22482 22483 22484 22485 22486 22487 22488 22489 22490 22491 22492 22493 22494 22495 22496 22497 22498 22499 22500 22501 22502 22503 22504 22505 22506 22507 22508 22509 22510 22511 22512 22513 22514 22515 22516 22517 22518 22519 22520 22521 22522 22523 22524 22525 22526 22527 22528 22529 22530 22531 22532 22533 22534 22535 22536 22537 22538 22539 22540 22541 22542 22543 22544 22545 22546 22547 22548 22549 22550 22551 22552 22553 22554 22555 22556 22557 22558 22559 22560 22561 22562 22563 22564 22565 22566 22567 22568 22569 22570 22571 22572 22573 22574 22575 22576 22577 22578 22579 22580 22581 22582 22583 22584 22585 22586 22587 22588 22589 22590 22591 22592 22593 22594 22595 22596 22597 22598 22599 22600 22601 22602 22603 22604 22605 22606 22607 22608 22609 22610 22611 22612 22613 22614 22615 22616 22617 22618 22619 22620 22621 22622 22623 22624 22625 22626 22627 22628 22629 22630 22631 22632 22633 22634 22635 22636 22637 22638 22639 22640 22641 22642 22643 22644 22645 22646 22647 22648 22649 22650 22651 22652 22653 22654 22655 22656 22657 22658 22659 22660 22661 22662 22663 22664 22665 22666 22667 22668 22669 22670 22671 22672 22673 22674 22675 22676 22677 22678 22679 22680 22681 22682 22683 22684 22685 22686 22687 22688 22689 22690 22691 22692 22693 22694 22695 22696 22697 22698 22699 22700 22701 22702 22703 22704 22705 22706 22707 22708 22709 22710 22711 22712 22713 22714 22715 22716 22717 22718 22719 22720 22721 22722 22723 22724 22725 22726 22727 22728 22729 22730 22731 22732 22733 22734 22735 22736 22737 22738 22739 22740 22741 22742 22743 22744 22745 22746 22747 22748 22749 22750 22751 22752 22753 22754 22755 22756 22757 22758 22759 22760 22761 22762 22763 22764 22765 22766 22767 22768 22769 22770 22771 22772 22773 22774 22775 22776 22777 22778 22779 22780 22781 22782 22783 22784 22785 22786 22787 22788 22789 22790 22791 22792 22793 22794 22795 22796 22797 22798 22799 22800 22801 22802 22803 22804 22805 22806 22807 22808 22809 22810 22811 22812 22813 22814 22815 22816 22817 22818 22819 22820 22821 22822 22823 22824 22825 22826 22827 22828 22829 22830 22831 22832 22833 22834 22835 22836 22837 22838 22839 22840 22841 22842 22843 22844 22845 22846 22847 22848 22849 22850 22851 22852 22853 22854 22855 22856 22857 22858 22859 22860 22861 22862 22863 22864 22865 22866 22867 22868 22869 22870 22871 22872 22873 22874 22875 22876 22877 22878 22879 22880 22881 22882 22883 22884 22885 22886 22887 22888 22889 22890 22891 22892 22893 22894 22895 22896 22897 22898 22899 22900 22901 22902 22903 22904 22905 22906 22907 22908 22909 22910 22911 22912 22913 22914 22915 22916 22917 22918 22919 22920 22921 22922 22923 22924 22925 22926 22927 22928 22929 22930 22931 22932 22933 22934 22935 22936 22937 22938 22939 22940 22941 22942 22943 22944 22945 22946 22947 22948 22949 22950 22951 22952 22953 22954 22955 22956 22957 22958 22959 22960 22961 22962 22963 22964 22965 22966 22967 22968 22969 22970 22971 22972 22973 22974 22975 22976 22977 22978 22979 22980 22981 22982 22983 22984 22985 22986 22987 22988 22989 22990 22991 22992 22993 22994 22995 22996 22997 22998 22999 23000 23001 23002 23003 23004 23005 23006 23007 23008 23009 23010 23011 23012 23013 23014 23015 23016 23017 23018 23019 23020 23021 23022 23023 23024 23025 23026 23027 23028 23029 23030 23031 23032 23033 23034 23035 23036 23037 23038 23039 23040 23041 23042 23043 23044 23045 23046 23047 23048 23049 23050 23051 23052 23053 23054 23055 23056 23057 23058 23059 23060 23061 23062 23063 23064 23065 23066 23067 23068 23069 23070 23071 23072 23073 23074 23075 23076 23077 23078 23079 23080 23081 23082 23083 23084 23085 23086 23087 23088 23089 23090 23091 23092 23093 23094 23095 23096 23097 23098 23099 23100 23101 23102 23103 23104 23105 23106 23107 23108 23109 23110 23111 23112 23113 23114 23115 23116 23117 23118 23119 23120 23121 23122 23123 23124 23125 23126 23127 23128 23129 23130 23131 23132 23133 23134 23135 23136 23137 23138 23139 23140 23141 23142 23143 23144 23145 23146 23147 23148 23149 23150 23151 23152 23153 23154 23155 23156 23157 23158 23159 23160 23161 23162 23163 23164 23165 23166 23167 23168 23169 23170 23171 23172 23173 23174 23175 23176 23177 23178 23179 23180 23181 23182 23183 23184 23185 23186 23187 23188 23189 23190 23191 23192 23193 23194 23195 23196 23197 23198 23199 23200 23201 23202 23203 23204 23205 23206 23207 23208 23209 23210 23211 23212 23213 23214 23215 23216 23217 23218 23219 23220 23221 23222 23223 23224 23225 23226 23227 23228 23229 23230 23231 23232 23233 23234 23235 23236 23237 23238 23239 23240 23241 23242 23243 23244 23245 23246 23247 23248 23249 23250 23251 23252 23253 23254 23255 23256 23257 23258 23259 23260 23261 23262 23263 23264 23265 23266 23267 23268 23269 23270 23271 23272 23273 23274 23275 23276 23277 23278 23279 23280 23281 23282 23283 23284 23285 23286 23287 23288 23289 23290 23291 23292 23293 23294 23295 23296 23297 23298 23299 23300 23301 23302 23303 23304 23305 23306 23307 23308 23309 23310 23311 23312 23313 23314 23315 23316 23317 23318 23319 23320 23321 23322 23323 23324 23325 23326 23327 23328 23329 23330 23331 23332 23333 23334 23335 23336 23337 23338 23339 23340 23341 23342 23343 23344 23345 23346 23347 23348 23349 23350 23351 23352 23353 23354 23355 23356 23357 23358 23359 23360 23361 23362 23363 23364 23365 23366 23367 23368 23369 23370 23371 23372 23373 23374 23375 23376 23377 23378 23379 23380 23381 23382 23383 23384 23385 23386 23387 23388 23389 23390 23391 23392 23393 23394 23395 23396 23397 23398 23399 23400 23401 23402 23403 23404 23405 23406 23407 23408 23409 23410 23411 23412 23413 23414 23415 23416 23417 23418 23419 23420 23421 23422 23423 23424 23425 23426 23427 23428 23429 23430 23431 23432 23433 23434 23435 23436 23437 23438 23439 23440 23441 23442 23443 23444 23445 23446 23447 23448 23449 23450 23451 23452 23453 23454 23455 23456 23457 23458 23459 23460 23461 23462 23463 23464 23465 23466 23467 23468 23469 23470 23471 23472 23473 23474 23475 23476 23477 23478 23479 23480 23481 23482 23483 23484 23485 23486 23487 23488 23489 23490 23491 23492 23493 23494 23495 23496 23497 23498 23499 23500 23501 23502 23503 23504 23505 23506 23507 23508 23509 23510 23511 23512 23513 23514 23515 23516 23517 23518 23519 23520 23521 23522 23523 23524 23525 23526 23527 23528 23529 23530 23531 23532 23533 23534 23535 23536 23537 23538 23539 23540 23541 23542 23543 23544 23545 23546 23547 23548 23549 23550 23551 23552 23553 23554 23555 23556 23557 23558 23559 23560 23561 23562 23563 23564 23565 23566 23567 23568 23569 23570 23571 23572 23573 23574 23575 23576 23577 23578 23579 23580 23581 23582 23583 23584 23585 23586 23587 23588 23589 23590 23591 23592 23593 23594 23595 23596 23597 23598 23599 23600 23601 23602 23603 23604 23605 23606 23607 23608 23609 23610 23611 23612 23613 23614 23615 23616 23617 23618 23619 23620 23621 23622 23623 23624 23625 23626 23627 23628 23629 23630 23631 23632 23633 23634 23635 23636 23637 23638 23639 23640 23641 23642 23643 23644 23645 23646 23647 23648 23649 23650 23651 23652 23653 23654 23655 23656 23657 23658 23659 23660 23661 23662 23663 23664 23665 23666 23667 23668 23669 23670 23671 23672 23673 23674 23675 23676 23677 23678 23679 23680 23681 23682 23683 23684 23685 23686 23687 23688 23689 23690 23691 23692 23693 23694 23695 23696 23697 23698 23699 23700 23701 23702 23703 23704 23705 23706 23707 23708 23709 23710 23711 23712 23713 23714 23715 23716 23717 23718 23719 23720 23721 23722 23723 23724 23725 23726 23727 23728 23729 23730 23731 23732 23733 23734 23735 23736 23737 23738 23739 23740 23741 23742 23743 23744 23745 23746 23747 23748 23749 23750 23751 23752 23753 23754 23755 23756 23757 23758 23759 23760 23761 23762 23763 23764 23765 23766 23767 23768 23769 23770 23771 23772 23773 23774 23775 23776 23777 23778 23779 23780 23781 23782 23783 23784 23785 23786 23787 23788 23789 23790 23791 23792 23793 23794 23795 23796 23797 23798 23799 23800 23801 23802 23803 23804 23805 23806 23807 23808 23809 23810 23811 23812 23813 23814 23815 23816 23817 23818 23819 23820 23821 23822 23823 23824 23825 23826 23827 23828 23829 23830 23831 23832 23833 23834 23835 23836 23837 23838 23839 23840 23841 23842 23843 23844 23845 23846 23847 23848 23849 23850 23851 23852 23853 23854 23855 23856 23857 23858 23859 23860 23861 23862 23863 23864 23865 23866 23867 23868 23869 23870 23871 23872 23873 23874 23875 23876 23877 23878 23879 23880 23881 23882 23883 23884 23885 23886 23887 23888 23889 23890 23891 23892 23893 23894 23895 23896 23897 23898 23899 23900 23901 23902 23903 23904 23905 23906 23907 23908 23909 23910 23911 23912 23913 23914 23915 23916 23917 23918 23919 23920 23921 23922 23923 23924 23925 23926 23927 23928 23929 23930 23931 23932 23933 23934 23935 23936 23937 23938 23939 23940 23941 23942 23943 23944 23945 23946 23947 23948 23949 23950 23951 23952 23953 23954 23955 23956 23957 23958 23959 23960 23961 23962 23963 23964 23965 23966 23967 23968 23969 23970 23971 23972 23973 23974 23975 23976 23977 23978 23979 23980 23981 23982 23983 23984 23985 23986 23987 23988 23989 23990 23991 23992 23993 23994 23995 23996 23997 23998 23999 24000 24001 24002 24003 24004 24005 24006 24007 24008 24009 24010 24011 24012 24013 24014 24015 24016 24017 24018 24019 24020 24021 24022 24023 24024 24025 24026 24027 24028 24029 24030 24031 24032 24033 24034 24035 24036 24037 24038 24039 24040 24041 24042 24043 24044 24045 24046 24047 24048 24049 24050 24051 24052 24053 24054 24055 24056 24057 24058 24059 24060 24061 24062 24063 24064 24065 24066 24067 24068 24069 24070 24071 24072 24073 24074 24075 24076 24077 24078 24079 24080 24081 24082 24083 24084 24085 24086 24087 24088 24089 24090 24091 24092 24093 24094 24095 24096 24097 24098 24099 24100 24101 24102 24103 24104 24105 24106 24107 24108 24109 24110 24111 24112 24113 24114 24115 24116 24117 24118 24119 24120 24121 24122 24123 24124 24125 24126 24127 24128 24129 24130 24131 24132 24133 24134 24135 24136 24137 24138 24139 24140 24141 24142 24143 24144 24145 24146 24147 24148 24149 24150 24151 24152 24153 24154 24155 24156 24157 24158 24159 24160 24161 24162 24163 24164 24165 24166 24167 24168 24169 24170 24171 24172 24173 24174 24175 24176 24177 24178 24179 24180 24181 24182 24183 24184 24185 24186 24187 24188 24189 24190 24191 24192 24193 24194 24195 24196 24197 24198 24199 24200 24201 24202 24203 24204 24205 24206 24207 24208 24209 24210 24211 24212 24213 24214 24215 24216 24217 24218 24219 24220 24221 24222 24223 24224 24225 24226 24227 24228 24229 24230 24231 24232 24233 24234 24235 24236 24237 24238 24239 24240 24241 24242 24243 24244 24245 24246 24247 24248 24249 24250 24251 24252 24253 24254 24255 24256 24257 24258 24259 24260 24261 24262 24263 24264 24265 24266 24267 24268 24269 24270 24271 24272 24273 24274 24275 24276 24277 24278 24279 24280 24281 24282 24283 24284 24285 24286 24287 24288 24289 24290 24291 24292 24293 24294 24295 24296 24297 24298 24299 24300 24301 24302 24303 24304 24305 24306 24307 24308 24309 24310 24311 24312 24313 24314 24315 24316 24317 24318 24319 24320 24321 24322 24323 24324 24325 24326 24327 24328 24329 24330 24331 24332 24333 24334 24335 24336 24337 24338 24339 24340 24341 24342 24343 24344 24345 24346 24347 24348 24349 24350 24351 24352 24353 24354 24355 24356 24357 24358 24359 24360 24361 24362 24363 24364 24365 24366 24367 24368 24369 24370 24371 24372 24373 24374 24375 24376 24377 24378 24379 24380 24381 24382 24383 24384 24385 24386 24387 24388 24389 24390 24391 24392 24393 24394 24395 24396 24397 24398 24399 24400 24401 24402 24403 24404 24405 24406 24407 24408 24409 24410 24411 24412 24413 24414 24415 24416 24417 24418 24419 24420 24421 24422 24423 24424 24425 24426 24427 24428 24429 24430 24431 24432 24433 24434 24435 24436 24437 24438 24439 24440 24441 24442 24443 24444 24445 24446 24447 24448 24449 24450 24451 24452 24453 24454 24455 24456 24457 24458 24459 24460 24461 24462 24463 24464 24465 24466 24467 24468 24469 24470 24471 24472 24473 24474 24475 24476 24477 24478 24479 24480 24481 24482 24483 24484 24485 24486 24487 24488 24489 24490 24491 24492 24493 24494 24495 24496 24497 24498 24499 24500 24501 24502 24503 24504 24505 24506 24507 24508 24509 24510 24511 24512 24513 24514 24515 24516 24517 24518 24519 24520 24521 24522 24523 24524 24525 24526 24527 24528 24529 24530 24531 24532 24533 24534 24535 24536 24537 24538 24539 24540 24541 24542 24543 24544 24545 24546 24547 24548 24549 24550 24551 24552 24553 24554 24555 24556 24557 24558 24559 24560 24561 24562 24563 24564 24565 24566 24567 24568 24569 24570 24571 24572 24573 24574 24575 24576 24577 24578 24579 24580 24581 24582 24583 24584 24585 24586 24587 24588 24589 24590 24591 24592 24593 24594 24595 24596 24597 24598 24599 24600 24601 24602 24603 24604 24605 24606 24607 24608 24609 24610 24611 24612 24613 24614 24615 24616 24617 24618 24619 24620 24621 24622 24623 24624 24625 24626 24627 24628 24629 24630 24631 24632 24633 24634 24635 24636 24637 24638 24639 24640 24641 24642 24643 24644 24645 24646 24647 24648 24649 24650 24651 24652 24653 24654 24655 24656 24657 24658 24659 24660 24661 24662 24663 24664 24665 24666 24667 24668 24669 24670 24671 24672 24673 24674 24675 24676 24677 24678 24679 24680 24681 24682 24683 24684 24685 24686 24687 24688 24689 24690 24691 24692 24693 24694 24695 24696 24697 24698 24699 24700 24701 24702 24703 24704 24705 24706 24707 24708 24709 24710 24711 24712 24713 24714 24715 24716 24717 24718 24719 24720 24721 24722 24723 24724 24725 24726 24727 24728 24729 24730 24731 24732 24733 24734 24735 24736 24737 24738 24739 24740 24741 24742 24743 24744 24745 24746 24747 24748 24749 24750 24751 24752 24753 24754 24755 24756 24757 24758 24759 24760 24761 24762 24763 24764 24765 24766 24767 24768 24769 24770 24771 24772 24773 24774 24775 24776 24777 24778 24779 24780 24781 24782 24783 24784 24785 24786 24787 24788 24789 24790 24791 24792 24793 24794 24795 24796 24797 24798 24799 24800 24801 24802 24803 24804 24805 24806 24807 24808 24809 24810 24811 24812 24813 24814 24815 24816 24817 24818 24819 24820 24821 24822 24823 24824 24825 24826 24827 24828 24829 24830 24831 24832 24833 24834 24835 24836 24837 24838 24839 24840 24841 24842 24843 24844 24845 24846 24847 24848 24849 24850 24851 24852 24853 24854 24855 24856 24857 24858 24859 24860 24861 24862 24863 24864 24865 24866 24867 24868 24869 24870 24871 24872 24873 24874 24875 24876 24877 24878 24879 24880 24881 24882 24883 24884 24885 24886 24887 24888 24889 24890 24891 24892 24893 24894 24895 24896 24897 24898 24899 24900 24901 24902 24903 24904 24905 24906 24907 24908 24909 24910 24911 24912 24913 24914 24915 24916 24917 24918 24919 24920 24921 24922 24923 24924 24925 24926 24927 24928 24929 24930 24931 24932 24933 24934 24935 24936 24937 24938 24939 24940 24941 24942 24943 24944 24945 24946 24947 24948 24949 24950 24951 24952 24953 24954 24955 24956 24957 24958 24959 24960 24961 24962 24963 24964 24965 24966 24967 24968 24969 24970 24971 24972 24973 24974 24975 24976 24977 24978 24979 24980 24981 24982 24983 24984 24985 24986 24987 24988 24989 24990 24991 24992 24993 24994 24995 24996 24997 24998 24999 25000 25001 25002 25003 25004 25005 25006 25007 25008 25009 25010 25011 25012 25013 25014 25015 25016 25017 25018 25019 25020 25021 25022 25023 25024 25025 25026 25027 25028 25029 25030 25031 25032 25033 25034 25035 25036 25037 25038 25039 25040 25041 25042 25043 25044 25045 25046 25047 25048 25049 25050 25051 25052 25053 25054 25055 25056 25057 25058 25059 25060 25061 25062 25063 25064 25065 25066 25067 25068 25069 25070 25071 25072 25073 25074 25075 25076 25077 25078 25079 25080 25081 25082 25083 25084 25085 25086 25087 25088 25089 25090 25091 25092 25093 25094 25095 25096 25097 25098 25099 25100 25101 25102 25103 25104 25105 25106 25107 25108 25109 25110 25111 25112 25113 25114 25115 25116 25117 25118 25119 25120 25121 25122 25123 25124 25125 25126 25127 25128 25129 25130 25131 25132 25133 25134 25135 25136 25137 25138 25139 25140 25141 25142 25143 25144 25145 25146 25147 25148 25149 25150 25151 25152 25153 25154 25155 25156 25157 25158 25159 25160 25161 25162 25163 25164 25165 25166 25167 25168 25169 25170 25171 25172 25173 25174 25175 25176 25177 25178 25179 25180 25181 25182 25183 25184 25185 25186 25187 25188 25189 25190 25191 25192 25193 25194 25195 25196 25197 25198 25199 25200 25201 25202 25203 25204 25205 25206 25207 25208 25209 25210 25211 25212 25213 25214 25215 25216 25217 25218 25219 25220 25221 25222 25223 25224 25225 25226 25227 25228 25229 25230 25231 25232 25233 25234 25235 25236 25237 25238 25239 25240 25241 25242 25243 25244 25245 25246 25247 25248 25249 25250 25251 25252 25253 25254 25255 25256 25257 25258 25259 25260 25261 25262 25263 25264 25265 25266 25267 25268 25269 25270 25271 25272 25273 25274 25275 25276 25277 25278 25279 25280 25281 25282 25283 25284 25285 25286 25287 25288 25289 25290 25291 25292 25293 25294 25295 25296 25297 25298 25299 25300 25301 25302 25303 25304 25305 25306 25307 25308 25309 25310 25311 25312 25313 25314 25315 25316 25317 25318 25319 25320 25321 25322 25323 25324 25325 25326 25327 25328 25329 25330 25331 25332 25333 25334 25335 25336 25337 25338 25339 25340 25341 25342 25343 25344 25345 25346 25347 25348 25349 25350 25351 25352 25353 25354 25355 25356 25357 25358 25359 25360 25361 25362 25363 25364 25365 25366 25367 25368 25369 25370 25371 25372 25373 25374 25375 25376 25377 25378 25379 25380 25381 25382 25383 25384 25385 25386 25387 25388 25389 25390 25391 25392 25393 25394 25395 25396 25397 25398 25399 25400 25401 25402 25403 25404 25405 25406 25407 25408 25409 25410 25411 25412 25413 25414 25415 25416 25417 25418 25419 25420 25421 25422 25423 25424 25425 25426 25427 25428 25429 25430 25431 25432 25433 25434 25435 25436 25437 25438 25439 25440 25441 25442 25443 25444 25445 25446 25447 25448 25449 25450 25451 25452 25453 25454 25455 25456 25457 25458 25459 25460 25461 25462 25463 25464 25465 25466 25467 25468 25469 25470 25471 25472 25473 25474 25475 25476 25477 25478 25479 25480 25481 25482 25483 25484 25485 25486 25487 25488 25489 25490 25491 25492 25493 25494 25495 25496 25497 25498 25499 25500 25501 25502 25503 25504 25505 25506 25507 25508 25509 25510 25511 25512 25513 25514 25515 25516 25517 25518 25519 25520 25521 25522 25523 25524 25525 25526 25527 25528 25529 25530 25531 25532 25533 25534 25535 25536 25537 25538 25539 25540 25541 25542 25543 25544 25545 25546 25547 25548 25549 25550 25551 25552 25553 25554 25555 25556 25557 25558 25559 25560 25561 25562 25563 25564 25565 25566 25567 25568 25569 25570 25571 25572 25573 25574 25575 25576 25577 25578 25579 25580 25581 25582 25583 25584 25585 25586 25587 25588 25589 25590 25591 25592 25593 25594 25595 25596 25597 25598 25599 25600 25601 25602 25603 25604 25605 25606 25607 25608 25609 25610 25611 25612 25613 25614 25615 25616 25617 25618 25619 25620 25621 25622 25623 25624 25625 25626 25627 25628 25629 25630 25631 25632 25633 25634 25635 25636 25637 25638 25639 25640 25641 25642 25643 25644 25645 25646 25647 25648 25649 25650 25651 25652 25653 25654 25655 25656 25657 25658 25659 25660 25661 25662 25663 25664 25665 25666 25667 25668 25669 25670 25671 25672 25673 25674 25675 25676 25677 25678 25679 25680 25681 25682 25683 25684 25685 25686 25687 25688 25689 25690 25691 25692 25693 25694 25695 25696 25697 25698 25699 25700 25701 25702 25703 25704 25705 25706 25707 25708 25709 25710 25711 25712 25713 25714 25715 25716 25717 25718 25719 25720 25721 25722 25723 25724 25725 25726 25727 25728 25729 25730 25731 25732 25733 25734 25735 25736 25737 25738 25739 25740 25741 25742 25743 25744 25745 25746 25747 25748 25749 25750 25751 25752 25753 25754 25755 25756 25757 25758 25759 25760 25761 25762 25763 25764 25765 25766 25767 25768 25769 25770 25771 25772 25773 25774 25775 25776 25777 25778 25779 25780 25781 25782 25783 25784 25785 25786 25787 25788 25789 25790 25791 25792 25793 25794 25795 25796 25797 25798 25799 25800 25801 25802 25803 25804 25805 25806 25807 25808 25809 25810 25811 25812 25813 25814 25815 25816 25817 25818 25819 25820 25821 25822 25823 25824 25825 25826 25827 25828 25829 25830 25831 25832 25833 25834 25835 25836 25837 25838 25839 25840 25841 25842 25843 25844 25845 25846 25847 25848 25849 25850 25851 25852 25853 25854 25855 25856 25857 25858 25859 25860 25861 25862 25863 25864 25865 25866 25867 25868 25869 25870 25871 25872 25873 25874 25875 25876 25877 25878 25879 25880 25881 25882 25883 25884 25885 25886 25887 25888 25889 25890 25891 25892 25893 25894 25895 25896 25897 25898 25899 25900 25901 25902 25903 25904 25905 25906 25907 25908 25909 25910 25911 25912 25913 25914 25915 25916 25917 25918 25919 25920 25921 25922 25923 25924 25925 25926 25927 25928 25929 25930 25931 25932 25933 25934 25935 25936 25937 25938 25939 25940 25941 25942 25943 25944 25945 25946 25947 25948 25949 25950 25951 25952 25953 25954 25955 25956 25957 25958 25959 25960 25961 25962 25963 25964 25965 25966 25967 25968 25969 25970 25971 25972 25973 25974 25975 25976 25977 25978 25979 25980 25981 25982 25983 25984 25985 25986 25987 25988 25989 25990 25991 25992 25993 25994 25995 25996 25997 25998 25999 26000 26001 26002 26003 26004 26005 26006 26007 26008 26009 26010 26011 26012 26013 26014 26015 26016 26017 26018 26019 26020 26021 26022 26023 26024 26025 26026 26027 26028 26029 26030 26031 26032 26033 26034 26035 26036 26037 26038 26039 26040 26041 26042 26043 26044 26045 26046 26047 26048 26049 26050 26051 26052 26053 26054 26055 26056 26057 26058 26059 26060 26061 26062 26063 26064 26065 26066 26067 26068 26069 26070 26071 26072 26073 26074 26075 26076 26077 26078 26079 26080 26081 26082 26083 26084 26085 26086 26087 26088 26089 26090 26091 26092 26093 26094 26095 26096 26097 26098 26099 26100 26101 26102 26103 26104 26105 26106 26107 26108 26109 26110 26111 26112 26113 26114 26115 26116 26117 26118 26119 26120 26121 26122 26123 26124 26125 26126 26127 26128 26129 26130 26131 26132 26133 26134 26135 26136 26137 26138 26139 26140 26141 26142 26143 26144 26145 26146 26147 26148 26149 26150 26151 26152 26153 26154 26155 26156 26157 26158 26159 26160 26161 26162 26163 26164 26165 26166 26167 26168 26169 26170 26171 26172 26173 26174 26175 26176 26177 26178 26179 26180 26181 26182 26183 26184 26185 26186 26187 26188 26189 26190 26191 26192 26193 26194 26195 26196 26197 26198 26199 26200 26201 26202 26203 26204 26205 26206 26207 26208 26209 26210 26211 26212 26213 26214 26215 26216 26217 26218 26219 26220 26221 26222 26223 26224 26225 26226 26227 26228 26229 26230 26231 26232 26233 26234 26235 26236 26237 26238 26239 26240 26241 26242 26243 26244 26245 26246 26247 26248 26249 26250 26251 26252 26253 26254 26255 26256 26257 26258 26259 26260 26261 26262 26263 26264 26265 26266 26267 26268 26269 26270 26271 26272 26273 26274 26275 26276 26277 26278 26279 26280 26281 26282 26283 26284 26285 26286 26287 26288 26289 26290 26291 26292 26293 26294 26295 26296 26297 26298 26299 26300 26301 26302 26303 26304 26305 26306 26307 26308 26309 26310 26311 26312 26313 26314 26315 26316 26317 26318 26319 26320 26321 26322 26323 26324 26325 26326 26327 26328 26329 26330 26331 26332 26333 26334 26335 26336 26337 26338 26339 26340 26341 26342 26343 26344 26345 26346 26347 26348 26349 26350 26351 26352 26353 26354 26355 26356 26357 26358 26359 26360 26361 26362 26363 26364 26365 26366 26367 26368 26369 26370 26371 26372 26373 26374 26375 26376 26377 26378 26379 26380 26381 26382 26383 26384 26385 26386 26387 26388 26389 26390 26391 26392 26393 26394 26395 26396 26397 26398 26399 26400 26401 26402 26403 26404 26405 26406 26407 26408 26409 26410 26411 26412 26413 26414 26415 26416 26417 26418 26419 26420 26421 26422 26423 26424 26425 26426 26427 26428 26429 26430 26431 26432 26433 26434 26435 26436 26437 26438 26439 26440 26441 26442 26443 26444 26445 26446 26447 26448 26449 26450 26451 26452 26453 26454 26455 26456 26457 26458 26459 26460 26461 26462 26463 26464 26465 26466 26467 26468 26469 26470 26471 26472 26473 26474 26475 26476 26477 26478 26479 26480 26481 26482 26483 26484 26485 26486 26487 26488 26489 26490 26491 26492 26493 26494 26495 26496 26497 26498 26499 26500 26501 26502 26503 26504 26505 26506 26507 26508 26509 26510 26511 26512 26513 26514 26515 26516 26517 26518 26519 26520 26521 26522 26523 26524 26525 26526 26527 26528 26529 26530 26531 26532 26533 26534 26535 26536 26537 26538 26539 26540 26541 26542 26543 26544 26545 26546 26547 26548 26549 26550 26551 26552 26553 26554 26555 26556 26557 26558 26559 26560 26561 26562 26563 26564 26565 26566 26567 26568 26569 26570 26571 26572 26573 26574 26575 26576 26577 26578 26579 26580 26581 26582 26583 26584 26585 26586 26587 26588 26589 26590 26591 26592 26593 26594 26595 26596 26597 26598 26599 26600 26601 26602 26603 26604 26605 26606 26607 26608 26609 26610 26611 26612 26613 26614 26615 26616 26617 26618 26619 26620 26621 26622 26623 26624 26625 26626 26627 26628 26629 26630 26631 26632 26633 26634 26635 26636 26637 26638 26639 26640 26641 26642 26643 26644 26645 26646 26647 26648 26649 26650 26651 26652 26653 26654 26655 26656 26657 26658 26659 26660 26661 26662 26663 26664 26665 26666 26667 26668 26669 26670 26671 26672 26673 26674 26675 26676 26677 26678 26679 26680 26681 26682 26683 26684 26685 26686 26687 26688 26689 26690 26691 26692 26693 26694 26695 26696 26697 26698 26699 26700 26701 26702 26703 26704 26705 26706 26707 26708 26709 26710 26711 26712 26713 26714 26715 26716 26717 26718 26719 26720 26721 26722 26723 26724 26725 26726 26727 26728 26729 26730 26731 26732 26733 26734 26735 26736 26737 26738 26739 26740 26741 26742 26743 26744 26745 26746 26747 26748 26749 26750 26751 26752 26753 26754 26755 26756 26757 26758 26759 26760 26761 26762 26763 26764 26765 26766 26767 26768 26769 26770 26771 26772 26773 26774 26775 26776 26777 26778 26779 26780 26781 26782 26783 26784 26785 26786 26787 26788 26789 26790 26791 26792 26793 26794 26795 26796 26797 26798 26799 26800 26801 26802 26803 26804 26805 26806 26807 26808 26809 26810 26811 26812 26813 26814 26815 26816 26817 26818 26819 26820 26821 26822 26823 26824 26825 26826 26827 26828 26829 26830 26831 26832 26833 26834 26835 26836 26837 26838 26839 26840 26841 26842 26843 26844 26845 26846 26847 26848 26849 26850 26851 26852 26853 26854 26855 26856 26857 26858 26859 26860 26861 26862 26863 26864 26865 26866 26867 26868 26869 26870 26871 26872 26873 26874 26875 26876 26877 26878 26879 26880 26881 26882 26883 26884 26885 26886 26887 26888 26889 26890 26891 26892 26893 26894 26895 26896 26897 26898 26899 26900 26901 26902 26903 26904 26905 26906 26907 26908 26909 26910 26911 26912 26913 26914 26915 26916 26917 26918 26919 26920 26921 26922 26923 26924 26925 26926 26927 26928 26929 26930 26931 26932 26933 26934 26935 26936 26937 26938 26939 26940 26941 26942 26943 26944 26945 26946 26947 26948 26949 26950 26951 26952 26953 26954 26955 26956 26957 26958 26959 26960 26961 26962 26963 26964 26965 26966 26967 26968 26969 26970 26971 26972 26973 26974 26975 26976 26977 26978 26979 26980 26981 26982 26983 26984 26985 26986 26987 26988 26989 26990 26991 26992 26993 26994 26995 26996 26997 26998 26999 27000 27001 27002 27003 27004 27005 27006 27007 27008 27009 27010 27011 27012 27013 27014 27015 27016 27017 27018 27019 27020 27021 27022 27023 27024 27025 27026 27027 27028 27029 27030 27031 27032 27033 27034 27035 27036 27037 27038 27039 27040 27041 27042 27043 27044 27045 27046 27047 27048 27049 27050 27051 27052 27053 27054 27055 27056 27057 27058 27059 27060 27061 27062 27063 27064 27065 27066 27067 27068 27069 27070 27071 27072 27073 27074 27075 27076 27077 27078 27079 27080 27081 27082 27083 27084 27085 27086 27087 27088 27089 27090 27091 27092 27093 27094 27095 27096 27097 27098 27099 27100 27101 27102 27103 27104 27105 27106 27107 27108 27109 27110 27111 27112 27113 27114 27115 27116 27117 27118 27119 27120 27121 27122 27123 27124 27125 27126 27127 27128 27129 27130 27131 27132 27133 27134 27135 27136 27137 27138 27139 27140 27141 27142 27143 27144 27145 27146 27147 27148 27149 27150 27151 27152 27153 27154 27155 27156 27157 27158 27159 27160 27161 27162 27163 27164 27165 27166 27167 27168 27169 27170 27171 27172 27173 27174 27175 27176 27177 27178 27179 27180 27181 27182 27183 27184 27185 27186 27187 27188 27189 27190 27191 27192 27193 27194 27195 27196 27197 27198 27199 27200 27201 27202 27203 27204 27205 27206 27207 27208 27209 27210 27211 27212 27213 27214 27215 27216 27217 27218 27219 27220 27221 27222 27223 27224 27225 27226 27227 27228 27229 27230 27231 27232 27233 27234 27235 27236 27237 27238 27239 27240 27241 27242 27243 27244 27245 27246 27247 27248 27249 27250 27251 27252 27253 27254 27255 27256 27257 27258 27259 27260 27261 27262 27263 27264 27265 27266 27267 27268 27269 27270 27271 27272 27273 27274 27275 27276 27277 27278 27279 27280 27281 27282 27283 27284 27285 27286 27287 27288 27289 27290 27291 27292 27293 27294 27295 27296 27297 27298 27299 27300 27301 27302 27303 27304 27305 27306 27307 27308 27309 27310 27311 27312 27313 27314 27315 27316 27317 27318 27319 27320 27321 27322 27323 27324 27325 27326 27327 27328 27329 27330 27331 27332 27333 27334 27335 27336 27337 27338 27339 27340 27341 27342 27343 27344 27345 27346 27347 27348 27349 27350 27351 27352 27353 27354 27355 27356 27357 27358 27359 27360 27361 27362 27363 27364 27365 27366 27367 27368 27369 27370 27371 27372 27373 27374 27375 27376 27377 27378 27379 27380 27381 27382 27383 27384 27385 27386 27387 27388 27389 27390 27391 27392 27393 27394 27395 27396 27397 27398 27399 27400 27401 27402 27403 27404 27405 27406 27407 27408 27409 27410 27411 27412 27413 27414 27415 27416 27417 27418 27419 27420 27421 27422 27423 27424 27425 27426 27427 27428 27429 27430 27431 27432 27433 27434 27435 27436 27437 27438 27439 27440 27441 27442 27443 27444 27445 27446 27447 27448 27449 27450 27451 27452 27453 27454 27455 27456 27457 27458 27459 27460 27461 27462 27463 27464 27465 27466 27467 27468 27469 27470 27471 27472 27473 27474 27475 27476 27477 27478 27479 27480 27481 27482 27483 27484 27485 27486 27487 27488 27489 27490 27491 27492 27493 27494 27495 27496 27497 27498 27499 27500 27501 27502 27503 27504 27505 27506 27507 27508 27509 27510 27511 27512 27513 27514 27515 27516 27517 27518 27519 27520 27521 27522 27523 27524 27525 27526 27527 27528 27529 27530 27531 27532 27533 27534 27535 27536 27537 27538 27539 27540 27541 27542 27543 27544 27545 27546 27547 27548 27549 27550 27551 27552 27553 27554 27555 27556 27557 27558 27559 27560 27561 27562 27563 27564 27565 27566 27567 27568 27569 27570 27571 27572 27573 27574 27575 27576 27577 27578 27579 27580 27581 27582 27583 27584 27585 27586 27587 27588 27589 27590 27591 27592 27593 27594 27595 27596 27597 27598 27599 27600 27601 27602 27603 27604 27605 27606 27607 27608 27609 27610 27611 27612 27613 27614 27615 27616 27617 27618 27619 27620 27621 27622 27623 27624 27625 27626 27627 27628 27629 27630 27631 27632 27633 27634 27635 27636 27637 27638 27639 27640 27641 27642 27643 27644 27645 27646 27647 27648 27649 27650 27651 27652 27653 27654 27655 27656 27657 27658 27659 27660 27661 27662 27663 27664 27665 27666 27667 27668 27669 27670 27671 27672 27673 27674 27675 27676 27677 27678 27679 27680 27681 27682 27683 27684 27685 27686 27687 27688 27689 27690 27691 27692 27693 27694 27695 27696 27697 27698 27699 27700 27701 27702 27703 27704 27705 27706 27707 27708 27709 27710 27711 27712 27713 27714 27715 27716 27717 27718 27719 27720 27721 27722 27723 27724 27725 27726 27727 27728 27729 27730 27731 27732 27733 27734 27735 27736 27737 27738 27739 27740 27741 27742 27743 27744 27745 27746 27747 27748 27749 27750 27751 27752 27753 27754 27755 27756 27757 27758 27759 27760 27761 27762 27763 27764 27765 27766 27767 27768 27769 27770 27771 27772 27773 27774 27775 27776 27777 27778 27779 27780 27781 27782 27783 27784 27785 27786 27787 27788 27789 27790 27791 27792 27793 27794 27795 27796 27797 27798 27799 27800 27801 27802 27803 27804 27805 27806 27807 27808 27809 27810 27811 27812 27813 27814 27815 27816 27817 27818 27819 27820 27821 27822 27823 27824 27825 27826 27827 27828 27829 27830 27831 27832 27833 27834 27835 27836 27837 27838 27839 27840 27841 27842 27843 27844 27845 27846 27847 27848 27849 27850 27851 27852 27853 27854 27855 27856 27857 27858 27859 27860 27861 27862 27863 27864 27865 27866 27867 27868 27869 27870 27871 27872 27873 27874 27875 27876 27877 27878 27879 27880 27881 27882 27883 27884 27885 27886 27887 27888 27889 27890 27891 27892 27893 27894 27895 27896 27897 27898 27899 27900 27901 27902 27903 27904 27905 27906 27907 27908 27909 27910 27911 27912 27913 27914 27915 27916 27917 27918 27919 27920 27921 27922 27923 27924 27925 27926 27927 27928 27929 27930 27931 27932 27933 27934 27935 27936 27937 27938 27939 27940 27941 27942 27943 27944 27945 27946 27947 27948 27949 27950 27951 27952 27953 27954 27955 27956 27957 27958 27959 27960 27961 27962 27963 27964 27965 27966 27967 27968 27969 27970 27971 27972 27973 27974 27975 27976 27977 27978 27979 27980 27981 27982 27983 27984 27985 27986 27987 27988 27989 27990 27991 27992 27993 27994 27995 27996 27997 27998 27999 28000 28001 28002 28003 28004 28005 28006 28007 28008 28009 28010 28011 28012 28013 28014 28015 28016 28017 28018 28019 28020 28021 28022 28023 28024 28025 28026 28027 28028 28029 28030 28031 28032 28033 28034 28035 28036 28037 28038 28039 28040 28041 28042 28043 28044 28045 28046 28047 28048 28049 28050 28051 28052 28053 28054 28055 28056 28057 28058 28059 28060 28061 28062 28063 28064 28065 28066 28067 28068 28069 28070 28071 28072 28073 28074 28075 28076 28077 28078 28079 28080 28081 28082 28083 28084 28085 28086 28087 28088 28089 28090 28091 28092 28093 28094 28095 28096 28097 28098 28099 28100 28101 28102 28103 28104 28105 28106 28107 28108 28109 28110 28111 28112 28113 28114 28115 28116 28117 28118 28119 28120 28121 28122 28123 28124 28125 28126 28127 28128 28129 28130 28131 28132 28133 28134 28135 28136 28137 28138 28139 28140 28141 28142 28143 28144 28145 28146 28147 28148 28149 28150 28151 28152 28153 28154 28155 28156 28157 28158 28159 28160 28161 28162 28163 28164 28165 28166 28167 28168 28169 28170 28171 28172 28173 28174 28175 28176 28177 28178 28179 28180 28181 28182 28183 28184 28185 28186 28187 28188 28189 28190 28191 28192 28193 28194 28195 28196 28197 28198 28199 28200 28201 28202 28203 28204 28205 28206 28207 28208 28209 28210 28211 28212 28213 28214 28215 28216 28217 28218 28219 28220 28221 28222 28223 28224 28225 28226 28227 28228 28229 28230 28231 28232 28233 28234 28235 28236 28237 28238 28239 28240 28241 28242 28243 28244 28245 28246 28247 28248 28249 28250 28251 28252 28253 28254 28255 28256 28257 28258 28259 28260 28261 28262 28263 28264 28265 28266 28267 28268 28269 28270 28271 28272 28273 28274 28275 28276 28277 28278 28279 28280 28281 28282 28283 28284 28285 28286 28287 28288 28289 28290 28291 28292 28293 28294 28295 28296 28297 28298 28299 28300 28301 28302 28303 28304 28305 28306 28307 28308 28309 28310 28311 28312 28313 28314 28315 28316 28317 28318 28319 28320 28321 28322 28323 28324 28325 28326 28327 28328 28329 28330 28331 28332 28333 28334 28335 28336 28337 28338 28339 28340 28341 28342 28343 28344 28345 28346 28347 28348 28349 28350 28351 28352 28353 28354 28355 28356 28357 28358 28359 28360 28361 28362 28363 28364 28365 28366 28367 28368 28369 28370 28371 28372 28373 28374 28375 28376 28377 28378 28379 28380 28381 28382 28383 28384 28385 28386 28387 28388 28389 28390 28391 28392 28393 28394 28395 28396 28397 28398 28399 28400 28401 28402 28403 28404 28405 28406 28407 28408 28409 28410 28411 28412 28413 28414 28415 28416 28417 28418 28419 28420 28421 28422 28423 28424 28425 28426 28427 28428 28429 28430 28431 28432 28433 28434 28435 28436 28437 28438 28439 28440 28441 28442 28443 28444 28445 28446 28447 28448 28449 28450 28451 28452 28453 28454 28455 28456 28457 28458 28459 28460 28461 28462 28463 28464 28465 28466 28467 28468 28469 28470 28471 28472 28473 28474 28475 28476 28477 28478 28479 28480 28481 28482 28483 28484 28485 28486 28487 28488 28489 28490 28491 28492 28493 28494 28495 28496 28497 28498 28499 28500 28501 28502 28503 28504 28505 28506 28507 28508 28509 28510 28511 28512 28513 28514 28515 28516 28517 28518 28519 28520 28521 28522 28523 28524 28525 28526 28527 28528 28529 28530 28531 28532 28533 28534 28535 28536 28537 28538 28539 28540 28541 28542 28543 28544 28545 28546 28547 28548 28549 28550 28551 28552 28553 28554 28555 28556 28557 28558 28559 28560 28561 28562 28563 28564 28565 28566 28567 28568 28569 28570 28571 28572 28573 28574 28575 28576 28577 28578 28579 28580 28581 28582 28583 28584 28585 28586 28587 28588 28589 28590 28591 28592 28593 28594 28595 28596 28597 28598 28599 28600 28601 28602 28603 28604 28605 28606 28607 28608 28609 28610 28611 28612 28613 28614 28615 28616 28617 28618 28619 28620 28621 28622 28623 28624 28625 28626 28627 28628 28629 28630 28631 28632 28633 28634 28635 28636 28637 28638 28639 28640 28641 28642 28643 28644 28645 28646 28647 28648 28649 28650 28651 28652 28653 28654 28655 28656 28657 28658 28659 28660 28661 28662 28663 28664 28665 28666 28667 28668 28669 28670 28671 28672 28673 28674 28675 28676 28677 28678 28679 28680 28681 28682 28683 28684 28685 28686 28687 28688 28689 28690 28691 28692 28693 28694 28695 28696 28697 28698 28699 28700 28701 28702 28703 28704 28705 28706 28707 28708 28709 28710 28711 28712 28713 28714 28715 28716 28717 28718 28719 28720 28721 28722 28723 28724 28725 28726 28727 28728 28729 28730 28731 28732 28733 28734 28735 28736 28737 28738 28739 28740 28741 28742 28743 28744 28745 28746 28747 28748 28749 28750 28751 28752 28753 28754 28755 28756 28757 28758 28759 28760 28761 28762 28763 28764 28765 28766 28767 28768 28769 28770 28771 28772 28773 28774 28775 28776 28777 28778 28779 28780 28781 28782 28783 28784 28785 28786 28787 28788 28789 28790 28791 28792 28793 28794 28795 28796 28797 28798 28799 28800 28801 28802 28803 28804 28805 28806 28807 28808 28809 28810 28811 28812 28813 28814 28815 28816 28817 28818 28819 28820 28821 28822 28823 28824 28825 28826 28827 28828 28829 28830 28831 28832 28833 28834 28835 28836 28837 28838 28839 28840 28841 28842 28843 28844 28845 28846 28847 28848 28849 28850 28851 28852 28853 28854 28855 28856 28857 28858 28859 28860 28861 28862 28863 28864 28865 28866 28867 28868 28869 28870 28871 28872 28873 28874 28875 28876 28877 28878 28879 28880 28881 28882 28883 28884 28885 28886 28887 28888 28889 28890 28891 28892 28893 28894 28895 28896 28897 28898 28899 28900 28901 28902 28903 28904 28905 28906 28907 28908 28909 28910 28911 28912 28913 28914 28915 28916 28917 28918 28919 28920 28921 28922 28923 28924 28925 28926 28927 28928 28929 28930 28931 28932 28933 28934 28935 28936 28937 28938 28939 28940 28941 28942 28943 28944 28945 28946 28947 28948 28949 28950 28951 28952 28953 28954 28955 28956 28957 28958 28959 28960 28961 28962 28963 28964 28965 28966 28967 28968 28969 28970 28971 28972 28973 28974 28975 28976 28977 28978 28979 28980 28981 28982 28983 28984 28985 28986 28987 28988 28989 28990 28991 28992 28993 28994 28995 28996 28997 28998 28999 29000 29001 29002 29003 29004 29005 29006 29007 29008 29009 29010 29011 29012 29013 29014 29015 29016 29017 29018 29019 29020 29021 29022 29023 29024 29025 29026 29027 29028 29029 29030 29031 29032 29033 29034 29035 29036 29037 29038 29039 29040 29041 29042 29043 29044 29045 29046 29047 29048 29049 29050 29051 29052 29053 29054 29055 29056 29057 29058 29059 29060 29061 29062 29063 29064 29065 29066 29067 29068 29069 29070 29071 29072 29073 29074 29075 29076 29077 29078 29079 29080 29081 29082 29083 29084 29085 29086 29087 29088 29089 29090 29091 29092 29093 29094 29095 29096 29097 29098 29099 29100 29101 29102 29103 29104 29105 29106 29107 29108 29109 29110 29111 29112 29113 29114 29115 29116 29117 29118 29119 29120 29121 29122 29123 29124 29125 29126 29127 29128 29129 29130 29131 29132 29133 29134 29135 29136 29137 29138 29139 29140 29141 29142 29143 29144 29145 29146 29147 29148 29149 29150 29151 29152 29153 29154 29155 29156 29157 29158 29159 29160 29161 29162 29163 29164 29165 29166 29167 29168 29169 29170 29171 29172 29173 29174 29175 29176 29177 29178 29179 29180 29181 29182 29183 29184 29185 29186 29187 29188 29189 29190 29191 29192 29193 29194 29195 29196 29197 29198 29199 29200 29201 29202 29203 29204 29205 29206 29207 29208 29209 29210 29211 29212 29213 29214 29215 29216 29217 29218 29219 29220 29221 29222 29223 29224 29225 29226 29227 29228 29229 29230 29231 29232 29233 29234 29235 29236 29237 29238 29239 29240 29241 29242 29243 29244 29245 29246 29247 29248 29249 29250 29251 29252 29253 29254 29255 29256 29257 29258 29259 29260 29261 29262 29263 29264 29265 29266 29267 29268 29269 29270 29271 29272 29273 29274 29275 29276 29277 29278 29279 29280 29281 29282 29283 29284 29285 29286 29287 29288 29289 29290 29291 29292 29293 29294 29295 29296 29297 29298 29299 29300 29301 29302 29303 29304 29305 29306 29307 29308 29309 29310 29311 29312 29313 29314 29315 29316 29317 29318 29319 29320 29321 29322 29323 29324 29325 29326 29327 29328 29329 29330 29331 29332 29333 29334 29335 29336 29337 29338 29339 29340 29341 29342 29343 29344 29345 29346 29347 29348 29349 29350 29351 29352 29353 29354 29355 29356 29357 29358 29359 29360 29361 29362 29363 29364 29365 29366 29367 29368 29369 29370 29371 29372 29373 29374 29375 29376 29377 29378 29379 29380 29381 29382 29383 29384 29385 29386 29387 29388 29389 29390 29391 29392 29393 29394 29395 29396 29397 29398 29399 29400 29401 29402 29403 29404 29405 29406 29407 29408 29409 29410 29411 29412 29413 29414 29415 29416 29417 29418 29419 29420 29421 29422 29423 29424 29425 29426 29427 29428 29429 29430 29431 29432 29433 29434 29435 29436 29437 29438 29439 29440 29441 29442 29443 29444 29445 29446 29447 29448 29449 29450 29451 29452 29453 29454 29455 29456 29457 29458 29459 29460 29461 29462 29463 29464 29465 29466 29467 29468 29469 29470 29471 29472 29473 29474 29475 29476 29477 29478 29479 29480 29481 29482 29483 29484 29485 29486 29487 29488 29489 29490 29491 29492 29493 29494 29495 29496 29497 29498 29499 29500 29501 29502 29503 29504 29505 29506 29507 29508 29509 29510 29511 29512 29513 29514 29515 29516 29517 29518 29519 29520 29521 29522 29523 29524 29525 29526 29527 29528 29529 29530 29531 29532 29533 29534 29535 29536 29537 29538 29539 29540 29541 29542 29543 29544 29545 29546 29547 29548 29549 29550 29551 29552 29553 29554 29555 29556 29557 29558 29559 29560 29561 29562 29563 29564 29565 29566 29567 29568 29569 29570 29571 29572 29573 29574 29575 29576 29577 29578 29579 29580 29581 29582 29583 29584 29585 29586 29587 29588 29589 29590 29591 29592 29593 29594 29595 29596 29597 29598 29599 29600 29601 29602 29603 29604 29605 29606 29607 29608 29609 29610 29611 29612 29613 29614 29615 29616 29617 29618 29619 29620 29621 29622 29623 29624 29625 29626 29627 29628 29629 29630 29631 29632 29633 29634 29635 29636 29637 29638 29639 29640 29641 29642 29643 29644 29645 29646 29647 29648 29649 29650 29651 29652 29653 29654 29655 29656 29657 29658 29659 29660 29661 29662 29663 29664 29665 29666 29667 29668 29669 29670 29671 29672 29673 29674 29675 29676 29677 29678 29679 29680 29681 29682 29683 29684 29685 29686 29687 29688 29689 29690 29691 29692 29693 29694 29695 29696 29697 29698 29699 29700 29701 29702 29703 29704 29705 29706 29707 29708 29709 29710 29711 29712 29713 29714 29715 29716 29717 29718 29719 29720 29721 29722 29723 29724 29725 29726 29727 29728 29729 29730 29731 29732 29733 29734 29735 29736 29737 29738 29739 29740 29741 29742 29743 29744 29745 29746 29747 29748 29749 29750 29751 29752 29753 29754 29755 29756 29757 29758 29759 29760 29761 29762 29763 29764 29765 29766 29767 29768 29769 29770 29771 29772 29773 29774 29775 29776 29777 29778 29779 29780 29781 29782 29783 29784 29785 29786 29787 29788 29789 29790 29791 29792 29793 29794 29795 29796 29797 29798 29799 29800 29801 29802 29803 29804 29805 29806 29807 29808 29809 29810 29811 29812 29813 29814 29815 29816 29817 29818 29819 29820 29821 29822 29823 29824 29825 29826 29827 29828 29829 29830 29831 29832 29833 29834 29835 29836 29837 29838 29839 29840 29841 29842 29843 29844 29845 29846 29847 29848 29849 29850 29851 29852 29853 29854 29855 29856 29857 29858 29859 29860 29861 29862 29863 29864 29865 29866 29867 29868 29869 29870 29871 29872 29873 29874 29875 29876 29877 29878 29879 29880 29881 29882 29883 29884 29885 29886 29887 29888 29889 29890 29891 29892 29893 29894 29895 29896 29897 29898 29899 29900 29901 29902 29903 29904 29905 29906 29907 29908 29909 29910 29911 29912 29913 29914 29915 29916 29917 29918 29919 29920 29921 29922 29923 29924 29925 29926 29927 29928 29929 29930 29931 29932 29933 29934 29935 29936 29937 29938 29939 29940 29941 29942 29943 29944 29945 29946 29947 29948 29949 29950 29951 29952 29953 29954 29955 29956 29957 29958 29959 29960 29961 29962 29963 29964 29965 29966 29967 29968 29969 29970 29971 29972 29973 29974 29975 29976 29977 29978 29979 29980 29981 29982 29983 29984 29985 29986 29987 29988 29989 29990 29991 29992 29993 29994 29995 29996 29997 29998 29999 30000 30001 30002 30003 30004 30005 30006 30007 30008 30009 30010 30011 30012 30013 30014 30015 30016 30017 30018 30019 30020 30021 30022 30023 30024 30025 30026 30027 30028 30029 30030 30031 30032 30033 30034 30035 30036 30037 30038 30039 30040 30041 30042 30043 30044 30045 30046 30047 30048 30049 30050 30051 30052 30053 30054 30055 30056 30057 30058 30059 30060 30061 30062 30063 30064 30065 30066 30067 30068 30069 30070 30071 30072 30073 30074 30075 30076 30077 30078 30079 30080 30081 30082 30083 30084 30085 30086 30087 30088 30089 30090 30091 30092 30093 30094 30095 30096 30097 30098 30099 30100 30101 30102 30103 30104 30105 30106 30107 30108 30109 30110 30111 30112 30113 30114 30115 30116 30117 30118 30119 30120 30121 30122 30123 30124 30125 30126 30127 30128 30129 30130 30131 30132 30133 30134 30135 30136 30137 30138 30139 30140 30141 30142 30143 30144 30145 30146 30147 30148 30149 30150 30151 30152 30153 30154 30155 30156 30157 30158 30159 30160 30161 30162 30163 30164 30165 30166 30167 30168 30169 30170 30171 30172 30173 30174 30175 30176 30177 30178 30179 30180 30181 30182 30183 30184 30185 30186 30187 30188 30189 30190 30191 30192 30193 30194 30195 30196 30197 30198 30199 30200 30201 30202 30203 30204 30205 30206 30207 30208 30209 30210 30211 30212 30213 30214 30215 30216 30217 30218 30219 30220 30221 30222 30223 30224 30225 30226 30227 30228 30229 30230 30231 30232 30233 30234 30235 30236 30237 30238 30239 30240 30241 30242 30243 30244 30245 30246 30247 30248 30249 30250 30251 30252 30253 30254 30255 30256 30257 30258 30259 30260 30261 30262 30263 30264 30265 30266 30267 30268 30269 30270 30271 30272 30273 30274 30275 30276 30277 30278 30279 30280 30281 30282 30283 30284 30285 30286 30287 30288 30289 30290 30291 30292 30293 30294 30295 30296 30297 30298 30299 30300 30301 30302 30303 30304 30305 30306 30307 30308 30309 30310 30311 30312 30313 30314 30315 30316 30317 30318 30319 30320 30321 30322 30323 30324 30325 30326 30327 30328 30329 30330 30331 30332 30333 30334 30335 30336 30337 30338 30339 30340 30341 30342 30343 30344 30345 30346 30347 30348 30349 30350 30351 30352 30353 30354 30355 30356 30357 30358 30359 30360 30361 30362 30363 30364 30365 30366 30367 30368 30369 30370 30371 30372 30373 30374 30375 30376 30377 30378 30379 30380 30381 30382 30383 30384 30385 30386 30387 30388 30389 30390 30391 30392 30393 30394 30395 30396 30397 30398 30399 30400 30401 30402 30403 30404 30405 30406 30407 30408 30409 30410 30411 30412 30413 30414 30415 30416 30417 30418 30419 30420 30421 30422 30423 30424 30425 30426 30427 30428 30429 30430 30431 30432 30433 30434 30435 30436 30437 30438 30439 30440 30441 30442 30443 30444 30445 30446 30447 30448 30449 30450 30451 30452 30453 30454 30455 30456 30457 30458 30459 30460 30461 30462 30463 30464 30465 30466 30467 30468 30469 30470 30471 30472 30473 30474 30475 30476 30477 30478 30479 30480 30481 30482 30483 30484 30485 30486 30487 30488 30489 30490 30491 30492 30493 30494 30495 30496 30497 30498 30499 30500 30501 30502 30503 30504 30505 30506 30507 30508 30509 30510 30511 30512 30513 30514 30515 30516 30517 30518 30519 30520 30521 30522 30523 30524 30525 30526 30527 30528 30529 30530 30531 30532 30533 30534 30535 30536 30537 30538 30539 30540 30541 30542 30543 30544 30545 30546 30547 30548 30549 30550 30551 30552 30553 30554 30555 30556 30557 30558 30559 30560 30561 30562 30563 30564 30565 30566 30567 30568 30569 30570 30571 30572 30573 30574 30575 30576 30577 30578 30579 30580 30581 30582 30583 30584 30585 30586 30587 30588 30589 30590 30591 30592 30593 30594 30595 30596 30597 30598 30599 30600 30601 30602 30603 30604 30605 30606 30607 30608 30609 30610 30611 30612 30613 30614 30615 30616 30617 30618 30619 30620 30621 30622 30623 30624 30625 30626 30627 30628 30629 30630 30631 30632 30633 30634 30635 30636 30637 30638 30639 30640 30641 30642 30643 30644 30645 30646 30647 30648 30649 30650 30651 30652 30653 30654 30655 30656 30657 30658 30659 30660 30661 30662 30663 30664 30665 30666 30667 30668 30669 30670 30671 30672 30673 30674 30675 30676 30677 30678 30679 30680 30681 30682 30683 30684 30685 30686 30687 30688 30689 30690 30691 30692 30693 30694 30695 30696 30697 30698 30699 30700 30701 30702 30703 30704 30705 30706 30707 30708 30709 30710 30711 30712 30713 30714 30715 30716 30717 30718 30719 30720 30721 30722 30723 30724 30725 30726 30727 30728 30729 30730 30731 30732 30733 30734 30735 30736 30737 30738 30739 30740 30741 30742 30743 30744 30745 30746 30747 30748 30749 30750 30751 30752 30753 30754 30755 30756 30757 30758 30759 30760 30761 30762 30763 30764 30765 30766 30767 30768 30769 30770 30771 30772 30773 30774 30775 30776 30777 30778 30779 30780 30781 30782 30783 30784 30785 30786 30787 30788 30789 30790 30791 30792 30793 30794 30795 30796 30797 30798 30799 30800 30801 30802 30803 30804 30805 30806 30807 30808 30809 30810 30811 30812 30813 30814 30815 30816 30817 30818 30819 30820 30821 30822 30823 30824 30825 30826 30827 30828 30829 30830 30831 30832 30833 30834 30835 30836 30837 30838 30839 30840 30841 30842 30843 30844 30845 30846 30847 30848 30849 30850 30851 30852 30853 30854 30855 30856 30857 30858 30859 30860 30861 30862 30863 30864 30865 30866 30867 30868 30869 30870 30871 30872 30873 30874 30875 30876 30877 30878 30879 30880 30881 30882 30883 30884 30885 30886 30887 30888 30889 30890 30891 30892 30893 30894 30895 30896 30897 30898 30899 30900 30901 30902 30903 30904 30905 30906 30907 30908 30909 30910 30911 30912 30913 30914 30915 30916 30917 30918 30919 30920 30921 30922 30923 30924 30925 30926 30927 30928 30929 30930 30931 30932 30933 30934 30935 30936 30937 30938 30939 30940 30941 30942 30943 30944 30945 30946 30947 30948 30949 30950 30951 30952 30953 30954 30955 30956 30957 30958 30959 30960 30961 30962 30963 30964 30965 30966 30967 30968 30969 30970 30971 30972 30973 30974 30975 30976 30977 30978 30979 30980 30981 30982 30983 30984 30985 30986 30987 30988 30989 30990 30991 30992 30993 30994 30995 30996 30997 30998 30999 31000 31001 31002 31003 31004 31005 31006 31007 31008 31009 31010 31011 31012 31013 31014 31015 31016 31017 31018 31019 31020 31021 31022 31023 31024 31025 31026 31027 31028 31029 31030 31031 31032 31033 31034 31035 31036 31037 31038 31039 31040 31041 31042 31043 31044 31045 31046 31047 31048 31049 31050 31051 31052 31053 31054 31055 31056 31057 31058 31059 31060 31061 31062 31063 31064 31065 31066 31067 31068 31069 31070 31071 31072 31073 31074 31075 31076 31077 31078 31079 31080 31081 31082 31083 31084 31085 31086 31087 31088 31089 31090 31091 31092 31093 31094 31095 31096 31097 31098 31099 31100 31101 31102 31103 31104 31105 31106 31107 31108 31109 31110 31111 31112 31113 31114 31115 31116 31117 31118 31119 31120 31121 31122 31123 31124 31125 31126 31127 31128 31129 31130 31131 31132 31133 31134 31135 31136 31137 31138 31139 31140 31141 31142 31143 31144 31145 31146 31147 31148 31149 31150 31151 31152 31153 31154 31155 31156 31157 31158 31159 31160 31161 31162 31163 31164 31165 31166 31167 31168 31169 31170 31171 31172 31173 31174 31175 31176 31177 31178 31179 31180 31181 31182 31183 31184 31185 31186 31187 31188 31189 31190 31191 31192 31193 31194 31195 31196 31197 31198 31199 31200 31201 31202 31203 31204 31205 31206 31207 31208 31209 31210 31211 31212 31213 31214 31215 31216 31217 31218 31219 31220 31221 31222 31223 31224 31225 31226 31227 31228 31229 31230 31231 31232 31233 31234 31235 31236 31237 31238 31239 31240 31241 31242 31243 31244 31245 31246 31247 31248 31249 31250 31251 31252 31253 31254 31255 31256 31257 31258 31259 31260 31261 31262 31263 31264 31265 31266 31267 31268 31269 31270 31271 31272 31273 31274 31275 31276 31277 31278 31279 31280 31281 31282 31283 31284 31285 31286 31287 31288 31289 31290 31291 31292 31293 31294 31295 31296 31297 31298 31299 31300 31301 31302 31303 31304 31305 31306 31307 31308 31309 31310 31311 31312 31313 31314 31315 31316 31317 31318 31319 31320 31321 31322 31323 31324 31325 31326 31327 31328 31329 31330 31331 31332 31333 31334 31335 31336 31337 31338 31339 31340 31341 31342 31343 31344 31345 31346 31347 31348 31349 31350 31351 31352 31353 31354 31355 31356 31357 31358 31359 31360 31361 31362 31363 31364 31365 31366 31367 31368 31369 31370 31371 31372 31373 31374 31375 31376 31377 31378 31379 31380 31381 31382 31383 31384 31385 31386 31387 31388 31389 31390 31391 31392 31393 31394 31395 31396 31397 31398 31399 31400 31401 31402 31403 31404 31405 31406 31407 31408 31409 31410 31411 31412 31413 31414 31415 31416 31417 31418 31419 31420 31421 31422 31423 31424 31425 31426 31427 31428 31429 31430 31431 31432 31433 31434 31435 31436 31437 31438 31439 31440 31441 31442 31443 31444 31445 31446 31447 31448 31449 31450 31451 31452 31453 31454 31455 31456 31457 31458 31459 31460 31461 31462 31463 31464 31465 31466 31467 31468 31469 31470 31471 31472 31473 31474 31475 31476 31477 31478 31479 31480 31481 31482 31483 31484 31485 31486 31487 31488 31489 31490 31491 31492 31493 31494 31495 31496 31497 31498 31499 31500 31501 31502 31503 31504 31505 31506 31507 31508 31509 31510 31511 31512 31513 31514 31515 31516 31517 31518 31519 31520 31521 31522 31523 31524 31525 31526 31527 31528 31529 31530 31531 31532 31533 31534 31535 31536 31537 31538 31539 31540 31541 31542 31543 31544 31545 31546 31547 31548 31549 31550 31551 31552 31553 31554 31555 31556 31557 31558 31559 31560 31561 31562 31563 31564 31565 31566 31567 31568 31569 31570 31571 31572 31573 31574 31575 31576 31577 31578 31579 31580 31581 31582 31583 31584 31585 31586 31587 31588 31589 31590 31591 31592 31593 31594 31595 31596 31597 31598 31599 31600 31601 31602 31603 31604 31605 31606 31607 31608 31609 31610 31611 31612 31613 31614 31615 31616 31617 31618 31619 31620 31621 31622 31623 31624 31625 31626 31627 31628 31629 31630 31631 31632 31633 31634 31635 31636 31637 31638 31639 31640 31641 31642 31643 31644 31645 31646 31647 31648 31649 31650 31651 31652 31653 31654 31655 31656 31657 31658 31659 31660 31661 31662 31663 31664 31665 31666 31667 31668 31669 31670 31671 31672 31673 31674 31675 31676 31677 31678 31679 31680 31681 31682 31683 31684 31685 31686 31687 31688 31689 31690 31691 31692 31693 31694 31695 31696 31697 31698 31699 31700 31701 31702 31703 31704 31705 31706 31707 31708 31709 31710 31711 31712 31713 31714 31715 31716 31717 31718 31719 31720 31721 31722 31723 31724 31725 31726 31727 31728 31729 31730 31731 31732 31733 31734 31735 31736 31737 31738 31739 31740 31741 31742 31743 31744 31745 31746 31747 31748 31749 31750 31751 31752 31753 31754 31755 31756 31757 31758 31759 31760 31761 31762 31763 31764 31765 31766 31767 31768 31769 31770 31771 31772 31773 31774 31775 31776 31777 31778 31779 31780 31781 31782 31783 31784 31785 31786 31787 31788 31789 31790 31791 31792 31793 31794 31795 31796 31797 31798 31799 31800 31801 31802 31803 31804 31805 31806 31807 31808 31809 31810 31811 31812 31813 31814 31815 31816 31817 31818 31819 31820 31821 31822 31823 31824 31825 31826 31827 31828 31829 31830 31831 31832 31833 31834 31835 31836 31837 31838 31839 31840 31841 31842 31843 31844 31845 31846 31847 31848 31849 31850 31851 31852 31853 31854 31855 31856 31857 31858 31859 31860 31861 31862 31863 31864 31865 31866 31867 31868 31869 31870 31871 31872 31873 31874 31875 31876 31877 31878 31879 31880 31881 31882 31883 31884 31885 31886 31887 31888 31889 31890 31891 31892 31893 31894 31895 31896 31897 31898 31899 31900 31901 31902 31903 31904 31905 31906 31907 31908 31909 31910 31911 31912 31913 31914 31915 31916 31917 31918 31919 31920 31921 31922 31923 31924 31925 31926 31927 31928 31929 31930 31931 31932 31933 31934 31935 31936 31937 31938 31939 31940 31941 31942 31943 31944 31945 31946 
</DataArray>
<DataArray type="UInt32" Name="offsets" format="ascii">
3 6 9 11 14 17 20 23 26 28 31 34 37 40 43 46 49 52 55 58 60 63 66 69 71 74 77 80 83 86 88 91 93 96 99 102 105 108 111 114 117 120 122 125 128 131 134 136 139 142 145 148 150 152 155 158 160 162 165 167 170 173 176 179 181 183 186 188 191 193 196 198 200 203 206 209 212 215 217 219 222 225 227 230 232 235 238 241 243 246 249 252 255 258 261 264 267 269 272 275 278 281 284 286 289 291 294 297 300 303 306 308 311 313 316 319 322 325 328 330 333 336 339 342 344 347 350 353 356 358 361 364 367 370 373 376 379 381 384 387 390 393 396 399 402 405 408 411 414 417 420 422 424 427 430 433 436 439 441 444 447 450 452 455 458 461 464 466 469 472 475 477 480 482 485 488 491 493 496 498 501 504 506 509 512 515 517 520 523 525 528 530 533 536 538 541 544 546 548 550 553 556 559 562 565 568 571 574 577 580 583 586 588 591 593 596 598 601 604 607 610 613 616 619 621 624 627 630 633 636 639 641 644 647 649 651 653 656 658 661 664 666 668 671 673 676 679 682 685 688 691 694 697 700 703 706 709 712 715 718 721 724 727 730 733 736 739 742 745 748 751 753 756 759 762 764 766 769 772 775 777 780 783 786 789 791 794 797 800 802 805 808 811 814 817 820 822 825 828 831 834 837 839 842 845 848 850 853 856 858 861 864 867 870 873 876 879 882 884 887 890 893 895 898 901 904 907 909 912 915 917 919 922 924 927 929 932 935 937 940 943 946 949 952 954 956 959 961 964 967 970 972 975 978 981 983 986 989 992 995 997 999 1002 1005 1008 1011 1013 1016 1019 1022 1024 1027 1030 1033 1035 1037 1040 1043 1046 1048 1051 1054 1056 1059 1061 1064 1066 1069 1072 1075 1078 1081 1084 1087 1090 1093 1096 1098 1101 1104 1107 1110 1113 1115 1118 1120 1122 1125 1128 1131 1133 1136 1139 1142 1144 1146 1149 1151 1154 1157 1159 1161 1164 1167 1170 1173 1176 1179 1182 1184 1187 1190 1192 1195 1198 1201 1204 1206 1209 1211 1214 1216 1219 1221 1223 1226 1229 1232 1235 1238 1241 1243 1246 1249 1252 1255 1258 1261 1264 1267 1270 1273 1276 1279 1282 1285 1288 1291 1294 1296 1299 1302 1305 1308 1311 1314 1317 1320 1322 1325 1327 1330 1333 1336 1338 1341 1344 1347 1349 1352 1354 1357 1360 1363 1366 1369 1372 1375 1377 1379 1382 1384 1387 1389 1392 1395 1398 1401 1404 1407 1410 1412 1415 1418 1421 1424 1427 1430 1433 1436 1439 1442 1445 1448 1451 1454 1457 1460 1463 1466 1469 1472 1475 1478 1481 1484 1487 1490 1493 1496 1499 1502 1505 1508 1511 1514 1517 1519 1522 1525 1528 1531 1534 1536 1539 1542 1545 1547 1550 1553 1556 1559 1561 1564 1566 1569 1572 1575 1578 1581 1583 1586 1589 1591 1594 1597 1599 1602 1605 1608 1610 1612 1615 1618 1621 1624 1626 1629 1631 1634 1637 1640 1643 1646 1649 1652 1654 1657 1660 1663 1666 1669 1672 1675 1678 1681 1684 1687 1690 1693 1696 1699 1702 1705 1708 1711 1713 1716 1719 1721 1724 1727 1729 1732 1735 1738 1741 1744 1747 1750 1753 1756 1759 1762 1765 1768 1771 1774 1777 1780 1783 1786 1789 1792 1795 1798 1801 1804 1806 1809 1812 1815 1818 1820 1823 1826 1829 1832 1834 1837 1840 1842 1845 1848 1851 1854 1857 1860 1863 1866 1869 1872 1875 1878 1881 1883 1886 1888 1891 1894 1897 1900 1903 1906 1909 1912 1915 1918 1921 1924 1927 1930 1933 1936 1939 1942 1945 1948 1951 1954 1957 1959 1962 1965 1968 1971 1974 1977 1980 1983 1986 1989 1992 1995 1997 2000 2003 2006 2009 2012 2015 2018 2021 2024 2026 2028 2031 2034 2036 2039 2042 2045 2048 2051 2054 2057 2060 2063 2066 2069 2072 2075 2078 2080 2083 2086 2088 2091 2094 2096 2099 2102 2105 2108 2111 2114 2117 2120 2123 2126 2129 2132 2135 2138 2141 2144 2147 2150 2152 2155 2158 2161 2164 2167 2170 2172 2174 2177 2180 2183 2185 2188 2191 2193 2196 2199 2202 2205 2208 2211 2214 2217 2220 2223 2226 2228 2231 2234 2237 2240 2243 2246 2249 2252 2255 2258 2261 2264 2267 2270 2273 2276 2278 2281 2284 2287 2289 2292 2295 2298 2301 2304 2307 2310 2313 2316 2319 2322 2325 2328 2331 2334 2337 2340 2343 2346 2349 2352 2354 2357 2360 2363 2365 2368 2371 2374 2376 2379 2382 2384 2387 2389 2391 2394 2397 2400 2402 2404 2407 2409 2412 2415 2417 2420 2422 2424 2427 2429 2432 2434 2437 2440 2443 2446 2449 2451 2454 2456 2459 2462 2465 2467 2470 2473 2476 2479 2482 2485 2488 2491 2494 2497 2499 2502 2505 2508 2511 2514 2517 2520 2523 2526 2529 2532 2535 2538 2541 2544 2547 2549 2552 2555 2558 2561 2564 2567 2570 2573 2576 2578 2581 2584 2587 2590 2592 2595 2598 2601 2604 2607 2610 2613 2616 2619 2622 2625 2628 2630 2633 2636 2638 2641 2644 2647 2650 2653 2656 2658 2661 2664 2666 2669 2672 2675 2678 2680 2683 2686 2689 2692 2695 2698 2701 2704 2707 2710 2713 2715 2718 2721 2724 2726 2729 2732 2734 2737 2740 2742 2744 2746 2749 2751 2754 2757 2760 2762 2765 2768 2771 2773 2776 2779 2782 2785 2788 2791 2793 2796 2799 2802 2805 2807 2810 2813 2816 2819 2822 2825 2828 2831 2834 2836 2838 2841 2844 2847 2850 2852 2854 2857 2860 2862 2864 2867 2870 2872 2874 2877 2880 2883 2886 2889 2891 2894 2897 2900 2902 2904 2907 2910 2913 2915 2918 2921 2924 2926 2929 2932 2934 2936 2938 2941 2944 2947 2950 2953 2956 2959 2962 2965 2968 2970 2973 2975 2978 2981 2983 2986 2988 2991 2994 2997 3000 3003 3006 3009 3012 3015 3018 3021 3024 3026 3029 3032 3035 3037 3040 3043 3046 3049 3052 3054 3057 3060 3063 3066 3069 3072 3075 3078 3081 3084 3087 3089 3092 3095 3098 3101 3104 3107 3110 3112 3115 3118 3120 3123 3126 3129 3131 3134 3137 3140 3143 3146 3149 3152 3155 3158 3161 3164 3167 3170 3173 3176 3179 3182 3185 3188 3191 3194 3197 3200 3203 3206 3209 3212 3214 3217 3220 3223 3226 3228 3231 3233 3235 3238 3241 3244 3247 3250 3253 3256 3258 3260 3263 3266 3269 3272 3275 3278 3281 3284 3287 3289 3292 3295 3297 3299 3302 3304 3307 3310 3313 3316 3319 3322 3325 3328 3331 3333 3336 3339 3342 3345 3348 3351 3354 3357 3360 3363 3366 3369 3371 3374 3377 3380 3382 3384 3387 3390 3393 3396 3399 3402 3404 3407 3409 3412 3415 3418 3421 3424 3427 3430 3433 3435 3438 3441 3444 3447 3450 3453 3456 3459 3462 3465 3468 3471 3474 3477 3480 3483 3486 3489 3492 3495 3498 3500 3503 3506 3509 3512 3514 3517 3520 3523 3525 3527 3529 3532 3534 3537 3540 3542 3545 3547 3550 3553 3555 3558 3560 3563 3566 3568 3571 3574 3577 3579 3582 3585 3588 3591 3594 3597 3600 3603 3606 3609 3612 3615 3618 3620 3623 3626 3628 3631 3634 3637 3640 3643 3646 3649 3651 3654 3657 3660 3663 3666 3669 3672 3675 3678 3681 3684 3687 3690 3693 3696 3699 3701 3704 3706 3709 3711 3714 3717 3720 3723 3726 3729 3732 3735 3738 3740 3742 3745 3748 3751 3753 3755 3758 3760 3763 3766 3769 3771 3774 3777 3780 3783 3786 3788 3790 3793 3796 3799 3801 3804 3807 3810 3812 3815 3818 3821 3824 3827 3829 3832 3834 3837 3840 3842 3845 3848 3851 3854 3856 3859 3862 3865 3868 3871 3874 3876 3879 3881 3884 3887 3889 3891 3894 3897 3900 3902 3905 3908 3911 3914 3916 3919 3921 3924 3927 3930 3933 3935 3938 3941 3944 3947 3950 3953 3956 3959 3962 3965 3968 3970 3973 3976 3979 3982 3985 3988 3991 3994 3997 4000 4003 4006 4009 4012 4015 4018 4021 4024 4027 4030 4033 4036 4039 4042 4045 4048 4051 4054 4057 4060 4063 4066 4069 4072 4075 4078 4081 4084 4087 4089 4092 4095 4098 4101 4104 4107 4110 4113 4116 4119 4122 4125 4128 4131 4134 4137 4139 4142 4145 4148 4151 4154 4157 4159 4162 4164 4167 4170 4172 4175 4178 4181 4184 4187 4189 4192 4195 4198 4201 4204 4207 4210 4213 4216 4219 4222 4225 4227 4230 4233 4236 4239 4242 4245 4247 4250 4253 4256 4259 4261 4264 4267 4270 4273 4276 4279 4281 4284 4287 4290 4292 4294 4297 4300 4302 4305 4308 4311 4314 4317 4320 4323 4326 4329 4332 4335 4338 4341 4344 4347 4349 4352 4354 4357 4360 4362 4364 4366 4369 4372 4375 4377 4380 4383 4386 4389 4391 4394 4397 4399 4402 4405 4408 4411 4414 4417 4420 4423 4426 4428 4431 4433 4436 4439 4441 4444 4447 4450 4453 4456 4459 4462 4465 4468 4471 4474 4477 4480 4482 4485 4488 4491 4494 4497 4500 4503 4506 4509 4512 4515 4518 4521 4524 4527 4530 4533 4536 4539 4542 4545 4548 4551 4554 4557 4560 4563 4566 4569 4572 4575 4578 4581 4584 4587 4590 4593 4596 4599 4602 4605 4608 4611 4614 4617 4620 4623 4626 4628 4631 4633 4636 4639 4642 4645 4648 4651 4654 4657 4660 4663 4666 4669 4672 4675 4678 4681 4684 4686 4689 4692 4695 4698 4700 4703 4706 4709 4712 4715 4718 4721 4724 4727 4730 4733 4736 4739 4742 4745 4748 4750 4753 4756 4759 4762 4765 4767 4770 4773 4776 4779 4781 4784 4787 4790 4793 4796 4799 4802 4805 4808 4811 4814 4817 4820 4823 4826 4829 4832 4835 4838 4841 4844 4847 4850 4853 4856 4859 4862 4864 4867 4870 4873 4876 4879 4882 4885 4888 4890 4893 4896 4899 4902 4905 4908 4911 4914 4917 4920 4923 4926 4929 4932 4935 4938 4941 4944 4946 4949 4952 4955 4958 4961 4964 4967 4970 4973 4976 4979 4982 4984 4987 4990 4993 4996 4998 5001 5004 5007 5010 5013 5016 5019 5022 5025 5028 5031 5034 5037 5040 5043 5046 5049 5052 5055 5058 5061 5064 5066 5069 5072 5075 5078 5081 5084 5086 5089 5092 5095 5098 5101 5103 5106 5109 5112 5115 5118 5121 5124 5126 5129 5132 5135 5138 5141 5143 5146 5149 5152 5155 5158 5161 5164 5167 5170 5173 5176 5178 5181 5184 5187 5190 5193 5196 5198 5201 5203 5206 5208 5211 5214 5216 5219 5222 5225 5228 5231 5234 5237 5239 5242 5245 5248 5251 5254 5256 5259 5262 5265 5268 5271 5274 5276 5278 5281 5283 5286 5288 5291 5293 5296 5299 5302 5304 5306 5309 5311 5314 5317 5320 5323 5325 5328 5331 5333 5335 5338 5340 5342 5345 5348 5351 5354 5357 5360 5362 5365 5368 5371 5374 5377 5380 5383 5386 5389 5392 5395 5398 5401 5404 5407 5409 5412 5415 5418 5421 5424 5427 5430 5433 5436 5439 5442 5445 5448 5451 5453 5456 5459 5462 5465 5468 5471 5474 5477 5480 5483 5486 5489 5492 5495 5498 5501 5504 5507 5510 5513 5516 5519 5521 5524 5527 5530 5532 5535 5538 5541 5544 5547 5550 5553 5556 5559 5562 5565 5568 5571 5574 5577 5580 5583 5586 5589 5592 5595 5598 5601 5604 5607 5610 5612 5615 5618 5621 5624 5627 5630 5633 5636 5639 5642 5645 5648 5651 5653 5656 5659 5661 5664 5667 5669 5672 5675 5677 5680 5683 5686 5689 5692 5695 5697 5700 5703 5706 5709 5712 5715 5718 5721 5724 5727 5729 5732 5735 5738 5741 5744 5747 5750 5753 5756 5759 5761 5764 5767 5770 5773 5776 5779 5782 5785 5788 5791 5794 5797 5800 5803 5806 5809 5812 5815 5818 5821 5824 5827 5830 5833 5836 5838 5841 5844 5847 5850 5853 5856 5859 5862 5864 5867 5870 5873 5876 5879 5882 5884 5887 5890 5893 5896 5899 5902 5905 5908 5911 5914 5917 5920 5923 5926 5929 5932 5935 5937 5940 5943 5946 5949 5952 5955 5958 5961 5964 5967 5970 5973 5976 5979 5982 5985 5988 5991 5994 5997 6000 6003 6006 6009 6012 6015 6018 6021 6024 6027 6030 6033 6036 6039 6042 6045 6048 6051 6054 6057 6060 6063 6066 6069 6072 6074 6077 6080 6083 6086 6089 6092 6095 6098 6101 6104 6107 6110 6113 6116 6119 6122 6125 6128 6131 6134 6137 6140 6143 6146 6149 6152 6155 6158 6161 6164 6167 6170 6173 6176 6179 6182 6185 6188 6191 6194 6197 6200 6203 6206 6209 6212 6215 6218 6221 6224 6227 6230 6233 6236 6238 6241 6244 6247 6250 6253 6256 6259 6262 6265 6268 6271 6274 6277 6280 6282 6284 6287 6290 6293 6296 6299 6302 6305 6307 6310 6313 6316 6319 6322 6324 6327 6330 6332 6335 6337 6340 6342 6345 6348 6351 6354 6356 6358 6361 6363 6366 6369 6371 6374 6377 6379 6381 6383 6386 6389 6391 6394 6396 6399 6402 6405 6408 6411 6414 6417 6420 6423 6426 6429 6432 6435 6438 6441 6444 6447 6450 6452 6455 6458 6461 6464 6467 6469 6472 6475 6478 6481 6484 6487 6490 6493 6496 6499 6501 6504 6507 6510 6513 6516 6519 6522 6524 6527 6529 6532 6535 6537 6540 6543 6546 6548 6551 6554 6557 6559 6562 6565 6568 6570 6573 6575 6578 6581 6583 6586 6588 6590 6592 6595 6598 6601 6604 6606 6609 6611 6614 6617 6620 6623 6626 6628 6631 6634 6637 6640 6642 6645 6647 6650 6653 6656 6659 6662 6665 6668 6671 6674 6676 6679 6681 6684 6687 6690 6693 6695 6698 6701 6704 6706 6708 6711 6714 6716 6719 6722 6724 6727 6730 6733 6736 6739 6741 6744 6747 6749 6752 6755 6758 6761 6764 6767 6769 6772 6774 6776 6778 6781 6784 6787 6790 6792 6795 6798 6801 6804 6807 6810 6813 6816 6819 6822 6825 6828 6831 6834 6837 6840 6843 6846 6849 6852 6855 6858 6861 6864 6867 6870 6873 6876 6879 6882 6885 6888 6891 6894 6897 6900 6903 6906 6909 6912 6915 6918 6921 6924 6927 6930 6933 6936 6939 6942 6945 6947 6950 6953 6955 6958 6961 6964 6967 6970 6972 6975 6978 6981 6984 6987 6990 6993 6996 6999 7002 7005 7007 7010 7013 7015 7018 7020 7023 7026 7029 7032 7034 7037 7040 7042 7045 7048 7051 7053 7055 7058 7060 7063 7065 7068 7070 7072 7075 7077 7080 7083 7086 7088 7091 7094 7097 7100 7103 7105 7108 7111 7113 7115 7118 7120 7123 7126 7129 7132 7135 7138 7141 7144 7147 7149 7152 7155 7157 7160 7163 7165 7168 7171 7173 7175 7177 7180 7183 7185 7188 7191 7193 7196 7198 7200 7203 7206 7208 7211 7214 7216 7218 7221 7224 7227 7230 7232 7235 7238 7241 7244 7246 7249 7252 7255 7258 7261 7264 7267 7270 7273 7276 7279 7281 7284 7287 7290 7293 7296 7299 7301 7304 7306 7309 7312 7315 7317 7320 7322 7325 7328 7331 7333 7336 7339 7342 7345 7348 7351 7354 7356 7359 7362 7365 7367 7370 7373 7376 7378 7381 7384 7387 7390 7393 7396 7399 7402 7405 7408 7411 7414 7417 7420 7423 7426 7429 7432 7435 7438 7441 7444 7447 7450 7453 7456 7459 7462 7465 7468 7470 7473 7476 7479 7482 7484 7487 7490 7492 7495 7498 7501 7504 7507 7510 7512 7515 7518 7521 7523 7526 7529 7532 7535 7538 7541 7544 7547 7550 7553 7555 7558 7560 7562 7565 7568 7571 7573 7576 7579 7582 7585 7588 7591 7594 7597 7600 7602 7605 7608 7611 7614 7617 7619 7622 7625 7628 7631 7633 7636 7639 7642 7644 7646 7649 7652 7655 7658 7660 7663 7666 7669 7672 7675 7678 7680 7683 7686 7689 7692 7695 7698 7701 7704 7707 7710 7713 7715 7718 7721 7724 7727 7729 7731 7734 7737 7740 7743 7746 7748 7751 7753 7756 7759 7761 7764 7766 7769 7772 7775 7778 7780 7783 7786 7788 7791 7794 7797 7799 7802 7805 7808 7811 7814 7817 7820 7823 7826 7829 7832 7835 7838 7841 7844 7847 7850 7853 7856 7858 7861 7863 7866 7869 7872 7875 7878 7881 7884 7887 7890 7893 7896 7899 7902 7905 7908 7911 7914 7917 7920 7923 7926 7929 7932 7935 7938 7941 7944 7947 7950 7953 7956 7959 7962 7965 7968 7970 7972 7975 7978 7981 7984 7987 7990 7993 7996 7999 8001 8004 8007 8010 8013 8016 8019 8022 8024 8027 8030 8033 8036 8039 8042 8045 8048 8051 8054 8057 8060 8063 8066 8069 8072 8075 8078 8081 8084 8087 8090 8093 8096 8099 8102 8105 8108 8111 8113 8116 8119 8122 8125 8128 8131 8134 8137 8139 8142 8145 8148 8150 8153 8156 8159 8161 8164 8166 8169 8172 8175 8178 8181 8184 8186 8189 8192 8195 8198 8201 8204 8207 8210 8213 8216 8218 8220 8223 8226 8228 8231 8234 8237 8240 8242 8245 8248 8250 8253 8255 8258 8261 8264 8267 8270 8273 8276 8278 8280 8283 8286 8289 8292 8295 8298 8301 8304 8307 8310 8313 8316 8319 8322 8325 8328 8331 8334 8337 8340 8343 8346 8349 8351 8354 8357 8360 8363 8366 8369 8371 8374 8377 8380 8383 8386 8389 8391 8394 8397 8400 8403 8406 8409 8412 8415 8418 8421 8424 8427 8430 8433 8435 8437 8440 8443 8446 8449 8452 8454 8457 8460 8463 8466 8469 8472 8475 8477 8480 8483 8486 8488 8491 8494 8497 8500 8503 8506 8509 8512 8514 8517 8519 8521 8524 8527 8530 8533 8535 8538 8540 8542 8544 8547 8550 8553 8556 8558 8561 8564 8566 8569 8572 8574 8577 8580 8583 8586 8589 8592 8595 8598 8601 8604 8607 8610 8613 8616 8619 8622 8625 8628 8630 8633 8636 8639 8642 8645 8648 8650 8653 8656 8659 8662 8665 8668 8671 8674 8677 8680 8682 8685 8688 8691 8694 8697 8700 8702 8705 8708 8711 8714 8717 8720 8723 8726 8729 8732 8735 8738 8741 8744 8747 8749 8752 8755 8758 8761 8764 8767 8769 8772 8775 8778 8781 8784 8787 8790 8792 8795 8798 8800 8803 8806 8809 8812 8814 8816 8819 8822 8825 8828 8831 8834 8837 8840 8843 8845 8848 8851 8854 8857 8860 8863 8866 8869 8872 8875 8878 8881 8884 8887 8889 8892 8895 8898 8901 8904 8907 8910 8913 8916 8919 8922 8925 8928 8930 8933 8936 8939 8942 8945 8948 8951 8954 8957 8960 8963 8965 8968 8970 8973 8975 8978 8981 8984 8987 8990 8992 8995 8998 9001 9004 9007 9010 9013 9016 9019 9022 9024 9026 9029 9032 9034 9037 9039 9042 9045 9048 9051 9054 9057 9060 9063 9066 9069 9072 9075 9078 9081 9084 9087 9090 9093 9096 9099 9101 9104 9107 9109 9112 9115 9118 9121 9124 9127 9130 9133 9136 9139 9142 9144 9147 9149 9152 9155 9158 9161 9164 9167 9170 9173 9175 9178 9181 9184 9187 9190 9193 9196 9198 9201 9204 9206 9209 9212 9215 9218 9221 9224 9226 9229 9232 9235 9237 9240 9243 9245 9248 9250 9253 9255 9258 9261 9264 9266 9269 9272 9275 9278 9281 9284 9287 9290 9292 9295 9298 9300 9302 9305 9308 9310 9313 9316 9318 9321 9324 9327 9330 9333 9336 9339 9342 9345 9348 9351 9354 9357 9360 9363 9366 9369 9372 9375 9378 9380 9383 9386 9389 9392 9395 9398 9400 9403 9406 9409 9412 9414 9417 9420 9423 9426 9429 9432 9434 9437 9440 9443 9446 9449 9452 9455 9458 9461 9464 9467 9470 9473 9476 9479 9482 9485 9488 9491 9494 9497 9500 9503 9506 9509 9512 9515 9518 9521 9524 9527 9530 9533 9536 9539 9542 9545 9548 9551 9554 9557 9559 9562 9565 9568 9571 9574 9576 9579 9582 9585 9588 9591 9593 9595 9598 9601 9604 9607 9610 9613 9616 9619 9622 9625 9628 9631 9634 9636 9639 9642 9644 9647 9650 9653 9656 9659 9662 9665 9668 9671 9674 9677 9680 9682 9685 9688 9690 9693 9696 9699 9702 9705 9708 9711 9714 9717 9720 9723 9726 9729 9732 9735 9738 9741 9744 9747 9750 9753 9756 9759 9762 9765 9768 9771 9774 9777 9780 9783 9786 9789 9792 9795 9798 9801 9803 9806 9809 9812 9815 9818 9821 9824 9827 9830 9833 9836 9839 9842 9845 9848 9851 9854 9857 9860 9863 9866 9869 9872 9875 9878 9881 9884 9887 9890 9893 9896 9899 9902 9905 9908 9911 9914 9917 9920 9923 9926 9929 9932 9935 9938 9941 9944 9947 9950 9953 9956 9959 9962 9965 9968 9971 9974 9977 9980 9983 9986 9989 9992 9995 9998 10001 10004 10007 10010 10012 10015 10018 10021 10024 10026 10029 10032 10035 10038 10041 10044 10047 10050 10053 10056 10059 10062 10065 10068 10071 10074 10077 10080 10083 10086 10088 10091 10094 10097 10100 10103 10106 10109 10112 10115 10118 10121 10124 10127 10130 10133 10136 10139 10142 10144 10147 10150 10153 10156 10158 10161 10164 10167 10170 10173 10176 10178 10180 10183 10186 10189 10192 10195 10198 10200 10203 10206 10209 10212 10214 10216 10219 10222 10225 10228 10230 10233 10236 10239 10242 10244 10246 10248 10251 10254 10257 10260 10263 10265 10268 10271 10274 10277 10279 10282 10285 10288 10291 10294 10297 10300 10303 10306 10309 10312 10314 10317 10320 10322 10325 10328 10331 10334 10337 10340 10343 10346 10349 10352 10355 10358 10361 10364 10367 10369 10372 10375 10378 10381 10384 10387 10390 10393 10396 10398 10401 10404 10406 10408 10411 10414 10417 10420 10423 10426 10428 10431 10434 10437 10439 10442 10445 10448 10450 10453 10456 10459 10461 10464 10467 10470 10472 10474 10477 10480 10482 10485 10488 10491 10494 10496 10499 10502 10505 10507 10510 10512 10515 10518 10521 10523 10525 10528 10531 10534 10537 10540 10543 10546 10548 10551 10554 10557 10559 10561 10564 10566 10569 10572 10574 10577 10580 10583 10586 10589 10592 10595 10598 10601 10603 10605 10608 10611 10614 10617 10620 10622 10625 10628 10631 10633 10636 10639 10641 10644 10647 10650 10653 10656 10659 10662 10664 10667 10670 10673 10676 10678 10680 10683 10686 10688 10691 10694 10697 10700 10702 10705 10708 10711 10714 10717 10720 10722 10725 10728 10731 10734 10737 10740 10743 10746 10748 10751 10754 10757 10760 10763 10766 10769 10772 10775 10778 10781 10784 10786 10789 10792 10795 10798 10801 10804 10807 10810 10813 10816 10819 10822 10825 10828 10831 10834 10837 10840 10843 10846 10849 10852 10855 10858 10861 10863 10866 10869 10872 10874 10877 10880 10883 10886 10889 10891 10894 10896 10899 10902 10905 10908 10911 10914 10917 10920 10923 10926 10929 10932 10935 10938 10941 10944 10947 10950 10953 10956 10959 10962 10964 10967 10970 10973 10976 10978 10981 10984 10987 10990 10992 10995 10998 11001 11004 11007 11010 11013 11015 11018 11021 11024 11027 11030 11033 11036 11039 11042 11045 11048 11051 11054 11057 11060 11063 11066 11069 11071 11074 11076 11079 11082 11085 11088 11091 11093 11096 11099 11102 11105 11108 11111 11114 11116 11119 11122 11125 11128 11131 11134 11137 11140 11143 11146 11149 11152 11155 11158 11161 11164 11167 11170 11173 11176 11179 11182 11185 11188 11191 11194 11197 11200 11203 11206 11209 11212 11215 11218 11221 11224 11227 11230 11233 11236 11239 11241 11244 11247 11250 11253 11256 11259 11262 11265 11268 11270 11273 11276 11278 11281 11284 11287 11290 11293 11296 11298 11301 11303 11306 11308 11310 11312 11315 11317 11320 11322 11324 11327 11329 11332 11335 11338 11341 11344 11347 11350 11353 11356 11359 11362 11365 11368 11371 11374 11377 11380 11383 11385 11388 11391 11394 11397 11400 11403 11406 11409 11412 11415 11418 11421 11424 11426 11429 11432 11435 11438 11441 11444 11447 11450 11453 11456 11458 11460 11463 11466 11469 11471 11473 11476 11479 11481 11484 11487 11490 11493 11496 11499 11502 11505 11507 11510 11513 11515 11518 11521 11523 11526 11529 11532 11535 11538 11541 11544 11547 11550 11553 11556 11559 11562 11565 11568 11571 11574 11577 11580 11583 11586 11589 11592 11595 11598 11601 11604 11607 11610 11613 11616 11619 11622 11625 11628 11631 11634 11637 11640 11643 11646 11649 11652 11655 11657 11660 11663 11666 11669 11672 11675 11678 11681 11684 11686 11689 11692 11695 11697 11700 11703 11706 11709 11712 11715 11718 11721 11724 11727 11730 11733 11736 11739 11742 11745 11748 11751 11754 11757 11760 11763 11766 11769 11772 11775 11778 11781 11784 11787 11790 11792 11795 11798 11801 11804 11807 11810 11812 11815 11818 11821 11824 11827 11830 11833 11836 11839 11842 11845 11847 11850 11852 11855 11858 11861 11864 11867 11870 11873 11876 11879 11882 11884 11887 11890 11892 11895 11898 11901 11904 11907 11910 11913 11916 11919 11922 11925 11928 11931 11934 11937 11940 11943 11946 11949 11952 11955 11958 11960 11963 11966 11969 11972 11974 11977 11980 11983 11986 11989 11992 11994 11997 12000 12003 12006 12009 12012 12015 12018 12021 12024 12027 12030 12033 12036 12039 12042 12045 12048 12051 12054 12057 12060 12063 12066 12069 12071 12074 12077 12080 12083 12085 12088 12091 12094 12097 12099 12102 12105 12107 12109 12112 12115 12118 12121 12124 12127 12130 12132 12135 12138 12141 12143 12146 12149 12152 12154 12157 12160 12163 12166 12169 12172 12174 12177 12180 12183 12186 12188 12191 12194 12197 12200 12202 12205 12208 12210 12213 12215 12217 12220 12223 12226 12229 12232 12235 12238 12241 12244 12247 12250 12253 12255 12257 12260 12263 12266 12268 12271 12274 12277 12280 12283 12286 12289 12292 12295 12298 12300 12303 12306 12309 12312 12315 12318 12320 12323 12326 12329 12332 12335 12338 12341 12344 12347 12350 12353 12356 12359 12362 12365 12368 12371 12374 12377 12380 12383 12386 12389 12392 12395 12398 12401 12404 12406 12409 12412 12415 12418 12421 12424 12427 12430 12432 12435 12438 12440 12443 12446 12449 12452 12455 12457 12460 12463 12465 12468 12471 12474 12477 12480 12483 12485 12488 12491 12494 12497 12500 12503 12506 12509 12512 12515 12518 12521 12524 12527 12530 12533 12535 12538 12541 12544 12546 12549 12552 12555 12558 12561 12564 12567 12570 12573 12576 12579 12582 12585 12588 12591 12594 12597 12600 12603 12606 12609 12612 12615 12617 12620 12622 12625 12628 12631 12634 12637 12640 12643 12646 12649 12652 12655 12658 12661 12664 12667 12670 12673 12676 12679 12682 12685 12688 12691 12694 12697 12700 12702 12705 12708 12711 12713 12715 12718 12721 12724 12727 12730 12733 12736 12739 12742 12745 12748 12751 12753 12756 12759 12762 12764 12767 12770 12773 12775 12778 12781 12784 12786 12789 12792 12795 12798 12801 12804 12807 12810 12812 12815 12818 12820 12823 12826 12829 12832 12835 12838 12840 12843 12846 12849 12852 12855 12858 12861 12864 12866 12869 12871 12873 12875 12878 12880 12883 12886 12888 12891 12894 12897 12900 12903 12906 12909 12912 12915 12917 12919 12922 12925 12928 12930 12933 12935 12938 12941 12944 12947 12950 12953 12956 12958 12961 12964 12967 12970 12973 12976 12979 12982 12985 12988 12991 12994 12997 12999 13002 13005 13007 13010 13013 13015 13018 13021 13024 13027 13030 13033 13036 13039 13042 13045 13048 13051 13054 13056 13059 13062 13065 13068 13071 13074 13077 13080 13083 13086 13089 13092 13094 13097 13100 13103 13106 13109 13112 13115 13118 13121 13124 13127 13130 13133 13136 13138 13141 13143 13146 13149 13152 13155 13158 13161 13164 13167 13170 13173 13176 13179 13182 13185 13188 13191 13194 13197 13200 13203 13205 13208 13211 13214 13216 13219 13222 13225 13227 13230 13233 13236 13239 13241 13244 13247 13250 13252 13255 13257 13260 13262 13264 13267 13270 13273 13276 13279 13282 13285 13287 13290 13293 13296 13299 13302 13305 13307 13309 13312 13315 13318 13321 13324 13327 13330 13333 13336 13339 13342 13345 13348 13351 13354 13357 13360 13363 13366 13369 13372 13375 13378 13381 13384 13387 13390 13393 13396 13399 13402 13405 13408 13411 13414 13417 13420 13423 13426 13429 13432 13435 13438 13441 13444 13447 13450 13453 13456 13459 13462 13465 13468 13471 13474 13477 13480 13483 13486 13489 13492 13495 13498 13501 13504 13507 13510 13513 13516 13519 13522 13525 13528 13531 13534 13537 13540 13543 13546 13549 13552 13555 13558 13561 13564 13567 13570 13573 13576 13579 13582 13585 13588 13591 13594 13597 13600 13603 13606 13609 13612 13615 13618 13621 13624 13627 13630 13633 13636 13639 13642 13645 13648 13651 13654 13657 13660 13663 13666 13669 13672 13675 13678 13681 13684 13687 13690 13693 13696 13699 13702 13705 13708 13711 13714 13716 13718 13721 13724 13727 13729 13732 13734 13737 13740 13743 13745 13748 13751 13754 13757 13760 13763 13766 13768 13771 13774 13777 13780 13782 13785 13788 13791 13794 13797 13800 13802 13804 13807 13810 13813 13816 13819 13822 13825 13828 13831 13834 13837 13840 13842 13845 13848 13851 13854 13857 13860 13863 13866 13868 13871 13874 13877 13880 13883 13886 13889 13892 13895 13898 13901 13904 13907 13909 13911 13914 13917 13920 13923 13926 13928 13931 13934 13937 13940 13943 13946 13949 13952 13954 13956 13959 13962 13965 13968 13971 13974 13977 13979 13982 13985 13988 13991 13994 13997 14000 14003 14006 14009 14012 14015 14018 14021 14024 14027 14030 14033 14036 14039 14042 14045 14048 14051 14054 14057 14060 14063 14066 14069 14072 14075 14078 14081 14084 14087 14090 14093 14096 14099 14102 14105 14108 14111 14114 14117 14120 14123 14126 14129 14132 14135 14138 14141 14144 14147 14150 14153 14156 14159 14162 14165 14168 14171 14174 14176 14179 14182 14185 14188 14190 14192 14195 14198 14200 14203 14205 14207 14210 14213 14216 14219 14222 14225 14228 14230 14233 14236 14239 14242 14245 14248 14251 14253 14256 14259 14261 14263 14266 14269 14272 14275 14278 14281 14284 14287 14290 14293 14296 14299 14302 14305 14307 14310 14313 14316 14319 14321 14324 14327 14330 14333 14335 14338 14341 14344 14347 14350 14352 14355 14358 14360 14363 14366 14369 14372 14375 14378 14381 14384 14387 14390 14393 14396 14398 14401 14404 14406 14409 14412 14415 14418 14421 14424 14426 14429 14432 14435 14437 14440 14443 14446 14449 14451 14454 14457 14460 14463 14466 14468 14471 14474 14477 14480 14483 14486 14489 14492 14495 14498 14500 14503 14506 14509 14512 14515 14518 14521 14524 14527 14530 14533 14536 14539 14541 14544 14547 14550 14553 14556 14559 14562 14565 14568 14570 14573 14576 14579 14582 14585 14588 14591 14594 14597 14600 14603 14606 14609 14612 14615 14617 14620 14623 14626 14628 14631 14634 14637 14640 14643 14646 14649 14652 14655 14658 14661 14664 14667 14670 14673 14676 14679 14681 14684 14687 14689 14692 14694 14697 14699 14702 14704 14707 14710 14713 14715 14718 14721 14723 14726 14729 14731 14734 14737 14740 14743 14746 14748 14751 14754 14756 14759 14762 14765 14768 14771 14774 14777 14779 14781 14784 14787 14790 14793 14796 14799 14802 14804 14807 14810 14813 14816 14819 14822 14825 14828 14831 14834 14837 14840 14843 14846 14849 14852 14855 14858 14861 14864 14867 14870 14873 14876 14879 14882 14885 14888 14891 14894 14897 14900 14903 14906 14909 14912 14915 14918 14921 14924 14927 14930 14933 14936 14939 14942 14945 14948 14951 14954 14957 14960 14963 14966 14969 14972 14975 14978 14981 14984 14987 14990 14993 14996 14999 15002 15005 15008 15011 15014 15017 15020 15023 15026 15029 15032 15035 15038 15041 15044 15047 15050 15053 15056 15059 15062 15065 15068 15071 15074 15077 15080 15083 15086 15089 15092 15094 15097 15100 15103 15106 15109 15111 15114 15117 15120 15123 15126 15129 15132 15135 15138 15141 15144 15147 15149 15152 15155 15158 15161 15164 15167 15169 15172 15175 15178 15181 15184 15187 15189 15192 15195 15198 15200 15203 15206 15209 15212 15215 15218 15221 15224 15227 15230 15233 15235 15238 15241 15244 15246 15249 15252 15255 15258 15261 15264 15267 15270 15273 15276 15279 15281 15284 15287 15290 15292 15295 15298 15301 15303 15306 15309 15312 15315 15318 15321 15324 15327 15330 15333 15336 15339 15342 15345 15347 15350 15353 15356 15358 15361 15364 15366 15369 15372 15375 15378 15381 15384 15387 15390 15393 15396 15399 15402 15405 15408 15411 15414 15417 15420 15423 15426 15429 15432 15435 15438 15441 15444 15447 15450 15453 15456 15459 15462 15465 15468 15471 15474 15477 15480 15483 15486 15489 15492 15495 15498 15501 15504 15507 15510 15513 15516 15519 15522 15525 15528 15531 15534 15536 15539 15542 15545 15548 15550 15553 15556 15559 15562 15564 15567 15570 15573 15576 15579 15582 15585 15588 15591 15594 15597 15600 15603 15606 15609 15612 15615 15618 15621 15624 15627 15630 15633 15636 15639 15642 15645 15648 15651 15654 15657 15660 15663 15666 15669 15672 15675 15678 15681 15684 15687 15690 15693 15696 15699 15702 15705 15708 15711 15714 15717 15720 15723 15726 15729 15732 15735 15738 15741 15744 15747 15750 15752 15755 15758 15760 15763 15766 15769 15771 15774 15777 15779 15782 15785 15788 15790 15792 15795 15798 15801 15804 15807 15810 15812 15815 15817 15819 15822 15825 15828 15831 15833 15836 15839 15842 15845 15848 15851 15854 15857 15860 15863 15865 15868 15871 15874 15877 15880 15883 15885 15888 15890 15893 15896 15899 15902 15905 15908 15910 15913 15916 15919 15922 15925 15928 15931 15934 15937 15940 15943 15946 15949 15952 15955 15958 15961 15964 15966 15969 15972 15975 15978 15981 15984 15987 15990 15993 15996 15999 16002 16005 16008 16011 16014 16017 16020 16022 16025 16028 16031 16034 16036 16039 16042 16045 16047 16050 16053 16056 16059 16062 16065 16067 16070 16073 16076 16078 16081 16084 16086 16089 16092 16095 16098 16101 16104 16107 16110 16113 16116 16119 16122 16124 16127 16129 16132 16135 16138 16141 16144 16147 16150 16153 16156 16158 16161 16164 16167 16170 16173 16176 16179 16181 16183 16186 16189 16191 16193 16196 16199 16201 16203 16206 16208 16210 16213 16216 16219 16221 16224 16227 16230 16233 16236 16238 16240 16243 16246 16249 16252 16255 16258 16261 16264 16267 16270 16273 16276 16279 16282 16285 16288 16291 16293 16296 16299 16302 16305 16308 16311 16314 16317 16320 16323 16326 16328 16331 16334 16337 16340 16342 16345 16348 16351 16353 16356 16359 16362 16365 16368 16371 16374 16377 16379 16382 16385 16388 16390 16393 16396 16399 16402 16405 16408 16411 16414 16417 16420 16423 16426 16429 16432 16435 16438 16441 16444 16447 16450 16453 16456 16459 16462 16465 16468 16471 16474 16476 16479 16482 16484 16487 16490 16493 16496 16498 16501 16504 16507 16510 16513 16516 16518 16521 16524 16527 16530 16533 16536 16539 16542 16545 16548 16551 16554 16557 16559 16562 16565 16568 16571 16574 16577 16580 16583 16586 16589 16592 16595 16598 16601 16604 16607 16610 16613 16616 16619 16621 16624 16627 16630 16633 16635 16638 16641 16643 16645 16648 16651 16654 16657 16660 16662 16665 16668 16671 16674 16677 16680 16683 16686 16689 16692 16695 16697 16700 16703 16706 16709 16712 16715 16717 16720 16723 16726 16729 16732 16735 16738 16741 16744 16747 16750 16753 16756 16759 16762 16765 16768 16771 16773 16775 16778 16781 16784 16787 16790 16793 16796 16799 16802 16805 16808 16811 16814 16817 16820 16823 16825 16828 16831 16833 16836 16839 16842 16845 16848 16851 16854 16857 16860 16863 16866 16869 16872 16875 16878 16881 16884 16887 16890 16893 16896 16898 16901 16904 16906 16909 16912 16915 16917 16920 16923 16926 16929 16932 16934 16936 16939 16942 16945 16948 16950 16953 16956 16958 16961 16964 16967 16970 16973 16976 16979 16982 16985 16987 16990 16992 16995 16998 17001 17004 17007 17010 17013 17016 17019 17021 17024 17027 17030 17033 17036 17038 17041 17044 17047 17050 17053 17056 17059 17062 17065 17068 17071 17073 17076 17079 17082 17085 17087 17089 17092 17095 17098 17101 17104 17107 17110 17113 17116 17119 17121 17124 17127 17130 17133 17136 17138 17141 17144 17147 17149 17152 17155 17158 17161 17164 17167 17170 17173 17176 17179 17182 17185 17188 17191 17194 17197 17200 17203 17206 17209 17212 17214 17217 17220 17222 17224 17227 17230 17233 17235 17238 17241 17243 17246 17249 17252 17255 17258 17261 17264 17267 17270 17273 17276 17279 17282 17285 17287 17290 17293 17296 17298 17301 17304 17307 17310 17313 17316 17319 17322 17325 17328 17331 17334 17337 17340 17343 17346 17349 17351 17354 17356 17359 17362 17365 17368 17371 17374 17377 17380 17383 17386 17389 17392 17395 17398 17401 17404 17406 17409 17412 17415 17417 17420 17423 17426 17428 17430 17432 17435 17438 17440 17443 17446 17449 17452 17454 17457 17460 17463 17465 17468 17471 17474 17477 17480 17483 17485 17488 17491 17494 17497 17500 17503 17506 17509 17512 17514 17517 17520 17523 17526 17529 17532 17535 17538 17540 17543 17546 17549 17552 17555 17558 17561 17564 17567 17570 17573 17575 17578 17581 17583 17586 17589 17591 17594 17597 17600 17602 17605 17608 17611 17614 17617 17620 17623 17626 17629 17632 17635 17638 17641 17644 17647 17650 17653 17655 17658 17661 17663 17665 17668 17670 17673 17676 17679 17682 17684 17687 17690 17693 17696 17699 17702 17705 17708 17711 17714 17717 17720 17723 17726 17729 17732 17735 17738 17740 17743 17746 17749 17752 17755 17758 17761 17764 17767 17770 17773 17776 17779 17782 17785 17788 17791 17794 17797 17800 17803 17806 17809 17812 17815 17818 17821 17824 17827 17830 17833 17836 17839 17842 17845 17848 17851 17854 17857 17860 17862 17865 17868 17871 17874 17877 17880 17883 17885 17888 17891 17893 17896 17899 17902 17905 17908 17911 17914 17917 17920 17923 17926 17929 17932 17935 17938 17941 17944 17947 17950 17953 17956 17958 17961 17964 17967 17970 17973 17976 17979 17981 17984 17987 17990 17993 17996 17998 18001 18004 18007 18010 18013 18016 18019 18022 18025 18028 18031 18033 18036 18039 18041 18044 18047 18050 18053 18056 18059 18062 18064 18067 18070 18073 18076 18079 18082 18085 18088 18091 18094 18097 18100 18103 18105 18108 18111 18114 18117 18120 18123 18126 18129 18132 18135 18137 18140 18143 18146 18149 18152 18155 18158 18161 18164 18167 18169 18172 18174 18177 18180 18183 18186 18189 18191 18194 18197 18200 18203 18206 18208 18211 18214 18217 18219 18222 18225 18227 18230 18232 18235 18238 18241 18244 18247 18250 18253 18256 18259 18262 18265 18268 18271 18274 18277 18280 18283 18286 18289 18292 18294 18297 18299 18302 18305 18308 18311 18314 18317 18320 18323 18326 18329 18332 18335 18338 18341 18344 18346 18349 18352 18354 18357 18360 18363 18366 18369 18372 18375 18378 18381 18383 18386 18389 18392 18395 18397 18400 18403 18406 18408 18411 18414 18417 18419 18422 18425 18427 18429 18432 18435 18438 18440 18443 18446 18448 18451 18454 18456 18459 18461 18464 18467 18470 18473 18476 18478 18481 18484 18487 18489 18492 18495 18498 18500 18503 18505 18508 18511 18513 18516 18519 18522 18525 18528 18531 18533 18536 18539 18542 18545 18547 18550 18553 18556 18558 18561 18563 18566 18569 18572 18575 18578 18581 18584 18587 18589 18592 18595 18598 18601 18604 18607 18610 18613 18616 18619 18622 18625 18628 18631 18634 18637 18640 18643 18646 18648 18651 18654 18657 18660 18662 18665 18668 18671 18673 18676 18679 18682 18684 18687 18690 18693 18696 18699 18702 18705 18708 18710 18713 18716 18719 18722 18725 18728 18731 18734 18737 18740 18742 18745 18748 18751 18754 18756 18759 18762 18765 18768 18771 18773 18776 18778 18781 18784 18787 18790 18793 18796 18799 18802 18805 18808 18811 18814 18817 18820 18823 18826 18829 18832 18835 18838 18841 18844 18846 18849 18851 18853 18856 18859 18862 18865 18868 18871 18874 18877 18880 18883 18886 18889 18892 18895 18898 18900 18903 18906 18909 18912 18915 18917 18920 18923 18926 18929 18932 18935 18937 18940 18943 18946 18949 18952 18955 18958 18961 18964 18967 18970 18973 18976 18979 18981 18984 18987 18990 18993 18996 18999 19002 19005 19008 19011 19014 19017 19020 19023 19026 19029 19032 19035 19038 19041 19044 19047 19050 19052 19054 19057 19060 19063 19065 19067 19070 19073 19076 19079 19082 19085 19088 19091 19094 19097 19100 19102 19105 19108 19111 19114 19117 19120 19123 19126 19128 19131 19134 19136 19139 19142 19144 19147 19150 19153 19156 19159 19162 19165 19168 19171 19174 19177 19179 19182 19185 19188 19191 19194 19197 19200 19203 19206 19209 19212 19215 19218 19220 19223 19226 19229 19232 19234 19237 19240 19243 19246 19249 19251 19254 19257 19260 19263 19266 19269 19272 19275 19278 19281 19284 19287 19290 19293 19296 19299 19302 19305 19308 19311 19314 19317 19320 19323 19326 19329 19332 19335 19338 19341 19344 19347 19350 19353 19356 19359 19362 19365 19368 19371 19374 19377 19380 19383 19386 19389 19392 19395 19398 19401 19404 19407 19410 19413 19416 19419 19422 19425 19428 19431 19434 19437 19440 19443 19446 19449 19452 19455 19458 19461 19464 19467 19470 19473 19476 19479 19482 19485 19488 19491 19494 19497 19500 19503 19506 19509 19512 19515 19518 19521 19524 19527 19530 19533 19536 19539 19542 19545 19548 19551 19554 19557 19560 19563 19566 19569 19572 19575 19578 19581 19584 19587 19590 19593 19596 19599 19602 19605 19608 19611 19614 19617 19620 19623 19626 19629 19632 19635 19638 19641 19644 19647 19650 19653 19656 19659 19662 19665 19668 19671 19674 19677 19680 19683 19686 19689 19692 19695 19698 19700 19703 19706 19709 19712 19715 19718 19721 19724 19727 19730 19733 19736 19739 19742 19745 19748 19751 19754 19757 19760 19763 19766 19769 19772 19775 19778 19781 19784 19787 19790 19793 19796 19799 19801 19804 19807 19810 19813 19815 19817 19820 19823 19826 19829 19832 19835 19838 19841 19844 19846 19849 19852 19855 19858 19861 19864 19867 19869 19872 19875 19878 19881 19884 19887 19890 19893 19896 19899 19902 19905 19908 19911 19914 19917 19920 19923 19926 19929 19932 19935 19938 19941 19944 19947 19950 19953 19956 19959 19962 19965 19967 19970 19972 19975 19978 19981 19984 19987 19989 19991 19994 19997 20000 20003 20006 20009 20012 20015 20018 20021 20023 20026 20029 20032 20034 20037 20040 20043 20046 20049 20052 20055 20058 20061 20064 20067 20070 20072 20075 20078 20081 20084 20086 20089 20092 20095 20098 20101 20104 20107 20110 20113 20116 20119 20122 20125 20128 20131 20134 20137 20140 20142 20145 20147 20150 20153 20155 20158 20161 20164 20167 20169 20172 20174 20177 20180 20183 20186 20189 20192 20195 20198 20201 20204 20207 20209 20212 20215 20218 20221 20224 20226 20228 20231 20234 20237 20240 20243 20245 20248 20251 20254 20257 20260 20263 20266 20269 20272 20275 20278 20281 20284 20287 20290 20293 20296 20299 20301 20304 20307 20309 20312 20315 20317 20320 20323 20326 20329 20332 20335 20338 20341 20343 20345 20348 20351 20353 20356 20359 20362 20365 20368 20371 20374 20377 20380 20383 20386 20389 20392 20395 20398 20401 20404 20407 20410 20413 20416 20419 20422 20425 20428 20431 20434 20437 20440 20443 20445 20448 20451 20453 20456 20459 20461 20464 20466 20469 20472 20474 20477 20480 20482 20485 20487 20490 20493 20496 20499 20502 20505 20508 20511 20514 20517 20519 20522 20525 20528 20531 20534 20537 20540 20543 20545 20548 20551 20554 20557 20560 20562 20564 20567 20570 20573 20575 20578 20581 20583 20586 20589 20592 20595 20598 20600 20603 20606 20609 20611 20614 20617 20620 20623 20626 20629 20632 20634 20637 20640 20642 20644 20647 20650 20653 20656 20659 20661 20664 20667 20670 20673 20676 20678 20681 20684 20687 20690 20693 20696 20698 20701 20704 20706 20709 20712 20715 20718 20720 20723 20726 20729 20732 20734 20737 20740 20743 20745 20748 20751 20754 20757 20760 20763 20765 20768 20771 20774 20777 20780 20783 20786 20789 20792 20795 20798 20801 20804 20807 20810 20813 20816 20819 20822 20825 20828 20830 20833 20835 20837 20840 20843 20846 20848 20851 20854 20857 20860 20863 20866 20869 20872 20875 20877 20880 20883 20886 20888 20891 20894 20897 20900 20903 20906 20909 20912 20915 20918 20921 20923 20926 20929 20932 20934 20937 20940 20943 20946 20949 20952 20955 20958 20961 20964 20967 20970 20973 20976 20979 20982 20985 20988 20991 20994 20997 21000 21003 21006 21009 21012 21015 21017 21020 21023 21026 21029 21032 21035 21038 21041 21044 21047 21050 21053 21055 21058 21061 21064 21067 21070 21073 21076 21078 21081 21084 21086 21089 21092 21095 21098 21101 21104 21107 21110 21112 21114 21117 21120 21122 21125 21127 21130 21133 21136 21139 21142 21145 21148 21151 21154 21157 21160 21163 21166 21169 21172 21175 21178 21180 21183 21186 21189 21191 21194 21196 21199 21202 21205 21208 21210 21213 21215 21218 21221 21224 21227 21230 21233 21236 21239 21242 21245 21248 21251 21254 21257 21260 21263 21266 21269 21272 21275 21278 21281 21284 21287 21290 21293 21296 21299 21301 21304 21307 21310 21312 21315 21318 21321 21324 21326 21329 21332 21335 21338 21341 21344 21347 21350 21353 21356 21359 21362 21365 21368 21371 21374 21377 21380 21383 21386 21389 21392 21395 21398 21401 21404 21407 21410 21413 21416 21419 21422 21425 21428 21431 21434 21437 21440 21443 21446 21449 21452 21455 21458 21461 21464 21467 21470 21473 21476 21479 21482 21485 21488 21491 21494 21497 21500 21503 21506 21509 21512 21515 21518 21521 21524 21527 21530 21533 21536 21539 21542 21545 21548 21551 21554 21557 21560 21563 21566 21569 21572 21575 21578 21581 21584 21587 21590 21593 21596 21599 21602 21605 21608 21611 21614 21617 21620 21623 21626 21629 21632 21635 21638 21641 21644 21647 21650 21653 21656 21659 21662 21665 21668 21671 21674 21677 21680 21683 21686 21689 21692 21695 21698 21701 21704 21707 21710 21713 21716 21719 21722 21725 21728 21731 21734 21737 21740 21743 21746 21749 21752 21755 21758 21761 21764 21767 21770 21773 21776 21779 21782 21785 21788 21791 21793 21796 21799 21802 21805 21808 21811 21814 21817 21820 21823 21826 21829 21832 21835 21838 21841 21844 21847 21850 21853 21856 21859 21862 21865 21868 21871 21874 21877 21880 21883 21886 21889 21892 21895 21898 21901 21904 21907 21910 21912 21915 21918 21921 21924 21927 21930 21933 21936 21939 21942 21945 21948 21951 21953 21956 21959 21962 21965 21967 21969 21972 21975 21978 21980 21983 21986 21989 21992 21995 21998 22001 22004 22007 22010 22013 22016 22019 22022 22025 22028 22030 22033 22036 22039 22042 22045 22048 22051 22054 22057 22060 22063 22066 22069 22071 22074 22077 22080 22083 22086 22089 22092 22094 22096 22099 22102 22105 22108 22111 22114 22117 22120 22122 22124 22127 22130 22133 22136 22139 22142 22145 22148 22151 22154 22157 22159 22162 22165 22168 22170 22173 22176 22178 22181 22184 22186 22189 22192 22195 22198 22201 22204 22207 22210 22213 22216 22219 22221 22223 22226 22229 22232 22234 22237 22240 22243 22246 22249 22252 22255 22258 22260 22263 22266 22269 22272 22274 22276 22279 22282 22285 22288 22291 22294 22297 22300 22303 22305 22308 22311 22314 22317 22320 22322 22325 22328 22330 22333 22336 22339 22342 22345 22348 22350 22353 22355 22358 22361 22364 22367 22370 22373 22376 22379 22381 22384 22386 22389 22392 22395 22398 22401 22404 22407 22410 22413 22416 22419 22421 22424 22427 22430 22433 22436 22439 22442 22445 22448 22451 22454 22457 22459 22462 22465 22468 22471 22474 22477 22480 22483 22486 22489 22492 22495 22498 22501 22503 22506 22509 22512 22515 22517 22520 22523 22526 22529 22532 22534 22537 22540 22543 22546 22549 22552 22555 22558 22561 22563 22566 22569 22572 22575 22578 22581 22583 22586 22589 22592 22595 22598 22601 22603 22606 22609 22612 22615 22618 22621 22624 22627 22630 22633 22636 22639 22642 22645 22648 22651 22654 22657 22660 22662 22665 22667 22670 22673 22676 22679 22682 22685 22688 22691 22694 22697 22700 22703 22706 22709 22712 22715 22718 22721 22723 22726 22729 22732 22735 22738 22741 22744 22746 22749 22752 22755 22758 22761 22764 22767 22770 22773 22776 22779 22782 22785 22787 22789 22792 22795 22798 22801 22804 22807 22810 22813 22816 22819 22822 22825 22828 22831 22834 22837 22840 22843 22846 22849 22852 22855 22858 22861 22864 22867 22869 22872 22875 22878 22881 22884 22886 22889 22892 22895 22898 22901 22904 22907 22910 22913 22916 22919 22922 22925 22928 22931 22934 22937 22940 22943 22946 22949 22952 22955 22957 22960 22963 22966 22969 22972 22975 22978 22981 22983 22986 22989 22992 22995 22998 23001 23004 23007 23010 23012 23015 23018 23020 23023 23026 23029 23032 23035 23038 23041 23043 23046 23049 23052 23055 23057 23060 23063 23066 23069 23071 23074 23077 23080 23083 23086 23089 23092 23095 23097 23100 23102 23105 23108 23110 23113 23115 23118 23121 23124 23127 23129 23132 23135 23138 23140 23143 23146 23149 23151 23154 23157 23160 23162 23165 23168 23171 23174 23177 23180 23183 23186 23189 23192 23195 23198 23200 23203 23206 23209 23212 23215 23217 23220 23223 23226 23229 23232 23235 23238 23241 23244 23247 23250 23253 23256 23259 23262 23265 23268 23270 23273 23276 23279 23282 23285 23288 23291 23294 23297 23300 23302 23305 23308 23311 23314 23317 23319 23322 23325 23328 23330 23333 23336 23339 23342 23345 23348 23351 23354 23357 23360 23363 23366 23369 23372 23375 23378 23380 23383 23386 23388 23391 23394 23397 23399 23402 23405 23408 23411 23413 23416 23419 23422 23425 23427 23429 23432 23435 23438 23440 23443 23446 23448 23451 23454 23457 23460 23462 23465 23468 23471 23474 23477 23480 23483 23486 23489 23492 23495 23498 23501 23504 23507 23510 23513 23516 23519 23522 23525 23528 23531 23534 23537 23540 23543 23546 23549 23552 23555 23558 23561 23564 23567 23570 23573 23576 23579 23582 23585 23588 23591 23594 23597 23600 23603 23606 23609 23612 23615 23618 23621 23624 23627 23630 23633 23636 23639 23642 23645 23648 23651 23654 23657 23660 23663 23666 23669 23672 23675 23678 23681 23684 23686 23689 23691 23694 23697 23700 23703 23706 23708 23711 23714 23717 23720 23722 23725 23728 23731 23734 23737 23740 23743 23746 23749 23751 23754 23757 23760 23763 23766 23769 23772 23775 23778 23781 23784 23787 23790 23793 23796 23799 23802 23804 23807 23810 23813 23816 23819 23822 23825 23828 23831 23834 23837 23840 23843 23846 23849 23852 23855 23858 23861 23864 23867 23870 23873 23876 23879 23882 23885 23888 23891 23894 23897 23900 23903 23906 23909 23912 23915 23917 23920 23923 23926 23929 23932 23935 23938 23940 23943 23946 23948 23951 23954 23957 23960 23963 23966 23969 23972 23975 23978 23981 23984 23987 23990 23992 23995 23998 24001 24003 24006 24009 24012 24015 24018 24020 24023 24026 24029 24032 24035 24038 24040 24043 24046 24049 24052 24055 24057 24060 24062 24065 24068 24071 24074 24077 24080 24083 24086 24089 24092 24095 24097 24100 24103 24106 24109 24112 24115 24117 24120 24123 24126 24129 24131 24134 24136 24139 24141 24144 24147 24150 24152 24155 24158 24161 24164 24167 24170 24173 24176 24179 24182 24185 24188 24191 24193 24196 24199 24202 24205 24207 24210 24213 24216 24219 24222 24225 24228 24231 24234 24237 24240 24242 24245 24247 24250 24253 24256 24258 24261 24264 24267 24270 24272 24275 24278 24281 24284 24287 24290 24292 24294 24297 24300 24303 24306 24309 24312 24315 24318 24321 24324 24327 24330 24333 24336 24339 24341 24344 24347 24350 24353 24356 24358 24360 24363 24366 24369 24371 24374 24376 24379 24382 24385 24388 24391 24393 24396 24399 24401 24404 24407 24410 24413 24416 24418 24421 24424 24427 24429 24432 24435 24437 24440 24442 24445 24448 24451 24454 24457 24459 24462 24465 24468 24471 24474 24477 24480 24483 24486 24488 24491 24494 24497 24500 24503 24506 24509 24512 24515 24518 24521 24524 24526 24529 24532 24535 24538 24541 24544 24547 24550 24553 24555 24558 24561 24564 24567 24570 24573 24576 24579 24582 24585 24588 24591 24594 24597 24600 24603 24606 24608 24611 24614 24617 24619 24622 24625 24628 24631 24634 24637 24640 24643 24646 24649 24652 24655 24658 24661 24664 24667 24670 24673 24676 24679 24682 24685 24688 24691 24694 24697 24700 24703 24706 24709 24712 24715 24718 24721 24724 24726 24729 24732 24735 24737 24740 24743 24746 24749 24752 24755 24757 24760 24762 24765 24768 24771 24773 24776 24779 24782 24785 24788 24791 24794 24797 24799 24802 24805 24808 24811 24814 24817 24820 24823 24826 24829 24832 24835 24838 24841 24844 24847 24850 24852 24855 24858 24861 24864 24867 24870 24873 24875 24878 24881 24883 24886 24889 24892 24895 24898 24901 24903 24906 24908 24911 24914 24916 24919 24922 24924 24927 24929 24931 24934 24937 24940 24943 24945 24948 24951 24954 24957 24960 24963 24966 24969 24972 24975 24978 24980 24982 24985 24988 24991 24993 24996 24999 25002 25004 25006 25009 25012 25015 25018 25021 25024 25027 25030 25033 25035 25038 25041 25044 25047 25050 25053 25056 25059 25062 25065 25068 25071 25073 25075 25078 25080 25083 25086 25088 25091 25094 25097 25099 25101 25103 25106 25109 25112 25115 25117 25120 25123 25125 25128 25131 25134 25136 25139 25142 25145 25148 25151 25154 25157 25159 25162 25165 25168 25170 25173 25176 25179 25182 25185 25188 25190 25193 25196 25199 25202 25205 25208 25211 25214 25217 25220 25222 25225 25228 25231 25234 25237 25240 25243 25246 25249 25252 25255 25258 25261 25264 25267 25270 25273 25276 25279 25282 25285 25288 25291 25294 25297 25300 25303 25306 25309 25311 25314 25317 25320 25322 25325 25328 25330 25333 25335 25338 25340 25342 25345 25348 25351 25354 25357 25360 25363 25366 25369 25372 25375 25378 25380 25382 25385 25388 25391 25394 25397 25400 25403 25406 25409 25412 25415 25418 25421 25424 25427 25430 25433 25436 25439 25442 25445 25448 25451 25454 25457 25459 25462 25465 25468 25471 25474 25477 25480 25483 25486 25489 25492 25495 25498 25501 25504 25507 25509 25512 25515 25517 25520 25523 25526 25529 25532 25535 25538 25541 25544 25547 25549 25552 25554 25557 25560 25563 25565 25568 25571 25574 25577 25580 25582 25585 25588 25590 25593 25596 25599 25602 25605 25608 25611 25614 25617 25620 25623 25626 25629 25632 25635 25638 25641 25644 25647 25650 25653 25656 25659 25662 25665 25668 25671 25674 25677 25680 25683 25686 25689 25692 25695 25698 25701 25704 25707 25710 25713 25716 25719 25722 25725 25728 25731 25734 25737 25740 25743 25746 25749 25752 25754 25757 25760 25763 25765 25768 25771 25774 25777 25780 25783 25786 25789 25792 25795 25798 25801 25804 25807 25810 25813 25816 25819 25822 25825 25828 25831 25834 25837 25840 25843 25846 25849 25852 25855 25858 25860 25863 25866 25868 25871 25873 25876 25879 25882 25884 25887 25890 25893 25896 25898 25901 25904 25907 25910 25913 25916 25919 25922 25925 25927 25930 25933 25936 25939 25942 25945 25948 25950 25953 25955 25958 25961 25964 25967 25969 25972 25975 25977 25980 25983 25986 25989 25991 25994 25997 26000 26002 26005 26008 26011 26014 26017 26020 26023 26026 26029 26032 26035 26038 26040 26043 26046 26049 26052 26055 26058 26061 26064 26067 26070 26073 26076 26079 26082 26085 26088 26091 26094 26097 26100 26103 26106 26109 26112 26115 26118 26121 26123 26126 26129 26132 26135 26138 26141 26144 26146 26148 26151 26154 26157 26160 26163 26166 26169 26172 26175 26178 26181 26184 26187 26190 26193 26196 26199 26202 26205 26208 26211 26214 26217 26220 26223 26226 26229 26232 26235 26238 26241 26244 26247 26250 26253 26256 26259 26262 26265 26268 26271 26274 26277 26280 26283 26286 26289 26291 26294 26297 26300 26303 26306 26308 26311 26314 26316 26319 26322 26325 26328 26331 26333 26336 26338 26341 26344 26347 26350 26353 26356 26359 26362 26365 26367 26370 26373 26376 26379 26381 26384 26386 26389 26392 26395 26398 26401 26404 26406 26409 26412 26415 26418 26421 26423 26426 26429 26432 26435 26438 26441 26444 26447 26450 26453 26456 26459 26462 26465 26468 26471 26474 26477 26480 26483 26486 26489 26492 26495 26498 26501 26504 26507 26510 26513 26516 26519 26522 26525 26528 26531 26534 26536 26539 26542 26545 26548 26551 26553 26556 26559 26562 26564 26567 26570 26573 26576 26579 26582 26585 26587 26590 26592 26594 26597 26600 26603 26606 26609 26612 26615 26618 26621 26624 26627 26630 26633 26636 26639 26642 26645 26648 26651 26654 26657 26660 26663 26666 26669 26672 26675 26678 26680 26683 26686 26688 26691 26694 26696 26699 26702 26705 26707 26710 26713 26716 26719 26722 26725 26728 26731 26734 26737 26740 26743 26746 26749 26752 26755 26758 26761 26764 26767 26770 26773 26776 26779 26782 26785 26788 26791 26793 26796 26799 26801 26804 26807 26809 26812 26815 26817 26820 26822 26825 26827 26830 26833 26836 26838 26841 26844 26847 26849 26852 26855 26857 26860 26863 26866 26869 26871 26874 26877 26879 26881 26884 26887 26890 26893 26896 26899 26902 26905 26908 26911 26914 26917 26919 26922 26924 26927 26930 26932 26935 26938 26940 26943 26946 26949 26952 26954 26957 26959 26962 26965 26968 26971 26973 26976 26979 26981 26983 26986 26989 26992 26995 26998 27001 27004 27007 27009 27012 27014 27017 27019 27022 27025 27028 27031 27033 27036 27039 27042 27044 27047 27049 27052 27055 27058 27061 27064 27067 27070 27073 27076 27079 27082 27085 27088 27091 27094 27097 27100 27103 27106 27109 27112 27115 27118 27121 27124 27127 27130 27132 27135 27138 27141 27144 27147 27150 27152 27155 27158 27161 27164 27167 27170 27173 27176 27179 27182 27185 27188 27191 27194 27197 27200 27203 27206 27209 27212 27215 27218 27221 27224 27227 27230 27233 27236 27239 27242 27245 27248 27251 27254 27257 27260 27263 27266 27269 27271 27274 27277 27280 27283 27285 27288 27291 27293 27296 27299 27302 27305 27307 27310 27313 27316 27319 27322 27325 27327 27330 27333 27336 27339 27342 27345 27348 27351 27353 27356 27358 27361 27364 27367 27370 27373 27375 27378 27380 27383 27386 27389 27392 27395 27397 27400 27403 27406 27409 27412 27415 27418 27421 27424 27427 27429 27432 27435 27438 27441 27444 27447 27450 27453 27456 27459 27462 27465 27468 27471 27474 27477 27480 27483 27485 27488 27491 27493 27496 27499 27502 27505 27508 27511 27514 27517 27520 27522 27525 27528 27531 27534 27537 27540 27543 27546 27549 27552 27555 27558 27561 27564 27567 27570 27572 27575 27578 27581 27584 27586 27589 27592 27594 27597 27600 27603 27606 27609 27612 27614 27617 27620 27623 27626 27629 27632 27634 27637 27640 27643 27646 27649 27652 27655 27658 27660 27663 27666 27669 27672 27675 27678 27681 27684 27687 27690 27693 27695 27698 27701 27704 27707 27710 27713 27715 27718 27721 27723 27726 27729 27732 27735 27738 27741 27744 27747 27750 27753 27756 27759 27762 27765 27768 27771 27774 27777 27780 27783 27786 27789 27792 27795 27798 27801 27804 27807 27810 27813 27816 27819 27822 27825 27828 27831 27834 27837 27840 27843 27846 27849 27852 27855 27858 27861 27864 27867 27870 27873 27876 27879 27882 27885 27888 27891 27894 27897 27900 27903 27905 27908 27911 27914 27917 27920 27923 27926 27929 27932 27935 27937 27940 27943 27946 27949 27952 27955 27958 27961 27964 27967 27970 27973 27976 27979 27982 27985 27988 27991 27994 27997 28000 28003 28006 28009 28012 28014 28017 28019 28022 28025 28028 28031 28034 28037 28040 28043 28046 28049 28051 28054 28057 28060 28062 28065 28068 28071 28074 28077 28080 28083 28086 28089 28092 28095 28098 28101 28104 28107 28110 28113 28116 28119 28122 28125 28127 28129 28132 28135 28138 28140 28143 28146 28148 28151 28154 28156 28159 28162 28165 28168 28171 28173 28176 28179 28181 28184 28186 28189 28192 28195 28198 28201 28204 28207 28210 28213 28216 28218 28221 28224 28226 28229 28232 28235 28238 28241 28244 28247 28249 28252 28255 28258 28260 28263 28266 28269 28272 28275 28277 28280 28282 28285 28288 28291 28294 28297 28300 28303 28306 28309 28311 28314 28317 28320 28323 28325 28327 28330 28333 28336 28339 28342 28345 28348 28351 28354 28357 28360 28363 28366 28369 28372 28375 28378 28381 28384 28386 28389 28392 28395 28398 28400 28403 28406 28409 28412 28415 28418 28420 28423 28426 28429 28432 28435 28437 28440 28443 28445 28447 28450 28453 28456 28459 28462 28464 28467 28470 28472 28474 28477 28480 28483 28486 28489 28492 28495 28498 28501 28503 28505 28508 28511 28514 28517 28519 28522 28525 28527 28529 28532 28534 28536 28539 28542 28544 28547 28549 28551 28554 28557 28560 28563 28565 28568 28571 28574 28577 28580 28583 28586 28589 28591 28594 28597 28600 28603 28606 28609 28612 28615 28618 28621 28624 28627 28630 28633 28636 28639 28642 28645 28648 28651 28654 28657 28659 28661 28664 28667 28670 28673 28676 28679 28682 28685 28688 28691 28694 28697 28700 28702 28705 28708 28711 28714 28717 28720 28723 28726 28729 28731 28734 28737 28740 28743 28746 28749 28751 28754 28757 28759 28762 28764 28767 28770 28773 28776 28778 28781 28783 28786 28788 28791 28794 28796 28798 28801 28804 28807 28809 28811 28814 28817 28820 28823 28826 28828 28831 28833 28836 28839 28842 28845 28848 28851 28854 28857 28860 28863 28866 28869 28872 28875 28878 28881 28884 28887 28890 28893 28896 28898 28901 28904 28907 28909 28911 28914 28917 28920 28923 28926 28929 28931 28933 28936 28938 28941 28944 28947 28949 28952 28955 28958 28961 28964 28967 28970 28973 28976 28979 28982 28985 28988 28991 28994 28997 28999 29001 29004 29006 29008 29011 29014 29016 29019 29022 29024 29027 29030 29033 29036 29039 29042 29045 29048 29051 29053 29056 29059 29061 29064 29067 29070 29073 29076 29079 29081 29084 29087 29090 29093 29096 29098 29100 29103 29106 29108 29111 29113 29116 29119 29122 29125 29127 29130 29132 29135 29138 29140 29143 29146 29149 29151 29154 29156 29159 29162 29165 29167 29170 29173 29175 29178 29181 29184 29186 29189 29192 29195 29197 29200 29202 29205 29208 29211 29214 29217 29219 29221 29224 29226 29228 29231 29234 29237 29239 29242 29244 29247 29250 29252 29255 29258 29261 29264 29267 29269 29272 29275 29278 29281 29284 29287 29290 29293 29295 29297 29300 29303 29306 29308 29310 29312 29315 29318 29321 29324 29327 29330 29332 29335 29338 29341 29344 29347 29350 29353 29356 29359 29362 29365 29368 29371 29374 29377 29380 29382 29385 29388 29391 29394 29397 29399 29402 29405 29408 29411 29414 29417 29420 29423 29426 29429 29432 29435 29438 29441 29444 29447 29450 29453 29456 29459 29462 29465 29468 29470 29473 29475 29478 29481 29484 29487 29489 29492 29495 29498 29501 29504 29507 29510 29513 29516 29519 29521 29524 29527 29530 29533 29536 29539 29542 29545 29547 29550 29553 29555 29558 29561 29564 29567 29569 29572 29574 29577 29580 29583 29585 29588 29590 29593 29596 29598 29600 29603 29606 29609 29612 29615 29618 29621 29624 29627 29630 29633 29636 29638 29640 29643 29646 29649 29651 29654 29657 29660 29663 29665 29668 29670 29673 29676 29679 29682 29684 29687 29690 29692 29695 29698 29700 29703 29705 29708 29711 29713 29716 29719 29721 29724 29727 29730 29733 29736 29738 29741 29743 29746 29749 29752 29754 29757 29760 29763 29766 29769 29772 29775 29777 29780 29783 29785 29788 29791 29794 29797 29800 29802 29805 29808 29811 29814 29817 29820 29823 29826 29828 29831 29834 29837 29840 29843 29846 29849 29851 29854 29857 29860 29863 29866 29869 29872 29875 29878 29881 29884 29887 29890 29893 29896 29899 29902 29905 29908 29911 29913 29916 29919 29921 29924 29927 29930 29933 29936 29939 29942 29945 29948 29951 29954 29956 29958 29961 29964 29966 29969 29972 29975 29978 29981 29984 29987 29990 29992 29995 29998 30001 30004 30007 30010 30013 30015 30018 30021 30024 30027 30029 30032 30035 30037 30040 30042 30045 30047 30050 30053 30055 30058 30060 30063 30066 30069 30072 30074 30077 30080 30083 30086 30089 30092 30095 30098 30101 30104 30107 30110 30113 30116 30119 30122 30124 30127 30130 30133 30135 30138 30141 30144 30147 30150 30152 30155 30158 30161 30164 30166 30169 30172 30174 30176 30179 30182 30185 30187 30190 30192 30195 30197 30199 30202 30205 30208 30211 30214 30217 30219 30222 30225 30228 30230 30233 30236 30239 30242 30245 30248 30251 30254 30257 30260 30263 30265 30268 30271 30274 30277 30280 30282 30285 30287 30290 30293 30296 30298 30301 30303 30306 30309 30312 30315 30318 30321 30324 30326 30329 30332 30335 30337 30340 30343 30346 30349 30352 30355 30358 30361 30364 30367 30370 30373 30376 30379 30382 30385 30388 30391 30394 30397 30400 30403 30406 30409 30411 30414 30417 30420 30423 30426 30429 30432 30435 30438 30441 30444 30447 30450 30453 30456 30458 30461 30464 30466 30469 30472 30475 30478 30481 30483 30486 30489 30492 30495 30498 30500 30503 30505 30508 30511 30514 30517 30519 30522 30525 30527 30530 30533 30536 30539 30541 30544 30546 30549 30552 30555 30558 30560 30562 30564 30567 30570 30573 30576 30579 30582 30585 30587 30590 30593 30596 30599 30602 30604 30607 30610 30613 30616 30619 30622 30625 30628 30631 30634 30636 30639 30642 30645 30648 30651 30654 30657 30660 30663 30666 30669 30672 30675 30678 30681 30684 30687 30690 30693 30696 30699 30702 30704 30706 30708 30711 30714 30717 30720 30723 30726 30729 30731 30734 30737 30740 30743 30746 30748 30751 30754 30757 30760 30763 30766 30768 30771 30774 30777 30780 30782 30785 30788 30791 30794 30797 30800 30803 30806 30809 30812 30815 30818 30821 30823 30826 30829 30831 30834 30837 30840 30843 30846 30848 30851 30854 30856 30858 30861 30864 30867 30870 30873 30876 30879 30882 30885 30888 30891 30894 30897 30900 30903 30905 30908 30911 30913 30916 30919 30922 30925 30928 30931 30934 30937 30940 30943 30945 30948 30951 30954 30957 30960 30963 30966 30969 30972 30975 30978 30981 30984 30987 30990 30992 30995 30998 31001 31004 31007 31010 31013 31015 31018 31021 31024 31027 31029 31032 31035 31037 31040 31043 31046 31049 31052 31055 31058 31061 31064 31067 31070 31073 31076 31079 31082 31085 31088 31091 31094 31096 31099 31102 31105 31108 31110 31113 31116 31119 31122 31125 31128 31131 31134 31137 31140 31143 31146 31149 31152 31154 31157 31160 31163 31166 31169 31172 31175 31178 31181 31184 31187 31190 31192 31195 31198 31201 31203 31206 31208 31210 31213 31216 31219 31222 31225 31228 31230 31233 31236 31239 31241 31244 31246 31249 31252 31255 31258 31261 31264 31267 31270 31272 31275 31278 31281 31284 31287 31289 31292 31295 31298 31301 31304 31307 31310 31312 31315 31318 31321 31323 31325 31328 31331 31334 31337 31340 31343 31346 31349 31351 31354 31357 31360 31363 31366 31369 31372 31375 31378 31381 31384 31386 31389 31392 31394 31397 31400 31403 31406 31409 31412 31415 31418 31420 31423 31426 31429 31432 31435 31438 31441 31444 31447 31450 31453 31456 31459 31462 31465 31468 31471 31474 31477 31480 31483 31486 31489 31492 31495 31498 31501 31504 31507 31509 31512 31515 31517 31519 31522 31524 31527 31530 31532 31535 31538 31540 31543 31546 31549 31551 31554 31557 31560 31563 31566 31569 31572 31575 31578 31581 31584 31587 31590 31592 31595 31598 31600 31603 31605 31608 31611 31614 31617 31620 31623 31625 31628 31631 31634 31637 31639 31642 31645 31648 31651 31654 31656 31659 31661 31664 31667 31670 31673 31676 31678 31680 31683 31685 31688 31691 31694 31697 31700 31703 31706 31708 31711 31714 31717 31720 31723 31726 31729 31732 31735 31737 31740 31743 31746 31749 31751 31754 31757 31760 31763 31766 31769 31772 31775 31778 31780 31783 31786 31789 31792 31795 31798 31801 31804 31807 31810 31813 31816 31819 31822 31825 31828 31831 31834 31837 31840 31843 31846 31849 31852 31855 31858 31861 31864 31867 31869 31872 31875 31878 31881 31884 31887 31890 31893 31896 31898 31901 31904 31906 31908 31910 31913 31916 31918 31921 31923 31926 31929 31932 31935 31938 31941 31944 31947 
</DataArray>
<DataArray type="UInt32" Name="types" format="ascii">
5 5 5 3 5 5 5 5 5 3 5 5 5 5 5 5 5 5 5 5 3 5 5 5 3 5 5 5 5 5 3 5 3 5 5 5 5 5 5 5 5 5 3 5 5 5 5 3 5 5 5 5 3 3 5 5 3 3 5 3 5 5 5 5 3 3 5 3 5 3 5 3 3 5 5 5 5 5 3 3 5 5 3 5 3 5 5 5 3 5 5 5 5 5 5 5 5 3 5 5 5 5 5 3 5 3 5 5 5 5 5 3 5 3 5 5 5 5 5 3 5 5 5 5 3 5 5 5 5 3 5 5 5 5 5 5 5 3 5 5 5 5 5 5 5 5 5 5 5 5 5 3 3 5 5 5 5 5 3 5 5 5 3 5 5 5 5 3 5 5 5 3 5 3 5 5 5 3 5 3 5 5 3 5 5 5 3 5 5 3 5 3 5 5 3 5 5 3 3 3 5 5 5 5 5 5 5 5 5 5 5 5 3 5 3 5 3 5 5 5 5 5 5 5 3 5 5 5 5 5 5 3 5 5 3 3 3 5 3 5 5 3 3 5 3 5 5 5 5 5 5 5 5 5 5 5 5 5 5 5 5 5 5 5 5 5 5 5 5 5 5 3 5 5 5 3 3 5 5 5 3 5 5 5 5 3 5 5 5 3 5 5 5 5 5 5 3 5 5 5 5 5 3 5 5 5 3 5 5 3 5 5 5 5 5 5 5 5 3 5 5 5 3 5 5 5 5 3 5 5 3 3 5 3 5 3 5 5 3 5 5 5 5 5 3 3 5 3 5 5 5 3 5 5 5 3 5 5 5 5 3 3 5 5 5 5 3 5 5 5 3 5 5 5 3 3 5 5 5 3 5 5 3 5 3 5 3 5 5 5 5 5 5 5 5 5 5 3 5 5 5 5 5 3 5 3 3 5 5 5 3 5 5 5 3 3 5 3 5 5 3 3 5 5 5 5 5 5 5 3 5 5 3 5 5 5 5 3 5 3 5 3 5 3 3 5 5 5 5 5 5 3 5 5 5 5 5 5 5 5 5 5 5 5 5 5 5 5 5 3 5 5 5 5 5 5 5 5 3 5 3 5 5 5 3 5 5 5 3 5 3 5 5 5 5 5 5 5 3 3 5 3 5 3 5 5 5 5 5 5 5 3 5 5 5 5 5 5 5 5 5 5 5 5 5 5 5 5 5 5 5 5 5 5 5 5 5 5 5 5 5 5 5 5 5 5 5 3 5 5 5 5 5 3 5 5 5 3 5 5 5 5 3 5 3 5 5 5 5 5 3 5 5 3 5 5 3 5 5 5 3 3 5 5 5 5 3 5 3 5 5 5 5 5 5 5 3 5 5 5 5 5 5 5 5 5 5 5 5 5 5 5 5 5 5 5 3 5 5 3 5 5 3 5 5 5 5 5 5 5 5 5 5 5 5 5 5 5 5 5 5 5 5 5 5 5 5 5 3 5 5 5 5 3 5 5 5 5 3 5 5 3 5 5 5 5 5 5 5 5 5 5 5 5 5 3 5 3 5 5 5 5 5 5 5 5 5 5 5 5 5 5 5 5 5 5 5 5 5 5 5 3 5 5 5 5 5 5 5 5 5 5 5 5 3 5 5 5 5 5 5 5 5 5 3 3 5 5 3 5 5 5 5 5 5 5 5 5 5 5 5 5 5 3 5 5 3 5 5 3 5 5 5 5 5 5 5 5 5 5 5 5 5 5 5 5 5 5 3 5 5 5 5 5 5 3 3 5 5 5 3 5 5 3 5 5 5 5 5 5 5 5 5 5 5 3 5 5 5 5 5 5 5 5 5 5 5 5 5 5 5 5 3 5 5 5 3 5 5 5 5 5 5 5 5 5 5 5 5 5 5 5 5 5 5 5 5 5 3 5 5 5 3 5 5 5 3 5 5 3 5 3 3 5 5 5 3 3 5 3 5 5 3 5 3 3 5 3 5 3 5 5 5 5 5 3 5 3 5 5 5 3 5 5 5 5 5 5 5 5 5 5 3 5 5 5 5 5 5 5 5 5 5 5 5 5 5 5 5 3 5 5 5 5 5 5 5 5 5 3 5 5 5 5 3 5 5 5 5 5 5 5 5 5 5 5 5 3 5 5 3 5 5 5 5 5 5 3 5 5 3 5 5 5 5 3 5 5 5 5 5 5 5 5 5 5 5 3 5 5 5 3 5 5 3 5 5 3 3 3 5 3 5 5 5 3 5 5 5 3 5 5 5 5 5 5 3 5 5 5 5 3 5 5 5 5 5 5 5 5 5 3 3 5 5 5 5 3 3 5 5 3 3 5 5 3 3 5 5 5 5 5 3 5 5 5 3 3 5 5 5 3 5 5 5 3 5 5 3 3 3 5 5 5 5 5 5 5 5 5 5 3 5 3 5 5 3 5 3 5 5 5 5 5 5 5 5 5 5 5 5 3 5 5 5 3 5 5 5 5 5 3 5 5 5 5 5 5 5 5 5 5 5 3 5 5 5 5 5 5 5 3 5 5 3 5 5 5 3 5 5 5 5 5 5 5 5 5 5 5 5 5 5 5 5 5 5 5 5 5 5 5 5 5 5 5 3 5 5 5 5 3 5 3 3 5 5 5 5 5 5 5 3 3 5 5 5 5 5 5 5 5 5 3 5 5 3 3 5 3 5 5 5 5 5 5 5 5 5 3 5 5 5 5 5 5 5 5 5 5 5 5 3 5 5 5 3 3 5 5 5 5 5 5 3 5 3 5 5 5 5 5 5 5 5 3 5 5 5 5 5 5 5 5 5 5 5 5 5 5 5 5 5 5 5 5 5 3 5 5 5 5 3 5 5 5 3 3 3 5 3 5 5 3 5 3 5 5 3 5 3 5 5 3 5 5 5 3 5 5 5 5 5 5 5 5 5 5 5 5 5 3 5 5 3 5 5 5 5 5 5 5 3 5 5 5 5 5 5 5 5 5 5 5 5 5 5 5 5 3 5 3 5 3 5 5 5 5 5 5 5 5 5 3 3 5 5 5 3 3 5 3 5 5 5 3 5 5 5 5 5 3 3 5 5 5 3 5 5 5 3 5 5 5 5 5 3 5 3 5 5 3 5 5 5 5 3 5 5 5 5 5 5 3 5 3 5 5 3 3 5 5 5 3 5 5 5 5 3 5 3 5 5 5 5 3 5 5 5 5 5 5 5 5 5 5 5 3 5 5 5 5 5 5 5 5 5 5 5 5 5 5 5 5 5 5 5 5 5 5 5 5 5 5 5 5 5 5 5 5 5 5 5 5 5 5 5 3 5 5 5 5 5 5 5 5 5 5 5 5 5 5 5 5 3 5 5 5 5 5 5 3 5 3 5 5 3 5 5 5 5 5 3 5 5 5 5 5 5 5 5 5 5 5 5 3 5 5 5 5 5 5 3 5 5 5 5 3 5 5 5 5 5 5 3 5 5 5 3 3 5 5 3 5 5 5 5 5 5 5 5 5 5 5 5 5 5 5 3 5 3 5 5 3 3 3 5 5 5 3 5 5 5 5 3 5 5 3 5 5 5 5 5 5 5 5 5 3 5 3 5 5 3 5 5 5 5 5 5 5 5 5 5 5 5 5 3 5 5 5 5 5 5 5 5 5 5 5 5 5 5 5 5 5 5 5 5 5 5 5 5 5 5 5 5 5 5 5 5 5 5 5 5 5 5 5 5 5 5 5 5 5 5 5 5 3 5 3 5 5 5 5 5 5 5 5 5 5 5 5 5 5 5 5 5 3 5 5 5 5 3 5 5 5 5 5 5 5 5 5 5 5 5 5 5 5 5 3 5 5 5 5 5 3 5 5 5 5 3 5 5 5 5 5 5 5 5 5 5 5 5 5 5 5 5 5 5 5 5 5 5 5 5 5 5 5 3 5 5 5 5 5 5 5 5 3 5 5 5 5 5 5 5 5 5 5 5 5 5 5 5 5 5 5 3 5 5 5 5 5 5 5 5 5 5 5 5 3 5 5 5 5 3 5 5 5 5 5 5 5 5 5 5 5 5 5 5 5 5 5 5 5 5 5 5 3 5 5 5 5 5 5 3 5 5 5 5 5 3 5 5 5 5 5 5 5 3 5 5 5 5 5 3 5 5 5 5 5 5 5 5 5 5 5 3 5 5 5 5 5 5 3 5 3 5 3 5 5 3 5 5 5 5 5 5 5 3 5 5 5 5 5 3 5 5 5 5 5 5 3 3 5 3 5 3 5 3 5 5 5 3 3 5 3 5 5 5 5 3 5 5 3 3 5 3 3 5 5 5 5 5 5 3 5 5 5 5 5 5 5 5 5 5 5 5 5 5 5 3 5 5 5 5 5 5 5 5 5 5 5 5 5 5 3 5 5 5 5 5 5 5 5 5 5 5 5 5 5 5 5 5 5 5 5 5 5 3 5 5 5 3 5 5 5 5 5 5 5 5 5 5 5 5 5 5 5 5 5 5 5 5 5 5 5 5 5 5 3 5 5 5 5 5 5 5 5 5 5 5 5 5 3 5 5 3 5 5 3 5 5 3 5 5 5 5 5 5 3 5 5 5 5 5 5 5 5 5 5 3 5 5 5 5 5 5 5 5 5 5 3 5 5 5 5 5 5 5 5 5 5 5 5 5 5 5 5 5 5 5 5 5 5 5 5 5 3 5 5 5 5 5 5 5 5 3 5 5 5 5 5 5 3 5 5 5 5 5 5 5 5 5 5 5 5 5 5 5 5 5 3 5 5 5 5 5 5 5 5 5 5 5 5 5 5 5 5 5 5 5 5 5 5 5 5 5 5 5 5 5 5 5 5 5 5 5 5 5 5 5 5 5 5 5 5 5 3 5 5 5 5 5 5 5 5 5 5 5 5 5 5 5 5 5 5 5 5 5 5 5 5 5 5 5 5 5 5 5 5 5 5 5 5 5 5 5 5 5 5 5 5 5 5 5 5 5 5 5 5 5 5 3 5 5 5 5 5 5 5 5 5 5 5 5 5 5 3 3 5 5 5 5 5 5 5 3 5 5 5 5 5 3 5 5 3 5 3 5 3 5 5 5 5 3 3 5 3 5 5 3 5 5 3 3 3 5 5 3 5 3 5 5 5 5 5 5 5 5 5 5 5 5 5 5 5 5 5 5 3 5 5 5 5 5 3 5 5 5 5 5 5 5 5 5 5 3 5 5 5 5 5 5 5 3 5 3 5 5 3 5 5 5 3 5 5 5 3 5 5 5 3 5 3 5 5 3 5 3 3 3 5 5 5 5 3 5 3 5 5 5 5 5 3 5 5 5 5 3 5 3 5 5 5 5 5 5 5 5 5 3 5 3 5 5 5 5 3 5 5 5 3 3 5 5 3 5 5 3 5 5 5 5 5 3 5 5 3 5 5 5 5 5 5 3 5 3 3 3 5 5 5 5 3 5 5 5 5 5 5 5 5 5 5 5 5 5 5 5 5 5 5 5 5 5 5 5 5 5 5 5 5 5 5 5 5 5 5 5 5 5 5 5 5 5 5 5 5 5 5 5 5 5 5 5 3 5 5 3 5 5 5 5 5 3 5 5 5 5 5 5 5 5 5 5 5 3 5 5 3 5 3 5 5 5 5 3 5 5 3 5 5 5 3 3 5 3 5 3 5 3 3 5 3 5 5 5 3 5 5 5 5 5 3 5 5 3 3 5 3 5 5 5 5 5 5 5 5 5 3 5 5 3 5 5 3 5 5 3 3 3 5 5 3 5 5 3 5 3 3 5 5 3 5 5 3 3 5 5 5 5 3 5 5 5 5 3 5 5 5 5 5 5 5 5 5 5 5 3 5 5 5 5 5 5 3 5 3 5 5 5 3 5 3 5 5 5 3 5 5 5 5 5 5 5 3 5 5 5 3 5 5 5 3 5 5 5 5 5 5 5 5 5 5 5 5 5 5 5 5 5 5 5 5 5 5 5 5 5 5 5 5 5 5 3 5 5 5 5 3 5 5 3 5 5 5 5 5 5 3 5 5 5 3 5 5 5 5 5 5 5 5 5 5 3 5 3 3 5 5 5 3 5 5 5 5 5 5 5 5 5 3 5 5 5 5 5 3 5 5 5 5 3 5 5 5 3 3 5 5 5 5 3 5 5 5 5 5 5 3 5 5 5 5 5 5 5 5 5 5 5 3 5 5 5 5 3 3 5 5 5 5 5 3 5 3 5 5 3 5 3 5 5 5 5 3 5 5 3 5 5 5 3 5 5 5 5 5 5 5 5 5 5 5 5 5 5 5 5 5 5 5 3 5 3 5 5 5 5 5 5 5 5 5 5 5 5 5 5 5 5 5 5 5 5 5 5 5 5 5 5 5 5 5 5 5 5 5 5 5 3 3 5 5 5 5 5 5 5 5 5 3 5 5 5 5 5 5 5 3 5 5 5 5 5 5 5 5 5 5 5 5 5 5 5 5 5 5 5 5 5 5 5 5 5 5 5 5 5 3 5 5 5 5 5 5 5 5 3 5 5 5 3 5 5 5 3 5 3 5 5 5 5 5 5 3 5 5 5 5 5 5 5 5 5 5 3 3 5 5 3 5 5 5 5 3 5 5 3 5 3 5 5 5 5 5 5 5 3 3 5 5 5 5 5 5 5 5 5 5 5 5 5 5 5 5 5 5 5 5 5 5 5 3 5 5 5 5 5 5 3 5 5 5 5 5 5 3 5 5 5 5 5 5 5 5 5 5 5 5 5 5 3 3 5 5 5 5 5 3 5 5 5 5 5 5 5 3 5 5 5 3 5 5 5 5 5 5 5 5 3 5 3 3 5 5 5 5 3 5 3 3 3 5 5 5 5 3 5 5 3 5 5 3 5 5 5 5 5 5 5 5 5 5 5 5 5 5 5 5 5 5 3 5 5 5 5 5 5 3 5 5 5 5 5 5 5 5 5 5 3 5 5 5 5 5 5 3 5 5 5 5 5 5 5 5 5 5 5 5 5 5 5 3 5 5 5 5 5 5 3 5 5 5 5 5 5 5 3 5 5 3 5 5 5 5 3 3 5 5 5 5 5 5 5 5 5 3 5 5 5 5 5 5 5 5 5 5 5 5 5 5 3 5 5 5 5 5 5 5 5 5 5 5 5 5 3 5 5 5 5 5 5 5 5 5 5 5 3 5 3 5 3 5 5 5 5 5 3 5 5 5 5 5 5 5 5 5 5 3 3 5 5 3 5 3 5 5 5 5 5 5 5 5 5 5 5 5 5 5 5 5 5 5 5 5 3 5 5 3 5 5 5 5 5 5 5 5 5 5 5 3 5 3 5 5 5 5 5 5 5 5 3 5 5 5 5 5 5 5 3 5 5 3 5 5 5 5 5 5 3 5 5 5 3 5 5 3 5 3 5 3 5 5 5 3 5 5 5 5 5 5 5 5 3 5 5 3 3 5 5 3 5 5 3 5 5 5 5 5 5 5 5 5 5 5 5 5 5 5 5 5 5 5 5 3 5 5 5 5 5 5 3 5 5 5 5 3 5 5 5 5 5 5 3 5 5 5 5 5 5 5 5 5 5 5 5 5 5 5 5 5 5 5 5 5 5 5 5 5 5 5 5 5 5 5 5 5 5 5 5 5 5 5 5 5 3 5 5 5 5 5 3 5 5 5 5 5 3 3 5 5 5 5 5 5 5 5 5 5 5 5 5 3 5 5 3 5 5 5 5 5 5 5 5 5 5 5 5 3 5 5 3 5 5 5 5 5 5 5 5 5 5 5 5 5 5 5 5 5 5 5 5 5 5 5 5 5 5 5 5 5 5 5 5 5 5 5 5 5 3 5 5 5 5 5 5 5 5 5 5 5 5 5 5 5 5 5 5 5 5 5 5 5 5 5 5 5 5 5 5 5 5 5 5 5 5 5 5 5 5 5 5 5 5 5 5 5 5 5 5 5 5 5 5 5 5 5 5 5 5 5 5 5 5 5 5 5 5 5 3 5 5 5 5 3 5 5 5 5 5 5 5 5 5 5 5 5 5 5 5 5 5 5 5 5 3 5 5 5 5 5 5 5 5 5 5 5 5 5 5 5 5 5 5 3 5 5 5 5 3 5 5 5 5 5 5 3 3 5 5 5 5 5 5 3 5 5 5 5 3 3 5 5 5 5 3 5 5 5 5 3 3 3 5 5 5 5 5 3 5 5 5 5 3 5 5 5 5 5 5 5 5 5 5 5 3 5 5 3 5 5 5 5 5 5 5 5 5 5 5 5 5 5 5 3 5 5 5 5 5 5 5 5 5 3 5 5 3 3 5 5 5 5 5 5 3 5 5 5 3 5 5 5 3 5 5 5 3 5 5 5 3 3 5 5 3 5 5 5 5 3 5 5 5 3 5 3 5 5 5 3 3 5 5 5 5 5 5 5 3 5 5 5 3 3 5 3 5 5 3 5 5 5 5 5 5 5 5 5 3 3 5 5 5 5 5 3 5 5 5 3 5 5 3 5 5 5 5 5 5 5 3 5 5 5 5 3 3 5 5 3 5 5 5 5 3 5 5 5 5 5 5 3 5 5 5 5 5 5 5 5 3 5 5 5 5 5 5 5 5 5 5 5 5 3 5 5 5 5 5 5 5 5 5 5 5 5 5 5 5 5 5 5 5 5 5 5 5 5 5 3 5 5 5 3 5 5 5 5 5 3 5 3 5 5 5 5 5 5 5 5 5 5 5 5 5 5 5 5 5 5 5 5 5 5 3 5 5 5 5 3 5 5 5 5 3 5 5 5 5 5 5 5 3 5 5 5 5 5 5 5 5 5 5 5 5 5 5 5 5 5 5 3 5 3 5 5 5 5 5 3 5 5 5 5 5 5 5 3 5 5 5 5 5 5 5 5 5 5 5 5 5 5 5 5 5 5 5 5 5 5 5 5 5 5 5 5 5 5 5 5 5 5 5 5 5 5 5 5 5 3 5 5 5 5 5 5 5 5 5 3 5 5 3 5 5 5 5 5 5 3 5 3 5 3 3 3 5 3 5 3 3 5 3 5 5 5 5 5 5 5 5 5 5 5 5 5 5 5 5 5 5 3 5 5 5 5 5 5 5 5 5 5 5 5 5 3 5 5 5 5 5 5 5 5 5 5 3 3 5 5 5 3 3 5 5 3 5 5 5 5 5 5 5 5 3 5 5 3 5 5 3 5 5 5 5 5 5 5 5 5 5 5 5 5 5 5 5 5 5 5 5 5 5 5 5 5 5 5 5 5 5 5 5 5 5 5 5 5 5 5 5 5 5 5 5 3 5 5 5 5 5 5 5 5 5 3 5 5 5 3 5 5 5 5 5 5 5 5 5 5 5 5 5 5 5 5 5 5 5 5 5 5 5 5 5 5 5 5 5 5 5 3 5 5 5 5 5 5 3 5 5 5 5 5 5 5 5 5 5 5 3 5 3 5 5 5 5 5 5 5 5 5 5 3 5 5 3 5 5 5 5 5 5 5 5 5 5 5 5 5 5 5 5 5 5 5 5 5 5 3 5 5 5 5 3 5 5 5 5 5 5 3 5 5 5 5 5 5 5 5 5 5 5 5 5 5 5 5 5 5 5 5 5 5 5 5 5 3 5 5 5 5 3 5 5 5 5 3 5 5 3 3 5 5 5 5 5 5 5 3 5 5 5 3 5 5 5 3 5 5 5 5 5 5 3 5 5 5 5 3 5 5 5 5 3 5 5 3 5 3 3 5 5 5 5 5 5 5 5 5 5 5 5 3 3 5 5 5 3 5 5 5 5 5 5 5 5 5 5 3 5 5 5 5 5 5 3 5 5 5 5 5 5 5 5 5 5 5 5 5 5 5 5 5 5 5 5 5 5 5 5 5 5 5 5 3 5 5 5 5 5 5 5 5 3 5 5 3 5 5 5 5 5 3 5 5 3 5 5 5 5 5 5 3 5 5 5 5 5 5 5 5 5 5 5 5 5 5 5 5 3 5 5 5 3 5 5 5 5 5 5 5 5 5 5 5 5 5 5 5 5 5 5 5 5 5 5 5 3 5 3 5 5 5 5 5 5 5 5 5 5 5 5 5 5 5 5 5 5 5 5 5 5 5 5 5 5 3 5 5 5 3 3 5 5 5 5 5 5 5 5 5 5 5 5 3 5 5 5 3 5 5 5 3 5 5 5 3 5 5 5 5 5 5 5 5 3 5 5 3 5 5 5 5 5 5 3 5 5 5 5 5 5 5 5 3 5 3 3 3 5 3 5 5 3 5 5 5 5 5 5 5 5 5 3 3 5 5 5 3 5 3 5 5 5 5 5 5 5 3 5 5 5 5 5 5 5 5 5 5 5 5 5 3 5 5 3 5 5 3 5 5 5 5 5 5 5 5 5 5 5 5 5 3 5 5 5 5 5 5 5 5 5 5 5 5 3 5 5 5 5 5 5 5 5 5 5 5 5 5 5 3 5 3 5 5 5 5 5 5 5 5 5 5 5 5 5 5 5 5 5 5 5 5 3 5 5 5 3 5 5 5 3 5 5 5 5 3 5 5 5 3 5 3 5 3 3 5 5 5 5 5 5 5 3 5 5 5 5 5 5 3 3 5 5 5 5 5 5 5 5 5 5 5 5 5 5 5 5 5 5 5 5 5 5 5 5 5 5 5 5 5 5 5 5 5 5 5 5 5 5 5 5 5 5 5 5 5 5 5 5 5 5 5 5 5 5 5 5 5 5 5 5 5 5 5 5 5 5 5 5 5 5 5 5 5 5 5 5 5 5 5 5 5 5 5 5 5 5 5 5 5 5 5 5 5 5 5 5 5 5 5 5 5 5 5 5 5 5 5 5 5 5 5 5 5 5 5 5 5 5 5 5 5 5 5 5 5 5 5 5 5 5 5 5 5 5 5 3 3 5 5 5 3 5 3 5 5 5 3 5 5 5 5 5 5 5 3 5 5 5 5 3 5 5 5 5 5 5 3 3 5 5 5 5 5 5 5 5 5 5 5 5 3 5 5 5 5 5 5 5 5 3 5 5 5 5 5 5 5 5 5 5 5 5 5 3 3 5 5 5 5 5 3 5 5 5 5 5 5 5 5 3 3 5 5 5 5 5 5 5 3 5 5 5 5 5 5 5 5 5 5 5 5 5 5 5 5 5 5 5 5 5 5 5 5 5 5 5 5 5 5 5 5 5 5 5 5 5 5 5 5 5 5 5 5 5 5 5 5 5 5 5 5 5 5 5 5 5 5 5 5 5 5 5 5 5 3 5 5 5 5 3 3 5 5 3 5 3 3 5 5 5 5 5 5 5 3 5 5 5 5 5 5 5 3 5 5 3 3 5 5 5 5 5 5 5 5 5 5 5 5 5 5 3 5 5 5 5 3 5 5 5 5 3 5 5 5 5 5 3 5 5 3 5 5 5 5 5 5 5 5 5 5 5 5 3 5 5 3 5 5 5 5 5 5 3 5 5 5 3 5 5 5 5 3 5 5 5 5 5 3 5 5 5 5 5 5 5 5 5 5 3 5 5 5 5 5 5 5 5 5 5 5 5 5 3 5 5 5 5 5 5 5 5 5 3 5 5 5 5 5 5 5 5 5 5 5 5 5 5 5 3 5 5 5 3 5 5 5 5 5 5 5 5 5 5 5 5 5 5 5 5 5 3 5 5 3 5 3 5 3 5 3 5 5 5 3 5 5 3 5 5 3 5 5 5 5 5 3 5 5 3 5 5 5 5 5 5 5 3 3 5 5 5 5 5 5 5 3 5 5 5 5 5 5 5 5 5 5 5 5 5 5 5 5 5 5 5 5 5 5 5 5 5 5 5 5 5 5 5 5 5 5 5 5 5 5 5 5 5 5 5 5 5 5 5 5 5 5 5 5 5 5 5 5 5 5 5 5 5 5 5 5 5 5 5 5 5 5 5 5 5 5 5 5 5 5 5 5 5 5 5 5 5 5 5 5 5 5 5 5 5 5 5 5 3 5 5 5 5 5 3 5 5 5 5 5 5 5 5 5 5 5 5 3 5 5 5 5 5 5 3 5 5 5 5 5 5 3 5 5 5 3 5 5 5 5 5 5 5 5 5 5 5 3 5 5 5 3 5 5 5 5 5 5 5 5 5 5 5 3 5 5 5 3 5 5 5 3 5 5 5 5 5 5 5 5 5 5 5 5 5 5 3 5 5 5 3 5 5 3 5 5 5 5 5 5 5 5 5 5 5 5 5 5 5 5 5 5 5 5 5 5 5 5 5 5 5 5 5 5 5 5 5 5 5 5 5 5 5 5 5 5 5 5 5 5 5 5 5 5 5 5 5 5 5 5 3 5 5 5 5 3 5 5 5 5 3 5 5 5 5 5 5 5 5 5 5 5 5 5 5 5 5 5 5 5 5 5 5 5 5 5 5 5 5 5 5 5 5 5 5 5 5 5 5 5 5 5 5 5 5 5 5 5 5 5 5 5 5 5 5 5 5 5 5 5 5 5 5 3 5 5 3 5 5 5 3 5 5 3 5 5 5 3 3 5 5 5 5 5 5 3 5 3 3 5 5 5 5 3 5 5 5 5 5 5 5 5 5 5 3 5 5 5 5 5 5 3 5 3 5 5 5 5 5 5 3 5 5 5 5 5 5 5 5 5 5 5 5 5 5 5 5 5 5 3 5 5 5 5 5 5 5 5 5 5 5 5 5 5 5 5 5 5 3 5 5 5 5 3 5 5 5 3 5 5 5 5 5 5 3 5 5 5 3 5 5 3 5 5 5 5 5 5 5 5 5 5 5 5 3 5 3 5 5 5 5 5 5 5 5 5 3 5 5 5 5 5 5 5 3 3 5 5 3 3 5 5 3 3 5 3 3 5 5 5 3 5 5 5 5 5 3 3 5 5 5 5 5 5 5 5 5 5 5 5 5 5 5 5 5 3 5 5 5 5 5 5 5 5 5 5 5 3 5 5 5 5 3 5 5 5 3 5 5 5 5 5 5 5 5 3 5 5 5 3 5 5 5 5 5 5 5 5 5 5 5 5 5 5 5 5 5 5 5 5 5 5 5 5 5 5 5 5 3 5 5 3 5 5 5 5 3 5 5 5 5 5 5 3 5 5 5 5 5 5 5 5 5 5 5 5 5 3 5 5 5 5 5 5 5 5 5 5 5 5 5 5 5 5 5 5 5 5 3 5 5 5 5 3 5 5 3 3 5 5 5 5 5 3 5 5 5 5 5 5 5 5 5 5 5 3 5 5 5 5 5 5 3 5 5 5 5 5 5 5 5 5 5 5 5 5 5 5 5 5 5 3 3 5 5 5 5 5 5 5 5 5 5 5 5 5 5 5 5 3 5 5 3 5 5 5 5 5 5 5 5 5 5 5 5 5 5 5 5 5 5 5 5 5 3 5 5 3 5 5 5 3 5 5 5 5 5 3 3 5 5 5 5 3 5 5 3 5 5 5 5 5 5 5 5 5 3 5 3 5 5 5 5 5 5 5 5 5 3 5 5 5 5 5 3 5 5 5 5 5 5 5 5 5 5 5 3 5 5 5 5 3 3 5 5 5 5 5 5 5 5 5 5 3 5 5 5 5 5 3 5 5 5 3 5 5 5 5 5 5 5 5 5 5 5 5 5 5 5 5 5 5 5 5 5 3 5 5 3 3 5 5 5 3 5 5 3 5 5 5 5 5 5 5 5 5 5 5 5 5 5 3 5 5 5 3 5 5 5 5 5 5 5 5 5 5 5 5 5 5 5 5 5 3 5 3 5 5 5 5 5 5 5 5 5 5 5 5 5 5 5 5 3 5 5 5 3 5 5 5 3 3 3 5 5 3 5 5 5 5 3 5 5 5 3 5 5 5 5 5 5 3 5 5 5 5 5 5 5 5 5 3 5 5 5 5 5 5 5 5 3 5 5 5 5 5 5 5 5 5 5 5 3 5 5 3 5 5 3 5 5 5 3 5 5 5 5 5 5 5 5 5 5 5 5 5 5 5 5 5 3 5 5 3 3 5 3 5 5 5 5 3 5 5 5 5 5 5 5 5 5 5 5 5 5 5 5 5 5 5 3 5 5 5 5 5 5 5 5 5 5 5 5 5 5 5 5 5 5 5 5 5 5 5 5 5 5 5 5 5 5 5 5 5 5 5 5 5 5 5 5 3 5 5 5 5 5 5 5 3 5 5 3 5 5 5 5 5 5 5 5 5 5 5 5 5 5 5 5 5 5 5 5 5 3 5 5 5 5 5 5 5 3 5 5 5 5 5 3 5 5 5 5 5 5 5 5 5 5 5 3 5 5 3 5 5 5 5 5 5 5 3 5 5 5 5 5 5 5 5 5 5 5 5 5 3 5 5 5 5 5 5 5 5 5 5 3 5 5 5 5 5 5 5 5 5 5 3 5 3 5 5 5 5 5 3 5 5 5 5 5 3 5 5 5 3 5 5 3 5 3 5 5 5 5 5 5 5 5 5 5 5 5 5 5 5 5 5 5 5 5 3 5 3 5 5 5 5 5 5 5 5 5 5 5 5 5 5 5 3 5 5 3 5 5 5 5 5 5 5 5 5 3 5 5 5 5 3 5 5 5 3 5 5 5 3 5 5 3 3 5 5 5 3 5 5 3 5 5 3 5 3 5 5 5 5 5 3 5 5 5 3 5 5 5 3 5 3 5 5 3 5 5 5 5 5 5 3 5 5 5 5 3 5 5 5 3 5 3 5 5 5 5 5 5 5 5 3 5 5 5 5 5 5 5 5 5 5 5 5 5 5 5 5 5 5 5 3 5 5 5 5 3 5 5 5 3 5 5 5 3 5 5 5 5 5 5 5 5 3 5 5 5 5 5 5 5 5 5 5 3 5 5 5 5 3 5 5 5 5 5 3 5 3 5 5 5 5 5 5 5 5 5 5 5 5 5 5 5 5 5 5 5 5 5 5 3 5 3 3 5 5 5 5 5 5 5 5 5 5 5 5 5 5 5 3 5 5 5 5 5 3 5 5 5 5 5 5 3 5 5 5 5 5 5 5 5 5 5 5 5 5 5 3 5 5 5 5 5 5 5 5 5 5 5 5 5 5 5 5 5 5 5 5 5 5 5 3 3 5 5 5 3 3 5 5 5 5 5 5 5 5 5 5 5 3 5 5 5 5 5 5 5 5 3 5 5 3 5 5 3 5 5 5 5 5 5 5 5 5 5 5 3 5 5 5 5 5 5 5 5 5 5 5 5 5 3 5 5 5 5 3 5 5 5 5 5 3 5 5 5 5 5 5 5 5 5 5 5 5 5 5 5 5 5 5 5 5 5 5 5 5 5 5 5 5 5 5 5 5 5 5 5 5 5 5 5 5 5 5 5 5 5 5 5 5 5 5 5 5 5 5 5 5 5 5 5 5 5 5 5 5 5 5 5 5 5 5 5 5 5 5 5 5 5 5 5 5 5 5 5 5 5 5 5 5 5 5 5 5 5 5 5 5 5 5 5 5 5 5 5 5 5 5 5 5 5 5 5 5 5 5 5 5 5 5 5 5 5 5 5 5 5 5 5 5 5 5 5 5 5 5 5 5 5 5 5 5 5 5 5 5 5 5 5 5 5 3 5 5 5 5 5 5 5 5 5 5 5 5 5 5 5 5 5 5 5 5 5 5 5 5 5 5 5 5 5 5 5 5 5 3 5 5 5 5 3 3 5 5 5 5 5 5 5 5 5 3 5 5 5 5 5 5 5 3 5 5 5 5 5 5 5 5 5 5 5 5 5 5 5 5 5 5 5 5 5 5 5 5 5 5 5 5 5 5 5 5 3 5 3 5 5 5 5 5 3 3 5 5 5 5 5 5 5 5 5 5 3 5 5 5 3 5 5 5 5 5 5 5 5 5 5 5 5 3 5 5 5 5 3 5 5 5 5 5 5 5 5 5 5 5 5 5 5 5 5 5 5 3 5 3 5 5 3 5 5 5 5 3 5 3 5 5 5 5 5 5 5 5 5 5 5 3 5 5 5 5 5 3 3 5 5 5 5 5 3 5 5 5 5 5 5 5 5 5 5 5 5 5 5 5 5 5 5 3 5 5 3 5 5 3 5 5 5 5 5 5 5 5 3 3 5 5 3 5 5 5 5 5 5 5 5 5 5 5 5 5 5 5 5 5 5 5 5 5 5 5 5 5 5 5 5 5 5 3 5 5 3 5 5 3 5 3 5 5 3 5 5 3 5 3 5 5 5 5 5 5 5 5 5 5 3 5 5 5 5 5 5 5 5 3 5 5 5 5 5 3 3 5 5 5 3 5 5 3 5 5 5 5 5 3 5 5 5 3 5 5 5 5 5 5 5 3 5 5 3 3 5 5 5 5 5 3 5 5 5 5 5 3 5 5 5 5 5 5 3 5 5 3 5 5 5 5 3 5 5 5 5 3 5 5 5 3 5 5 5 5 5 5 3 5 5 5 5 5 5 5 5 5 5 5 5 5 5 5 5 5 5 5 5 5 3 5 3 3 5 5 5 3 5 5 5 5 5 5 5 5 5 3 5 5 5 3 5 5 5 5 5 5 5 5 5 5 5 3 5 5 5 3 5 5 5 5 5 5 5 5 5 5 5 5 5 5 5 5 5 5 5 5 5 5 5 5 5 5 5 3 5 5 5 5 5 5 5 5 5 5 5 5 3 5 5 5 5 5 5 5 3 5 5 3 5 5 5 5 5 5 5 5 3 3 5 5 3 5 3 5 5 5 5 5 5 5 5 5 5 5 5 5 5 5 5 5 3 5 5 5 3 5 3 5 5 5 5 3 5 3 5 5 5 5 5 5 5 5 5 5 5 5 5 5 5 5 5 5 5 5 5 5 5 5 5 5 5 5 3 5 5 5 3 5 5 5 5 3 5 5 5 5 5 5 5 5 5 5 5 5 5 5 5 5 5 5 5 5 5 5 5 5 5 5 5 5 5 5 5 5 5 5 5 5 5 5 5 5 5 5 5 5 5 5 5 5 5 5 5 5 5 5 5 5 5 5 5 5 5 5 5 5 5 5 5 5 5 5 5 5 5 5 5 5 5 5 5 5 5 5 5 5 5 5 5 5 5 5 5 5 5 5 5 5 5 5 5 5 5 5 5 5 5 5 5 5 5 5 5 5 5 5 5 5 5 5 5 5 5 5 5 5 5 5 5 5 5 5 5 5 5 5 5 5 5 5 5 5 5 5 5 5 5 5 5 5 5 5 5 5 5 5 5 3 5 5 5 5 5 5 5 5 5 5 5 5 5 5 5 5 5 5 5 5 5 5 5 5 5 5 5 5 5 5 5 5 5 5 5 5 5 5 5 3 5 5 5 5 5 5 5 5 5 5 5 5 5 3 5 5 5 5 3 3 5 5 5 3 5 5 5 5 5 5 5 5 5 5 5 5 5 5 5 5 3 5 5 5 5 5 5 5 5 5 5 5 5 5 3 5 5 5 5 5 5 5 3 3 5 5 5 5 5 5 5 5 3 3 5 5 5 5 5 5 5 5 5 5 5 3 5 5 5 3 5 5 3 5 5 3 5 5 5 5 5 5 5 5 5 5 5 3 3 5 5 5 3 5 5 5 5 5 5 5 5 3 5 5 5 5 3 3 5 5 5 5 5 5 5 5 5 3 5 5 5 5 5 3 5 5 3 5 5 5 5 5 5 3 5 3 5 5 5 5 5 5 5 5 3 5 3 5 5 5 5 5 5 5 5 5 5 5 3 5 5 5 5 5 5 5 5 5 5 5 5 3 5 5 5 5 5 5 5 5 5 5 5 5 5 5 3 5 5 5 5 3 5 5 5 5 5 3 5 5 5 5 5 5 5 5 5 3 5 5 5 5 5 5 3 5 5 5 5 5 5 3 5 5 5 5 5 5 5 5 5 5 5 5 5 5 5 5 5 5 5 3 5 3 5 5 5 5 5 5 5 5 5 5 5 5 5 5 5 5 5 5 3 5 5 5 5 5 5 5 3 5 5 5 5 5 5 5 5 5 5 5 5 5 3 3 5 5 5 5 5 5 5 5 5 5 5 5 5 5 5 5 5 5 5 5 5 5 5 5 5 5 3 5 5 5 5 5 3 5 5 5 5 5 5 5 5 5 5 5 5 5 5 5 5 5 5 5 5 5 5 5 3 5 5 5 5 5 5 5 5 3 5 5 5 5 5 5 5 5 5 3 5 5 3 5 5 5 5 5 5 5 3 5 5 5 5 3 5 5 5 5 3 5 5 5 5 5 5 5 5 3 5 3 5 5 3 5 3 5 5 5 5 3 5 5 5 3 5 5 5 3 5 5 5 3 5 5 5 5 5 5 5 5 5 5 5 5 3 5 5 5 5 5 3 5 5 5 5 5 5 5 5 5 5 5 5 5 5 5 5 5 3 5 5 5 5 5 5 5 5 5 5 3 5 5 5 5 5 3 5 5 5 3 5 5 5 5 5 5 5 5 5 5 5 5 5 5 5 5 3 5 5 3 5 5 5 3 5 5 5 5 3 5 5 5 5 3 3 5 5 5 3 5 5 3 5 5 5 5 3 5 5 5 5 5 5 5 5 5 5 5 5 5 5 5 5 5 5 5 5 5 5 5 5 5 5 5 5 5 5 5 5 5 5 5 5 5 5 5 5 5 5 5 5 5 5 5 5 5 5 5 5 5 5 5 5 5 5 5 5 5 5 5 5 5 5 5 5 5 5 5 5 5 5 3 5 3 5 5 5 5 5 3 5 5 5 5 3 5 5 5 5 5 5 5 5 5 3 5 5 5 5 5 5 5 5 5 5 5 5 5 5 5 5 5 3 5 5 5 5 5 5 5 5 5 5 5 5 5 5 5 5 5 5 5 5 5 5 5 5 5 5 5 5 5 5 5 5 5 5 5 5 5 3 5 5 5 5 5 5 5 3 5 5 3 5 5 5 5 5 5 5 5 5 5 5 5 5 5 3 5 5 5 3 5 5 5 5 5 3 5 5 5 5 5 5 3 5 5 5 5 5 3 5 3 5 5 5 5 5 5 5 5 5 5 5 3 5 5 5 5 5 5 3 5 5 5 5 3 5 3 5 3 5 5 5 3 5 5 5 5 5 5 5 5 5 5 5 5 5 3 5 5 5 5 3 5 5 5 5 5 5 5 5 5 5 5 3 5 3 5 5 5 3 5 5 5 5 3 5 5 5 5 5 5 3 3 5 5 5 5 5 5 5 5 5 5 5 5 5 5 5 3 5 5 5 5 5 3 3 5 5 5 3 5 3 5 5 5 5 5 3 5 5 3 5 5 5 5 5 3 5 5 5 3 5 5 3 5 3 5 5 5 5 5 3 5 5 5 5 5 5 5 5 5 3 5 5 5 5 5 5 5 5 5 5 5 5 3 5 5 5 5 5 5 5 5 5 3 5 5 5 5 5 5 5 5 5 5 5 5 5 5 5 5 5 3 5 5 5 3 5 5 5 5 5 5 5 5 5 5 5 5 5 5 5 5 5 5 5 5 5 5 5 5 5 5 5 5 5 5 5 5 5 5 5 3 5 5 5 3 5 5 5 5 5 5 3 5 3 5 5 5 3 5 5 5 5 5 5 5 5 3 5 5 5 5 5 5 5 5 5 5 5 5 5 5 5 5 5 3 5 5 5 5 5 5 5 3 5 5 3 5 5 5 5 5 5 3 5 3 5 5 3 5 5 3 5 3 3 5 5 5 5 3 5 5 5 5 5 5 5 5 5 5 5 3 3 5 5 5 3 5 5 5 3 3 5 5 5 5 5 5 5 5 5 3 5 5 5 5 5 5 5 5 5 5 5 5 3 3 5 3 5 5 3 5 5 5 3 3 3 5 5 5 5 3 5 5 3 5 5 5 3 5 5 5 5 5 5 5 3 5 5 5 3 5 5 5 5 5 5 3 5 5 5 5 5 5 5 5 5 5 3 5 5 5 5 5 5 5 5 5 5 5 5 5 5 5 5 5 5 5 5 5 5 5 5 5 5 5 5 5 3 5 5 5 3 5 5 3 5 3 5 3 3 5 5 5 5 5 5 5 5 5 5 5 5 3 3 5 5 5 5 5 5 5 5 5 5 5 5 5 5 5 5 5 5 5 5 5 5 5 5 5 3 5 5 5 5 5 5 5 5 5 5 5 5 5 5 5 5 3 5 5 3 5 5 5 5 5 5 5 5 5 5 3 5 3 5 5 5 3 5 5 5 5 5 3 5 5 3 5 5 5 5 5 5 5 5 5 5 5 5 5 5 5 5 5 5 5 5 5 5 5 5 5 5 5 5 5 5 5 5 5 5 5 5 5 5 5 5 5 5 5 5 5 5 5 5 5 5 5 5 5 5 3 5 5 5 3 5 5 5 5 5 5 5 5 5 5 5 5 5 5 5 5 5 5 5 5 5 5 5 5 5 5 5 5 5 5 5 3 5 5 3 5 3 5 5 5 3 5 5 5 5 3 5 5 5 5 5 5 5 5 5 3 5 5 5 5 5 5 5 3 5 3 5 5 5 5 3 5 5 3 5 5 5 5 3 5 5 5 3 5 5 5 5 5 5 5 5 5 5 5 5 3 5 5 5 5 5 5 5 5 5 5 5 5 5 5 5 5 5 5 5 5 5 5 5 5 5 5 5 3 5 5 5 5 5 5 5 3 3 5 5 5 5 5 5 5 5 5 5 5 5 5 5 5 5 5 5 5 5 5 5 5 5 5 5 5 5 5 5 5 5 5 5 5 5 5 5 5 5 5 5 5 5 5 5 5 3 5 5 5 5 5 3 5 5 3 5 5 5 5 5 3 5 3 5 5 5 5 5 5 5 5 5 3 5 5 5 5 3 5 3 5 5 5 5 5 5 3 5 5 5 5 5 3 5 5 5 5 5 5 5 5 5 5 5 5 5 5 5 5 5 5 5 5 5 5 5 5 5 5 5 5 5 5 5 5 5 5 5 5 5 3 5 5 5 5 5 3 5 5 5 3 5 5 5 5 5 5 5 3 5 3 3 5 5 5 5 5 5 5 5 5 5 5 5 5 5 5 5 5 5 5 5 5 5 5 5 5 5 5 5 3 5 5 3 5 5 3 5 5 5 3 5 5 5 5 5 5 5 5 5 5 5 5 5 5 5 5 5 5 5 5 5 5 5 5 5 5 5 5 3 5 5 3 5 5 3 5 5 3 5 3 5 3 5 5 5 3 5 5 5 3 5 5 3 5 5 5 5 3 5 5 3 3 5 5 5 5 5 5 5 5 5 5 5 5 3 5 3 5 5 3 5 5 3 5 5 5 5 3 5 3 5 5 5 5 3 5 5 3 3 5 5 5 5 5 5 5 5 3 5 3 5 3 5 5 5 5 3 5 5 5 3 5 3 5 5 5 5 5 5 5 5 5 5 5 5 5 5 5 5 5 5 5 5 5 5 5 5 5 5 5 3 5 5 5 5 5 5 3 5 5 5 5 5 5 5 5 5 5 5 5 5 5 5 5 5 5 5 5 5 5 5 5 5 5 5 5 5 5 5 5 5 5 5 5 5 5 5 3 5 5 5 5 3 5 5 3 5 5 5 5 3 5 5 5 5 5 5 3 5 5 5 5 5 5 5 5 3 5 3 5 5 5 5 5 3 5 3 5 5 5 5 5 3 5 5 5 5 5 5 5 5 5 5 3 5 5 5 5 5 5 5 5 5 5 5 5 5 5 5 5 5 5 3 5 5 3 5 5 5 5 5 5 5 5 5 3 5 5 5 5 5 5 5 5 5 5 5 5 5 5 5 5 3 5 5 5 5 3 5 5 3 5 5 5 5 5 5 3 5 5 5 5 5 5 3 5 5 5 5 5 5 5 5 3 5 5 5 5 5 5 5 5 5 5 5 3 5 5 5 5 5 5 3 5 5 3 5 5 5 5 5 5 5 5 5 5 5 5 5 5 5 5 5 5 5 5 5 5 5 5 5 5 5 5 5 5 5 5 5 5 5 5 5 5 5 5 5 5 5 5 5 5 5 5 5 5 5 5 5 5 5 5 5 5 5 5 3 5 5 5 5 5 5 5 5 5 5 3 5 5 5 5 5 5 5 5 5 5 5 5 5 5 5 5 5 5 5 5 5 5 5 5 5 3 5 3 5 5 5 5 5 5 5 5 5 5 3 5 5 5 3 5 5 5 5 5 5 5 5 5 5 5 5 5 5 5 5 5 5 5 5 5 3 3 5 5 5 3 5 5 3 5 5 3 5 5 5 5 5 3 5 5 3 5 3 5 5 5 5 5 5 5 5 5 5 3 5 5 3 5 5 5 5 5 5 5 3 5 5 5 3 5 5 5 5 5 3 5 3 5 5 5 5 5 5 5 5 5 3 5 5 5 5 3 3 5 5 5 5 5 5 5 5 5 5 5 5 5 5 5 5 5 5 5 3 5 5 5 5 3 5 5 5 5 5 5 3 5 5 5 5 5 3 5 5 3 3 5 5 5 5 5 3 5 5 3 3 5 5 5 5 5 5 5 5 5 3 3 5 5 5 5 3 5 5 3 3 5 3 3 5 5 3 5 3 3 5 5 5 5 3 5 5 5 5 5 5 5 5 3 5 5 5 5 5 5 5 5 5 5 5 5 5 5 5 5 5 5 5 5 5 5 3 3 5 5 5 5 5 5 5 5 5 5 5 5 5 3 5 5 5 5 5 5 5 5 5 3 5 5 5 5 5 5 3 5 5 3 5 3 5 5 5 5 3 5 3 5 3 5 5 3 3 5 5 5 3 3 5 5 5 5 5 3 5 3 5 5 5 5 5 5 5 5 5 5 5 5 5 5 5 5 5 5 5 5 5 3 5 5 5 3 3 5 5 5 5 5 5 3 3 5 3 5 5 5 3 5 5 5 5 5 5 5 5 5 5 5 5 5 5 5 5 3 3 5 3 3 5 5 3 5 5 3 5 5 5 5 5 5 5 5 5 3 5 5 3 5 5 5 5 5 5 3 5 5 5 5 5 3 3 5 5 3 5 3 5 5 5 5 3 5 3 5 5 3 5 5 5 3 5 3 5 5 5 3 5 5 3 5 5 5 3 5 5 5 3 5 3 5 5 5 5 5 3 3 5 3 3 5 5 5 3 5 3 5 5 3 5 5 5 5 5 3 5 5 5 5 5 5 5 5 3 3 5 5 5 3 3 3 5 5 5 5 5 5 3 5 5 5 5 5 5 5 5 5 5 5 5 5 5 5 5 3 5 5 5 5 5 3 5 5 5 5 5 5 5 5 5 5 5 5 5 5 5 5 5 5 5 5 5 5 5 3 5 3 5 5 5 5 3 5 5 5 5 5 5 5 5 5 5 3 5 5 5 5 5 5 5 5 3 5 5 3 5 5 5 5 3 5 3 5 5 5 3 5 3 5 5 3 3 5 5 5 5 5 5 5 5 5 5 5 5 3 3 5 5 5 3 5 5 5 5 3 5 3 5 5 5 5 3 5 5 3 5 5 3 5 3 5 5 3 5 5 3 5 5 5 5 5 3 5 3 5 5 5 3 5 5 5 5 5 5 5 3 5 5 3 5 5 5 5 5 3 5 5 5 5 5 5 5 5 3 5 5 5 5 5 5 5 3 5 5 5 5 5 5 5 5 5 5 5 5 5 5 5 5 5 5 5 5 3 5 5 3 5 5 5 5 5 5 5 5 5 5 5 3 3 5 5 3 5 5 5 5 5 5 5 5 3 5 5 5 5 5 5 5 3 5 5 5 5 3 5 5 3 5 3 5 3 5 5 3 5 3 5 5 5 5 3 5 5 5 5 5 5 5 5 5 5 5 5 5 5 5 5 3 5 5 5 3 5 5 5 5 5 3 5 5 5 5 3 5 5 3 3 5 5 5 3 5 3 5 3 3 5 5 5 5 5 5 3 5 5 5 3 5 5 5 5 5 5 5 5 5 5 5 3 5 5 5 5 5 3 5 3 5 5 5 3 5 3 5 5 5 5 5 5 5 3 5 5 5 3 5 5 5 5 5 5 5 5 5 5 5 5 5 5 5 5 5 5 5 5 5 5 5 5 3 5 5 5 5 5 5 5 5 5 5 5 5 5 5 5 3 5 5 3 5 5 5 5 5 3 5 5 5 5 5 3 5 3 5 5 5 5 3 5 5 3 5 5 5 5 3 5 3 5 5 5 5 3 3 3 5 5 5 5 5 5 5 3 5 5 5 5 5 3 5 5 5 5 5 5 5 5 5 5 3 5 5 5 5 5 5 5 5 5 5 5 5 5 5 5 5 5 5 5 5 5 5 3 3 3 5 5 5 5 5 5 5 3 5 5 5 5 5 3 5 5 5 5 5 5 3 5 5 5 5 3 5 5 5 5 5 5 5 5 5 5 5 5 5 3 5 5 3 5 5 5 5 5 3 5 5 3 3 5 5 5 5 5 5 5 5 5 5 5 5 5 5 5 3 5 5 3 5 5 5 5 5 5 5 5 5 5 3 5 5 5 5 5 5 5 5 5 5 5 5 5 5 5 3 5 5 5 5 5 5 5 3 5 5 5 5 3 5 5 3 5 5 5 5 5 5 5 5 5 5 5 5 5 5 5 5 5 5 5 3 5 5 5 5 3 5 5 5 5 5 5 5 5 5 5 5 5 5 5 3 5 5 5 5 5 5 5 5 5 5 5 5 3 5 5 5 3 5 3 3 5 5 5 5 5 5 3 5 5 5 3 5 3 5 5 5 5 5 5 5 5 3 5 5 5 5 5 3 5 5 5 5 5 5 5 3 5 5 5 3 3 5 5 5 5 5 5 5 5 3 5 5 5 5 5 5 5 5 5 5 5 3 5 5 3 5 5 5 5 5 5 5 5 3 5 5 5 5 5 5 5 5 5 5 5 5 5 5 5 5 5 5 5 5 5 5 5 5 5 5 5 5 5 3 5 5 3 3 5 3 5 5 3 5 5 3 5 5 5 3 5 5 5 5 5 5 5 5 5 5 5 5 5 3 5 5 3 5 3 5 5 5 5 5 5 3 5 5 5 5 3 5 5 5 5 5 3 5 3 5 5 5 5 5 3 3 5 3 5 5 5 5 5 5 5 3 5 5 5 5 5 5 5 5 5 3 5 5 5 5 3 5 5 5 5 5 5 5 5 5 3 5 5 5 5 5 5 5 5 5 5 5 5 5 5 5 5 5 5 5 5 5 5 5 5 5 5 5 5 5 3 5 5 5 5 5 5 5 5 5 3 5 5 3 3 3 5 5 3 5 3 5 5 5 5 5 5 5 5 
</DataArray>
</Cells>
<PointData Scalars="" Vectors="displacement," Tensors="">
<DataArray type="Float64" Name="displacement" NumberOfComponents="3" format="ascii">
0.04999379779411562 0.049999975658040853 0 0.049962333160520615 0.047123959364520976 0 0.049998652253192416 0.043144068481715571 0 0.04999379779411562 0.049999975658040853 0 0.047800379859913887 0.049996874569846007 0 0.049962333160520615 0.047123959364520976 0 0.047800379859913887 0.049996874569846007 0 0.049962333160520615 0.047123959364520976 0 0.051013272344391854 0.048214509704244131 0 0.047788933611322991 0.049999797893843137 0 0.048514221000930544 0.049707852624625903 0 0.049962333160520615 0.047123959364520976 0 0.051111623490123138 0.046376040712936481 0 0.051013272344391854 0.048214509704244131 0 0.049962333160520615 0.047123959364520976 0 0.050654551670384726 0.044541102442262212 0 0.049998652253192416 0.043144068481715571 0 0.049962333160520615 0.047123959364520976 0 0.050654551670384726 0.044541102442262212 0 0.051111623490123138 0.046376040712936481 0 0.052685864616810539 0.04373608203614452 0 0.051825864643490094 0.043267094163288104 0 0.051975948799025312 0.045007709670050064 0 0.052685864616810539 0.04373608203614452 0 0.052560950385669533 0.042782491582393646 0 0.051825864643490094 0.043267094163288104 0 0.053002304200923195 0.044626048260325686 0 0.049964105189453968 0.045441007590547866 0 0.052685864616810539 0.04373608203614452 0 0.052560950385669533 0.042782491582393646 0 0.053582797701872867 0.043655590962854735 0 0.052560950385669533 0.042782491582393646 0 0.052680683305669371 0.042370991645742512 0 0.052117364167559084 0.04192845103882941 0 0.052560950385669533 0.042782491582393646 0 0.053582797701872867 0.043655590962854735 0 0.052680683305669371 0.042370991645742512 0 0.052560950385669533 0.042782491582393646 0 0.051825864643490094 0.043267094163288104 0 0.052117364167559084 0.04192845103882941 0 0.050654551670384726 0.044541102442262212 0 0.051825864643490094 0.043267094163288104 0 0.051397798172704449 0.041900432087896011 0 0.050654551670384726 0.044541102442262212 0 0.051825864643490094 0.043267094163288104 0 0.051975948799025312 0.045007709670050064 0 0.051975948799025312 0.045007709670050064 0 0.052567421772450974 0.046431787918250617 0 0.051111623490123138 0.046376040712936481 0 0.050654551670384726 0.044541102442262212 0 0.051975948799025312 0.045007709670050064 0 0.051111623490123138 0.046376040712936481 0 0.052685864616810539 0.04373608203614452 0 0.051975948799025312 0.045007709670050064 0 0.053813907461523272 0.044713625459336145 0 0.051975948799025312 0.045007709670050064 0 0.052567421772450974 0.046431787918250617 0 0.053813907461523272 0.044713625459336145 0 0.048898640619843788 0.04917020393090181 0 0.046745055744613913 0.049473681975960526 0 0.04466822316132639 0.052299197045301039 0 0.044213219334098247 0.051137739047904043 0 0.043057992194248836 0.051716466301033 0 0.04466822316132639 0.052299197045301039 0 0.046183972206960223 0.051271685778522036 0 0.044213219334098247 0.051137739047904043 0 0.052567421772450974 0.046431787918250617 0 0.051111623490123138 0.046376040712936481 0 0.051013272344391854 0.048214509704244131 0 0.048898640619843788 0.04917020393090181 0 0.048514221000930544 0.049707852624625903 0 0.047788337315355187 0.050000006237033164 0 0.046183972206960223 0.051271685778522036 0 0.045079086494000387 0.049999793634099572 0 0.045079086494000387 0.049999793634099572 0 0.044213219334098247 0.051137739047904043 0 0.042370844575945171 0.049995377992287128 0 0.046183972206960223 0.051271685778522036 0 0.045079086494000387 0.049999793634099572 0 0.044213219334098247 0.051137739047904043 0 0.042370240410839005 0.049995535764402584 0 0.041988472961223516 0.050863818380681824 0 0.042682350370882284 0.051793283900336586 0 0.044213219334098247 0.051137739047904043 0 0.042370844575945171 0.049995377992287128 0 0.043057992194248836 0.051716466301033 0 0.042370284499217599 0.049995090469367016 0 0.042691722191359263 0.052337149166266708 0 0.041988472961223516 0.050863818380681824 0 0.04166219211775897 0.051745998805721574 0 0.040963756335320706 0.051234571452840882 0 0.041832847360459988 0.05091143572888375 0 0.040656068571585158 0.051259415750044182 0 0.041988472961223516 0.050863818380681824 0 0.040374029639636898 0.049999884229047255 0 0.040328371972359243 0.051329843321181602 0 0.042370240410839005 0.049995535764402584 0 0.041988472961223516 0.050863818380681824 0 0.040374029639636898 0.049999884229047255 0 0.04166219211775897 0.051745998805721574 0 0.040963756335320706 0.051234571452840882 0 0.040955234301133472 0.052320756136217152 0 0.041988472961223516 0.050863818380681824 0 0.04166219211775897 0.051745998805721574 0 0.042682350370882284 0.051793283900336586 0 0.042682350370882284 0.051793283900336586 0 0.042271904988853297 0.052928146704913859 0 0.04180105636669583 0.052496294662865914 0 0.04166219211775897 0.051745998805721574 0 0.040955234301133472 0.052320756136217152 0 0.04180105636669583 0.052496294662865914 0 0.04166219211775897 0.051745998805721574 0 0.042682350370882284 0.051793283900336586 0 0.04180105636669583 0.052496294662865914 0 0.04466822316132639 0.052299197045301039 0 0.043057992194248836 0.051716466301033 0 0.043476017120180455 0.053122492395255287 0 0.038378346898102239 0.049999530026907567 0 0.039463777021048828 0.050732970308603451 0 0.038839392576474625 0.051541773969089912 0 0.03837782902000509 0.049999700980228677 0 0.039707916507776275 0.051963495790318739 0 0.038377030325295818 0.04999990239344354 0 0.038413860864751202 0.051628263909837047 0 0.036828698697944362 0.050754023707492268 0 0.038378346898102239 0.049999530026907567 0 0.039463777021048828 0.050732970308603451 0 0.040374029639636898 0.049999884229047255 0 0.039463777021048828 0.050732970308603451 0 0.040328371972359243 0.051329843321181602 0 0.038839392576474625 0.051541773969089912 0 0.039463777021048828 0.050732970308603451 0 0.040374029639636898 0.049999884229047255 0 0.040328371972359243 0.051329843321181602 0 0.040656068571585158 0.051259415750044182 0 0.039707916507776275 0.051963495790318739 0 0.040963756335320706 0.051234571452840882 0 0.040955234301133472 0.052320756136217152 0 0.039899839290083873 0.051513573894557151 0 0.041447731417645128 0.051167459989331567 0 0.040746898543929475 0.052061742500765111 0 0.039610290706678521 0.051624900081109662 0 0.041447731417645128 0.051167459989331567 0 0.040746898543929475 0.052061742500765111 0 0.041857094561727828 0.05305659711026646 0 0.040746898543929475 0.052061742500765111 0 0.041857094561727828 0.05305659711026646 0 0.039888420790781108 0.052828402319543534 0 0.043317617413803411 0.049951029116240643 0 0.041239928295455489 0.048985784585818072 0 0.039707916507776275 0.051963495790318739 0 0.043317617413803411 0.049951029116240643 0 0.040955234301133472 0.052320756136217152 0 0.039899839290083873 0.051513573894557151 0 0.040294731369763928 0.053344651616872144 0 0.040955234301133472 0.052320756136217152 0 0.040294731369763928 0.053344651616872144 0 0.041386333218397998 0.053498152761650201 0 0.046739250123052196 0.041911694520598321 0 0.048094276471903584 0.043490662442550031 0 0.043317617413803411 0.049951029116240643 0 0.042963896505492295 0.049547630985724699 0 0.044674788091344474 0.045711706502605788 0 0.044742788217083954 0.045995030746193641 0 0.045216930503030987 0.045760466971552768 0 0.043317617413803411 0.049951029116240643 0 0.046739250123052196 0.041911694520598321 0 0.049009029116373677 0.037130271635843808 0 0.045008049568703454 0.036471722769305465 0 0.045618514921829285 0.039221893376583106 0 0.045166290563576558 0.04537778749434869 0 0.042791643195320063 0.045180012059935049 0 0.042925117085433818 0.045728706146004036 0 0.045166290563576558 0.04537778749434869 0 0.043930448633730038 0.0458886773704116 0 0.042925117085433818 0.045728706146004036 0 0.045166290563576558 0.04537778749434869 0 0.045324531575321791 0.046108902656629626 0 0.043930448633730038 0.0458886773704116 0 0.046739250123052196 0.041911694520598321 0 0.045257808521649547 0.040002778238155783 0 0.045257808521649547 0.040002778238155783 0 0.047742411735698397 0.037554490883281368 0 0.045698384010174724 0.037755516969792298 0 0.045728558861583411 0.037682644711218134 0 0.045760735992956977 0.037822212318174876 0 0.046603319432883553 0.037223399094236269 0 0.047742411735698397 0.037554490883281368 0 0.042682350370882284 0.051793283900336586 0 0.042999166931484069 0.053220112614110991 0 0.042271904988853297 0.052928146704913859 0 0.042691722191359263 0.052337149166266708 0 0.046745055744613913 0.049473681975960526 0 0.042999166931484069 0.053220112614110991 0 0.042271904988853297 0.052928146704913859 0 0.042495417807265602 0.053627883479434112 0 0.046745055744613913 0.049473681975960526 0 0.045694921490132413 0.047560167519558078 0 0.046745055744613913 0.049473681975960526 0 0.049964105189453968 0.045441007590547866 0 0.042271904988853297 0.052928146704913859 0 0.041386333218397998 0.053498152761650201 0 0.042495417807265602 0.053627883479434112 0 0.040955234301133472 0.052320756136217152 0 0.04180105636669583 0.052496294662865914 0 0.041386333218397998 0.053498152761650201 0 0.042271904988853297 0.052928146704913859 0 0.04180105636669583 0.052496294662865914 0 0.041386333218397998 0.053498152761650201 0 0.045216930503030987 0.045760466971552768 0 0.045419704746942215 0.046109880533808191 0 0.045752490967148923 0.045813065015475982 0 0.044742788217083954 0.045995030746193641 0 0.045216930503030987 0.045760466971552768 0 0.045419704746942215 0.046109880533808191 0 0.048094276471903584 0.043490662442550031 0 0.045694921490132413 0.047560167519558078 0 0.042963896505492295 0.049547630985724699 0 0.045694921490132413 0.047560167519558078 0 0.049840178442441083 0.039567561788174395 0 0.050603706074205765 0.039788975840612494 0 0.050477332801605226 0.040138224718692994 0 0.050603706074205765 0.039788975840612494 0 0.051488738541460306 0.041158587698951754 0 0.050827184431826981 0.040155963537998073 0 0.048094276471903584 0.043490662442550031 0 0.051187172403714058 0.042389922938821017 0 0.048166811590295379 0.04452667546900739 0 0.048597435374775275 0.044134475218461616 0 0.049090210270706647 0.044663516884384184 0 0.045694921490132413 0.047560167519558078 0 0.049964105189453968 0.045441007590547866 0 0.048597435374775275 0.044134475218461616 0 0.048977331076413035 0.044160707323935643 0 0.049090210270706647 0.044663516884384184 0 0.052685864616810539 0.04373608203614452 0 0.053813907461523272 0.044713625459336145 0 0.053565830400474551 0.043889409125762148 0 0.047647533299261795 0.046992570662508913 0 0.047350593635152406 0.047258896359617525 0 0.047712091099463977 0.047283737738081644 0 0.049964105189453968 0.045441007590547866 0 0.051187172403714058 0.042389922938821017 0 0.051488738541460306 0.041158587698951754 0 0.051131565082082164 0.040452194380199959 0 0.051730852289011024 0.040700931820747029 0 0.051488738541460306 0.041158587698951754 0 0.051131565082082164 0.040452194380199959 0 0.050827184431826981 0.040155963537998073 0 0.051131565082082164 0.040452194380199959 0 0.051089651732283449 0.04034137929905679 0 0.051730852289011024 0.040700931820747029 0 0.051131565082082164 0.040452194380199959 0 0.050477332801605226 0.040138224718692994 0 0.051089651732283449 0.04034137929905679 0 0.050603706074205765 0.039788975840612494 0 0.050827184431826981 0.040155963537998073 0 0.050477332801605226 0.040138224718692994 0 0.051131565082082164 0.040452194380199959 0 0.050827184431826981 0.040155963537998073 0 0.050477332801605226 0.040138224718692994 0 0.052345773553788041 0.037629251042077323 0 0.052047992158058297 0.037045181859989812 0 0.05180092821217562 0.037311610714026472 0 0.050477332801605226 0.040138224718692994 0 0.050530489828355493 0.040041111929396737 0 0.051089651732283449 0.04034137929905679 0 0.051392948554036852 0.038685415552126935 0 0.050870505975164883 0.039163901422713976 0 0.052345773553788041 0.037629251042077323 0 0.052128583887365194 0.036967565762169863 0 0.052047992158058297 0.037045181859989812 0 0.050477332801605226 0.040138224718692994 0 0.050530489828355493 0.040041111929396737 0 0.049861017979706414 0.040048446514165538 0 0.051089651732283449 0.04034137929905679 0 0.051730852289011024 0.040700931820747029 0 0.051519884882248297 0.040208040952940789 0 0.050530489828355493 0.040041111929396737 0 0.051089651732283449 0.04034137929905679 0 0.051519884882248297 0.040208040952940789 0 0.045785635912867696 0.037788680912959373 0 0.045854971845644632 0.038247355020313435 0 0.045683276534944965 0.038003104664444301 0 0.047742411735698397 0.037554490883281368 0 0.050870505975164883 0.039163901422713976 0 0.051434957240509074 0.036510169224396677 0 0.051751690534886936 0.03693872816774961 0 0.051609771603119005 0.03694410127924648 0 0.047742411735698397 0.037554490883281368 0 0.048780269553040254 0.03753368211513438 0 0.045785635912867696 0.037788680912959373 0 0.045683276534944965 0.038003104664444301 0 0.045647432902856319 0.037849381502846488 0 0.045698384010174724 0.037755516969792298 0 0.045785635912867696 0.037788680912959373 0 0.045647432902856319 0.037849381502846488 0 0.051434957240509074 0.036510169224396677 0 0.05199890190458567 0.036993931547092102 0 0.051751690534886936 0.03693872816774961 0 0.049009029116373677 0.037130271635843808 0 0.045618514921829285 0.039221893376583106 0 0.050137088798306292 0.042598984237687237 0 0.049840178442441083 0.039567561788174395 0 0.050477332801605226 0.040138224718692994 0 0.049861017979706414 0.040048446514165538 0 0.046739250123052196 0.041911694520598321 0 0.050870505975164883 0.039163901422713976 0 0.052047992158058297 0.037045181859989812 0 0.051726297054158613 0.037106082747881658 0 0.05180092821217562 0.037311610714026472 0 0.050870505975164883 0.039163901422713976 0 0.050892681268835525 0.038686996189477324 0 0.051726297054158613 0.037106082747881658 0 0.051751690534886936 0.03693872816774961 0 0.051609771603119005 0.03694410127924648 0 0.05199890190458567 0.036993931547092102 0 0.052047992158058297 0.037045181859989812 0 0.051751690534886936 0.03693872816774961 0 0.052047992158058297 0.037045181859989812 0 0.051726297054158613 0.037106082747881658 0 0.051751690534886936 0.03693872816774961 0 0.045854971845644632 0.038247355020313435 0 0.045683276534944965 0.038003104664444301 0 0.045677780506927473 0.03805977950249418 0 0.045863289336004892 0.038271308574223201 0 0.045746228433743714 0.038010506616005593 0 0.045677780506927473 0.03805977950249418 0 0.048780269553040254 0.03753368211513438 0 0.048536543833204077 0.037694499056918955 0 0.045854971845644632 0.038247355020313435 0 0.045863289336004892 0.038271308574223201 0 0.045677780506927473 0.03805977950249418 0 0.051726297054158613 0.037106082747881658 0 0.051609771603119005 0.03694410127924648 0 0.051235266796629424 0.037055629166581852 0 0.051726297054158613 0.037106082747881658 0 0.05180092821217562 0.037311610714026472 0 0.051235266796629424 0.037055629166581852 0 0.05180092821217562 0.037311610714026472 0 0.051235266796629424 0.037055629166581852 0 0.051573601396834777 0.037378261419091417 0 0.048536543833204077 0.037694499056918955 0 0.048184012493493328 0.03774250539842898 0 0.051235266796629424 0.037055629166581852 0 0.051573601396834777 0.037378261419091417 0 0.050210376052624607 0.037081242444909797 0 0.045863289336004892 0.038271308574223201 0 0.045746228433743714 0.038010506616005593 0 0.046125641443580764 0.038006425090415519 0 0.050530489828355493 0.040041111929396737 0 0.051097108454905123 0.039479513323639512 0 0.051519884882248297 0.040208040952940789 0 0.052345773553788041 0.037629251042077323 0 0.051573601396834777 0.037378261419091417 0 0.052315863477697212 0.037809882249402578 0 0.051392948554036852 0.038685415552126935 0 0.05166780065572539 0.038617581550586248 0 0.052345773553788041 0.037629251042077323 0 0.05180092821217562 0.037311610714026472 0 0.051573601396834777 0.037378261419091417 0 0.051573601396834777 0.037378261419091417 0 0.051604589988399584 0.03746954416145825 0 0.050791308146089439 0.037381453329325506 0 0.051604589988399584 0.03746954416145825 0 0.052315863477697212 0.037809882249402578 0 0.051622275703150852 0.037472748812323264 0 0.051573601396834777 0.037378261419091417 0 0.051604589988399584 0.03746954416145825 0 0.052315863477697212 0.037809882249402578 0 0.052315863477697212 0.037809882249402578 0 0.051901170301102237 0.037516627330105141 0 0.051622275703150852 0.037472748812323264 0 0.052315863477697212 0.037809882249402578 0 0.051950714926175645 0.037772122227926322 0 0.051901170301102237 0.037516627330105141 0 0.051097108454905123 0.039479513323639512 0 0.051385935108987021 0.039480746074689807 0 0.051436446656132846 0.038433020656839498 0 0.05166780065572539 0.038617581550586248 0 0.05164587938120601 0.038036199972627756 0 0.051097108454905123 0.039479513323639512 0 0.051385935108987021 0.039480746074689807 0 0.051519884882248297 0.040208040952940789 0 0.051385935108987021 0.039480746074689807 0 0.051007604243602872 0.039042408998456568 0 0.051265281338417991 0.040443028741661752 0 0.051385935108987021 0.039480746074689807 0 0.051519884882248297 0.040208040952940789 0 0.051265281338417991 0.040443028741661752 0 0.051385935108987021 0.039480746074689807 0 0.051436446656132846 0.038433020656839498 0 0.051007604243602872 0.039042408998456568 0 0.051007604243602872 0.039042408998456568 0 0.049999039328227197 0.038246513495153248 0 0.049998652253192416 0.043144068481715571 0 0.051436446656132846 0.038433020656839498 0 0.051007604243602872 0.039042408998456568 0 0.05122093061445078 0.036845118416229443 0 0.051007604243602872 0.039042408998456568 0 0.049999039328227197 0.038246513495153248 0 0.05122093061445078 0.036845118416229443 0 0.049998652253192416 0.043144068481715571 0 0.051397798172704449 0.041900432087896011 0 0.051265281338417991 0.040443028741661752 0 0.051007604243602872 0.039042408998456568 0 0.049998652253192416 0.043144068481715571 0 0.051265281338417991 0.040443028741661752 0 0.050654551670384726 0.044541102442262212 0 0.049998652253192416 0.043144068481715571 0 0.051397798172704449 0.041900432087896011 0 0.051825864643490094 0.043267094163288104 0 0.051397798172704449 0.041900432087896011 0 0.052117364167559084 0.04192845103882941 0 0.051397798172704449 0.041900432087896011 0 0.052117364167559084 0.04192845103882941 0 0.051730852289011024 0.040700931820747029 0 0.052912091531345101 0.040867652927949957 0 0.052117364167559084 0.04192845103882941 0 0.051730852289011024 0.040700931820747029 0 0.051187172403714058 0.042389922938821017 0 0.052214464103215383 0.042085186994153291 0 0.051187172403714058 0.042389922938821017 0 0.051730055730245542 0.040594509546787644 0 0.051397798172704449 0.041900432087896011 0 0.051730852289011024 0.040700931820747029 0 0.051519884882248297 0.040208040952940789 0 0.051397798172704449 0.041900432087896011 0 0.051519884882248297 0.040208040952940789 0 0.051265281338417991 0.040443028741661752 0 0.028688422084877818 0.040085086486376841 0 0.02712186876355261 0.040804931145738604 0 0.027221277424382639 0.039131796685292562 0 0.028688422084877818 0.040085086486376841 0 0.028587363586382739 0.039624329700492081 0 0.027221277424382639 0.039131796685292562 0 0.028688422084877818 0.040085086486376841 0 0.028778775303779005 0.040355271799966799 0 0.028587363586382739 0.039624329700492081 0 0.027463591103629698 0.040892106422369699 0 0.035552319851495082 0.040140210541428516 0 0.028688422084877818 0.040085086486376841 0 0.029976151132331454 0.039668287733567592 0 0.029926291057235498 0.04113778629419864 0 0.02860920804104054 0.040854350518059274 0 0.028778775303779005 0.040355271799966799 0 0.028907779315467872 0.040697325026727384 0 0.028688422084877818 0.040085086486376841 0 0.02860920804104054 0.040854350518059274 0 0.028778775303779005 0.040355271799966799 0 0.035552319851495082 0.040140210541428516 0 0.031857728955043227 0.041951316293318622 0 0.04221361153294232 0.037687696969949593 0 0.041831502136636223 0.045971200180257736 0 0.038883010151952821 0.043265976331425621 0 0.028907779315467872 0.040697325026727384 0 0.028587363586382739 0.039624329700492081 0 0.029445255863903667 0.041773697501271724 0 0.02860920804104054 0.040854350518059274 0 0.028907779315467872 0.040697325026727384 0 0.029445255863903667 0.041773697501271724 0 0.028587363586382739 0.039624329700492081 0 0.028482144827368196 0.039914344754505032 0 0.028305547661859342 0.040193994666142242 0 0.027638532841569325 0.039917458332089019 0 0.031857728955043227 0.041951316293318622 0 0.028587363586382739 0.039624329700492081 0 0.028820713491213821 0.039177169102472938 0 0.027221277424382639 0.039131796685292562 0 0.028587363586382739 0.039624329700492081 0 0.028820713491213821 0.039177169102472938 0 0.028482144827368196 0.039914344754505032 0 0.028778775303779005 0.040355271799966799 0 0.028907779315467872 0.040697325026727384 0 0.028587363586382739 0.039624329700492081 0 0.024527243677394572 0.036640596784552712 0 0.026701068989473102 0.04280311334013092 0 0.027481800312646788 0.037949302012606025 0 0.027193665130383654 0.038306188897960593 0 0.027291706485303494 0.038616193777627789 0 0.024527243677394572 0.036640596784552712 0 0.028435009040134948 0.038645553643050071 0 0.028820713491213821 0.039177169102472938 0 0.028529808513232644 0.040093535292174833 0 0.028482144827368196 0.039914344754505032 0 0.026104505877287108 0.050681916199123503 0 0.026586932983404019 0.050000012502524054 0 0.023960585420256517 0.049999841688992595 0 0.02416749225293853 0.038840374102031033 0 0.026506493112095644 0.03592409169448145 0 0.023121361661688426 0.035679223594587188 0 0.026701068989473102 0.04280311334013092 0 0.02658477550830772 0.049998337242747139 0 0.027759770403640908 0.050727102769482814 0 0.026587242291469627 0.049999879766188124 0 0.028600191439927817 0.050000176867088533 0 0.026701068989473102 0.04280311334013092 0 0.027769851119874435 0.04457680881583935 0 0.026279073773928994 0.050660827419190077 0 0.027759770403640908 0.050727102769482814 0 0.026587242291469627 0.049999879766188124 0 0.027193665130383654 0.038306188897960593 0 0.027291706485303494 0.038616193777627789 0 0.026895866739932651 0.038661334045918816 0 0.028435009040134948 0.038645553643050071 0 0.027769851119874435 0.04457680881583935 0 0.028529808513232644 0.040093535292174833 0 0.02871217574434505 0.040072081071115866 0 0.028479243444774194 0.040200234787936703 0 0.028529808513232644 0.040093535292174833 0 0.028482144827368196 0.039914344754505032 0 0.028479243444774194 0.040200234787936703 0 0.028482144827368196 0.039914344754505032 0 0.028479243444774194 0.040200234787936703 0 0.028305547661859342 0.040193994666142242 0 0.031490496367507614 0.041322829076536803 0 0.031857728955043227 0.041951316293318622 0 0.02871217574434505 0.040072081071115866 0 0.028479243444774194 0.040200234787936703 0 0.029006529584117622 0.040389680538306882 0 0.041831502136636223 0.045971200180257736 0 0.03689952564920531 0.045984075987672401 0 0.037900333446016489 0.049134652260759054 0 0.031857728955043227 0.041951316293318622 0 0.033944855051092605 0.044283491487797956 0 0.028479243444774194 0.040200234787936703 0 0.028452301115115233 0.040199762063114791 0 0.029006529584117622 0.040389680538306882 0 0.027769851119874435 0.04457680881583935 0 0.031325463685958288 0.047111174981948049 0 0.02767324270238445 0.050629797834536985 0 0.028599714706785098 0.049999555604277698 0 0.030499443176178434 0.050724119583226909 0 0.02871217574434505 0.040072081071115866 0 0.029006529584117622 0.040389680538306882 0 0.029589172583274977 0.040338254697994985 0 0.027769851119874435 0.04457680881583935 0 0.028597446274542759 0.049999074277361194 0 0.028599714706785098 0.049999555604277698 0 0.030499443176178434 0.050724119583226909 0 0.031594570842656697 0.050000200136951369 0 0.032830095524566928 0.050346403143690086 0 0.032556146436674566 0.050278259996432602 0 0.031599816919811924 0.050000297707610587 0 0.031325463685958288 0.047111174981948049 0 0.032901942884835993 0.048560403691336199 0 0.031325463685958288 0.047111174981948049 0 0.031593643447209552 0.049999731369306029 0 0.033944855051092605 0.044283491487797956 0 0.031325463685958288 0.047111174981948049 0 0.037900333446016489 0.049134652260759054 0 0.034521820606688243 0.050756778655004747 0 0.035333418687455653 0.048485947021349882 0 0.034521820606688243 0.050756778655004747 0 0.033616728065982808 0.049264185657396209 0 0.035333418687455653 0.048485947021349882 0 0.034521820606688243 0.050756778655004747 0 0.033616728065982808 0.049264185657396209 0 0.032556146436674566 0.050278259996432602 0 0.033616728065982808 0.049264185657396209 0 0.035333418687455653 0.048485947021349882 0 0.033997094876348291 0.048198282903153644 0 0.03689952564920531 0.045984075987672401 0 0.037900333446016489 0.049134652260759054 0 0.035333418687455653 0.048485947021349882 0 0.03689952564920531 0.045984075987672401 0 0.034837802841471498 0.047081729371865819 0 0.034616888856454191 0.046061836883669875 0 0.03689952564920531 0.045984075987672401 0 0.035333418687455653 0.048485947021349882 0 0.034837802841471498 0.047081729371865819 0 0.035333418687455653 0.048485947021349882 0 0.034837802841471498 0.047081729371865819 0 0.033997094876348291 0.048198282903153644 0 0.034837802841471498 0.047081729371865819 0 0.033997094876348291 0.048198282903153644 0 0.033557097383162336 0.047474744279984958 0 0.034616888856454191 0.046061836883669875 0 0.035821329701790527 0.043826120295029664 0 0.032889247291911172 0.046720646939295035 0 0.034177361988040771 0.043470383560426255 0 0.037075200622189754 0.040914313431850535 0 0.033845417054541839 0.043549655711489395 0 0.034177361988040771 0.043470383560426255 0 0.035821329701790527 0.043826120295029664 0 0.037075200622189754 0.040914313431850535 0 0.035006787564106329 0.044289512783841849 0 0.035182795840734082 0.046742915857745572 0 0.034177361988040771 0.043470383560426255 0 0.035821329701790527 0.043826120295029664 0 0.033110807680150775 0.043727747317179898 0 0.039769863006028118 0.040057745060044517 0 0.03700055677097519 0.043523074470906857 0 0.034837802841471498 0.047081729371865819 0 0.034616888856454191 0.046061836883669875 0 0.033557097383162336 0.047474744279984958 0 0.036591490353038304 0.043475025624047606 0 0.03700055677097519 0.043523074470906857 0 0.03689952564920531 0.045984075987672401 0 0.034616888856454191 0.046061836883669875 0 0.035821329701790527 0.043826120295029664 0 0.041831502136636223 0.045971200180257736 0 0.03689952564920531 0.045984075987672401 0 0.038883010151952821 0.043265976331425621 0 0.03689952564920531 0.045984075987672401 0 0.035821329701790527 0.043826120295029664 0 0.038883010151952821 0.043265976331425621 0 0.035821329701790527 0.043826120295029664 0 0.038883010151952821 0.043265976331425621 0 0.037075200622189754 0.040914313431850535 0 0.039712313570748996 0.040088638978284477 0 0.040049738443322311 0.040031290539384555 0 0.039865527881589397 0.040274160258678561 0 0.04221361153294232 0.037687696969949593 0 0.038883010151952821 0.043265976331425621 0 0.037075200622189754 0.040914313431850535 0 0.040049738443322311 0.040031290539384555 0 0.040223632577296373 0.040218300469084568 0 0.039865527881589397 0.040274160258678561 0 0.035552319851495082 0.040140210541428516 0 0.039769863006028118 0.040057745060044517 0 0.040049738443322311 0.040031290539384555 0 0.040223632577296373 0.040218300469084568 0 0.040288293490459703 0.040001362381280811 0 0.040223632577296373 0.040218300469084568 0 0.04046965774396441 0.040184579270479026 0 0.040288293490459703 0.040001362381280811 0 0.04046965774396441 0.040184579270479026 0 0.040671827209966795 0.040069834766139477 0 0.040288293490459703 0.040001362381280811 0 0.040223632577296373 0.040218300469084568 0 0.04046965774396441 0.040184579270479026 0 0.04043568575126609 0.040374262350618792 0 0.04046965774396441 0.040184579270479026 0 0.040728251537997799 0.040252842979801341 0 0.04043568575126609 0.040374262350618792 0 0.04046965774396441 0.040184579270479026 0 0.040728251537997799 0.040252842979801341 0 0.040671827209966795 0.040069834766139477 0 0.04241880450169333 0.038597946023178141 0 0.04156563467546269 0.042044526740194495 0 0.039568945241315823 0.052569371120038122 0 0.039152726101592747 0.051144209208671611 0 0.03553794439609799 0.052171159876216393 0 0.041162967795661698 0.045435413208810976 0 0.040911548460264575 0.044580026847677257 0 0.036971272377518738 0.04427763152494462 0 0.039822714117033212 0.048152658419495176 0 0.035182795840734082 0.046742915857745572 0 0.04156563467546269 0.042044526740194495 0 0.039822714117033212 0.048152658419495176 0 0.039822714117033212 0.048152658419495176 0 0.03609119343672041 0.050607361639539973 0 0.033005330039503206 0.049656643100275524 0 0.032926282957349423 0.048490611411534906 0 0.033089627976167241 0.049532859551718836 0 0.03609119343672041 0.050607361639539973 0 0.034630043084171808 0.04931172539103186 0 0.041162967795661698 0.045435413208810976 0 0.035885683308887625 0.044612396779535442 0 0.036971272377518738 0.04427763152494462 0 0.033005330039503206 0.049656643100275524 0 0.032889247291911172 0.046720646939295035 0 0.032926282957349423 0.048490611411534906 0 0.04156563467546269 0.042044526740194495 0 0.03700055677097519 0.043523074470906857 0 0.03609119343672041 0.050607361639539973 0 0.035182795840734082 0.046742915857745572 0 0.034177361988040771 0.043470383560426255 0 0.033864244284427816 0.043426079255026437 0 0.033110807680150775 0.043727747317179898 0 0.03700055677097519 0.043523074470906857 0 0.035182795840734082 0.046742915857745572 0 0.032889247291911172 0.046720646939295035 0 0.033557097383162336 0.047474744279984958 0 0.032926282957349423 0.048490611411534906 0 0.034616888856454191 0.046061836883669875 0 0.032889247291911172 0.046720646939295035 0 0.033557097383162336 0.047474744279984958 0 0.033557097383162336 0.047474744279984958 0 0.033229595807386443 0.048612929282717314 0 0.032926282957349423 0.048490611411534906 0 0.033997094876348291 0.048198282903153644 0 0.033557097383162336 0.047474744279984958 0 0.033229595807386443 0.048612929282717314 0 0.033229595807386443 0.048612929282717314 0 0.032926282957349423 0.048490611411534906 0 0.032935391177898003 0.049327423901358691 0 0.032935391177898003 0.049327423901358691 0 0.032848987477665306 0.049656726220402826 0 0.032970202990869078 0.049968486316482076 0 0.033229595807386443 0.048612929282717314 0 0.032935391177898003 0.049327423901358691 0 0.032848987477665306 0.049656726220402826 0 0.033616728065982808 0.049264185657396209 0 0.033229595807386443 0.048612929282717314 0 0.032848987477665306 0.049656726220402826 0 0.033616728065982808 0.049264185657396209 0 0.033997094876348291 0.048198282903153644 0 0.033229595807386443 0.048612929282717314 0 0.033616728065982808 0.049264185657396209 0 0.032848987477665306 0.049656726220402826 0 0.032556146436674566 0.050278259996432602 0 0.032848987477665306 0.049656726220402826 0 0.032578709838201901 0.050130912226846937 0 0.032556146436674566 0.050278259996432602 0 0.032578709838201901 0.050130912226846937 0 0.031599816919811924 0.050000297707610587 0 0.033854222244705828 0.049998777316372284 0 0.032848987477665306 0.049656726220402826 0 0.032578709838201901 0.050130912226846937 0 0.032970202990869078 0.049968486316482076 0 0.032578709838201901 0.050130912226846937 0 0.032556146436674566 0.050278259996432602 0 0.031599816919811924 0.050000297707610587 0 0.033854222244705828 0.049998777316372284 0 0.032970202990869078 0.049968486316482076 0 0.03416764191519539 0.050301170095316282 0 0.032578709838201901 0.050130912226846937 0 0.033854222244705828 0.049998777316372284 0 0.032970202990869078 0.049968486316482076 0 0.032970202990869078 0.049968486316482076 0 0.033232993079386292 0.049791048656851529 0 0.03416764191519539 0.050301170095316282 0 0.033119516476872807 0.04962383850097736 0 0.033089627976167241 0.049532859551718836 0 0.03416764191519539 0.050301170095316282 0 0.033232993079386292 0.049791048656851529 0 0.033089627976167241 0.049532859551718836 0 0.03416764191519539 0.050301170095316282 0 0.032935391177898003 0.049327423901358691 0 0.032970202990869078 0.049968486316482076 0 0.033232993079386292 0.049791048656851529 0 0.032935391177898003 0.049327423901358691 0 0.033232993079386292 0.049791048656851529 0 0.033089627976167241 0.049532859551718836 0 0.032926282957349423 0.048490611411534906 0 0.032935391177898003 0.049327423901358691 0 0.033089627976167241 0.049532859551718836 0 0.033119516476872807 0.04962383850097736 0 0.03416764191519539 0.050301170095316282 0 0.035603141472480358 0.051444304227057175 0 0.033854222244705828 0.049998777316372284 0 0.03416764191519539 0.050301170095316282 0 0.036116504054233195 0.049999424449580943 0 0.03416764191519539 0.050301170095316282 0 0.036828698697944362 0.050754023707492268 0 0.036116504054233195 0.049999424449580943 0 0.038377030325295818 0.04999990239344354 0 0.036828698697944362 0.050754023707492268 0 0.036116504054233195 0.049999424449580943 0 0.039707916507776275 0.051963495790318739 0 0.037616360837673529 0.051407549516423283 0 0.03416764191519539 0.050301170095316282 0 0.036828698697944362 0.050754023707492268 0 0.035603141472480358 0.051444304227057175 0 0.038413860864751202 0.051628263909837047 0 0.036828698697944362 0.050754023707492268 0 0.035603141472480358 0.051444304227057175 0 0.040746898543929475 0.052061742500765111 0 0.039610290706678521 0.051624900081109662 0 0.039888420790781108 0.052828402319543534 0 0.03609119343672041 0.050607361639539973 0 0.037616360837673529 0.051407549516423283 0 0.039822714117033212 0.048152658419495176 0 0.041239928295455489 0.048985784585818072 0 0.037887544593059957 0.052550444131257 0 0.039610290706678521 0.051624900081109662 0 0.039888420790781108 0.052828402319543534 0 0.040502786175656634 0.045357293525173738 0 0.040394670789179014 0.044997747205596392 0 0.042791643195320063 0.045180012059935049 0 0.037887544593059957 0.052550444131257 0 0.037739360002041006 0.052058831456628263 0 0.039610290706678521 0.051624900081109662 0 0.04156563467546269 0.042044526740194495 0 0.044606269149157635 0.04141083146218788 0 0.04507917164726636 0.037579501405314714 0 0.045392436269124772 0.03769528646683027 0 0.04557396780481611 0.0376329955250293 0 0.040502786175656634 0.045357293525173738 0 0.042791643195320063 0.045180012059935049 0 0.042925117085433818 0.045728706146004036 0 0.045144012136053666 0.037815338585361909 0 0.04507917164726636 0.037579501405314714 0 0.045392436269124772 0.03769528646683027 0 0.045317334735872405 0.037682042065334313 0 0.045392436269124772 0.03769528646683027 0 0.045427920305744621 0.037766720773262298 0 0.04241880450169333 0.038597946023178141 0 0.046014007543372225 0.037396862822435949 0 0.045392436269124772 0.03769528646683027 0 0.04557396780481611 0.0376329955250293 0 0.045532578566860639 0.037769951135021483 0 0.045698384010174724 0.037755516969792298 0 0.045728558861583411 0.037682644711218134 0 0.04557396780481611 0.0376329955250293 0 0.045698384010174724 0.037755516969792298 0 0.04557396780481611 0.0376329955250293 0 0.045532578566860639 0.037769951135021483 0 0.045257808521649547 0.040002778238155783 0 0.044606269149157635 0.04141083146218788 0 0.045683276534944965 0.038003104664444301 0 0.045547515063011593 0.037882530611261907 0 0.045647432902856319 0.037849381502846488 0 0.045547515063011593 0.037882530611261907 0 0.045647432902856319 0.037849381502846488 0 0.045532578566860639 0.037769951135021483 0 0.045698384010174724 0.037755516969792298 0 0.045647432902856319 0.037849381502846488 0 0.045532578566860639 0.037769951135021483 0 0.045547515063011593 0.037882530611261907 0 0.045532578566860639 0.037769951135021483 0 0.045427920305744621 0.037766720773262298 0 0.045392436269124772 0.03769528646683027 0 0.045532578566860639 0.037769951135021483 0 0.045427920305744621 0.037766720773262298 0 0.045547515063011593 0.037882530611261907 0 0.045427920305744621 0.037766720773262298 0 0.045404989027831341 0.03779310756729666 0 0.04241880450169333 0.038597946023178141 0 0.042881953632371246 0.038583807003350262 0 0.045317334735872405 0.037682042065334313 0 0.045427920305744621 0.037766720773262298 0 0.045404989027831341 0.03779310756729666 0 0.045547515063011593 0.037882530611261907 0 0.045404989027831341 0.03779310756729666 0 0.045677780506927473 0.03805977950249418 0 0.045683276534944965 0.038003104664444301 0 0.045547515063011593 0.037882530611261907 0 0.045677780506927473 0.03805977950249418 0 0.045404989027831341 0.03779310756729666 0 0.045677780506927473 0.03805977950249418 0 0.045535289531219394 0.037855715107302186 0 0.045746228433743714 0.038010506616005593 0 0.045677780506927473 0.03805977950249418 0 0.045535289531219394 0.037855715107302186 0 0.042870128542407647 0.038301041940739314 0 0.042954538751532226 0.040146257449931791 0 0.045746228433743714 0.038010506616005593 0 0.045535289531219394 0.037855715107302186 0 0.045499654213770127 0.037946306816095295 0 0.040295129074272386 0.039316784003170166 0 0.040196126168646346 0.039267671041879317 0 0.040460116252952656 0.03946585486521742 0 0.040295129074272386 0.039316784003170166 0 0.040112306440135456 0.039091201286365999 0 0.040196126168646346 0.039267671041879317 0 0.042881953632371246 0.038583807003350262 0 0.042870128542407647 0.038301041940739314 0 0.040251376404433485 0.03934579805701291 0 0.040295129074272386 0.039316784003170166 0 0.040202792104908812 0.03924744997953266 0 0.040295129074272386 0.039316784003170166 0 0.040202792104908812 0.03924744997953266 0 0.040112306440135456 0.039091201286365999 0 0.040145155341450231 0.039192745698465987 0 0.039748959909814079 0.039119077532203367 0 0.040202792104908812 0.03924744997953266 0 0.040112306440135456 0.039091201286365999 0 0.03978091627879278 0.038588155737442141 0 0.039953657397672392 0.039040366091584219 0 0.040112306440135456 0.039091201286365999 0 0.040196126168646346 0.039267671041879317 0 0.039953657397672392 0.039040366091584219 0 0.03978091627879278 0.038588155737442141 0 0.039412102066416627 0.038804883363310345 0 0.039953657397672392 0.039040366091584219 0 0.040112306440135456 0.039091201286365999 0 0.03978091627879278 0.038588155737442141 0 0.039818831502029105 0.03949021827615861 0 0.039942166692349373 0.039064628977921782 0 0.039539010457302765 0.039134464277411372 0 0.039818831502029105 0.03949021827615861 0 0.040113721430209894 0.039259147018521713 0 0.039942166692349373 0.039064628977921782 0 0.040202792104908812 0.03924744997953266 0 0.039818831502029105 0.03949021827615861 0 0.040113721430209894 0.039259147018521713 0 0.040251376404433485 0.03934579805701291 0 0.040202792104908812 0.03924744997953266 0 0.040113721430209894 0.039259147018521713 0 0.04241880450169333 0.038597946023178141 0 0.039760584826844747 0.03991807434330779 0 0.040241405836595009 0.039095207972934365 0 0.040251376404433485 0.03934579805701291 0 0.040113721430209894 0.039259147018521713 0 0.040241405836595009 0.039095207972934365 0 0.040113721430209894 0.039259147018521713 0 0.039942166692349373 0.039064628977921782 0 0.040223632577296373 0.040218300469084568 0 0.04043568575126609 0.040374262350618792 0 0.040125439251264008 0.040540845203589471 0 0.039760584826844747 0.03991807434330779 0 0.039953946389135742 0.039797122830097044 0 0.040223632577296373 0.040218300469084568 0 0.040125439251264008 0.040540845203589471 0 0.039865527881589397 0.040274160258678561 0 0.040125439251264008 0.040540845203589471 0 0.039865527881589397 0.040274160258678561 0 0.03974242333886388 0.040554791195727642 0 0.039865527881589397 0.040274160258678561 0 0.03974242333886388 0.040554791195727642 0 0.039582306234826975 0.040426148064691386 0 0.039539010457302765 0.039134464277411372 0 0.039245475744981544 0.039555647073713951 0 0.039099605234444695 0.039274690682431224 0 0.039953946389135742 0.039797122830097044 0 0.039136170188866351 0.040049145825580015 0 0.040125439251264008 0.040540845203589471 0 0.03974242333886388 0.040554791195727642 0 0.03967158017463835 0.040780232692447176 0 0.03974242333886388 0.040554791195727642 0 0.039622643585828426 0.040705703400470687 0 0.03967158017463835 0.040780232692447176 0 0.039134470551259105 0.03832872124781378 0 0.039136170188866351 0.040049145825580015 0 0.039255308107326289 0.038377804244628576 0 0.039136170188866351 0.040049145825580015 0 0.039818831502029105 0.03949021827615861 0 0.039539010457302765 0.039134464277411372 0 0.039245475744981544 0.039555647073713951 0 0.039748959909814079 0.039119077532203367 0 0.039255308107326289 0.038377804244628576 0 0.03978091627879278 0.038588155737442141 0 0.039412102066416627 0.038804883363310345 0 0.039147602599624284 0.038250762611340916 0 0.039736907992603217 0.039982154225310214 0 0.039255308107326289 0.038377804244628576 0 0.038932324402318641 0.038654960339941744 0 0.038761704536088258 0.038405784097523606 0 0.03871175238034693 0.038717662196335483 0 0.038932324402318641 0.038654960339941744 0 0.038761704536088258 0.038405784097523606 0 0.03887505721749384 0.037994681767614683 0 0.039432654378799822 0.039975788453062953 0 0.039134470551259105 0.03832872124781378 0 0.040044348213730464 0.038477490431611576 0 0.039780888677422362 0.038326974766465849 0 0.039816092274665663 0.037803231045557065 0 0.039780888677422362 0.038326974766465849 0 0.039816092274665663 0.037803231045557065 0 0.039681639377938172 0.037756578922814643 0 0.03887505721749384 0.037994681767614683 0 0.038667402351798025 0.038042501508659794 0 0.038698723904798796 0.038191421541292687 0 0.038761704536088258 0.038405784097523606 0 0.03887505721749384 0.037994681767614683 0 0.038698723904798796 0.038191421541292687 0 0.039069285087343537 0.038763030239344451 0 0.039413355486220263 0.038740561594305722 0 0.039692598887668351 0.039818956332877506 0 0.039255308107326289 0.038377804244628576 0 0.039134470551259105 0.03832872124781378 0 0.039134470551259105 0.03832872124781378 0 0.033711266944753529 0.039941916742555865 0 0.039120139407114396 0.039874615274573165 0 0.038507992049735491 0.039914831902910876 0 0.038581107942655429 0.039097057273618972 0 0.033711266944753529 0.039941916742555865 0 0.034621460607078922 0.041862350932104199 0 0.031770535088981949 0.045239313341864061 0 0.02886469098996957 0.043694470250943987 0 0.031895533470360705 0.042464396334961511 0 0.031094351168196629 0.036825389389157734 0 0.030994275597684032 0.038546291730738182 0 0.028736096094422046 0.038603934582140911 0 0.038504980163870342 0.037794056464262836 0 0.038667402351798025 0.038042501508659794 0 0.038536838217093299 0.038129030547500227 0 0.033711266944753529 0.039941916742555865 0 0.033206369685765361 0.038371636435411652 0 0.038504980163870342 0.037794056464262836 0 0.038536838217093299 0.038129030547500227 0 0.038481175075761216 0.038167310896732476 0 0.03887505721749384 0.037994681767614683 0 0.038504980163870342 0.037794056464262836 0 0.038667402351798025 0.038042501508659794 0 0.038667402351798025 0.038042501508659794 0 0.038536838217093299 0.038129030547500227 0 0.038698723904798796 0.038191421541292687 0 0.033206369685765361 0.038371636435411652 0 0.0341325077775727 0.039530495255086243 0 0.029698251695369399 0.03929002937132945 0 0.030094030221500756 0.038707834074451275 0 0.029682475287242348 0.038614085684646395 0 0.038761704536088258 0.038405784097523606 0 0.038521244066913887 0.038196726753269641 0 0.038525121632236883 0.038527738161462724 0 0.038761704536088258 0.038405784097523606 0 0.038698723904798796 0.038191421541292687 0 0.038521244066913887 0.038196726753269641 0 0.038536838217093299 0.038129030547500227 0 0.038698723904798796 0.038191421541292687 0 0.038521244066913887 0.038196726753269641 0 0.033550312156930821 0.038126009802874533 0 0.033206369685765361 0.038371636435411652 0 0.033206369685765361 0.038371636435411652 0 0.0291056980313447 0.04047995268562974 0 0.030994275597684032 0.038546291730738182 0 0.029033429029973946 0.04109117356083785 0 0.028736096094422046 0.038603934582140911 0 0.026001527826714579 0.040164521882403034 0 0.028736096094422046 0.038603934582140911 0 0.026291586735982024 0.036576924992598618 0 0.026001527826714579 0.040164521882403034 0 0.029033429029973946 0.04109117356083785 0 0.028736096094422046 0.038603934582140911 0 0.031770535088981949 0.045239313341864061 0 0.026696628645194939 0.045622056724672816 0 0.02886469098996957 0.043694470250943987 0 0.033711266944753529 0.039941916742555865 0 0.026124270188752137 0.041523952242659687 0 0.031094351168196629 0.036825389389157734 0 0.028736096094422046 0.038603934582140911 0 0.026291586735982024 0.036576924992598618 0 0.026942340896678709 0.043392763240717849 0 0.028342668157489967 0.043762008191018532 0 0.02592606599336509 0.044942923851241177 0 0.026696628645194939 0.045622056724672816 0 0.02886469098996957 0.043694470250943987 0 0.02592606599336509 0.044942923851241177 0 0.027978435494043535 0.044005534125760214 0 0.026448287764036404 0.04468036387295455 0 0.026942340896678709 0.043392763240717849 0 0.028387667103729884 0.041840334770203991 0 0.02651293268416496 0.042212081888802856 0 0.026942340896678709 0.043392763240717849 0 0.028387667103729884 0.041840334770203991 0 0.028342668157489967 0.043762008191018532 0 0.039399042931247907 0.040897458798366093 0 0.039548156955149592 0.040619744999397314 0 0.039582306234826975 0.040426148064691386 0 0.034621460607078922 0.041862350932104199 0 0.034772638142293706 0.040786431649281821 0 0.027978435494043535 0.044005534125760214 0 0.034621460607078922 0.041862350932104199 0 0.028387667103729884 0.041840334770203991 0 0.03002338694159561 0.042905515476571066 0 0.029926291057235498 0.04113778629419864 0 0.028387667103729884 0.041840334770203991 0 0.028342668157489967 0.043762008191018532 0 0.03002338694159561 0.042905515476571066 0 0.039120139407114396 0.039874615274573165 0 0.038581107942655429 0.039097057273618972 0 0.038921771717624329 0.038964345064632776 0 0.034621460607078922 0.041862350932104199 0 0.039136170188866351 0.040049145825580015 0 0.039399042931247907 0.040897458798366093 0 0.039549625092056534 0.04074255639233415 0 0.039548156955149592 0.040619744999397314 0 0.039399042931247907 0.040897458798366093 0 0.039549625092056534 0.04074255639233415 0 0.03956706262545933 0.040839440348319482 0 0.039391743450493864 0.040483356209990558 0 0.039136170188866351 0.040049145825580015 0 0.03974242333886388 0.040554791195727642 0 0.039622643585828426 0.040705703400470687 0 0.039548156955149592 0.040619744999397314 0 0.039391743450493864 0.040483356209990558 0 0.039456728413230162 0.040580367818321257 0 0.039712313570748996 0.040088638978284477 0 0.039865527881589397 0.040274160258678561 0 0.039582306234826975 0.040426148064691386 0 0.035552319851495082 0.040140210541428516 0 0.034772638142293706 0.040786431649281821 0 0.028688422084877818 0.040085086486376841 0 0.028387667103729884 0.041840334770203991 0 0.029926291057235498 0.04113778629419864 0 0.03974242333886388 0.040554791195727642 0 0.039548156955149592 0.040619744999397314 0 0.039582306234826975 0.040426148064691386 0 0.028688422084877818 0.040085086486376841 0 0.028387667103729884 0.041840334770203991 0 0.02712186876355261 0.040804931145738604 0 0.028387667103729884 0.041840334770203991 0 0.02712186876355261 0.040804931145738604 0 0.02651293268416496 0.042212081888802856 0 0.022547689700964459 0.026364277172803836 0 0.022111540143651777 0.026463913483388005 0 0.022143822278560255 0.025968139534549621 0 0.022547689700964459 0.026364277172803836 0 0.022537921832752151 0.025746968343683601 0 0.022143822278560255 0.025968139534549621 0 0.041227205376579777 0.021995319939487907 0 0.040710659882738386 0.021688946705878061 0 0.04132907154884144 0.021460450280858863 0 0.040710659882738386 0.021688946705878061 0 0.040878569474898992 0.021434468881343198 0 0.04132907154884144 0.021460450280858863 0 0.040878569474898992 0.021434468881343198 0 0.04132907154884144 0.021460450280858863 0 0.040834119157174588 0.021280120382550598 0 0.040878569474898992 0.021434468881343198 0 0.040834119157174588 0.021280120382550598 0 0.040653744008982862 0.02128012943479048 0 0.031729479713495837 0.024338629043107442 0 0.031532339677152708 0.02194733243438534 0 0.040710659882738386 0.021688946705878061 0 0.040878569474898992 0.021434468881343198 0 0.040653744008982862 0.02128012943479048 0 0.022537921832752151 0.025746968343683601 0 0.022227633260735312 0.025682297766940032 0 0.022143822278560255 0.025968139534549621 0 0.022537921832752151 0.025746968343683601 0 0.0223593535446708 0.025578882830885011 0 0.022227633260735312 0.025682297766940032 0 0.022537921832752151 0.025746968343683601 0 0.022736996963652563 0.025565824944672733 0 0.0223593535446708 0.025578882830885011 0 0.022537921832752151 0.025746968343683601 0 0.022736996963652563 0.025565824944672733 0 0.02277741683387844 0.025550008888120597 0 0.031532339677152708 0.02194733243438534 0 0.029041529357383987 0.031623541137339076 0 0.040834119157174588 0.021280120382550598 0 0.040653744008982862 0.02128012943479048 0 0.040463139395866453 0.020994749039103085 0 0.029041529357383987 0.031623541137339076 0 0.037665814970786658 0.032504341082476976 0 0.022973028600763255 0.025784913528734035 0 0.022860620911336768 0.027160185057663842 0 0.022736996963652563 0.025565824944672733 0 0.022760827312176924 0.025544030917637097 0 0.022527869108103712 0.025769542737430085 0 0.026485748705208808 0.044938938097114051 0 0.026784621176274784 0.044524493678419937 0 0.024899351007829702 0.043314515023413221 0 0.030457929098750992 0.037703190832868404 0 0.030079958208204707 0.038146825224450072 0 0.029725285437548168 0.037904745440767114 0 0.026514875657867823 0.042853922154171706 0 0.027709346051602139 0.037068545246899641 0 0.026001527826714579 0.040164521882403034 0 0.026784621176274784 0.044524493678419937 0 0.024899351007829702 0.043314515023413221 0 0.026001527826714579 0.040164521882403034 0 0.029033429029973946 0.04109117356083785 0 0.026981251026490242 0.043819864904333143 0 0.019533421380554552 0.04065486413937653 0 0.020771245005684232 0.039286274962839221 0 0.021037809154666652 0.041047060975305083 0 0.027709346051602139 0.037068545246899641 0 0.029041529357383987 0.031623541137339076 0 0.027479859464504271 0.033992792661350121 0 0.027709346051602139 0.037068545246899641 0 0.022736996963652563 0.025565824944672733 0 0.022760827312176924 0.025544030917637097 0 0.02277741683387844 0.025550008888120597 0 0.027479859464504271 0.033992792661350121 0 0.029041529357383987 0.031623541137339076 0 0.030487589984310344 0.037807978209089238 0 0.030457929098750992 0.037703190832868404 0 0.030079958208204707 0.038146825224450072 0 0.030094030221500756 0.038707834074451275 0 0.030487589984310344 0.037807978209089238 0 0.030079958208204707 0.038146825224450072 0 0.0291056980313447 0.04047995268562974 0 0.027709346051602139 0.037068545246899641 0 0.0341325077775727 0.039530495255086243 0 0.037665814970786658 0.032504341082476976 0 0.030079958208204707 0.038146825224450072 0 0.029682475287242348 0.038614085684646395 0 0.029725285437548168 0.037904745440767114 0 0.038761704536088258 0.038405784097523606 0 0.038525121632236883 0.038527738161462724 0 0.03871175238034693 0.038717662196335483 0 0.038525121632236883 0.038527738161462724 0 0.038478204065559567 0.038691101577014317 0 0.03871175238034693 0.038717662196335483 0 0.030094030221500756 0.038707834074451275 0 0.030079958208204707 0.038146825224450072 0 0.029682475287242348 0.038614085684646395 0 0.040834119157174588 0.021280120382550598 0 0.040463139395866453 0.020994749039103085 0 0.040953155281126613 0.021071084483583025 0 0.040463139395866453 0.020994749039103085 0 0.040950019653348942 0.021038029607686439 0 0.040953155281126613 0.021071084483583025 0 0.040963283337286056 0.021006585464045668 0 0.040953155281126613 0.021071084483583025 0 0.041412477422275731 0.021413798246616603 0 0.037665814970786658 0.032504341082476976 0 0.037788114513529869 0.031333667162225132 0 0.040834119157174588 0.021280120382550598 0 0.040953155281126613 0.021071084483583025 0 0.041412477422275731 0.021413798246616603 0 0.038478204065559567 0.038691101577014317 0 0.03871175238034693 0.038717662196335483 0 0.038908701180119874 0.039025455191154225 0 0.037665814970786658 0.032504341082476976 0 0.041083791949730379 0.030507655552416489 0 0.041412477422275731 0.021413798246616603 0 0.041842876405519348 0.021669738053423551 0 0.04215925960332581 0.021366822557586922 0 0.040963283337286056 0.021006585464045668 0 0.041412477422275731 0.021413798246616603 0 0.04215925960332581 0.021366822557586922 0 0.038932324402318641 0.038654960339941744 0 0.03871175238034693 0.038717662196335483 0 0.038908701180119874 0.039025455191154225 0 0.040044348213730464 0.038477490431611576 0 0.039786847608600448 0.038760029512812433 0 0.040103792475097662 0.038989162438235053 0 0.039432654378799822 0.039975788453062953 0 0.041083791949730379 0.030507655552416489 0 0.040044348213730464 0.038477490431611576 0 0.039780888677422362 0.038326974766465849 0 0.039786847608600448 0.038760029512812433 0 0.039736907992603217 0.039982154225310214 0 0.041680896564641655 0.031608117805364197 0 0.042322374052083153 0.021310749194418225 0 0.042952044304206065 0.022024610949028137 0 0.043224974058289484 0.021569147449676501 0 0.041083791949730379 0.030507655552416489 0 0.041680896564641655 0.031608117805364197 0 0.041842876405519348 0.021669738053423551 0 0.04215925960332581 0.021366822557586922 0 0.042462090148860737 0.022330951217316288 0 0.041083791949730379 0.030507655552416489 0 0.041877683771093868 0.019129804472091019 0 0.041995474520619289 0.021712343670967325 0 0.043440753693761158 0.022398190757208815 0 0.042462090148860737 0.022330951217316288 0 0.041845712249314784 0.022159451413003045 0 0.04331623988503739 0.02281819506751355 0 0.042120236317463471 0.021244906713093575 0 0.042673385107420261 0.021981552810765748 0 0.043585479331062514 0.021921893989429467 0 0.042322374052083153 0.021310749194418225 0 0.042462090148860737 0.022330951217316288 0 0.042952044304206065 0.022024610949028137 0 0.041842876405519348 0.021669738053423551 0 0.042462090148860737 0.022330951217316288 0 0.041845712249314784 0.022159451413003045 0 0.04132907154884144 0.021460450280858863 0 0.041782413926289896 0.021578653093934988 0 0.042120236317463471 0.021244906713093575 0 0.041412477422275731 0.021413798246616603 0 0.041842876405519348 0.021669738053423551 0 0.041845712249314784 0.022159451413003045 0 0.04093564691848485 0.021321120225533109 0 0.041995474520619289 0.021712343670967325 0 0.040834119157174588 0.021280120382550598 0 0.041412477422275731 0.021413798246616603 0 0.041845712249314784 0.022159451413003045 0 0.04132907154884144 0.021460450280858863 0 0.040834119157174588 0.021280120382550598 0 0.042120236317463471 0.021244906713093575 0 0.041782413926289896 0.021578653093934988 0 0.042120236317463471 0.021244906713093575 0 0.042119619023268405 0.021785610963099722 0 0.041782413926289896 0.021578653093934988 0 0.042119619023268405 0.021785610963099722 0 0.041787399669659463 0.02193939730860649 0 0.041227205376579777 0.021995319939487907 0 0.04132907154884144 0.021460450280858863 0 0.041787399669659463 0.02193939730860649 0 0.04132907154884144 0.021460450280858863 0 0.041782413926289896 0.021578653093934988 0 0.041787399669659463 0.02193939730860649 0 0.042119619023268405 0.021785610963099722 0 0.041787399669659463 0.02193939730860649 0 0.042267875877045155 0.022106057958242751 0 0.042267875877045155 0.022106057958242751 0 0.042673385107420261 0.021981552810765748 0 0.042392807875982354 0.022504263921267604 0 0.042673385107420261 0.021981552810765748 0 0.043238439070488535 0.022608438926153718 0 0.042392807875982354 0.022504263921267604 0 0.041787399669659463 0.02193939730860649 0 0.042267875877045155 0.022106057958242751 0 0.042392807875982354 0.022504263921267604 0 0.042120236317463471 0.021244906713093575 0 0.042119619023268405 0.021785610963099722 0 0.042673385107420261 0.021981552810765748 0 0.042119619023268405 0.021785610963099722 0 0.042267875877045155 0.022106057958242751 0 0.042673385107420261 0.021981552810765748 0 0.042673385107420261 0.021981552810765748 0 0.043585479331062514 0.021921893989429467 0 0.043238439070488535 0.022608438926153718 0 0.043585479331062514 0.021921893989429467 0 0.044038308671759223 0.022940821444597307 0 0.043238439070488535 0.022608438926153718 0 0.04331623988503739 0.02281819506751355 0 0.044205295298955567 0.022704978980557924 0 0.04495657699135551 0.023311680599372064 0 0.043585479331062514 0.021921893989429467 0 0.044038308671759223 0.022940821444597307 0 0.04495657699135551 0.023311680599372064 0 0.044038308671759223 0.022940821444597307 0 0.04495657699135551 0.023311680599372064 0 0.0445688079535385 0.023562869630924611 0 0.043440753693761158 0.022398190757208815 0 0.044850260584162506 0.023194059083076906 0 0.04331623988503739 0.02281819506751355 0 0.044205295298955567 0.022704978980557924 0 0.043518534355372417 0.022194566797548831 0 0.044205295298955567 0.022704978980557924 0 0.044396696312835514 0.022205792466323034 0 0.04495657699135551 0.023311680599372064 0 0.044205295298955567 0.022704978980557924 0 0.044396696312835514 0.022205792466323034 0 0.043518534355372417 0.022194566797548831 0 0.044396696312835514 0.022205792466323034 0 0.043518534355372417 0.022194566797548831 0 0.043993116753089596 0.021735648029093751 0 0.042462090148860737 0.022330951217316288 0 0.04331623988503739 0.02281819506751355 0 0.042952044304206065 0.022024610949028137 0 0.043518534355372417 0.022194566797548831 0 0.042952044304206065 0.022024610949028137 0 0.043224974058289484 0.021569147449676501 0 0.04331623988503739 0.02281819506751355 0 0.043518534355372417 0.022194566797548831 0 0.042952044304206065 0.022024610949028137 0 0.039709740621443883 0.039272982997327177 0 0.03986287053299109 0.039125089997639473 0 0.040108881315285394 0.039444110051599209 0 0.041517927487827296 0.020989178132322334 0 0.041680896564641655 0.031608117805364197 0 0.043518534355372417 0.022194566797548831 0 0.043133809745278931 0.021623596011403512 0 0.043993116753089596 0.021735648029093751 0 0.041680896564641655 0.031608117805364197 0 0.042024723790848893 0.030602367624561561 0 0.039953657397672392 0.039040366091584219 0 0.039412102066416627 0.038804883363310345 0 0.03986287053299109 0.039125089997639473 0 0.039412102066416627 0.038804883363310345 0 0.039709740621443883 0.039272982997327177 0 0.03986287053299109 0.039125089997639473 0 0.039953657397672392 0.039040366091584219 0 0.040039734440187429 0.039353261850962225 0 0.040196126168646346 0.039267671041879317 0 0.039733562774977804 0.038654915245017504 0 0.04063713608386979 0.040566852571965094 0 0.039953657397672392 0.039040366091584219 0 0.03986287053299109 0.039125089997639473 0 0.040217089121421586 0.03924021604196324 0 0.03986287053299109 0.039125089997639473 0 0.040217089121421586 0.03924021604196324 0 0.040108881315285394 0.039444110051599209 0 0.040217089121421586 0.03924021604196324 0 0.040108881315285394 0.039444110051599209 0 0.040471500017267806 0.03951133276479022 0 0.042024723790848893 0.030602367624561561 0 0.042567169203484835 0.030049840715646342 0 0.044396696312835514 0.022205792466323034 0 0.043993116753089596 0.021735648029093751 0 0.044932644755960288 0.02194781093091807 0 0.04063713608386979 0.040566852571965094 0 0.042567169203484835 0.030049840715646342 0 0.040039734440187429 0.039353261850962225 0 0.040235258395270333 0.03966212756384397 0 0.040285982898147103 0.039482712919585404 0 0.040235258395270333 0.03966212756384397 0 0.040285982898147103 0.039482712919585404 0 0.040644409799489536 0.039787942452115074 0 0.040285982898147103 0.039482712919585404 0 0.040196126168646346 0.039267671041879317 0 0.040460116252952656 0.03946585486521742 0 0.040039734440187429 0.039353261850962225 0 0.040285982898147103 0.039482712919585404 0 0.040196126168646346 0.039267671041879317 0 0.045746228433743714 0.038010506616005593 0 0.045499654213770127 0.037946306816095295 0 0.045772734982993668 0.038136754260896188 0 0.045499654213770127 0.037946306816095295 0 0.045236873524605689 0.038514650500104733 0 0.045772734982993668 0.038136754260896188 0 0.040285982898147103 0.039482712919585404 0 0.040460116252952656 0.03946585486521742 0 0.040644409799489536 0.039787942452115074 0 0.042954538751532226 0.040146257449931791 0 0.044808119031039165 0.032198645470623795 0 0.044808119031039165 0.032198645470623795 0 0.045249492394148105 0.021938576630032638 0 0.045181515940207223 0.021789343215598583 0 0.046795152369859247 0.022158521483276138 0 0.046259836762205388 0.02333263646739285 0 0.042567169203484835 0.030049840715646342 0 0.044808119031039165 0.032198645470623795 0 0.046795152369859247 0.022158521483276138 0 0.047168782626980356 0.022993719881414274 0 0.046259836762205388 0.02333263646739285 0 0.042567169203484835 0.030049840715646342 0 0.046123332624027666 0.021889241335285588 0 0.044396696312835514 0.022205792466323034 0 0.044932644755960288 0.02194781093091807 0 0.04495657699135551 0.023311680599372064 0 0.044932644755960288 0.02194781093091807 0 0.04495657699135551 0.023311680599372064 0 0.04594936689419498 0.023530257947458288 0 0.04495657699135551 0.023311680599372064 0 0.04594936689419498 0.023530257947458288 0 0.045391378220914234 0.023920411612966666 0 0.046259836762205388 0.02333263646739285 0 0.047392558946241413 0.023808043490645723 0 0.04700932594539857 0.024573207799593839 0 0.047168782626980356 0.022993719881414274 0 0.046259836762205388 0.02333263646739285 0 0.047392558946241413 0.023808043490645723 0 0.045391378220914234 0.023920411612966666 0 0.045085019465217244 0.024270785232986623 0 0.046487003854472957 0.024905647328974087 0 0.04594936689419498 0.023530257947458288 0 0.045391378220914234 0.023920411612966666 0 0.046487003854472957 0.024905647328974087 0 0.046123332624027666 0.021889241335285588 0 0.04681800269658782 0.025074892231979624 0 0.0445688079535385 0.023562869630924611 0 0.045085019465217244 0.024270785232986623 0 0.04422360236504827 0.023857957115110167 0 0.04495657699135551 0.023311680599372064 0 0.045391378220914234 0.023920411612966666 0 0.0445688079535385 0.023562869630924611 0 0.045391378220914234 0.023920411612966666 0 0.0445688079535385 0.023562869630924611 0 0.045085019465217244 0.024270785232986623 0 0.045085019465217244 0.024270785232986623 0 0.044651324987604886 0.024392802773094253 0 0.04422360236504827 0.023857957115110167 0 0.044651324987604886 0.024392802773094253 0 0.044094051831894777 0.024145176697052358 0 0.04422360236504827 0.023857957115110167 0 0.045085019465217244 0.024270785232986623 0 0.044651324987604886 0.024392802773094253 0 0.045315835967870345 0.024916044472912024 0 0.045085019465217244 0.024270785232986623 0 0.045315835967870345 0.024916044472912024 0 0.046487003854472957 0.024905647328974087 0 0.045315835967870345 0.024916044472912024 0 0.044918020262093239 0.025104062454870728 0 0.044572028970288842 0.024665378090582293 0 0.045315835967870345 0.024916044472912024 0 0.044918020262093239 0.025104062454870728 0 0.045567565207097704 0.025451728373985228 0 0.044918020262093239 0.025104062454870728 0 0.045567565207097704 0.025451728373985228 0 0.045158540733861011 0.025501952866284539 0 0.044918020262093239 0.025104062454870728 0 0.044787647145841651 0.025091782220784061 0 0.045158540733861011 0.025501952866284539 0 0.044918020262093239 0.025104062454870728 0 0.044391221202376686 0.024719805350264135 0 0.044572028970288842 0.024665378090582293 0 0.044918020262093239 0.025104062454870728 0 0.044391221202376686 0.024719805350264135 0 0.044787647145841651 0.025091782220784061 0 0.044391221202376686 0.024719805350264135 0 0.044006321755569733 0.0243411999445763 0 0.044572028970288842 0.024665378090582293 0 0.044006321755569733 0.0243411999445763 0 0.044572028970288842 0.024665378090582293 0 0.044094051831894777 0.024145176697052358 0 0.044651324987604886 0.024392802773094253 0 0.045315835967870345 0.024916044472912024 0 0.044572028970288842 0.024665378090582293 0 0.044651324987604886 0.024392802773094253 0 0.044572028970288842 0.024665378090582293 0 0.044094051831894777 0.024145176697052358 0 0.044094051831894777 0.024145176697052358 0 0.043522405278450894 0.023858629442218879 0 0.04338100045973222 0.023532376041012833 0 0.044006321755569733 0.0243411999445763 0 0.044094051831894777 0.024145176697052358 0 0.043522405278450894 0.023858629442218879 0 0.044006321755569733 0.0243411999445763 0 0.043557683360199065 0.023971357130551773 0 0.043522405278450894 0.023858629442218879 0 0.043522405278450894 0.023858629442218879 0 0.043148786316532337 0.0236071977279609 0 0.042873166423184277 0.023352652635199287 0 0.043557683360199065 0.023971357130551773 0 0.043522405278450894 0.023858629442218879 0 0.043148786316532337 0.0236071977279609 0 0.043522405278450894 0.023858629442218879 0 0.04338100045973222 0.023532376041012833 0 0.042873166423184277 0.023352652635199287 0 0.04338100045973222 0.023532376041012833 0 0.04372653220757261 0.023244543413228361 0 0.04287776988482795 0.022999615226968508 0 0.044094051831894777 0.024145176697052358 0 0.04338100045973222 0.023532376041012833 0 0.04422360236504827 0.023857957115110167 0 0.04338100045973222 0.023532376041012833 0 0.04422360236504827 0.023857957115110167 0 0.04372653220757261 0.023244543413228361 0 0.044038308671759223 0.022940821444597307 0 0.0445688079535385 0.023562869630924611 0 0.04372653220757261 0.023244543413228361 0 0.0445688079535385 0.023562869630924611 0 0.04422360236504827 0.023857957115110167 0 0.04372653220757261 0.023244543413228361 0 0.04372653220757261 0.023244543413228361 0 0.043238439070488535 0.022608438926153718 0 0.04287776988482795 0.022999615226968508 0 0.044038308671759223 0.022940821444597307 0 0.04372653220757261 0.023244543413228361 0 0.043238439070488535 0.022608438926153718 0 0.043238439070488535 0.022608438926153718 0 0.042392807875982354 0.022504263921267604 0 0.04287776988482795 0.022999615226968508 0 0.042392807875982354 0.022504263921267604 0 0.042105550777198325 0.022736162553960017 0 0.04287776988482795 0.022999615226968508 0 0.041787399669659463 0.02193939730860649 0 0.042392807875982354 0.022504263921267604 0 0.041551137642628883 0.022538187039264947 0 0.041227205376579777 0.021995319939487907 0 0.041787399669659463 0.02193939730860649 0 0.041551137642628883 0.022538187039264947 0 0.042392807875982354 0.022504263921267604 0 0.041542494500018554 0.022162681571571662 0 0.042105550777198325 0.022736162553960017 0 0.041736458725347286 0.022552269508231363 0 0.043111648519962235 0.021849143322232277 0 0.041426889395230586 0.022669139804340301 0 0.042246758301055051 0.023408367150948409 0 0.040756366005559243 0.023036642203598419 0 0.041542494500018554 0.022162681571571662 0 0.041426889395230586 0.022669139804340301 0 0.042105550777198325 0.022736162553960017 0 0.041542494500018554 0.022162681571571662 0 0.041426889395230586 0.022669139804340301 0 0.040504422613784799 0.021914252531600707 0 0.041426889395230586 0.022669139804340301 0 0.042105550777198325 0.022736162553960017 0 0.042246758301055051 0.023408367150948409 0 0.04338100045973222 0.023532376041012833 0 0.04287776988482795 0.022999615226968508 0 0.042246758301055051 0.023408367150948409 0 0.042377439610763866 0.023547216730030029 0 0.044509383758718456 0.022733933453944425 0 0.042105550777198325 0.022736162553960017 0 0.04287776988482795 0.022999615226968508 0 0.042246758301055051 0.023408367150948409 0 0.042873166423184277 0.023352652635199287 0 0.042416612256343807 0.02275703907424961 0 0.042205195003590892 0.022765751871046465 0 0.04338100045973222 0.023532376041012833 0 0.042873166423184277 0.023352652635199287 0 0.042416612256343807 0.02275703907424961 0 0.042485431585879876 0.023605551283203123 0 0.043691570881681831 0.021876757499442123 0 0.043148786316532337 0.0236071977279609 0 0.042873166423184277 0.023352652635199287 0 0.043175255884750997 0.023349742013835061 0 0.042873166423184277 0.023352652635199287 0 0.041895571791298263 0.022476359225730467 0 0.042205195003590892 0.022765751871046465 0 0.041895571791298263 0.022476359225730467 0 0.042205195003590892 0.022765751871046465 0 0.042150065743805143 0.02230900181268786 0 0.042205195003590892 0.022765751871046465 0 0.042150065743805143 0.02230900181268786 0 0.041999536980822261 0.022422516805465077 0 0.044509383758718456 0.022733933453944425 0 0.031526540253201257 0.024964481940733547 0 0.042416612256343807 0.02275703907424961 0 0.042205195003590892 0.022765751871046465 0 0.041999536980822261 0.022422516805465077 0 0.031380079496359806 0.02486935748413675 0 0.031526540253201257 0.024964481940733547 0 0.020970773539769862 0.027455761569855405 0 0.021738278108995878 0.027719323783960411 0 0.021514554284589534 0.027290423435090212 0 0.020970773539769862 0.027455761569855405 0 0.021514554284589534 0.027290423435090212 0 0.021179845055588484 0.026853796630454636 0 0.021514554284589534 0.027290423435090212 0 0.021767935294677389 0.02681070684231137 0 0.021963779960578717 0.027307423868390378 0 0.021514554284589534 0.027290423435090212 0 0.021767935294677389 0.02681070684231137 0 0.021179845055588484 0.026853796630454636 0 0.021738278108995878 0.027719323783960411 0 0.021514554284589534 0.027290423435090212 0 0.021963779960578717 0.027307423868390378 0 0.031526540253201257 0.024964481940733547 0 0.020639631136911453 0.027141956840425065 0 0.021773111212504741 0.027220843906721668 0 0.021736605433774193 0.026381402473438027 0 0.021917877633840049 0.026854859612657257 0 0.021736605433774193 0.026381402473438027 0 0.021917877633840049 0.026854859612657257 0 0.021958947166770833 0.026521259374845937 0 0.021634398842609433 0.026989472060487654 0 0.030737767839446289 0.024785154337665139 0 0.021917877633840049 0.026854859612657257 0 0.021958947166770833 0.026521259374845937 0 0.022242936515211427 0.027115393167566611 0 0.021773111212504741 0.027220843906721668 0 0.021917877633840049 0.026854859612657257 0 0.022242936515211427 0.027115393167566611 0 0.031526540253201257 0.024964481940733547 0 0.030737767839446289 0.024785154337665139 0 0.041426889395230586 0.022669139804340301 0 0.040756366005559243 0.023036642203598419 0 0.040504422613784799 0.021914252531600707 0 0.041227205376579777 0.021995319939487907 0 0.040710659882738386 0.021688946705878061 0 0.040783088464628914 0.02247283155896904 0 0.041227205376579777 0.021995319939487907 0 0.041551137642628883 0.022538187039264947 0 0.040783088464628914 0.02247283155896904 0 0.031729479713495837 0.024338629043107442 0 0.030737767839446289 0.024785154337665139 0 0.043111648519962235 0.021849143322232277 0 0.030737767839446289 0.024785154337665139 0 0.022547689700964459 0.026364277172803836 0 0.022380908378744662 0.027012147155880923 0 0.022111540143651777 0.026463913483388005 0 0.02188217977497478 0.026825558052644582 0 0.022380908378744662 0.027012147155880923 0 0.022111540143651777 0.026463913483388005 0 0.050890545372918185 0.032897152528959896 0 0.051487484403955633 0.033138376865788771 0 0.051770416837924639 0.032947935480311295 0 0.051487484403955633 0.033138376865788771 0 0.051314582249261165 0.033144053710889222 0 0.051770416837924639 0.032947935480311295 0 0.051654576883032495 0.030681028096986175 0 0.050601384865440496 0.028820068162730146 0 0.050890545372918185 0.032897152528959896 0 0.051770416837924639 0.032947935480311295 0 0.050155447945765458 0.032490211634217801 0 0.051599149141525122 0.034807579744984406 0 0.050562740723745052 0.036158982036193596 0 0.050890545372918185 0.032897152528959896 0 0.051487484403955633 0.033138376865788771 0 0.050026054717619457 0.032989294606349702 0 0.050890545372918185 0.032897152528959896 0 0.050026054717619457 0.032989294606349702 0 0.050155447945765458 0.032490211634217801 0 0.051418247103129332 0.026321761355312299 0 0.051567016058821788 0.026967310980855072 0 0.052299352955081965 0.028134998450610006 0 0.051418247103129332 0.026321761355312299 0 0.052299352955081965 0.028134998450610006 0 0.051257856264276633 0.025397146940420594 0 0.051418247103129332 0.026321761355312299 0 0.051567016058821788 0.026967310980855072 0 0.050805074001310478 0.025962996450244982 0 0.052299352955081965 0.028134998450610006 0 0.051872420298012117 0.027975478455405239 0 0.051672178941774664 0.0291576112511675 0 0.051567016058821788 0.026967310980855072 0 0.052299352955081965 0.028134998450610006 0 0.051872420298012117 0.027975478455405239 0 0.051654576883032495 0.030681028096986175 0 0.050628399073510182 0.031498684789677517 0 0.051487484403955633 0.033138376865788771 0 0.050765227189133087 0.031736743242040781 0 0.051045457261334984 0.032772905331998864 0 0.052299352955081965 0.028134998450610006 0 0.050765227189133087 0.031736743242040781 0 0.051672178941774664 0.0291576112511675 0 0.050765227189133087 0.031736743242040781 0 0.050773124873809687 0.030269233037067182 0 0.051672178941774664 0.0291576112511675 0 0.050765227189133087 0.031736743242040781 0 0.049999688684447291 0.032359204629479235 0 0.050773124873809687 0.030269233037067182 0 0.050765227189133087 0.031736743242040781 0 0.050366252472641489 0.032729612704805497 0 0.051045457261334984 0.032772905331998864 0 0.050765227189133087 0.031736743242040781 0 0.049999688684447291 0.032359204629479235 0 0.050366252472641489 0.032729612704805497 0 0.050366252472641489 0.032729612704805497 0 0.05050132306360567 0.033370717888608348 0 0.049999521293101382 0.034743667853353359 0 0.049999688684447291 0.032359204629479235 0 0.050366252472641489 0.032729612704805497 0 0.049999521293101382 0.034743667853353359 0 0.050366252472641489 0.032729612704805497 0 0.05050132306360567 0.033370717888608348 0 0.051045457261334984 0.032772905331998864 0 0.05050132306360567 0.033370717888608348 0 0.050987574999132632 0.033243308661052462 0 0.051045457261334984 0.032772905331998864 0 0.05050132306360567 0.033370717888608348 0 0.050987574999132632 0.033243308661052462 0 0.050981689075705702 0.033689248439894473 0 0.050981689075705702 0.033689248439894473 0 0.050489966427915346 0.034149009884038517 0 0.050498923101503605 0.034927871754761072 0 0.05050132306360567 0.033370717888608348 0 0.050981689075705702 0.033689248439894473 0 0.050489966427915346 0.034149009884038517 0 0.05050132306360567 0.033370717888608348 0 0.050489966427915346 0.034149009884038517 0 0.049999521293101382 0.034743667853353359 0 0.050981689075705702 0.033689248439894473 0 0.051314582249261165 0.033144053710889222 0 0.051770416837924639 0.032947935480311295 0 0.051487484403955633 0.033138376865788771 0 0.051045457261334984 0.032772905331998864 0 0.051314582249261165 0.033144053710889222 0 0.050981689075705702 0.033689248439894473 0 0.050498923101503605 0.034927871754761072 0 0.051770416837924639 0.032947935480311295 0 0.050987574999132632 0.033243308661052462 0 0.051045457261334984 0.032772905331998864 0 0.051314582249261165 0.033144053710889222 0 0.050987574999132632 0.033243308661052462 0 0.050981689075705702 0.033689248439894473 0 0.051314582249261165 0.033144053710889222 0 0.050378372121169836 0.034980663685014124 0 0.051599149141525122 0.034807579744984406 0 0.049999039328227197 0.038246513495153248 0 0.04999986745484683 0.034743952785415956 0 0.05122093061445078 0.036845118416229443 0 0.050498923101503605 0.034927871754761072 0 0.051198391685833754 0.036876642908692019 0 0.051695601526139084 0.036794097809520025 0 0.050000178514541277 0.034743501680316098 0 0.051187714608715289 0.036815421787318857 0 0.049999521293101382 0.034743667853353359 0 0.050498923101503605 0.034927871754761072 0 0.051198391685833754 0.036876642908692019 0 0.050489966427915346 0.034149009884038517 0 0.049999521293101382 0.034743667853353359 0 0.050498923101503605 0.034927871754761072 0 0.05164587938120601 0.038036199972627756 0 0.051187714608715289 0.036815421787318857 0 0.051950714926175645 0.037772122227926322 0 0.051751935010665322 0.037206169082821004 0 0.051901170301102237 0.037516627330105141 0 0.051950714926175645 0.037772122227926322 0 0.051198391685833754 0.036876642908692019 0 0.051751935010665322 0.037206169082821004 0 0.051198391685833754 0.036876642908692019 0 0.051751935010665322 0.037206169082821004 0 0.051695601526139084 0.036794097809520025 0 0.051751935010665322 0.037206169082821004 0 0.051695601526139084 0.036794097809520025 0 0.051733643758252394 0.037444691992762909 0 0.051695601526139084 0.036794097809520025 0 0.051733643758252394 0.037444691992762909 0 0.051471116096292048 0.038343356727804014 0 0.051733643758252394 0.037444691992762909 0 0.051479808816557587 0.037761744821964219 0 0.051471116096292048 0.038343356727804014 0 0.051733643758252394 0.037444691992762909 0 0.051622275703150852 0.037472748812323264 0 0.051479808816557587 0.037761744821964219 0 0.051733643758252394 0.037444691992762909 0 0.051901170301102237 0.037516627330105141 0 0.051622275703150852 0.037472748812323264 0 0.051751935010665322 0.037206169082821004 0 0.051733643758252394 0.037444691992762909 0 0.051901170301102237 0.037516627330105141 0 0.051604589988399584 0.03746954416145825 0 0.051622275703150852 0.037472748812323264 0 0.050791308146089439 0.037381453329325506 0 0.051622275703150852 0.037472748812323264 0 0.050791308146089439 0.037381453329325506 0 0.051100517274385887 0.03770368750628339 0 0.051573601396834777 0.037378261419091417 0 0.050791308146089439 0.037381453329325506 0 0.050210376052624607 0.037081242444909797 0 0.050791308146089439 0.037381453329325506 0 0.049740633899524891 0.037584959026255013 0 0.050210376052624607 0.037081242444909797 0 0.050791308146089439 0.037381453329325506 0 0.050286188905306603 0.037866446890995026 0 0.049740633899524891 0.037584959026255013 0 0.050286188905306603 0.037866446890995026 0 0.049740633899524891 0.037584959026255013 0 0.049453891507615193 0.038253796532593566 0 0.049740633899524891 0.037584959026255013 0 0.049453891507615193 0.038253796532593566 0 0.047832784772383903 0.038444564855512287 0 0.050286188905306603 0.037866446890995026 0 0.049453891507615193 0.038253796532593566 0 0.050506810644967377 0.038121569925705444 0 0.050286188905306603 0.037866446890995026 0 0.050506810644967377 0.038121569925705444 0 0.051100517274385887 0.03770368750628339 0 0.050506810644967377 0.038121569925705444 0 0.051479808816557587 0.037761744821964219 0 0.051100517274385887 0.03770368750628339 0 0.050506810644967377 0.038121569925705444 0 0.051479808816557587 0.037761744821964219 0 0.051471116096292048 0.038343356727804014 0 0.051622275703150852 0.037472748812323264 0 0.051479808816557587 0.037761744821964219 0 0.051100517274385887 0.03770368750628339 0 0.050791308146089439 0.037381453329325506 0 0.050286188905306603 0.037866446890995026 0 0.051100517274385887 0.03770368750628339 0 0.045746228433743714 0.038010506616005593 0 0.046125641443580764 0.038006425090415519 0 0.045772734982993668 0.038136754260896188 0 0.046125641443580764 0.038006425090415519 0 0.047832784772383903 0.038444564855512287 0 0.046310211454083657 0.038292768862469677 0 0.049740633899524891 0.037584959026255013 0 0.050210376052624607 0.037081242444909797 0 0.047832784772383903 0.038444564855512287 0 0.048184012493493328 0.03774250539842898 0 0.047989290721249016 0.038597631395548261 0 0.047832784772383903 0.038444564855512287 0 0.046310211454083657 0.038292768862469677 0 0.045541557196772026 0.038936144546287993 0 0.045236873524605689 0.038514650500104733 0 0.045772734982993668 0.038136754260896188 0 0.045541557196772026 0.038936144546287993 0 0.046125641443580764 0.038006425090415519 0 0.046310211454083657 0.038292768862469677 0 0.045772734982993668 0.038136754260896188 0 0.046310211454083657 0.038292768862469677 0 0.045772734982993668 0.038136754260896188 0 0.045541557196772026 0.038936144546287993 0 0.044808119031039165 0.032198645470623795 0 0.047496883797885463 0.030922556284193454 0 0.04707687218689964 0.022076737107155051 0 0.047168782626980356 0.022993719881414274 0 0.048987235359146605 0.022799923296526199 0 0.048987235359146605 0.022799923296526199 0 0.049047722586288832 0.023796968128280225 0 0.048218015754097648 0.023603400443422982 0 0.047168782626980356 0.022993719881414274 0 0.048987235359146605 0.022799923296526199 0 0.048218015754097648 0.023603400443422982 0 0.047832784772383903 0.038444564855512287 0 0.045541557196772026 0.038936144546287993 0 0.048227808061685452 0.039469190718595712 0 0.047496883797885463 0.030922556284193454 0 0.048793465954484271 0.030954671954133706 0 0.048987235359146605 0.022799923296526199 0 0.049933489073965671 0.023860809198197389 0 0.049678782213597839 0.023655972642441438 0 0.048987235359146605 0.022799923296526199 0 0.049047722586288832 0.023796968128280225 0 0.049678782213597839 0.023655972642441438 0 0.048793465954484271 0.030954671954133706 0 0.049504966388526708 0.029871986387261976 0 0.049047722586288832 0.023796968128280225 0 0.049678782213597839 0.023655972642441438 0 0.049616655279818928 0.024025617400783079 0 0.049910112875549292 0.023678355357245346 0 0.049616655279818928 0.024025617400783079 0 0.049919403980098573 0.024165371727741605 0 0.049910112875549292 0.023678355357245346 0 0.049678782213597839 0.023655972642441438 0 0.049616655279818928 0.024025617400783079 0 0.049616655279818928 0.024025617400783079 0 0.049310331350606432 0.024434241201611424 0 0.049862659651959428 0.024469422974365201 0 0.049047722586288832 0.023796968128280225 0 0.049616655279818928 0.024025617400783079 0 0.049310331350606432 0.024434241201611424 0 0.049310331350606432 0.024434241201611424 0 0.048337686966403871 0.02437078238035207 0 0.049198738823167491 0.025082995189585105 0 0.049047722586288832 0.023796968128280225 0 0.048337686966403871 0.02437078238035207 0 0.048218015754097648 0.023603400443422982 0 0.049047722586288832 0.023796968128280225 0 0.049310331350606432 0.024434241201611424 0 0.048337686966403871 0.02437078238035207 0 0.048337686966403871 0.02437078238035207 0 0.048218015754097648 0.023603400443422982 0 0.047392558946241413 0.023808043490645723 0 0.047168782626980356 0.022993719881414274 0 0.048218015754097648 0.023603400443422982 0 0.047392558946241413 0.023808043490645723 0 0.051257856264276633 0.025397146940420594 0 0.050266730386905219 0.024501906268353021 0 0.05079248052535959 0.025424535323108254 0 0.048382751945716299 0.032661886745558852 0 0.050026054717619457 0.032989294606349702 0 0.050155447945765458 0.032490211634217801 0 0.049453891507615193 0.038253796532593566 0 0.050506810644967377 0.038121569925705444 0 0.048227808061685452 0.039469190718595712 0 0.048793465954484271 0.030954671954133706 0 0.050601384865440496 0.028820068162730146 0 0.049910112875549292 0.023678355357245346 0 0.051257856264276633 0.025397146940420594 0 0.050266730386905219 0.024501906268353021 0 0.048793465954484271 0.030954671954133706 0 0.050562740723745052 0.036158982036193596 0 0.050506810644967377 0.038121569925705444 0 0.048227808061685452 0.039469190718595712 0 0.051471116096292048 0.038343356727804014 0 0.049453891507615193 0.038253796532593566 0 0.047832784772383903 0.038444564855512287 0 0.048227808061685452 0.039469190718595712 0 0.049910112875549292 0.023678355357245346 0 0.049919403980098573 0.024165371727741605 0 0.050266730386905219 0.024501906268353021 0 0.049919403980098573 0.024165371727741605 0 0.050266730386905219 0.024501906268353021 0 0.049862659651959428 0.024469422974365201 0 0.049616655279818928 0.024025617400783079 0 0.049919403980098573 0.024165371727741605 0 0.049862659651959428 0.024469422974365201 0 0.050266730386905219 0.024501906268353021 0 0.050259809363992915 0.025044213630869946 0 0.05079248052535959 0.025424535323108254 0 0.050266730386905219 0.024501906268353021 0 0.050259809363992915 0.025044213630869946 0 0.049862659651959428 0.024469422974365201 0 0.049310331350606432 0.024434241201611424 0 0.049862659651959428 0.024469422974365201 0 0.049739448526337521 0.024922718179163403 0 0.050259809363992915 0.025044213630869946 0 0.049862659651959428 0.024469422974365201 0 0.049739448526337521 0.024922718179163403 0 0.049739448526337521 0.024922718179163403 0 0.050057349238828937 0.025589272812170057 0 0.049198738823167491 0.025082995189585105 0 0.049310331350606432 0.024434241201611424 0 0.049739448526337521 0.024922718179163403 0 0.049198738823167491 0.025082995189585105 0 0.050259809363992915 0.025044213630869946 0 0.049739448526337521 0.024922718179163403 0 0.050057349238828937 0.025589272812170057 0 0.050259809363992915 0.025044213630869946 0 0.050805074001310478 0.025962996450244982 0 0.050057349238828937 0.025589272812170057 0 0.050259809363992915 0.025044213630869946 0 0.05079248052535959 0.025424535323108254 0 0.050805074001310478 0.025962996450244982 0 0.051418247103129332 0.026321761355312299 0 0.051257856264276633 0.025397146940420594 0 0.05079248052535959 0.025424535323108254 0 0.051418247103129332 0.026321761355312299 0 0.05079248052535959 0.025424535323108254 0 0.050805074001310478 0.025962996450244982 0 0.051567016058821788 0.026967310980855072 0 0.050805074001310478 0.025962996450244982 0 0.050629300925401743 0.026444977472721155 0 0.050629300925401743 0.026444977472721155 0 0.050057349238828937 0.025589272812170057 0 0.049625433391166554 0.025921617343782642 0 0.050805074001310478 0.025962996450244982 0 0.050629300925401743 0.026444977472721155 0 0.050057349238828937 0.025589272812170057 0 0.049198738823167491 0.025082995189585105 0 0.049625433391166554 0.025921617343782642 0 0.048757618411538826 0.025879569950019825 0 0.050057349238828937 0.025589272812170057 0 0.049198738823167491 0.025082995189585105 0 0.049625433391166554 0.025921617343782642 0 0.049625433391166554 0.025921617343782642 0 0.048757618411538826 0.025879569950019825 0 0.049491216069764518 0.026542374701623669 0 0.048757618411538826 0.025879569950019825 0 0.049491216069764518 0.026542374701623669 0 0.048334237160377359 0.026200212491888069 0 0.050585737315785702 0.026371363253400032 0 0.050647860818748121 0.026989841487051365 0 0.050629300925401743 0.026444977472721155 0 0.049625433391166554 0.025921617343782642 0 0.049491216069764518 0.026542374701623669 0 0.050629300925401743 0.026444977472721155 0 0.049491216069764518 0.026542374701623669 0 0.050018597105648252 0.02717829700355447 0 0.048337686966403871 0.02437078238035207 0 0.047392558946241413 0.023808043490645723 0 0.04700932594539857 0.024573207799593839 0 0.048337686966403871 0.02437078238035207 0 0.04700932594539857 0.024573207799593839 0 0.048234522091701822 0.025090167026001607 0 0.049198738823167491 0.025082995189585105 0 0.048757618411538826 0.025879569950019825 0 0.048234522091701822 0.025090167026001607 0 0.048337686966403871 0.02437078238035207 0 0.049198738823167491 0.025082995189585105 0 0.048234522091701822 0.025090167026001607 0 0.04700932594539857 0.024573207799593839 0 0.048234522091701822 0.025090167026001607 0 0.047907420984974164 0.025537613448025357 0 0.04700932594539857 0.024573207799593839 0 0.047907420984974164 0.025537613448025357 0 0.047266025105009248 0.025924742625621007 0 0.048757618411538826 0.025879569950019825 0 0.048234522091701822 0.025090167026001607 0 0.047907420984974164 0.025537613448025357 0 0.048757618411538826 0.025879569950019825 0 0.047907420984974164 0.025537613448025357 0 0.048334237160377359 0.026200212491888069 0 0.046487003854472957 0.024905647328974087 0 0.046184045848041963 0.025407196322647072 0 0.047266025105009248 0.025924742625621007 0 0.045315835967870345 0.024916044472912024 0 0.046487003854472957 0.024905647328974087 0 0.046184045848041963 0.025407196322647072 0 0.04681800269658782 0.025074892231979624 0 0.047235242611422298 0.025758236106217372 0 0.045567565207097704 0.025451728373985228 0 0.046184045848041963 0.025407196322647072 0 0.046557477641594666 0.025984634663306642 0 0.045315835967870345 0.024916044472912024 0 0.045567565207097704 0.025451728373985228 0 0.046184045848041963 0.025407196322647072 0 0.045567565207097704 0.025451728373985228 0 0.046557477641594666 0.025984634663306642 0 0.045690296095832021 0.025733270353397526 0 0.046184045848041963 0.025407196322647072 0 0.046557477641594666 0.025984634663306642 0 0.047266025105009248 0.025924742625621007 0 0.046557477641594666 0.025984634663306642 0 0.047266025105009248 0.025924742625621007 0 0.047727190286575252 0.026590737516949993 0 0.047907420984974164 0.025537613448025357 0 0.047266025105009248 0.025924742625621007 0 0.048334237160377359 0.026200212491888069 0 0.047266025105009248 0.025924742625621007 0 0.047727190286575252 0.026590737516949993 0 0.048334237160377359 0.026200212491888069 0 0.047717789048765176 0.027468696499904594 0 0.047727190286575252 0.026590737516949993 0 0.046203543917202855 0.026458041238663198 0 0.046557477641594666 0.025984634663306642 0 0.047727190286575252 0.026590737516949993 0 0.046203543917202855 0.026458041238663198 0 0.048825604758931059 0.023255007830715758 0 0.046985149318592948 0.023950558058837283 0 0.046045248869192562 0.026226758409807795 0 0.046985149318592948 0.023950558058837283 0 0.046557477641594666 0.025984634663306642 0 0.045108192358804353 0.025857110374060223 0 0.045690296095832021 0.025733270353397526 0 0.044787647145841651 0.025091782220784061 0 0.045214933955307686 0.025460114658686202 0 0.045158540733861011 0.025501952866284539 0 0.046985149318592948 0.023950558058837283 0 0.046345800701185942 0.024102677691565735 0 0.045567565207097704 0.025451728373985228 0 0.045158540733861011 0.025501952866284539 0 0.045690296095832021 0.025733270353397526 0 0.045108192358804353 0.025857110374060223 0 0.045158540733861011 0.025501952866284539 0 0.045690296095832021 0.025733270353397526 0 0.049435369449943832 0.027024255687938266 0 0.049631921422934905 0.027266105790869855 0 0.050018597105648252 0.02717829700355447 0 0.049491216069764518 0.026542374701623669 0 0.049435369449943832 0.027024255687938266 0 0.050018597105648252 0.02717829700355447 0 0.049435369449943832 0.027024255687938266 0 0.048894187464661412 0.026721441820602806 0 0.04888996257197905 0.02720456125280234 0 0.049491216069764518 0.026542374701623669 0 0.049435369449943832 0.027024255687938266 0 0.048894187464661412 0.026721441820602806 0 0.049491216069764518 0.026542374701623669 0 0.048334237160377359 0.026200212491888069 0 0.048894187464661412 0.026721441820602806 0 0.047727190286575252 0.026590737516949993 0 0.048334237160377359 0.026200212491888069 0 0.048894187464661412 0.026721441820602806 0 0.047717789048765176 0.027468696499904594 0 0.04888996257197905 0.02720456125280234 0 0.049094715088653436 0.027867683409002635 0 0.047727190286575252 0.026590737516949993 0 0.048894187464661412 0.026721441820602806 0 0.04888996257197905 0.02720456125280234 0 0.047717789048765176 0.027468696499904594 0 0.047727190286575252 0.026590737516949993 0 0.04888996257197905 0.02720456125280234 0 0.049631921422934905 0.027266105790869855 0 0.049922653585341724 0.027258928322722326 0 0.049094715088653436 0.027867683409002635 0 0.049435369449943832 0.027024255687938266 0 0.04888996257197905 0.02720456125280234 0 0.049631921422934905 0.027266105790869855 0 0.04888996257197905 0.02720456125280234 0 0.049631921422934905 0.027266105790869855 0 0.049094715088653436 0.027867683409002635 0 0.049921895083630208 0.026594169245911372 0 0.05142520113663096 0.026246606355473889 0 0.051723433372682683 0.026699058181401326 0 0.051691171360982988 0.027134683743315634 0 0.051389207155012114 0.026329878151557351 0 0.052800283883986936 0.023644043301221343 0 0.051706209303459059 0.02394091453438485 0 0.052189583083909842 0.023153429828557309 0 0.05142520113663096 0.026246606355473889 0 0.051592913403164492 0.025007085961904037 0 0.051723433372682683 0.026699058181401326 0 0.051691171360982988 0.027134683743315634 0 0.051358102653141988 0.02673165490894612 0 0.049631921422934905 0.027266105790869855 0 0.049732223877791533 0.027362955795783427 0 0.050018597105648252 0.02717829700355447 0 0.05142520113663096 0.026246606355473889 0 0.050647860818748121 0.026989841487051365 0 0.051691171360982988 0.027134683743315634 0 0.051358102653141988 0.02673165490894612 0 0.051636436195874068 0.027306054547911424 0 0.050629300925401743 0.026444977472721155 0 0.051358102653141988 0.02673165490894612 0 0.051636436195874068 0.027306054547911424 0 0.051691171360982988 0.027134683743315634 0 0.051636436195874068 0.027306054547911424 0 0.051703198301186054 0.027978332554495926 0 0.051703198301186054 0.027978332554495926 0 0.051872420298012117 0.027975478455405239 0 0.051672178941774664 0.0291576112511675 0 0.051636436195874068 0.027306054547911424 0 0.051703198301186054 0.027978332554495926 0 0.051872420298012117 0.027975478455405239 0 0.051567016058821788 0.026967310980855072 0 0.050629300925401743 0.026444977472721155 0 0.051636436195874068 0.027306054547911424 0 0.051567016058821788 0.026967310980855072 0 0.051636436195874068 0.027306054547911424 0 0.051872420298012117 0.027975478455405239 0 0.049999839871880301 0.029976905713510974 0 0.050773124873809687 0.030269233037067182 0 0.051129881279159191 0.028591139194625824 0 0.049999688684447291 0.032359204629479235 0 0.049999839871880301 0.029976905713510974 0 0.050773124873809687 0.030269233037067182 0 0.051703198301186054 0.027978332554495926 0 0.051672178941774664 0.0291576112511675 0 0.051129881279159191 0.028591139194625824 0 0.050773124873809687 0.030269233037067182 0 0.051672178941774664 0.0291576112511675 0 0.051129881279159191 0.028591139194625824 0 0.051691171360982988 0.027134683743315634 0 0.051703198301186054 0.027978332554495926 0 0.051213319981312393 0.027315268916297712 0 0.051703198301186054 0.027978332554495926 0 0.051129881279159191 0.028591139194625824 0 0.051213319981312393 0.027315268916297712 0 0.049999839871880301 0.029976905713510974 0 0.051129881279159191 0.028591139194625824 0 0.049999755062697285 0.02759556045106025 0 0.051129881279159191 0.028591139194625824 0 0.049999755062697285 0.02759556045106025 0 0.051213319981312393 0.027315268916297712 0 0.049999755062697285 0.02759556045106025 0 0.051213319981312393 0.027315268916297712 0 0.049999457550423176 0.025215796169656059 0 0.051691171360982988 0.027134683743315634 0 0.051213319981312393 0.027315268916297712 0 0.051389207155012114 0.026329878151557351 0 0.051213319981312393 0.027315268916297712 0 0.051389207155012114 0.026329878151557351 0 0.049999457550423176 0.025215796169656059 0 0.051592913403164492 0.025007085961904037 0 0.049999630331603061 0.025213923192268985 0 0.0500002141013823 0.025211285099730592 0 0.051113361418290662 0.023055458742433015 0 0.049999542405674599 0.02231483713092498 0 0.051706209303459059 0.02394091453438485 0 0.0500002141013823 0.025211285099730592 0 0.051113361418290662 0.023055458742433015 0 0.051706209303459059 0.02394091453438485 0 0.051113361418290662 0.023055458742433015 0 0.051974657510171475 0.022245707286954613 0 0.051113361418290662 0.023055458742433015 0 0.051364894778322928 0.021557257017840697 0 0.051974657510171475 0.022245707286954613 0 0.051113361418290662 0.023055458742433015 0 0.051364894778322928 0.021557257017840697 0 0.049999542405674599 0.02231483713092498 0 0.051998357759323481 0.021590983422699068 0 0.051501315648745181 0.02088244337897319 0 0.051231117180548832 0.02005136989638168 0 0.051357465039125499 0.023525622144594738 0 0.050068283865642015 0.024128278825617858 0 0.05142520113663096 0.026246606355473889 0 0.051357465039125499 0.023525622144594738 0 0.052800283883986936 0.023644043301221343 0 0.052230475907320412 0.022667447488281131 0 0.052189583083909842 0.023153429828557309 0 0.049922653585341724 0.027258928322722326 0 0.050207420744167688 0.028140651777432649 0 0.049094715088653436 0.027867683409002635 0 0.051706209303459059 0.02394091453438485 0 0.052189583083909842 0.023153429828557309 0 0.051974657510171475 0.022245707286954613 0 0.051357465039125499 0.023525622144594738 0 0.05198692207688569 0.0224260616500267 0 0.052230475907320412 0.022667447488281131 0 0.052189583083909842 0.023153429828557309 0 0.051974657510171475 0.022245707286954613 0 0.052571537321654892 0.021399935667997201 0 0.051974657510171475 0.022245707286954613 0 0.051919501641431443 0.021145065705281265 0 0.051357465039125499 0.023525622144594738 0 0.052085279538418121 0.020438060967147845 0 0.051364894778322928 0.021557257017840697 0 0.051974657510171475 0.022245707286954613 0 0.051919501641431443 0.021145065705281265 0 0.051998357759323481 0.021590983422699068 0 0.051753521088591665 0.021132839404458939 0 0.051919501641431443 0.021145065705281265 0 0.051753521088591665 0.021132839404458939 0 0.051501315648745181 0.02088244337897319 0 0.051255650430981042 0.021011320880835828 0 0.051998357759323481 0.021590983422699068 0 0.051753521088591665 0.021132839404458939 0 0.051501315648745181 0.02088244337897319 0 0.051612421145109 0.021087965952178725 0 0.051788755631556459 0.021007209195983194 0 0.051919501641431443 0.021145065705281265 0 0.051753521088591665 0.021132839404458939 0 0.051612421145109 0.021087965952178725 0 0.051919501641431443 0.021145065705281265 0 0.051612421145109 0.021087965952178725 0 0.051788755631556459 0.021007209195983194 0 0.051154166318085642 0.021217855201766642 0 0.051612421145109 0.021087965952178725 0 0.051154166318085642 0.021217855201766642 0 0.051255650430981042 0.021011320880835828 0 0.051753521088591665 0.021132839404458939 0 0.051612421145109 0.021087965952178725 0 0.051255650430981042 0.021011320880835828 0 0.051364894778322928 0.021557257017840697 0 0.051919501641431443 0.021145065705281265 0 0.051692339471931706 0.019832155766353558 0 0.051788755631556459 0.021007209195983194 0 0.051919501641431443 0.021145065705281265 0 0.051692339471931706 0.019832155766353558 0 0.051404948721184611 0.019958083711592751 0 0.052036855905099509 0.02008091079249397 0 0.051788755631556459 0.021007209195983194 0 0.051692339471931706 0.019832155766353558 0 0.05162140092967625 0.021290798428432171 0 0.05162140092967625 0.021290798428432171 0 0.051401664313140964 0.021470913669004922 0 0.051175660446388542 0.021685707358358765 0 0.051788755631556459 0.021007209195983194 0 0.05162140092967625 0.021290798428432171 0 0.051401664313140964 0.021470913669004922 0 0.051788755631556459 0.021007209195983194 0 0.051401664313140964 0.021470913669004922 0 0.051154166318085642 0.021217855201766642 0 0.049999542405674599 0.02231483713092498 0 0.050909232105855656 0.020390636825518466 0 0.049999363031695609 0.019416736701010708 0 0.051364894778322928 0.021557257017840697 0 0.049999542405674599 0.02231483713092498 0 0.050909232105855656 0.020390636825518466 0 0.051364894778322928 0.021557257017840697 0 0.051692339471931706 0.019832155766353558 0 0.050909232105855656 0.020390636825518466 0 0.051692339471931706 0.019832155766353558 0 0.050909232105855656 0.020390636825518466 0 0.051060235217093811 0.019008380506933129 0 0.050909232105855656 0.020390636825518466 0 0.051060235217093811 0.019008380506933129 0 0.049999363031695609 0.019416736701010708 0 0.051060235217093811 0.019008380506933129 0 0.049999363031695609 0.019416736701010708 0 0.050560286613258593 0.017116642578644425 0 0.049999363031695609 0.019416736701010708 0 0.050560286613258593 0.017116642578644425 0 0.049998964672775571 0.016515506977596035 0 0.050560286613258593 0.017116642578644425 0 0.049998964672775571 0.016515506977596035 0 0.050628310970235547 0.01508240000410513 0 0.050628310970235547 0.01508240000410513 0 0.051531385172054821 0.013708827758084768 0 0.050844063533057787 0.013458525460061885 0 0.050560286613258593 0.017116642578644425 0 0.050628310970235547 0.01508240000410513 0 0.051531385172054821 0.013708827758084768 0 0.051692339471931706 0.019832155766353558 0 0.051060235217093811 0.019008380506933129 0 0.051652424259995409 0.018477734844776536 0 0.051060235217093811 0.019008380506933129 0 0.050560286613258593 0.017116642578644425 0 0.051652424259995409 0.018477734844776536 0 0.050395644119847809 0.016931291545183025 0 0.051311364928537856 0.016093015480121521 0 0.051692339471931706 0.019832155766353558 0 0.051805490988135867 0.018866337317834714 0 0.051652424259995409 0.018477734844776536 0 0.051805490988135867 0.018866337317834714 0 0.051652424259995409 0.018477734844776536 0 0.051572487528536222 0.018604381116486976 0 0.051805490988135867 0.018866337317834714 0 0.051572487528536222 0.018604381116486976 0 0.051612902237374192 0.018479331466256365 0 0.051311364928537856 0.016093015480121521 0 0.051641248057415622 0.015270786510159683 0 0.051531385172054821 0.013708827758084768 0 0.051391992439718405 0.011505892262614521 0 0.05131377319165227 0.012193804816861966 0 0.051391992439718405 0.011505892262614521 0 0.05131377319165227 0.012193804816861966 0 0.051124988406410346 0.010648792238590563 0 0.051531385172054821 0.013708827758084768 0 0.05131377319165227 0.012193804816861966 0 0.050844063533057787 0.013458525460061885 0 0.050977746551114492 0.011659571073027406 0 0.050736245868037225 0.011897893977022072 0 0.050844063533057787 0.013458525460061885 0 0.05131377319165227 0.012193804816861966 0 0.050977746551114492 0.011659571073027406 0 0.050844063533057787 0.013458525460061885 0 0.05131377319165227 0.012193804816861966 0 0.050933551693816033 0.010699165698795612 0 0.051124988406410346 0.010648792238590563 0 0.05131377319165227 0.012193804816861966 0 0.050977746551114492 0.011659571073027406 0 0.050933551693816033 0.010699165698795612 0 0.050570853912484219 0.010390738314386366 0 0.050933551693816033 0.010699165698795612 0 0.050461504695989971 0.0093526031831139174 0 0.050977746551114492 0.011659571073027406 0 0.050570853912484219 0.010390738314386366 0 0.050933551693816033 0.010699165698795612 0 0.050736245868037225 0.011897893977022072 0 0.050570853912484219 0.010390738314386366 0 0.050420543563487061 0.010843901843759165 0 0.050977746551114492 0.011659571073027406 0 0.050736245868037225 0.011897893977022072 0 0.050570853912484219 0.010390738314386366 0 0.050736245868037225 0.011897893977022072 0 0.049999508728255738 0.013616392303507432 0 0.050844063533057787 0.013458525460061885 0 0.050736245868037225 0.011897893977022072 0 0.049999508728255738 0.013616392303507432 0 0.050420543563487061 0.010843901843759165 0 0.050628310970235547 0.01508240000410513 0 0.049999508728255738 0.013616392303507432 0 0.050844063533057787 0.013458525460061885 0 0.049998964672775571 0.016515506977596035 0 0.050628310970235547 0.01508240000410513 0 0.049999508728255738 0.013616392303507432 0 0.049665794437649687 0.0093200062525863794 0 0.049443421339217267 0.0096605264147777252 0 0.050350321313747289 0.010349470575319044 0 0.049665794437649687 0.0093200062525863794 0 0.049065101257765059 0.008659092059959515 0 0.049162555588087908 0.0082166392215220364 0 0.049665794437649687 0.0093200062525863794 0 0.049065101257765059 0.008659092059959515 0 0.049443421339217267 0.0096605264147777252 0 0.049065101257765059 0.008659092059959515 0 0.049443421339217267 0.0096605264147777252 0 0.048938159837568065 0.008982749257465443 0 0.049443421339217267 0.0096605264147777252 0 0.04896236267430111 0.0097420003551704007 0 0.048938159837568065 0.008982749257465443 0 0.049443421339217267 0.0096605264147777252 0 0.0496753848418717 0.010585907128872788 0 0.04896236267430111 0.0097420003551704007 0 0.05025555369359639 0.010272128897813327 0 0.049697110779345216 0.0099265284866292772 0 0.050933551693816033 0.010699165698795612 0 0.050753022769319332 0.0098561827967572867 0 0.050461504695989971 0.0093526031831139174 0 0.0496753848418717 0.010585907128872788 0 0.048869030514733319 0.010551312169820474 0 0.04896236267430111 0.0097420003551704007 0 0.050933551693816033 0.010699165698795612 0 0.050753022769319332 0.0098561827967572867 0 0.051124988406410346 0.010648792238590563 0 0.05025555369359639 0.010272128897813327 0 0.050522477147708425 0.009551548268288414 0 0.049443421339217267 0.0096605264147777252 0 0.0496753848418717 0.010585907128872788 0 0.050350321313747289 0.010349470575319044 0 0.051124988406410346 0.010648792238590563 0 0.051310964326624395 0.01021632546597449 0 0.051115597639395695 0.0097482331377869227 0 0.050753022769319332 0.0098561827967572867 0 0.051124988406410346 0.010648792238590563 0 0.051115597639395695 0.0097482331377869227 0 0.050361579945058889 0.012392356759955226 0 0.050522477147708425 0.009551548268288414 0 0.04988479847404835 0.0089289065808009303 0 0.047772281304459777 0.0091775890699129104 0 0.050842444314130389 0.0061764102283230855 0 0.051391992439718405 0.011505892262614521 0 0.051124988406410346 0.010648792238590563 0 0.051310964326624395 0.01021632546597449 0 0.051641248057415622 0.015270786510159683 0 0.050361579945058889 0.012392356759955226 0 0.051572487528536222 0.018604381116486976 0 0.051612902237374192 0.018479331466256365 0 0.051515290699581252 0.018246682905864425 0 0.052036855905099509 0.02008091079249397 0 0.048983599965286138 0.018704723501638619 0 0.048983599965286138 0.018704723501638619 0 0.049949938211183015 0.014446522612849552 0 0.043391295501831233 0.013143638068802232 0 0.048001704053037657 0.010467136176422646 0 0.049869565430701382 0.011109304773990093 0 0.050338886124602335 0.022609492124856707 0 0.048470564581568065 0.022835008366415388 0 0.049315602661143078 0.021812678301069515 0 0.048001704053037657 0.010467136176422646 0 0.04989686760396201 0.011038990017675757 0 0.04988479847404835 0.0089289065808009303 0 0.048522724274648821 0.012995125293202367 0 0.049949938211183015 0.014446522612849552 0 0.049477385492100935 0.011335772557650009 0 0.050361579945058889 0.012392356759955226 0 0.048001704053037657 0.010467136176422646 0 0.04988479847404835 0.0089289065808009303 0 0.047770586074697606 0.0091100383807940707 0 0.048983599965286138 0.018704723501638619 0 0.050361579945058889 0.012392356759955226 0 0.043391295501831233 0.013143638068802232 0 0.048001704053037657 0.010467136176422646 0 0.047770586074697606 0.0091100383807940707 0 0.054065455984671378 0.012998162990271109 0 0.051202398295616791 0.013285626753937317 0 0.049789873624222429 0.010567575043387629 0 0.049949938211183015 0.014446522612849552 0 0.049118533675410407 0.016813482708664642 0 0.048470564581568065 0.022835008366415388 0 0.04718547622814602 0.021976083192517818 0 0.048126353140204241 0.021932448300629192 0 0.051052884636457137 0.010606753072227365 0 0.049118533675410407 0.016813482708664642 0 0.049949938211183015 0.014446522612849552 0 0.051052884636457137 0.010606753072227365 0 0.04989686760396201 0.011038990017675757 0 0.04988479847404835 0.0089289065808009303 0 0.053915227370702118 0.0096849904450134958 0 0.051052884636457137 0.010606753072227365 0 0.050522477147708425 0.009551548268288414 0 0.04988479847404835 0.0089289065808009303 0 0.053915227370702118 0.0096849904450134958 0 0.050842444314130389 0.0061764102283230855 0 0.049435108973248369 0.0093125933152575033 0 0.050522477147708425 0.009551548268288414 0 0.049423544104612971 0.0090970562186962825 0 0.049906402039161066 0.0097427267333376998 0 0.049870927703754911 0.0093564504833188681 0 0.050265711337922715 0.0094305540471575199 0 0.049906402039161066 0.0097427267333376998 0 0.049870927703754911 0.0093564504833188681 0 0.049423544104612971 0.0090970562186962825 0 0.049870927703754911 0.0093564504833188681 0 0.049874518343709692 0.0090462047279767539 0 0.050265711337922715 0.0094305540471575199 0 0.049870927703754911 0.0093564504833188681 0 0.049874518343709692 0.0090462047279767539 0 0.051123998864894382 0.011354256636116153 0 0.050805586901484595 0.010609413037069625 0 0.05039851666817001 0.011048286608214632 0 0.051052884636457137 0.010606753072227365 0 0.050070424787627944 0.010052154744717792 0 0.050878393494962336 0.011770893937212942 0 0.051123998864894382 0.011354256636116153 0 0.05039851666817001 0.011048286608214632 0 0.049118533675410407 0.016813482708664642 0 0.048880237976571719 0.016219906600340318 0 0.046899790781089468 0.022182286758693499 0 0.047060335400957547 0.021590531558495493 0 0.046598838282390927 0.021626904366461613 0 0.047060335400957547 0.021590531558495493 0 0.04762075697689698 0.021656748069502602 0 0.04772282615708668 0.021222086496282763 0 0.04718547622814602 0.021976083192517818 0 0.047060335400957547 0.021590531558495493 0 0.04762075697689698 0.021656748069502602 0 0.049118533675410407 0.016813482708664642 0 0.047952234435956982 0.02199049611676962 0 0.04718547622814602 0.021976083192517818 0 0.04762075697689698 0.021656748069502602 0 0.048126353140204241 0.021932448300629192 0 0.048126353140204241 0.021932448300629192 0 0.048350288274887021 0.021472312590699778 0 0.049315602661143078 0.021812678301069515 0 0.04762075697689698 0.021656748069502602 0 0.048350288274887021 0.021472312590699778 0 0.04772282615708668 0.021222086496282763 0 0.04762075697689698 0.021656748069502602 0 0.048126353140204241 0.021932448300629192 0 0.048350288274887021 0.021472312590699778 0 0.048350288274887021 0.021472312590699778 0 0.048616836736606973 0.020936231049185853 0 0.04772282615708668 0.021222086496282763 0 0.048350288274887021 0.021472312590699778 0 0.048616836736606973 0.020936231049185853 0 0.049477400514283766 0.021115948999553037 0 0.048616836736606973 0.020936231049185853 0 0.04772282615708668 0.021222086496282763 0 0.048148698803095968 0.020557683127893543 0 0.047060335400957547 0.021590531558495493 0 0.047298401669886858 0.020933363771355001 0 0.04772282615708668 0.021222086496282763 0 0.047298401669886858 0.020933363771355001 0 0.04772282615708668 0.021222086496282763 0 0.048148698803095968 0.020557683127893543 0 0.051401664313140964 0.021470913669004922 0 0.050549361819934226 0.021684990744468495 0 0.051154166318085642 0.021217855201766642 0 0.050964124746209698 0.021554849812957144 0 0.048983599965286138 0.018704723501638619 0 0.051401664313140964 0.021470913669004922 0 0.050338886124602335 0.022609492124856707 0 0.050549361819934226 0.021684990744468495 0 0.050338886124602335 0.022609492124856707 0 0.050549361819934226 0.021684990744468495 0 0.049315602661143078 0.021812678301069515 0 0.050549361819934226 0.021684990744468495 0 0.050183502373530087 0.021384417722317355 0 0.051154166318085642 0.021217855201766642 0 0.048470564581568065 0.022835008366415388 0 0.048126353140204241 0.021932448300629192 0 0.049315602661143078 0.021812678301069515 0 0.048350288274887021 0.021472312590699778 0 0.049315602661143078 0.021812678301069515 0 0.049477400514283766 0.021115948999553037 0 0.050549361819934226 0.021684990744468495 0 0.049315602661143078 0.021812678301069515 0 0.050183502373530087 0.021384417722317355 0 0.049315602661143078 0.021812678301069515 0 0.049477400514283766 0.021115948999553037 0 0.050183502373530087 0.021384417722317355 0 0.049477400514283766 0.021115948999553037 0 0.05054735297935168 0.02108773385814993 0 0.05054558608307818 0.020740401941343772 0 0.049477400514283766 0.021115948999553037 0 0.050183502373530087 0.021384417722317355 0 0.05054735297935168 0.02108773385814993 0 0.050183502373530087 0.021384417722317355 0 0.05054735297935168 0.02108773385814993 0 0.051154166318085642 0.021217855201766642 0 0.05054735297935168 0.02108773385814993 0 0.051154166318085642 0.021217855201766642 0 0.051255650430981042 0.021011320880835828 0 0.051501315648745181 0.02088244337897319 0 0.05054558608307818 0.020740401941343772 0 0.051231117180548832 0.02005136989638168 0 0.051501315648745181 0.02088244337897319 0 0.051255650430981042 0.021011320880835828 0 0.05054558608307818 0.020740401941343772 0 0.05054735297935168 0.02108773385814993 0 0.051255650430981042 0.021011320880835828 0 0.05054558608307818 0.020740401941343772 0 0.05054558608307818 0.020740401941343772 0 0.051231117180548832 0.02005136989638168 0 0.049405955208231336 0.020332977596802065 0 0.049477400514283766 0.021115948999553037 0 0.05054558608307818 0.020740401941343772 0 0.049405955208231336 0.020332977596802065 0 0.048825604758931059 0.023255007830715758 0 0.050068283865642015 0.024128278825617858 0 0.049867012076325483 0.019345616483790806 0 0.051231117180548832 0.02005136989638168 0 0.049405955208231336 0.020332977596802065 0 0.047298401669886858 0.020933363771355001 0 0.048148698803095968 0.020557683127893543 0 0.047366242521144776 0.019885756095647668 0 0.048148698803095968 0.020557683127893543 0 0.048609805094025127 0.01981287410097685 0 0.047366242521144776 0.019885756095647668 0 0.048148698803095968 0.020557683127893543 0 0.049405955208231336 0.020332977596802065 0 0.048609805094025127 0.01981287410097685 0 0.048616836736606973 0.020936231049185853 0 0.049477400514283766 0.021115948999553037 0 0.049405955208231336 0.020332977596802065 0 0.048616836736606973 0.020936231049185853 0 0.048148698803095968 0.020557683127893543 0 0.049405955208231336 0.020332977596802065 0 0.049867012076325483 0.019345616483790806 0 0.048286299511288669 0.018839777493361805 0 0.048609805094025127 0.01981287410097685 0 0.049867012076325483 0.019345616483790806 0 0.049405955208231336 0.020332977596802065 0 0.048609805094025127 0.01981287410097685 0 0.048286299511288669 0.018839777493361805 0 0.048609805094025127 0.01981287410097685 0 0.047366242521144776 0.019885756095647668 0 0.046985149318592948 0.023950558058837283 0 0.046043079165917926 0.021643272741625866 0 0.044787647145841651 0.025091782220784061 0 0.045214933955307686 0.025460114658686202 0 0.044197319891109477 0.024565441391193977 0 0.044391221202376686 0.024719805350264135 0 0.044197319891109477 0.024565441391193977 0 0.043698255688400495 0.024137885867886996 0 0.044391221202376686 0.024719805350264135 0 0.044787647145841651 0.025091782220784061 0 0.044197319891109477 0.024565441391193977 0 0.044197319891109477 0.024565441391193977 0 0.04345657777760726 0.023955353724006458 0 0.043698255688400495 0.024137885867886996 0 0.046043079165917926 0.021643272741625866 0 0.04440055449992731 0.023688168326780581 0 0.047298401669886858 0.020933363771355001 0 0.047366242521144776 0.019885756095647668 0 0.046581582602777075 0.020777640332064036 0 0.04345657777760726 0.023955353724006458 0 0.043698255688400495 0.024137885867886996 0 0.04317769807471699 0.023719623147988735 0 0.044391221202376686 0.024719805350264135 0 0.044006321755569733 0.0243411999445763 0 0.043698255688400495 0.024137885867886996 0 0.044006321755569733 0.0243411999445763 0 0.043557683360199065 0.023971357130551773 0 0.043698255688400495 0.024137885867886996 0 0.043557683360199065 0.023971357130551773 0 0.043698255688400495 0.024137885867886996 0 0.043259683680401798 0.023646440017046712 0 0.043148786316532337 0.0236071977279609 0 0.043259683680401798 0.023646440017046712 0 0.043052548164529622 0.023042567828329228 0 0.043557683360199065 0.023971357130551773 0 0.043148786316532337 0.0236071977279609 0 0.043259683680401798 0.023646440017046712 0 0.043259683680401798 0.023646440017046712 0 0.043174456694473826 0.02365380428413676 0 0.043001342143033028 0.023168404402736063 0 0.043259683680401798 0.023646440017046712 0 0.043052548164529622 0.023042567828329228 0 0.043001342143033028 0.023168404402736063 0 0.043698255688400495 0.024137885867886996 0 0.043259683680401798 0.023646440017046712 0 0.043174456694473826 0.02365380428413676 0 0.043698255688400495 0.024137885867886996 0 0.043174456694473826 0.02365380428413676 0 0.04317769807471699 0.023719623147988735 0 0.042857361132322164 0.023423047843378699 0 0.042784377612517029 0.023446275237977751 0 0.04317769807471699 0.023719623147988735 0 0.045117219969267888 0.016061212742225876 0 0.04697451895148793 0.015576892608464442 0 0.043174456694473826 0.02365380428413676 0 0.042857361132322164 0.023423047843378699 0 0.04317769807471699 0.023719623147988735 0 0.043174456694473826 0.02365380428413676 0 0.042857361132322164 0.023423047843378699 0 0.043001342143033028 0.023168404402736063 0 0.045117219969267888 0.016061212742225876 0 0.047577428647443201 0.015993484742552119 0 0.0485276162126487 0.0088234320890237111 0 0.048517390484381293 0.0087852926550098832 0 0.048333077742110257 0.0082575770459459609 0 0.0485276162126487 0.0088234320890237111 0 0.048204403371954516 0.0082358804651536457 0 0.048333077742110257 0.0082575770459459609 0 0.048204403371954516 0.0082358804651536457 0 0.048333077742110257 0.0082575770459459609 0 0.048173767547854039 0.0077543414284317108 0 0.0485276162126487 0.0088234320890237111 0 0.048208337682252245 0.0086274857497736519 0 0.048253660506504141 0.0091819747641716486 0 0.0485276162126487 0.0088234320890237111 0 0.048204403371954516 0.0082358804651536457 0 0.048208337682252245 0.0086274857497736519 0 0.048208337682252245 0.0086274857497736519 0 0.048253660506504141 0.0091819747641716486 0 0.047834365810345593 0.0082347230505939902 0 0.04697451895148793 0.015576892608464442 0 0.049656299454418247 0.0078444614488965714 0 0.050553094337991315 0.010105717838505696 0 0.050805586901484595 0.010609413037069625 0 0.050380478809174296 0.010414563027829934 0 0.046143984153927189 0.021412883909444961 0 0.046598838282390927 0.021626904366461613 0 0.046752798041935689 0.021266879505229739 0 0.04697451895148793 0.015576892608464442 0 0.048880237976571719 0.016219906600340318 0 0.047060335400957547 0.021590531558495493 0 0.046598838282390927 0.021626904366461613 0 0.046752798041935689 0.021266879505229739 0 0.046581582602777075 0.020777640332064036 0 0.046143984153927189 0.021412883909444961 0 0.046752798041935689 0.021266879505229739 0 0.047060335400957547 0.021590531558495493 0 0.047298401669886858 0.020933363771355001 0 0.046752798041935689 0.021266879505229739 0 0.047298401669886858 0.020933363771355001 0 0.046581582602777075 0.020777640332064036 0 0.046752798041935689 0.021266879505229739 0 0.04440055449992731 0.023688168326780581 0 0.04697451895148793 0.015576892608464442 0 0.04345657777760726 0.023955353724006458 0 0.042784377612517029 0.023446275237977751 0 0.04317769807471699 0.023719623147988735 0 0.02143742794237374 0.025120853189276711 0 0.021094937510555505 0.025515785611583491 0 0.020956450494630213 0.024865829484830147 0 0.021094937510555505 0.025515785611583491 0 0.020687409715037752 0.025392547755686959 0 0.020956450494630213 0.024865829484830147 0 0.021094937510555505 0.025515785611583491 0 0.021495229531903606 0.026006693996666656 0 0.020772860746524312 0.026197693733636142 0 0.02143742794237374 0.025120853189276711 0 0.021094937510555505 0.025515785611583491 0 0.021495229531903606 0.026006693996666656 0 0.021767935294677389 0.02681070684231137 0 0.021495229531903606 0.026006693996666656 0 0.021179845055588484 0.026853796630454636 0 0.021767935294677389 0.02681070684231137 0 0.021495229531903606 0.026006693996666656 0 0.022047197216604142 0.026086828310168623 0 0.021495229531903606 0.026006693996666656 0 0.021179845055588484 0.026853796630454636 0 0.020772860746524312 0.026197693733636142 0 0.021179845055588484 0.026853796630454636 0 0.02060228725878574 0.027000064941981573 0 0.020772860746524312 0.026197693733636142 0 0.020970773539769862 0.027455761569855405 0 0.021179845055588484 0.026853796630454636 0 0.02060228725878574 0.027000064941981573 0 0.02060228725878574 0.027000064941981573 0 0.020772860746524312 0.026197693733636142 0 0.019877827420276405 0.02674590166212653 0 0.02036092162854921 0.025796644336774917 0 0.022890788060254092 0.0253274586165518 0 0.020772860746524312 0.026197693733636142 0 0.020687409715037752 0.025392547755686959 0 0.020223649280927115 0.025849262897368927 0 0.021094937510555505 0.025515785611583491 0 0.020772860746524312 0.026197693733636142 0 0.020687409715037752 0.025392547755686959 0 0.020687409715037752 0.025392547755686959 0 0.020223649280927115 0.025849262897368927 0 0.020486428209234905 0.024762246811081225 0 0.022890788060254092 0.0253274586165518 0 0.021002259936830709 0.024304768967720877 0 0.043044255110679261 0.022340656082872921 0 0.043152058625688092 0.022404913063425031 0 0.043052548164529622 0.023042567828329228 0 0.021557759214735177 0.024649857276254183 0 0.022019415872678864 0.024811199608755916 0 0.021423423463194462 0.023940049858337181 0 0.035692088910901018 0.020363348115629606 0 0.022890788060254092 0.0253274586165518 0 0.019267869830663177 0.025625779034197625 0 0.021348485731525757 0.030606413590965137 0 0.023264639522640195 0.026539288437459924 0 0.02060228725878574 0.027000064941981573 0 0.019941061372527387 0.027128689937997441 0 0.019877827420276405 0.02674590166212653 0 0.035692088910901018 0.020363348115629606 0 0.032819606452642272 0.02386996013967246 0 0.032819606452642272 0.02386996013967246 0 0.022890788060254092 0.0253274586165518 0 0.043691570881681831 0.021876757499442123 0 0.032819606452642272 0.02386996013967246 0 0.020970773539769862 0.027455761569855405 0 0.02060228725878574 0.027000064941981573 0 0.019941061372527387 0.027128689937997441 0 0.031380079496359806 0.02486935748413675 0 0.032819606452642272 0.02386996013967246 0 0.041895571791298263 0.022476359225730467 0 0.042150065743805143 0.02230900181268786 0 0.041743761743896782 0.021443930548578984 0 0.043175255884750997 0.023349742013835061 0 0.043152058625688092 0.022404913063425031 0 0.043052548164529622 0.023042567828329228 0 0.043148786316532337 0.0236071977279609 0 0.043175255884750997 0.023349742013835061 0 0.043052548164529622 0.023042567828329228 0 0.035692088910901018 0.020363348115629606 0 0.047577428647443201 0.015993484742552119 0 0.043044255110679261 0.022340656082872921 0 0.043052548164529622 0.023042567828329228 0 0.043001342143033028 0.023168404402736063 0 0.048754221410221996 0.0090185030657096189 0 0.048517390484381293 0.0087852926550098832 0 0.048750907660208342 0.0085170594679254488 0 0.048517390484381293 0.0087852926550098832 0 0.048333077742110257 0.0082575770459459609 0 0.048750907660208342 0.0085170594679254488 0 0.034744656384822173 0.015432898710821256 0 0.030644478787863236 0.01420815646618246 0 0.048333077742110257 0.0082575770459459609 0 0.048750907660208342 0.0085170594679254488 0 0.048248714681206846 0.007308371669176186 0 0.048333077742110257 0.0082575770459459609 0 0.048153204916276754 0.0072710996983259227 0 0.048173767547854039 0.0077543414284317108 0 0.048333077742110257 0.0082575770459459609 0 0.048153204916276754 0.0072710996983259227 0 0.048248714681206846 0.007308371669176186 0 0.020729645891421358 0.022803384326869843 0 0.020513568447443547 0.023284656449345267 0 0.020058857788081877 0.022477092343213299 0 0.020729645891421358 0.022803384326869843 0 0.020513568447443547 0.023284656449345267 0 0.021111171315067831 0.023235280294630022 0 0.020513568447443547 0.023284656449345267 0 0.021423423463194462 0.023940049858337181 0 0.021111171315067831 0.023235280294630022 0 0.035692088910901018 0.020363348115629606 0 0.034744656384822173 0.015432898710821256 0 0.021557759214735177 0.024649857276254183 0 0.020513568447443547 0.023284656449345267 0 0.021423423463194462 0.023940049858337181 0 0.022019415872678864 0.024811199608755916 0 0.021423423463194462 0.023940049858337181 0 0.021576130581467602 0.023658680322307873 0 0.020687409715037752 0.025392547755686959 0 0.020486428209234905 0.024762246811081225 0 0.020956450494630213 0.024865829484830147 0 0.020486428209234905 0.024762246811081225 0 0.020756659747754348 0.024230074384259517 0 0.020956450494630213 0.024865829484830147 0 0.021002259936830709 0.024304768967720877 0 0.020010574734217534 0.023497176396850301 0 0.020486428209234905 0.024762246811081225 0 0.020823275266183161 0.023824633852955447 0 0.020756659747754348 0.024230074384259517 0 0.021423423463194462 0.023940049858337181 0 0.021576130581467602 0.023658680322307873 0 0.021111171315067831 0.023235280294630022 0 0.021576130581467602 0.023658680322307873 0 0.021111171315067831 0.023235280294630022 0 0.021111070474826323 0.022766975358322838 0 0.021576130581467602 0.023658680322307873 0 0.021111070474826323 0.022766975358322838 0 0.021399701710684168 0.022867132458612958 0 0.020729645891421358 0.022803384326869843 0 0.021111171315067831 0.023235280294630022 0 0.021111070474826323 0.022766975358322838 0 0.020729645891421358 0.022803384326869843 0 0.021111070474826323 0.022766975358322838 0 0.020737819675224336 0.02240144692482781 0 0.020773567821284637 0.023892678351178046 0 0.021147367983811199 0.022862550758177141 0 0.02128245987482949 0.023594648540567875 0 0.021111070474826323 0.022766975358322838 0 0.021399701710684168 0.022867132458612958 0 0.021258520442099787 0.022522983666746509 0 0.020773567821284637 0.023892678351178046 0 0.021245480693141711 0.024293621344852721 0 0.020756659747754348 0.024230074384259517 0 0.020010574734217534 0.023497176396850301 0 0.020261482228723912 0.023862745221259703 0 0.020010574734217534 0.023497176396850301 0 0.018721886687108658 0.020920342487865333 0 0.020773567821284637 0.023892678351178046 0 0.021245480693141711 0.024293621344852721 0 0.02128245987482949 0.023594648540567875 0 0.021245480693141711 0.024293621344852721 0 0.020756659747754348 0.024230074384259517 0 0.020956450494630213 0.024865829484830147 0 0.02143742794237374 0.025120853189276711 0 0.021245480693141711 0.024293621344852721 0 0.020956450494630213 0.024865829484830147 0 0.018628670660738877 0.010710182410266764 0 0.018394555693247275 0.010668575499228634 0 0.017573176774076615 0.0098278045823317478 0 0.018721886687108658 0.020920342487865333 0 0.017617689270603035 0.016921468231537676 0 0.021508531513867262 0.022632030091823182 0 0.018721886687108658 0.020920342487865333 0 0.020930487821601902 0.022089901216084642 0 0.020951727711566143 0.022366299436458795 0 0.020737819675224336 0.02240144692482781 0 0.021111070474826323 0.022766975358322838 0 0.021004627140528687 0.022167390891727579 0 0.020951727711566143 0.022366299436458795 0 0.018852761088533249 0.014842566706238725 0 0.017617689270603035 0.016921468231537676 0 0.020010574734217534 0.023497176396850301 0 0.017617689270603035 0.016921468231537676 0 0.017806498488606541 0.021352177226694566 0 0.017655535024979189 0.021141279155315371 0 0.017625678961016515 0.020975718479966047 0 0.016517114432934535 0.019770015472676195 0 0.016207928275483823 0.020779477816272339 0 0.017630137379954093 0.019461219367034568 0 0.018852761088533249 0.014842566706238725 0 0.017522224336577429 0.017921956764744482 0 0.018852761088533249 0.014842566706238725 0 0.018721886687108658 0.020920342487865333 0 0.020930487821601902 0.022089901216084642 0 0.021004627140528687 0.022167390891727579 0 0.020951727711566143 0.022366299436458795 0 0.021111070474826323 0.022766975358322838 0 0.020951727711566143 0.022366299436458795 0 0.020737819675224336 0.02240144692482781 0 0.018994443759705517 0.011782456591044214 0 0.018394555693247275 0.010668575499228634 0 0.018528540249296847 0.011656570256796249 0 0.018628670660738877 0.010710182410266764 0 0.018994443759705517 0.011782456591044214 0 0.018394555693247275 0.010668575499228634 0 0.018394555693247275 0.010668575499228634 0 0.018528540249296847 0.011656570256796249 0 0.018144665335895139 0.010368682422635162 0 0.017522224336577429 0.017921956764744482 0 0.030644478787863236 0.01420815646618246 0 0.018528540249296847 0.011656570256796249 0 0.017992433531445223 0.013685568484239633 0 0.018354625932563082 0.014344388962413121 0 0.020729645891421358 0.022803384326869843 0 0.020737819675224336 0.02240144692482781 0 0.020058857788081877 0.022477092343213299 0 0.018994443759705517 0.011782456591044214 0 0.018528540249296847 0.011656570256796249 0 0.018354625932563082 0.014344388962413121 0 0.035676372374917054 0.010214520416932427 0 0.030644478787863236 0.01420815646618246 0 0.035676372374917054 0.010214520416932427 0 0.037424851376383933 0.0086199242461362496 0 0.047920625363453977 0.0066441300980386985 0 0.048153204916276754 0.0072710996983259227 0 0.048056387611927674 0.0062586763765090838 0 0.048028603818009011 0.006938321284292461 0 0.047920625363453977 0.0066441300980386985 0 0.048153204916276754 0.0072710996983259227 0 0.047019647458239985 0.0069721736943769144 0 0.047920625363453977 0.0066441300980386985 0 0.048056387611927674 0.0062586763765090838 0 0.039695045004102522 0.011876155945539516 0 0.030644478787863236 0.01420815646618246 0 0.048028603818009011 0.006938321284292461 0 0.048153204916276754 0.0072710996983259227 0 0.048136677359985558 0.007401001365181327 0 0.048153204916276754 0.0072710996983259227 0 0.048136677359985558 0.007401001365181327 0 0.048173767547854039 0.0077543414284317108 0 0.048028603818009011 0.006938321284292461 0 0.048136677359985558 0.007401001365181327 0 0.048086345745276829 0.0075728588658668852 0 0.035676372374917054 0.010214520416932427 0 0.027116132402645082 0.010828088972276349 0 0.037451998971697112 0.010124670425516728 0 0.037521593644040993 0.010108542810938237 0 0.037522046691788789 0.010106969498567975 0 0.018528540249296847 0.011656570256796249 0 0.017992433531445223 0.013685568484239633 0 0.017674141899810529 0.010964254018112919 0 0.035676372374917054 0.010214520416932427 0 0.043099508536534929 0.0087136282047915042 0 0.043099508536534929 0.0087136282047915042 0 0.046870998998545382 0.0077203237957068288 0 0.027116132402645082 0.010828088972276349 0 0.027041293345607773 0.01032704860282241 0 0.037521593644040993 0.010108542810938237 0 0.037522046691788789 0.010106969498567975 0 0.037594565885105624 0.0098884008250496869 0 0.037522046691788789 0.010106969498567975 0 0.037594565885105624 0.0098884008250496869 0 0.03751055283731277 0.0098559267408165983 0 0.037594565885105624 0.0098884008250496869 0 0.03751055283731277 0.0098559267408165983 0 0.037620965467796474 0.0095615400138693331 0 0.017969306983241881 0.010350674359135141 0 0.018144665335895139 0.010368682422635162 0 0.01807559439887348 0.01034053058816003 0 0.018144665335895139 0.010368682422635162 0 0.017977580612665703 0.010346253681437535 0 0.01807559439887348 0.01034053058816003 0 0.017674141899810529 0.010964254018112919 0 0.017969306983241881 0.010350674359135141 0 0.018144665335895139 0.010368682422635162 0 0.018528540249296847 0.011656570256796249 0 0.017674141899810529 0.010964254018112919 0 0.018144665335895139 0.010368682422635162 0 0.018394555693247275 0.010668575499228634 0 0.018144665335895139 0.010368682422635162 0 0.017681913278137583 0.0099810200046862932 0 0.018144665335895139 0.010368682422635162 0 0.017681913278137583 0.0099810200046862932 0 0.017977580612665703 0.010346253681437535 0 0.017568655768192009 0.010694504182689721 0 0.017618881590764451 0.010466326141938036 0 0.017875105113099671 0.010460448297364982 0 0.017879164358874509 0.010525328369941422 0 0.017888289435295988 0.010377423125060762 0 0.017568655768192009 0.010694504182689721 0 0.017618881590764451 0.010466326141938036 0 0.01664245134545924 0.010520843413944941 0 0.016569298010176363 0.010953796309561593 0 0.016474673123308949 0.010439702814474804 0 0.015265995974873676 0.011646455816964208 0 0.01664245134545924 0.010520843413944941 0 0.015324598797024473 0.011113878042830675 0 0.017568655768192009 0.010694504182689721 0 0.016709561427195676 0.010189086842001776 0 0.01664245134545924 0.010520843413944941 0 0.017879164358874509 0.010525328369941422 0 0.015914279237038094 0.0092430191632149987 0 0.018394555693247275 0.010668575499228634 0 0.017681913278137583 0.0099810200046862932 0 0.017573176774076615 0.0098278045823317478 0 0.049987065078853754 0.0094270247304152743 0 0.050070424787627944 0.010052154744717792 0 0.049703586214390534 0.0087511477385028447 0 0.049874518343709692 0.0090462047279767539 0 0.049452278372901566 0.0086195429483312026 0 0.050805586901484595 0.010609413037069625 0 0.05039851666817001 0.011048286608214632 0 0.050380478809174296 0.010414563027829934 0 0.05006184320850697 0.010120257382948432 0 0.05039851666817001 0.011048286608214632 0 0.050380478809174296 0.010414563027829934 0 0.050553094337991315 0.010105717838505696 0 0.050380478809174296 0.010414563027829934 0 0.050363274614532091 0.0099611559867909434 0 0.05006184320850697 0.010120257382948432 0 0.050380478809174296 0.010414563027829934 0 0.050363274614532091 0.0099611559867909434 0 0.048204403371954516 0.0082358804651536457 0 0.048208337682252245 0.0086274857497736519 0 0.047834365810345593 0.0082347230505939902 0 0.048204403371954516 0.0082358804651536457 0 0.047834365810345593 0.0082347230505939902 0 0.048109143859002092 0.0076959505620310467 0 0.048204403371954516 0.0082358804651536457 0 0.048173767547854039 0.0077543414284317108 0 0.048109143859002092 0.0076959505620310467 0 0.048136677359985558 0.007401001365181327 0 0.048173767547854039 0.0077543414284317108 0 0.048109143859002092 0.0076959505620310467 0 0.048086345745276829 0.0075728588658668852 0 0.048109143859002092 0.0076959505620310467 0 0.047882668074182802 0.0076138979543202978 0 0.048136677359985558 0.007401001365181327 0 0.048086345745276829 0.0075728588658668852 0 0.048109143859002092 0.0076959505620310467 0 0.05006184320850697 0.010120257382948432 0 0.050363274614532091 0.0099611559867909434 0 0.050152543558364175 0.0089047687448481991 0 0.049987065078853754 0.0094270247304152743 0 0.050219591570366602 0.0089923687202991733 0 0.050363274614532091 0.0099611559867909434 0 0.050152543558364175 0.0089047687448481991 0 0.050186177944695556 0.0085396520172803143 0 0.047834365810345593 0.0082347230505939902 0 0.048109143859002092 0.0076959505620310467 0 0.047882668074182802 0.0076138979543202978 0 0.049703586214390534 0.0087511477385028447 0 0.050152543558364175 0.0089047687448481991 0 0.0496496662385746 0.0085393179293931504 0 0.049656299454418247 0.0078444614488965714 0 0.049225301432629757 0.0081814883589651534 0 0.049784883879625222 0.0083189591223036315 0 0.050186177944695556 0.0085396520172803143 0 0.04962635789852228 0.0076478804059351866 0 0.050152543558364175 0.0089047687448481991 0 0.049784883879625222 0.0083189591223036315 0 0.0496496662385746 0.0085393179293931504 0 0.050152543558364175 0.0089047687448481991 0 0.049784883879625222 0.0083189591223036315 0 0.050186177944695556 0.0085396520172803143 0 0.049784883879625222 0.0083189591223036315 0 0.04962635789852228 0.0076478804059351866 0 0.049440522875981954 0.0080886240965105556 0 0.049784883879625222 0.0083189591223036315 0 0.049440522875981954 0.0080886240965105556 0 0.0496496662385746 0.0085393179293931504 0 0.049225301432629757 0.0081814883589651534 0 0.046870998998545382 0.0077203237957068288 0 0.048086345745276829 0.0075728588658668852 0 0.047882668074182802 0.0076138979543202978 0 0.047970982216151585 0.0070912092609770943 0 0.050114447456156334 0.0072024425165208988 0 0.04962635789852228 0.0076478804059351866 0 0.049523004280959418 0.0069692120537740388 0 0.050186177944695556 0.0085396520172803143 0 0.050114447456156334 0.0072024425165208988 0 0.04962635789852228 0.0076478804059351866 0 0.04962635789852228 0.0076478804059351866 0 0.048976016597035377 0.0068001062533547063 0 0.049523004280959418 0.0069692120537740388 0 0.04962635789852228 0.0076478804059351866 0 0.049440522875981954 0.0080886240965105556 0 0.048976016597035377 0.0068001062533547063 0 0.049440522875981954 0.0080886240965105556 0 0.049452278372901566 0.0086195429483312026 0 0.049112474061098019 0.0080861609373969103 0 0.049440522875981954 0.0080886240965105556 0 0.049112474061098019 0.0080861609373969103 0 0.048976016597035377 0.0068001062533547063 0 0.049440522875981954 0.0080886240965105556 0 0.0496496662385746 0.0085393179293931504 0 0.049452278372901566 0.0086195429483312026 0 0.049703586214390534 0.0087511477385028447 0 0.0496496662385746 0.0085393179293931504 0 0.049452278372901566 0.0086195429483312026 0 0.049423544104612971 0.0090970562186962825 0 0.049452278372901566 0.0086195429483312026 0 0.049112474061098019 0.0080861609373969103 0 0.049423544104612971 0.0090970562186962825 0 0.049874518343709692 0.0090462047279767539 0 0.049452278372901566 0.0086195429483312026 0 0.049435108973248369 0.0093125933152575033 0 0.049157940850292695 0.0081304144636763602 0 0.049065101257765059 0.008659092059959515 0 0.049162555588087908 0.0082166392215220364 0 0.048636278086717402 0.0075728232484736646 0 0.049162555588087908 0.0082166392215220364 0 0.048684947960640372 0.006796710087624433 0 0.048636278086717402 0.0075728232484736646 0 0.048290178404501373 0.0059020939801536741 0 0.048636278086717402 0.0075728232484736646 0 0.048135543223484387 0.0065683310146485412 0 0.048684947960640372 0.006796710087624433 0 0.048290178404501373 0.0059020939801536741 0 0.048636278086717402 0.0075728232484736646 0 0.048684947960640372 0.006796710087624433 0 0.048994943704388491 0.0067529517033090795 0 0.048569749008925855 0.0054591263408021642 0 0.048684947960640372 0.006796710087624433 0 0.048569749008925855 0.0054591263408021642 0 0.048290178404501373 0.0059020939801536741 0 0.049162555588087908 0.0082166392215220364 0 0.048684947960640372 0.006796710087624433 0 0.048994943704388491 0.0067529517033090795 0 0.049157940850292695 0.0081304144636763602 0 0.048960085317444932 0.0067371544426283684 0 0.048976016597035377 0.0068001062533547063 0 0.049523004280959418 0.0069692120537740388 0 0.049383766990055832 0.006200199503362174 0 0.050114447456156334 0.0072024425165208988 0 0.049523004280959418 0.0069692120537740388 0 0.049383766990055832 0.006200199503362174 0 0.046870998998545382 0.0077203237957068288 0 0.049373805924147363 0.006500922746518107 0 0.048976016597035377 0.0068001062533547063 0 0.049383766990055832 0.006200199503362174 0 0.04887060285457473 0.0051153845422972858 0 0.049383766990055832 0.006200199503362174 0 0.04887060285457473 0.0051153845422972858 0 0.049232211931999767 0.0052792397209298694 0 0.04887060285457473 0.0051153845422972858 0 0.048823803767600447 0.0043235521397321387 0 0.049232211931999767 0.0052792397209298694 0 0.048960085317444932 0.0067371544426283684 0 0.048992452414609394 0.0053423260707937013 0 0.048994943704388491 0.0067529517033090795 0 0.04887060285457473 0.0051153845422972858 0 0.048569749008925855 0.0054591263408021642 0 0.048569749008925855 0.0054591263408021642 0 0.04829611392234559 0.0039940110162341603 0 0.048274461226654304 0.0051212837841682762 0 0.04887060285457473 0.0051153845422972858 0 0.048569749008925855 0.0054591263408021642 0 0.048591740991701583 0.0043742315180955119 0 0.048569749008925855 0.0054591263408021642 0 0.048591740991701583 0.0043742315180955119 0 0.04829611392234559 0.0039940110162341603 0 0.048591740991701583 0.0043742315180955119 0 0.048500196536626662 0.0033337560565813735 0 0.04829611392234559 0.0039940110162341603 0 0.04887060285457473 0.0051153845422972858 0 0.048823803767600447 0.0043235521397321387 0 0.048591740991701583 0.0043742315180955119 0 0.048823803767600447 0.0043235521397321387 0 0.048591740991701583 0.0043742315180955119 0 0.048500196536626662 0.0033337560565813735 0 0.048500196536626662 0.0033337560565813735 0 0.04829611392234559 0.0039940110162341603 0 0.04823144701751917 0.0025063547950081406 0 0.04829611392234559 0.0039940110162341603 0 0.04807147355468782 0.0030214881679898214 0 0.04823144701751917 0.0025063547950081406 0 0.04829611392234559 0.0039940110162341603 0 0.048044315602944747 0.0037291696447421417 0 0.04807147355468782 0.0030214881679898214 0 0.04829611392234559 0.0039940110162341603 0 0.048044315602944747 0.0037291696447421417 0 0.048084587439900899 0.0044177157155824544 0 0.04829611392234559 0.0039940110162341603 0 0.048084587439900899 0.0044177157155824544 0 0.048274461226654304 0.0051212837841682762 0 0.048044315602944747 0.0037291696447421417 0 0.048084587439900899 0.0044177157155824544 0 0.047827720583599236 0.0039418893587117891 0 0.048084587439900899 0.0044177157155824544 0 0.047915277794191198 0.0047639612473626873 0 0.048274461226654304 0.0051212837841682762 0 0.048084587439900899 0.0044177157155824544 0 0.047915277794191198 0.0047639612473626873 0 0.047827720583599236 0.0039418893587117891 0 0.047915277794191198 0.0047639612473626873 0 0.048290178404501373 0.0059020939801536741 0 0.047852001256139975 0.0055421722941731396 0 0.047915277794191198 0.0047639612473626873 0 0.047592987991015627 0.0046867099429351361 0 0.047852001256139975 0.0055421722941731396 0 0.048290178404501373 0.0059020939801536741 0 0.048135543223484387 0.0065683310146485412 0 0.047852001256139975 0.0055421722941731396 0 0.048569749008925855 0.0054591263408021642 0 0.048290178404501373 0.0059020939801536741 0 0.048274461226654304 0.0051212837841682762 0 0.047915277794191198 0.0047639612473626873 0 0.048290178404501373 0.0059020939801536741 0 0.048274461226654304 0.0051212837841682762 0 0.014650506143000272 0.012332381982948209 0 0.014799032572939562 0.011895805955738527 0 0.015696927993160251 0.012196480109843038 0 0.014650506143000272 0.012332381982948209 0 0.014175179783444299 0.012047938697052602 0 0.013873904261366223 0.012252367563818993 0 0.014650506143000272 0.012332381982948209 0 0.014799032572939562 0.011895805955738527 0 0.014175179783444299 0.012047938697052602 0 0.014799032572939562 0.011895805955738527 0 0.015265995974873676 0.011646455816964208 0 0.014791429508301391 0.01155529686465775 0 0.014799032572939562 0.011895805955738527 0 0.015265995974873676 0.011646455816964208 0 0.015696927993160251 0.012196480109843038 0 0.015265995974873676 0.011646455816964208 0 0.014791429508301391 0.01155529686465775 0 0.015324598797024473 0.011113878042830675 0 0.017618881590764451 0.010466326141938036 0 0.017875105113099671 0.010460448297364982 0 0.017880082559424113 0.010603085483051448 0 0.016569298010176363 0.010953796309561593 0 0.015968776000366731 0.011675230793342383 0 0.017875105113099671 0.010460448297364982 0 0.017880082559424113 0.010603085483051448 0 0.01800899028636253 0.010547245344505098 0 0.017880082559424113 0.010603085483051448 0 0.018161735145393241 0.010607748365831164 0 0.01800899028636253 0.010547245344505098 0 0.018161735145393241 0.010607748365831164 0 0.01800899028636253 0.010547245344505098 0 0.018166052062708278 0.0104818544728933 0 0.017977580612665703 0.010346253681437535 0 0.01807559439887348 0.01034053058816003 0 0.018166052062708278 0.0104818544728933 0 0.017888289435295988 0.010377423125060762 0 0.018163643751515361 0.010507496784430422 0 0.017875105113099671 0.010460448297364982 0 0.01800899028636253 0.010547245344505098 0 0.018166052062708278 0.0104818544728933 0 0.027041293345607773 0.01032704860282241 0 0.038642431265463628 0.0085584933090667361 0 0.046870998998545382 0.0077203237957068288 0 0.038642431265463628 0.0085584933090667361 0 0.01807559439887348 0.01034053058816003 0 0.0182286700428596 0.01040187318922915 0 0.018166052062708278 0.0104818544728933 0 0.017969306983241881 0.010350674359135141 0 0.01807559439887348 0.01034053058816003 0 0.0182286700428596 0.01040187318922915 0 0.049608649246707423 0.0073292032750206636 0 0.049383766990055832 0.006200199503362174 0 0.049909906100465938 0.0058588177091271985 0 0.049383766990055832 0.006200199503362174 0 0.049909906100465938 0.0058588177091271985 0 0.049232211931999767 0.0052792397209298694 0 0.049442279590102722 0.0040873989438550539 0 0.049176542247744995 0.0058826903483631876 0 0.049137289792610818 0.004591581847253866 0 0.018161735145393241 0.010607748365831164 0 0.0182286700428596 0.01040187318922915 0 0.018166052062708278 0.0104818544728933 0 0.049909906100465938 0.0058588177091271985 0 0.049232211931999767 0.0052792397209298694 0 0.049137289792610818 0.004591581847253866 0 0.034227685116342998 0.0065210668173657478 0 0.038642431265463628 0.0085584933090667361 0 0.038642431265463628 0.0085584933090667361 0 0.048011536027683932 0.0042543229245569393 0 0.048823803767600447 0.0043235521397321387 0 0.049232211931999767 0.0052792397209298694 0 0.049137289792610818 0.004591581847253866 0 0.048823803767600447 0.0043235521397321387 0 0.049137289792610818 0.004591581847253866 0 0.048741919718135233 0.0032244207438322063 0 0.049442279590102722 0.0040873989438550539 0 0.049137289792610818 0.004591581847253866 0 0.048741919718135233 0.0032244207438322063 0 0.048823803767600447 0.0043235521397321387 0 0.048500196536626662 0.0033337560565813735 0 0.048741919718135233 0.0032244207438322063 0 0.048500196536626662 0.0033337560565813735 0 0.048741919718135233 0.0032244207438322063 0 0.048358982772058565 0.0021409865115796559 0 0.048500196536626662 0.0033337560565813735 0 0.048358982772058565 0.0021409865115796559 0 0.04823144701751917 0.0025063547950081406 0 0.048358982772058565 0.0021409865115796559 0 0.048615824158792072 0.0013919759667287376 0 0.047781695839961634 0.00098514545146225949 0 0.018782013197253311 0.015617146498765113 0 0.016901605766773079 0.01533743148671849 0 0.017743585685622416 0.016779996836965433 0 0.048741919718135233 0.0032244207438322063 0 0.048358982772058565 0.0021409865115796559 0 0.048615824158792072 0.0013919759667287376 0 0.024600606362293862 0.0098739526926563993 0 0.033928345994772811 0.0087964927352681879 0 0.049442279590102722 0.0040873989438550539 0 0.048741919718135233 0.0032244207438322063 0 0.048615824158792072 0.0013919759667287376 0 0.017880082559424113 0.010603085483051448 0 0.018161735145393241 0.010607748365831164 0 0.01810560845965363 0.010782273061635891 0 0.034227685116342998 0.0065210668173657478 0 0.024600606362293862 0.0098739526926563993 0 0.015968776000366731 0.011675230793342383 0 0.024600606362293862 0.0098739526926563993 0 0.015696927993160251 0.012196480109843038 0 0.016817700669655367 0.014539158348141672 0 0.015290780991277106 0.013537288623939785 0 0.024600606362293862 0.0098739526926563993 0 0.016503185124163204 0.017653376938437593 0 0.016817700669655367 0.014539158348141672 0 0.016901605766773079 0.01533743148671849 0 0.015290780991277106 0.013537288623939785 0 0.016901605766773079 0.01533743148671849 0 0.015368937773475732 0.014437973216544964 0 0.015290780991277106 0.013537288623939785 0 0.015368937773475732 0.014437973216544964 0 0.015290780991277106 0.013537288623939785 0 0.013932163173010419 0.013253521059585854 0 0.014650506143000272 0.012332381982948209 0 0.015696927993160251 0.012196480109843038 0 0.015290780991277106 0.013537288623939785 0 0.015290780991277106 0.013537288623939785 0 0.014191755240479012 0.012832572039439256 0 0.013932163173010419 0.013253521059585854 0 0.014650506143000272 0.012332381982948209 0 0.015290780991277106 0.013537288623939785 0 0.014191755240479012 0.012832572039439256 0 0.014650506143000272 0.012332381982948209 0 0.014191755240479012 0.012832572039439256 0 0.013873904261366223 0.012252367563818993 0 0.013435810644256333 0.015140987246538621 0 0.014028965017541663 0.015955397371708268 0 0.013097861113846965 0.015377819172785892 0 0.015043862956563507 0.014663949525358337 0 0.016481224054361702 0.01573971839026897 0 0.015783688539000806 0.01520705349727027 0 0.014221992121774382 0.014797804358800824 0 0.014879356736862821 0.015902023083142182 0 0.015043862956563507 0.014663949525358337 0 0.015939797233837712 0.015094887536558611 0 0.016481224054361702 0.01573971839026897 0 0.015368937773475732 0.014437973216544964 0 0.015043862956563507 0.014663949525358337 0 0.013932163173010419 0.013253521059585854 0 0.015368937773475732 0.014437973216544964 0 0.015043862956563507 0.014663949525358337 0 0.015939797233837712 0.015094887536558611 0 0.016901605766773079 0.01533743148671849 0 0.015939797233837712 0.015094887536558611 0 0.016481224054361702 0.01573971839026897 0 0.016901605766773079 0.01533743148671849 0 0.015368937773475732 0.014437973216544964 0 0.015939797233837712 0.015094887536558611 0 0.016481224054361702 0.01573971839026897 0 0.01696357521224422 0.016144153777938281 0 0.017743585685622416 0.016779996836965433 0 0.016481224054361702 0.01573971839026897 0 0.01696357521224422 0.016144153777938281 0 0.016283743238442765 0.015785313330530674 0 0.016901605766773079 0.01533743148671849 0 0.016481224054361702 0.01573971839026897 0 0.017743585685622416 0.016779996836965433 0 0.047781695839961634 0.00098514545146225949 0 0.04823144701751917 0.0025063547950081406 0 0.048040580329310932 0.0020042951685397691 0 0.048358982772058565 0.0021409865115796559 0 0.047781695839961634 0.00098514545146225949 0 0.04823144701751917 0.0025063547950081406 0 0.01696357521224422 0.016144153777938281 0 0.017743585685622416 0.016779996836965433 0 0.016983604697479806 0.016323946324987959 0 0.047781695839961634 0.00098514545146225949 0 0.047808867397342782 0.0016028414742103865 0 0.048040580329310932 0.0020042951685397691 0 0.033928345994772811 0.0087964927352681879 0 0.03276324532811585 0.00942645813687416 0 0.01696357521224422 0.016144153777938281 0 0.016983604697479806 0.016323946324987959 0 0.016797456604684 0.016366955529085327 0 0.016983604697479806 0.016323946324987959 0 0.016797456604684 0.016366955529085327 0 0.017167121189047035 0.016793859772683776 0 0.016797456604684 0.016366955529085327 0 0.016280453066432759 0.016191770468519325 0 0.017167121189047035 0.016793859772683776 0 0.013415311289883809 0.013279502377106593 0 0.029169390650808896 0.0068164571132644835 0 0.013415311289883809 0.013279502377106593 0 0.016036106054121091 0.013177785618786377 0 0.016280453066432759 0.016191770468519325 0 0.016283743238442765 0.015785313330530674 0 0.01560766057303581 0.014860561402338159 0 0.016797456604684 0.016366955529085327 0 0.016280453066432759 0.016191770468519325 0 0.016283743238442765 0.015785313330530674 0 0.01696357521224422 0.016144153777938281 0 0.016797456604684 0.016366955529085327 0 0.016283743238442765 0.015785313330530674 0 0.016481224054361702 0.01573971839026897 0 0.016283743238442765 0.015785313330530674 0 0.015783688539000806 0.01520705349727027 0 0.016283743238442765 0.015785313330530674 0 0.01560766057303581 0.014860561402338159 0 0.015783688539000806 0.01520705349727027 0 0.014812114819031288 0.014940577681439374 0 0.015066227474413958 0.014202227057957732 0 0.014028965017541663 0.015955397371708268 0 0.016036106054121091 0.013177785618786377 0 0.014879356736862821 0.015902023083142182 0 0.015066227474413958 0.014202227057957732 0 0.014028965017541663 0.015955397371708268 0 0.013761754705038366 0.015419973247285746 0 0.016036106054121091 0.013177785618786377 0 0.015235046554232202 0.013682094683187242 0 0.014883581180369834 0.012710396052999022 0 0.015066227474413958 0.014202227057957732 0 0.015512215073302667 0.012477748518816053 0 0.014028965017541663 0.015955397371708268 0 0.013097861113846965 0.015377819172785892 0 0.013761754705038366 0.015419973247285746 0 0.047632465004615328 0.002853628938165249 0 0.047275115536342401 0.0026529471808475831 0 0.047634339270813182 0.0023028841914202397 0 0.047275115536342401 0.0026529471808475831 0 0.04714317887830273 0.0037937247161225237 0 0.047523211892307606 0.0034358300051804229 0 0.047632465004615328 0.002853628938165249 0 0.047275115536342401 0.0026529471808475831 0 0.047523211892307606 0.0034358300051804229 0 0.04714317887830273 0.0037937247161225237 0 0.047545222386620581 0.0040204918285225389 0 0.045837604691983308 0.0036115773218677507 0 0.046934502801657334 0.0023103216044998202 0 0.04714317887830273 0.0037937247161225237 0 0.046419088834851775 0.0025371480785700458 0 0.04714317887830273 0.0037937247161225237 0 0.046419088834851775 0.0025371480785700458 0 0.045837604691983308 0.0036115773218677507 0 0.047049924689659101 0.0025906592064012766 0 0.047021764842130512 0.0035653758515724449 0 0.04714317887830273 0.0037937247161225237 0 0.047545222386620581 0.0040204918285225389 0 0.047523211892307606 0.0034358300051804229 0 0.047592987991015627 0.0046867099429351361 0 0.047545222386620581 0.0040204918285225389 0 0.047212401476710693 0.0041189818868102787 0 0.047915277794191198 0.0047639612473626873 0 0.047592987991015627 0.0046867099429351361 0 0.047545222386620581 0.0040204918285225389 0 0.047915277794191198 0.0047639612473626873 0 0.047545222386620581 0.0040204918285225389 0 0.047827720583599236 0.0039418893587117891 0 0.047545222386620581 0.0040204918285225389 0 0.047827720583599236 0.0039418893587117891 0 0.047523211892307606 0.0034358300051804229 0 0.047632465004615328 0.002853628938165249 0 0.047523211892307606 0.0034358300051804229 0 0.047817149375353793 0.0032796439431213077 0 0.047827720583599236 0.0039418893587117891 0 0.047523211892307606 0.0034358300051804229 0 0.047817149375353793 0.0032796439431213077 0 0.048044315602944747 0.0037291696447421417 0 0.047827720583599236 0.0039418893587117891 0 0.047817149375353793 0.0032796439431213077 0 0.048044315602944747 0.0037291696447421417 0 0.047817149375353793 0.0032796439431213077 0 0.04807147355468782 0.0030214881679898214 0 0.047817149375353793 0.0032796439431213077 0 0.04807147355468782 0.0030214881679898214 0 0.04784587029984614 0.0025865825135820298 0 0.04807147355468782 0.0030214881679898214 0 0.04823144701751917 0.0025063547950081406 0 0.048040580329310932 0.0020042951685397691 0 0.04807147355468782 0.0030214881679898214 0 0.048040580329310932 0.0020042951685397691 0 0.04784587029984614 0.0025865825135820298 0 0.047808867397342782 0.0016028414742103865 0 0.048040580329310932 0.0020042951685397691 0 0.047868950014011265 0.0020887712701369294 0 0.048040580329310932 0.0020042951685397691 0 0.047868950014011265 0.0020887712701369294 0 0.04784587029984614 0.0025865825135820298 0 0.047632465004615328 0.002853628938165249 0 0.04784587029984614 0.0025865825135820298 0 0.047634339270813182 0.0023028841914202397 0 0.047632465004615328 0.002853628938165249 0 0.047817149375353793 0.0032796439431213077 0 0.04784587029984614 0.0025865825135820298 0 0.047868950014011265 0.0020887712701369294 0 0.04784587029984614 0.0025865825135820298 0 0.047634339270813182 0.0023028841914202397 0 0.047868950014011265 0.0020887712701369294 0 0.047634339270813182 0.0023028841914202397 0 0.047646438309241451 0.0017903943886343082 0 0.047275115536342401 0.0026529471808475831 0 0.047634339270813182 0.0023028841914202397 0 0.047362620620674208 0.0017431018971634166 0 0.047634339270813182 0.0023028841914202397 0 0.047362620620674208 0.0017431018971634166 0 0.047646438309241451 0.0017903943886343082 0 0.047510606564794153 0.0015200108340904192 0 0.047450183431926772 0.0016134152641250081 0 0.047389967967711603 0.0012035393092929433 0 0.04716323442571712 0.0011355179630884462 0 0.047741982727110305 0.001798200593058347 0 0.047510606564794153 0.0015200108340904192 0 0.047450183431926772 0.0016134152641250081 0 0.047646438309241451 0.0017903943886343082 0 0.047808867397342782 0.0016028414742103865 0 0.047510606564794153 0.0015200108340904192 0 0.047646438309241451 0.0017903943886343082 0 0.047808867397342782 0.0016028414742103865 0 0.047868950014011265 0.0020887712701369294 0 0.047646438309241451 0.0017903943886343082 0 0.047808867397342782 0.0016028414742103865 0 0.047510606564794153 0.0015200108340904192 0 0.047389403134254639 0.00090566533430441222 0 0.03276324532811585 0.00942645813687416 0 0.029169390650808896 0.0068164571132644835 0 0.047510606564794153 0.0015200108340904192 0 0.047389403134254639 0.00090566533430441222 0 0.047389967967711603 0.0012035393092929433 0 0.047351622938794191 0.0010016992829813688 0 0.047389403134254639 0.00090566533430441222 0 0.047389967967711603 0.0012035393092929433 0 0.048818476752427384 -0.0040727027505817965 0 0.048830102975589824 -0.004278195188216408 0 0.048720080426250562 -0.0041358553755600968 0 0.043137970429469603 0.00024839988074821536 0 0.046523642504393989 -0.00037786789860290898 0 0.043137970429469603 0.00024839988074821536 0 0.030806364598297296 0.005454040719373901 0 0.030806364598297296 0.005454040719373901 0 0.029169390650808896 0.0068164571132644835 0 0.050073425802365477 -0.00735837597540251 0 0.04557697260172424 -0.0030035067776043381 0 0.043617340414326987 -0.0069905686803586192 0 0.043137970429469603 0.00024839988074821536 0 0.029169390650808896 0.0068164571132644835 0 0.047012339665348887 -0.00087669803670377194 0 0.046926796929139598 -0.00067071174763246391 0 0.046246376184394235 -0.0013481159522198151 0 0.047320598658837192 0.00014240549532696823 0 0.047027368497473382 -0.00064404970250844177 0 0.046926796929139598 -0.00067071174763246391 0 0.04716323442571712 0.0011355179630884462 0 0.046523642504393989 -0.00037786789860290898 0 0.047320598658837192 0.00014240549532696823 0 0.047345947680062402 -0.00044290394517094138 0 0.047027368497473382 -0.00064404970250844177 0 0.046523642504393989 -0.00037786789860290898 0 0.047470502998319827 -0.0010257433864265036 0 0.045260379727865459 0.00016492492346749355 0 0.046449769789140546 -0.0010096444592063189 0 0.047871569146874349 -3.840513372863704e-06 0 0.048818476752427384 -0.0040727027505817965 0 0.048987418490456541 -0.0036609163763882784 0 0.048720080426250562 -0.0041358553755600968 0 0.043137970429469603 0.00024839988074821536 0 0.047470502998319827 -0.0010257433864265036 0 0.048987418490456541 -0.0036609163763882784 0 0.048525256110593239 -0.0039206427311448844 0 0.048720080426250562 -0.0041358553755600968 0 0.047470502998319827 -0.0010257433864265036 0 0.047116203470977489 -0.00093899925717526062 0 0.047320598658837192 0.00014240549532696823 0 0.046926796929139598 -0.00067071174763246391 0 0.046558072341577439 -0.00031408994941396301 0 0.046926796929139598 -0.00067071174763246391 0 0.046558072341577439 -0.00031408994941396301 0 0.046246376184394235 -0.0013481159522198151 0 0.04716323442571712 0.0011355179630884462 0 0.046189384245625117 3.7913662022872599e-05 0 0.046694668792196269 0.0010713462934376012 0 0.045959224376999543 0.00057530305449130371 0 0.046446355089792259 0.0015870149806165045 0 0.046934502801657334 0.0023103216044998202 0 0.046694668792196269 0.0010713462934376012 0 0.046446355089792259 0.0015870149806165045 0 0.046934502801657334 0.0023103216044998202 0 0.046446355089792259 0.0015870149806165045 0 0.046419088834851775 0.0025371480785700458 0 0.047049924689659101 0.0025906592064012766 0 0.04716323442571712 0.0011355179630884462 0 0.046446355089792259 0.0015870149806165045 0 0.046419088834851775 0.0025371480785700458 0 0.046016481832921688 0.0014540028662095577 0 0.046419088834851775 0.0025371480785700458 0 0.046016481832921688 0.0014540028662095577 0 0.045524540709525482 0.0019588963822749009 0 0.045959224376999543 0.00057530305449130371 0 0.045465204759144666 0.00080310307307911969 0 0.044931757857808161 -0.00043712005800797547 0 0.046016481832921688 0.0014540028662095577 0 0.045465204759144666 0.00080310307307911969 0 0.045524540709525482 0.0019588963822749009 0 0.045959224376999543 0.00057530305449130371 0 0.046446355089792259 0.0015870149806165045 0 0.046016481832921688 0.0014540028662095577 0 0.045959224376999543 0.00057530305449130371 0 0.046016481832921688 0.0014540028662095577 0 0.045465204759144666 0.00080310307307911969 0 0.045465204759144666 0.00080310307307911969 0 0.044174108368569526 0.00078386054412069625 0 0.045524540709525482 0.0019588963822749009 0 0.045465204759144666 0.00080310307307911969 0 0.044174108368569526 0.00078386054412069625 0 0.044931757857808161 -0.00043712005800797547 0 0.044174108368569526 0.00078386054412069625 0 0.044747344191311829 0.0021928452609511744 0 0.045524540709525482 0.0019588963822749009 0 0.044174108368569526 0.00078386054412069625 0 0.044747344191311829 0.0021928452609511744 0 0.043399884211634807 0.0023638147838649553 0 0.044174108368569526 0.00078386054412069625 0 0.043399884211634807 0.0023638147838649553 0 0.042250314025737125 -0.0002125112365460645 0 0.046722882344051989 0.0026619656840033683 0 0.045993611702994319 0.0031462991454312915 0 0.044464761894756136 0.0012214260021376861 0 0.044747344191311829 0.0021928452609511744 0 0.045837604691983308 0.0036115773218677507 0 0.043399884211634807 0.0023638147838649553 0 0.046002279677739753 0.0031020913850967097 0 0.045141219012046055 0.0016069334045119379 0 0.046419088834851775 0.0025371480785700458 0 0.045524540709525482 0.0019588963822749009 0 0.045837604691983308 0.0036115773218677507 0 0.044747344191311829 0.0021928452609511744 0 0.045524540709525482 0.0019588963822749009 0 0.045837604691983308 0.0036115773218677507 0 0.047521123958081654 0.0039803188105836766 0 0.046002279677739753 0.0031020913850967097 0 0.046722882344051989 0.0026619656840033683 0 0.046787769695565369 0.0040863209299359989 0 0.047212401476710693 0.0041189818868102787 0 0.046722882344051989 0.0026619656840033683 0 0.045993611702994319 0.0031462991454312915 0 0.046787769695565369 0.0040863209299359989 0 0.046700269763341781 0.0050460545430911314 0 0.046787769695565369 0.0040863209299359989 0 0.047357334883097749 0.0051983758376062195 0 0.045993611702994319 0.0031462991454312915 0 0.046700269763341781 0.0050460545430911314 0 0.046787769695565369 0.0040863209299359989 0 0.047545222386620581 0.0040204918285225389 0 0.046722882344051989 0.0026619656840033683 0 0.047212401476710693 0.0041189818868102787 0 0.046787769695565369 0.0040863209299359989 0 0.047212401476710693 0.0041189818868102787 0 0.047357334883097749 0.0051983758376062195 0 0.047592987991015627 0.0046867099429351361 0 0.047212401476710693 0.0041189818868102787 0 0.047357334883097749 0.0051983758376062195 0 0.045445926519798327 0.0055868781329465773 0 0.0461557442091678 0.0044988806749971782 0 0.044931382983461478 0.0045602108357268092 0 0.045870443372401919 0.0044159510655606832 0 0.045061589606832299 0.0039838974445691464 0 0.044630060018838222 0.0043155851900137975 0 0.045061589606832299 0.0039838974445691464 0 0.044495322420031513 0.0038819498181767303 0 0.044630060018838222 0.0043155851900137975 0 0.044931382983461478 0.0045602108357268092 0 0.045061589606832299 0.0039838974445691464 0 0.046700269763341781 0.0050460545430911314 0 0.045870443372401919 0.0044159510655606832 0 0.046763824606040415 0.0063201874890194123 0 0.046253678676166927 0.006421364152489676 0 0.045870443372401919 0.0044159510655606832 0 0.046763824606040415 0.0063201874890194123 0 0.045993611702994319 0.0031462991454312915 0 0.046700269763341781 0.0050460545430911314 0 0.045870443372401919 0.0044159510655606832 0 0.045993611702994319 0.0031462991454312915 0 0.045068296860769588 0.003011540302203468 0 0.045549548917037566 0.0022607485173124263 0 0.045993611702994319 0.0031462991454312915 0 0.045870443372401919 0.0044159510655606832 0 0.045068296860769588 0.003011540302203468 0 0.045068296860769588 0.003011540302203468 0 0.044495322420031513 0.0038819498181767303 0 0.043840196955731617 0.002639383962501064 0 0.045870443372401919 0.0044159510655606832 0 0.045068296860769588 0.003011540302203468 0 0.045061589606832299 0.0039838974445691464 0 0.045068296860769588 0.003011540302203468 0 0.045061589606832299 0.0039838974445691464 0 0.044495322420031513 0.0038819498181767303 0 0.044928331921295042 0.0016394345725630997 0 0.043779769158181506 0.00092314137736026558 0 0.043840196955731617 0.002639383962501064 0 0.045068296860769588 0.003011540302203468 0 0.044928331921295042 0.0016394345725630997 0 0.043840196955731617 0.002639383962501064 0 0.045068296860769588 0.003011540302203468 0 0.044928331921295042 0.0016394345725630997 0 0.045549548917037566 0.0022607485173124263 0 0.044928331921295042 0.0016394345725630997 0 0.045549548917037566 0.0022607485173124263 0 0.046252046938238596 0.0010783597308900532 0 0.045993611702994319 0.0031462991454312915 0 0.045549548917037566 0.0022607485173124263 0 0.046252046938238596 0.0010783597308900532 0 0.04587794847484454 0.0026901841541653163 0 0.045141219012046055 0.0016069334045119379 0 0.044928331921295042 0.0016394345725630997 0 0.046252046938238596 0.0010783597308900532 0 0.045147810868018612 0.00024027707261542323 0 0.045141219012046055 0.0016069334045119379 0 0.044260294169618193 -0.00031692489663607388 0 0.046441830646578149 0.0019747558643247311 0 0.044968274332729652 0.00062230611586331145 0 0.046269741912568066 -0.00038955784884564396 0 0.045141219012046055 0.0016069334045119379 0 0.044851032636231455 0.00026730077100196002 0 0.045147810868018612 0.00024027707261542323 0 0.043779769158181506 0.00092314137736026558 0 0.043847255183981672 -0.00092167640037102818 0 0.044928331921295042 0.0016394345725630997 0 0.045147810868018612 0.00024027707261542323 0 0.043779769158181506 0.00092314137736026558 0 0.054522709832896865 0.00026956915001388667 0 0.053509642600802397 0.00084798021312972743 0 0.054103928406219963 0.001783332266248985 0 0.049152944329035261 0.0014694739889894201 0 0.049815563995687789 0.0017387242869223089 0 0.049657485737874936 0.0034806041087270157 0 0.049152944329035261 0.0014694739889894201 0 0.049815563995687789 0.0017387242869223089 0 0.049960608181574905 -4.1182123309832776e-05 0 0.054522709832896865 0.00026956915001388667 0 0.053509642600802397 0.00084798021312972743 0 0.053335318905278178 -0.00033213500727485428 0 0.053509642600802397 0.00084798021312972743 0 0.05242353093174703 0.00025207036193415703 0 0.053335318905278178 -0.00033213500727485428 0 0.053509642600802397 0.00084798021312972743 0 0.05242353093174703 0.00025207036193415703 0 0.052686662243721906 0.0011086293521113885 0 0.052548409768717975 0.0021078671413533646 0 0.054524794791379921 0.0033798817029840472 0 0.05220683516398978 0.0028030892542435146 0 0.053450793687502746 0.0010512490634557233 0 0.052927716815535673 0.002225060590501544 0 0.052927716815535673 0.002225060590501544 0 0.054294995710671666 0.0032298592266127657 0 0.052774247317119993 0.0021580493616576036 0 0.054103928406219963 0.001783332266248985 0 0.054524794791379921 0.0033798817029840472 0 0.053509642600802397 0.00084798021312972743 0 0.052774247317119993 0.0021580493616576036 0 0.054103928406219963 0.001783332266248985 0 0.053509642600802397 0.00084798021312972743 0 0.053169417839145514 0.0021816451683776034 0 0.052686662243721906 0.0011086293521113885 0 0.052927716815535673 0.002225060590501544 0 0.05252312212656636 0.0029458764096778251 0 0.046746522717136398 0.0013984654824812745 0 0.048262850088379633 0.0028398586686741588 0 0.055166765967913201 0.0024756501582709188 0 0.054103928406219963 0.001783332266248985 0 0.054524794791379921 0.0033798817029840472 0 0.052190717861495983 0.0010959062985514017 0 0.048262850088379633 0.0028398586686741588 0 0.054522709832896865 0.00026956915001388667 0 0.055166765967913201 0.0024756501582709188 0 0.054103928406219963 0.001783332266248985 0 0.049999951183762333 0.0010594301899563667 0 0.051536432611513847 0.0012906080933193652 0 0.051452399126453358 0.001967625118366032 0 0.049999969737293468 0.00021161029694328879 0 0.051604753927844652 0.0011858092098674851 0 0.051247825477861324 -0.00013106721897998547 0 0.050000312229684638 0.00021228296426279515 0 0.051598883041394969 0.001246277573631598 0 0.049999951183762333 0.0010594301899563667 0 0.049999959031370986 0.00021241979664322026 0 0.051536432611513847 0.0012906080933193652 0 0.051604753927844652 0.0011858092098674851 0 0.05242353093174703 0.00025207036193415703 0 0.051247825477861324 -0.00013106721897998547 0 0.051604753927844652 0.0011858092098674851 0 0.05242353093174703 0.00025207036193415703 0 0.052686662243721906 0.0011086293521113885 0 0.053096453178491577 0.0022935452553298702 0 0.051536432611513847 0.0012906080933193652 0 0.051452399126453358 0.001967625118366032 0 0.05138039764892563 0.00208114347995976 0 0.051367194482406925 0.0038396082558404443 0 0.052832207046386179 0.0030264128115245568 0 0.052927716815535673 0.002225060590501544 0 0.051598883041394969 0.001246277573631598 0 0.051464522689884606 0.0020407827221460275 0 0.05252312212656636 0.0029458764096778251 0 0.053169417839145514 0.0021816451683776034 0 0.051604753927844652 0.0011858092098674851 0 0.052686662243721906 0.0011086293521113885 0 0.053096453178491577 0.0022935452553298702 0 0.051452399126453358 0.001967625118366032 0 0.052910030828156748 0.0029016391478972657 0 0.049999836269238443 0.0010600500970535118 0 0.05138039764892563 0.00208114347995976 0 0.049999868243943112 0.0034746755222218504 0 0.050000285535151706 0.0010600528999846167 0 0.051464522689884606 0.0020407827221460275 0 0.05138039764892563 0.00208114347995976 0 0.049999868243943112 0.0034746755222218504 0 0.051367194482406925 0.0038396082558404443 0 0.049999868243943112 0.0034746755222218504 0 0.051367194482406925 0.0038396082558404443 0 0.050829391675442447 0.0049604435997156505 0 0.05068994982225556 0.006057779207843156 0 0.052179592308047751 0.0028458787065275036 0 0.052858790901774699 0.004516086941118715 0 0.051718412971559762 0.0060041354436362526 0 0.05252312212656636 0.0029458764096778251 0 0.051367194482406925 0.0038396082558404443 0 0.051843567310816449 0.0057641030688054236 0 0.052832207046386179 0.0030264128115245568 0 0.051367194482406925 0.0038396082558404443 0 0.051843567310816449 0.0057641030688054236 0 0.050829391675442447 0.0049604435997156505 0 0.049999868243943112 0.0034746755222218504 0 0.050829391675442447 0.0049604435997156505 0 0.049999923544570446 0.0058898045926867506 0 0.051843567310816449 0.0057641030688054236 0 0.050829391675442447 0.0049604435997156505 0 0.050928322493115956 0.0064450841217248778 0 0.050829391675442447 0.0049604435997156505 0 0.049999923544570446 0.0058898045926867506 0 0.050928322493115956 0.0064450841217248778 0 0.048262850088379633 0.0028398586686741588 0 0.049782560096120781 0.0042325329745407699 0 0.055166765967913201 0.0024756501582709188 0 0.054524794791379921 0.0033798817029840472 0 0.054981265044469152 0.0048006556122114725 0 0.044422343994770269 0.0033438467865229368 0 0.048262850088379633 0.0028398586686741588 0 0.044495322420031513 0.0038819498181767303 0 0.044196991308423347 0.0025673278687885124 0 0.044227676497960118 0.0041559658667039484 0 0.054584372704898708 0.0043363061735465667 0 0.054524794791379921 0.0033798817029840472 0 0.054981265044469152 0.0048006556122114725 0 0.054321310385295682 0.0041890642690526241 0 0.05252312212656636 0.0029458764096778251 0 0.054584372704898708 0.0043363061735465667 0 0.052179592308047751 0.0028458787065275036 0 0.052858790901774699 0.004516086941118715 0 0.054584372704898708 0.0043363061735465667 0 0.054524794791379921 0.0033798817029840472 0 0.05220683516398978 0.0028030892542435146 0 0.054584372704898708 0.0043363061735465667 0 0.052858790901774699 0.004516086941118715 0 0.053436658727625416 0.0059071582076519477 0 0.05068994982225556 0.006057779207843156 0 0.052858790901774699 0.004516086941118715 0 0.053436658727625416 0.0059071582076519477 0 0.049782560096120781 0.0042325329745407699 0 0.048109242922941664 0.0066177672996030387 0 0.053436658727625416 0.0059071582076519477 0 0.054981265044469152 0.0048006556122114725 0 0.054696456257725623 0.0072239171436825362 0 0.044630060018838222 0.0043155851900137975 0 0.044931382983461478 0.0045602108357268092 0 0.044524530685787878 0.0049473153704421057 0 0.044630060018838222 0.0043155851900137975 0 0.044227676497960118 0.0041559658667039484 0 0.044524530685787878 0.0049473153704421057 0 0.054584372704898708 0.0043363061735465667 0 0.053436658727625416 0.0059071582076519477 0 0.054981265044469152 0.0048006556122114725 0 0.044630060018838222 0.0043155851900137975 0 0.044495322420031513 0.0038819498181767303 0 0.044227676497960118 0.0041559658667039484 0 0.047516331576022197 0.0080167865819057143 0 0.047530325645500519 0.0093924745866254232 0 0.047463618947651956 0.0087363574014870868 0 0.045445926519798327 0.0055868781329465773 0 0.048109242922941664 0.0066177672996030387 0 0.046615965207833635 0.0078905525007749305 0 0.047463618947651956 0.0087363574014870868 0 0.047170441504818562 0.0080523139950125534 0 0.048109242922941664 0.0066177672996030387 0 0.047392292449353689 0.0088172694831819328 0 0.053436658727625416 0.0059071582076519477 0 0.054696456257725623 0.0072239171436825362 0 0.052655855335821684 0.0088299079389682778 0 0.05068994982225556 0.006057779207843156 0 0.053436658727625416 0.0059071582076519477 0 0.052655855335821684 0.0088299079389682778 0 0.048109242922941664 0.0066177672996030387 0 0.051067083755217658 0.0084478639630807279 0 0.051067083755217658 0.0084478639630807279 0 0.0486747807063167 0.0091911804753675875 0 0.047530325645500519 0.0093924745866254232 0 0.047463618947651956 0.0087363574014870868 0 0.048024437497048378 0.0099996807752914009 0 0.047463618947651956 0.0087363574014870868 0 0.048024437497048378 0.0099996807752914009 0 0.047713333717112817 0.0087694667064827907 0 0.047463618947651956 0.0087363574014870868 0 0.047170441504818562 0.0080523139950125534 0 0.047713333717112817 0.0087694667064827907 0 0.051718412971559762 0.0060041354436362526 0 0.050857784783323312 0.0077567113434973646 0 0.051843567310816449 0.0057641030688054236 0 0.050928322493115956 0.0064450841217248778 0 0.050776857245459696 0.0080148892993358502 0 0.049999923544570446 0.0058898045926867506 0 0.050928322493115956 0.0064450841217248778 0 0.049999878941039147 0.0083047674234918885 0 0.050928322493115956 0.0064450841217248778 0 0.050776857245459696 0.0080148892993358502 0 0.049999878941039147 0.0083047674234918885 0 0.051682777677133356 0.0056854376499068399 0 0.05334762178484799 0.0079861609669522778 0 0.051956814621646211 0.0078834336177455496 0 0.051718412971559762 0.0060041354436362526 0 0.051067083755217658 0.0084478639630807279 0 0.051682777677133356 0.0056854376499068399 0 0.051956814621646211 0.0078834336177455496 0 0.050776857245459696 0.0080148892993358502 0 0.051067083755217658 0.0084478639630807279 0 0.050886682444668228 0.0092318631618642961 0 0.05334762178484799 0.0079861609669522778 0 0.051956814621646211 0.0078834336177455496 0 0.051683440827286986 0.0093431097021570084 0 0.051956814621646211 0.0078834336177455496 0 0.050776857245459696 0.0080148892993358502 0 0.051683440827286986 0.0093431097021570084 0 0.050776857245459696 0.0080148892993358502 0 0.050662955256550346 0.0091349535762142529 0 0.051683440827286986 0.0093431097021570084 0 0.050776857245459696 0.0080148892993358502 0 0.050662955256550346 0.0091349535762142529 0 0.049999878941039147 0.0083047674234918885 0 0.050000073159909182 0.010719486950307782 0 0.050886682444668228 0.0092318631618642961 0 0.050662955256550346 0.0091349535762142529 0 0.049999987879476265 0.010719779110289969 0 0.051683440827286986 0.0093431097021570084 0 0.050662955256550346 0.0091349535762142529 0 0.049999878941039147 0.0083047674234918885 0 0.049999987879476265 0.010719779110289969 0 0.049997796406861021 0.010720147658298618 0 0.04976997368306646 0.0094072969595464483 0 0.050104442785812831 0.010484528114174864 0 0.04976997368306646 0.0094072969595464483 0 0.050104442785812831 0.010484528114174864 0 0.050069441661786278 0.0095388976583542472 0 0.04956865769577383 0.0078714924967218831 0 0.04976997368306646 0.0094072969595464483 0 0.050069441661786278 0.0095388976583542472 0 0.050420543563487061 0.010843901843759165 0 0.050104442785812831 0.010484528114174864 0 0.050069441661786278 0.0095388976583542472 0 0.049999508728255738 0.013616392303507432 0 0.050420543563487061 0.010843901843759165 0 0.050104442785812831 0.010484528114174864 0 0.049999508728255738 0.013616392303507432 0 0.049997796406861021 0.010720147658298618 0 0.050104442785812831 0.010484528114174864 0 0.04956865769577383 0.0078714924967218831 0 0.050048192568845747 0.0085865790785670353 0 0.050069441661786278 0.0095388976583542472 0 0.050570853912484219 0.010390738314386366 0 0.050048192568845747 0.0085865790785670353 0 0.050069441661786278 0.0095388976583542472 0 0.050570853912484219 0.010390738314386366 0 0.050420543563487061 0.010843901843759165 0 0.050069441661786278 0.0095388976583542472 0 0.0486747807063167 0.0091911804753675875 0 0.049697110779345216 0.0099265284866292772 0 0.050570853912484219 0.010390738314386366 0 0.050048192568845747 0.0085865790785670353 0 0.050461504695989971 0.0093526031831139174 0 0.048024437497048378 0.0099996807752914009 0 0.048869030514733319 0.010551312169820474 0 0.048337089861888761 0.0094237122051004409 0 0.048869030514733319 0.010551312169820474 0 0.048337089861888761 0.0094237122051004409 0 0.04896236267430111 0.0097420003551704007 0 0.048337089861888761 0.0094237122051004409 0 0.047949259147929475 0.0085391660167552941 0 0.047713333717112817 0.0087694667064827907 0 0.048024437497048378 0.0099996807752914009 0 0.048337089861888761 0.0094237122051004409 0 0.047713333717112817 0.0087694667064827907 0 0.048430961248190948 0.008812098056923439 0 0.047949259147929475 0.0085391660167552941 0 0.047900494968950311 0.0078870134311088431 0 0.048337089861888761 0.0094237122051004409 0 0.048430961248190948 0.008812098056923439 0 0.047949259147929475 0.0085391660167552941 0 0.048337089861888761 0.0094237122051004409 0 0.048430961248190948 0.008812098056923439 0 0.04896236267430111 0.0097420003551704007 0 0.048430961248190948 0.008812098056923439 0 0.04896236267430111 0.0097420003551704007 0 0.048938159837568065 0.008982749257465443 0 0.048430961248190948 0.008812098056923439 0 0.048938159837568065 0.008982749257465443 0 0.048495947971873871 0.0080485411847803084 0 0.049065101257765059 0.008659092059959515 0 0.048938159837568065 0.008982749257465443 0 0.048495947971873871 0.0080485411847803084 0 0.049065101257765059 0.008659092059959515 0 0.048636278086717402 0.0075728232484736646 0 0.048495947971873871 0.0080485411847803084 0 0.048495947971873871 0.0080485411847803084 0 0.047963049497000566 0.0071424945879399902 0 0.048135543223484387 0.0065683310146485412 0 0.048636278086717402 0.0075728232484736646 0 0.048495947971873871 0.0080485411847803084 0 0.048135543223484387 0.0065683310146485412 0 0.048495947971873871 0.0080485411847803084 0 0.047963049497000566 0.0071424945879399902 0 0.047900494968950311 0.0078870134311088431 0 0.048430961248190948 0.008812098056923439 0 0.048495947971873871 0.0080485411847803084 0 0.047900494968950311 0.0078870134311088431 0 0.047963049497000566 0.0071424945879399902 0 0.047392200640512028 0.0065836639885419254 0 0.047900494968950311 0.0078870134311088431 0 0.047963049497000566 0.0071424945879399902 0 0.047750229416212757 0.0062284628422936165 0 0.047392200640512028 0.0065836639885419254 0 0.047963049497000566 0.0071424945879399902 0 0.048135543223484387 0.0065683310146485412 0 0.047750229416212757 0.0062284628422936165 0 0.048135543223484387 0.0065683310146485412 0 0.047750229416212757 0.0062284628422936165 0 0.047852001256139975 0.0055421722941731396 0 0.047750229416212757 0.0062284628422936165 0 0.047852001256139975 0.0055421722941731396 0 0.047357334883097749 0.0051983758376062195 0 0.047592987991015627 0.0046867099429351361 0 0.047852001256139975 0.0055421722941731396 0 0.047357334883097749 0.0051983758376062195 0 0.046700269763341781 0.0050460545430911314 0 0.047357334883097749 0.0051983758376062195 0 0.047392200640512028 0.0065836639885419254 0 0.047750229416212757 0.0062284628422936165 0 0.047357334883097749 0.0051983758376062195 0 0.047392200640512028 0.0065836639885419254 0 0.046700269763341781 0.0050460545430911314 0 0.047392200640512028 0.0065836639885419254 0 0.046763824606040415 0.0063201874890194123 0 0.047392200640512028 0.0065836639885419254 0 0.046763824606040415 0.0063201874890194123 0 0.047366334476126155 0.0076472054108744662 0 0.046253678676166927 0.006421364152489676 0 0.046615965207833635 0.0078905525007749305 0 0.046797466475924636 0.00711847986376007 0 0.046615965207833635 0.0078905525007749305 0 0.046797466475924636 0.00711847986376007 0 0.047170441504818562 0.0080523139950125534 0 0.046763824606040415 0.0063201874890194123 0 0.046797466475924636 0.00711847986376007 0 0.047366334476126155 0.0076472054108744662 0 0.046253678676166927 0.006421364152489676 0 0.046763824606040415 0.0063201874890194123 0 0.046797466475924636 0.00711847986376007 0 0.046797466475924636 0.00711847986376007 0 0.047170441504818562 0.0080523139950125534 0 0.047366334476126155 0.0076472054108744662 0 0.047170441504818562 0.0080523139950125534 0 0.047713333717112817 0.0087694667064827907 0 0.047366334476126155 0.0076472054108744662 0 0.047949259147929475 0.0085391660167552941 0 0.047713333717112817 0.0087694667064827907 0 0.047366334476126155 0.0076472054108744662 0 0.047949259147929475 0.0085391660167552941 0 0.047900494968950311 0.0078870134311088431 0 0.047366334476126155 0.0076472054108744662 0 0.047392200640512028 0.0065836639885419254 0 0.047900494968950311 0.0078870134311088431 0 0.047366334476126155 0.0076472054108744662 0 -0.0013387422738301441 0.012704522103693444 0 -0.0017267806939826958 0.012083099816548195 0 -0.0011011014782739985 0.012358625325772397 0 -0.0013387422738301441 0.012704522103693444 0 -0.0011011014782739985 0.012358625325772397 0 -0.00054313955274700202 0.013057717684415328 0 -0.0013387422738301441 0.012704522103693444 0 -0.001486206541569957 0.012670281383728922 0 -0.0017267806939826958 0.012083099816548195 0 -0.0013387422738301441 0.012704522103693444 0 -0.001486206541569957 0.012670281383728922 0 -0.001259661918962447 0.013393178432719616 0 -0.0015737006690368361 0.012575424873441023 0 -0.0016962581863259629 0.012173252145628252 0 -0.0014267438904967231 0.0126033611378371 0 -0.0017267806939826958 0.012083099816548195 0 -0.0019076765587475323 0.011612431592981641 0 -0.0017267806939826958 0.012083099816548195 0 -0.0021241966363333108 0.011608836003506226 0 -0.0019076765587475323 0.011612431592981641 0 -0.0017267806939826958 0.012083099816548195 0 -0.0011011014782739985 0.012358625325772397 0 -0.0016285276320386916 0.011854012439339447 0 -0.0009430381654494908 0.011968335318440958 0 -0.0011011014782739985 0.012358625325772397 0 -0.0016285276320386916 0.011854012439339447 0 -0.0009430381654494908 0.011968335318440958 0 -0.00023826190020228143 0.012382747075752884 0 -0.0011011014782739985 0.012358625325772397 0 -0.00023826190020228143 0.012382747075752884 0 -0.0011011014782739985 0.012358625325772397 0 -0.00054313955274700202 0.013057717684415328 0 -0.00023826190020228143 0.012382747075752884 0 -0.00054313955274700202 0.013057717684415328 0 0.00032971274350216025 0.013008223763060444 0 0.00032971274350216025 0.013008223763060444 0 0.0013464677731760571 0.013121345821486451 0 0.00040113933438220255 0.01315433773270411 0 -0.00054313955274700202 0.013057717684415328 0 0.00032971274350216025 0.013008223763060444 0 0.00040113933438220255 0.01315433773270411 0 -0.00054313955274700202 0.013057717684415328 0 -0.00066360573372408805 0.013483202444085235 0 0.00040113933438220255 0.01315433773270411 0 -0.0013387422738301441 0.012704522103693444 0 -0.00054313955274700202 0.013057717684415328 0 -0.001259661918962447 0.013393178432719616 0 -0.00054313955274700202 0.013057717684415328 0 -0.00066360573372408805 0.013483202444085235 0 -0.001259661918962447 0.013393178432719616 0 -0.001486206541569957 0.012670281383728922 0 -0.001259661918962447 0.013393178432719616 0 -0.0013924796443465423 0.013528441037759841 0 -0.001259661918962447 0.013393178432719616 0 -0.0016159344470614389 0.014439242459474987 0 -0.0013924796443465423 0.013528441037759841 0 -0.00066360573372408805 0.013483202444085235 0 -0.0016159344470614389 0.014439242459474987 0 -0.00052008273714298527 0.012983920965414788 0 -0.00066360573372408805 0.013483202444085235 0 -0.001259661918962447 0.013393178432719616 0 -0.0016159344470614389 0.014439242459474987 0 -0.0014666946500739861 0.014468692668812701 0 -0.0013771868718792479 0.01555722445386006 0 -0.0016159344470614389 0.014439242459474987 0 -0.00078791343917967939 0.015166253259209584 0 -0.00090966724148012405 0.013652612542358399 0 -0.0016159344470614389 0.014439242459474987 0 -0.00078791343917967939 0.015166253259209584 0 -0.00091734816579856966 0.017042916996976149 0 -0.00078791343917967939 0.015166253259209584 0 -0.00090966724148012405 0.013652612542358399 0 0.00028304362243160964 0.015240653983484984 0 -0.00054191474185883359 0.016250882201870286 0 0.00028304362243160964 0.015240653983484984 0 -0.00065073560913017007 0.017376071565804618 0 -0.00054191474185883359 0.016250882201870286 0 -0.00078791343917967939 0.015166253259209584 0 -0.00091734816579856966 0.017042916996976149 0 -0.00054191474185883359 0.016250882201870286 0 -0.00078791343917967939 0.015166253259209584 0 0.00028304362243160964 0.015240653983484984 0 -0.006080735347322703 0.014554731181279448 0 -0.0045906744288560309 0.016491603474191725 0 3.5024179861990883e-06 0.012949159294213477 0 -0.00075287006646549228 0.013475384363344819 0 0.00062913134661439225 0.014849342620369254 0 -0.00013490320462557445 0.013684441351363827 0 -0.0045906744288560309 0.016491603474191725 0 3.5024179861990883e-06 0.012949159294213477 0 -0.00075287006646549228 0.013475384363344819 0 -0.00092162916284920502 0.012534224545900126 0 -0.001486206541569957 0.012670281383728922 0 -0.00090966724148012405 0.013652612542358399 0 -0.0013924796443465423 0.013528441037759841 0 -0.0015737006690368361 0.012575424873441023 0 -0.00013490320462557445 0.013684441351363827 0 -0.0016159344470614389 0.014439242459474987 0 -0.00090966724148012405 0.013652612542358399 0 -0.0013924796443465423 0.013528441037759841 0 -0.0089146091158502742 0.017664720509090494 0 -0.0091502738814373021 0.01847801209984893 0 -0.0080149290413630715 0.019167239582298021 0 -0.0089146091158502742 0.017664720509090494 0 -0.0091502738814373021 0.01847801209984893 0 -0.010173564728047256 0.017451506711679669 0 -0.010173564728047256 0.017451506711679669 0 -0.010122312099110574 0.018625996116596589 0 -0.010961449433512493 0.018072883047938405 0 -0.0091502738814373021 0.01847801209984893 0 -0.010173564728047256 0.017451506711679669 0 -0.010122312099110574 0.018625996116596589 0 -0.0082748125701171196 0.016386500500835878 0 -0.0045906744288560309 0.016491603474191725 0 -0.012074006331802903 0.016198283966684938 0 -0.010961449433512493 0.018072883047938405 0 -0.011013938110483453 0.016364917486517649 0 -0.010173564728047256 0.017451506711679669 0 -0.010961449433512493 0.018072883047938405 0 -0.011013938110483453 0.016364917486517649 0 -0.010173564728047256 0.017451506711679669 0 -0.011013938110483453 0.016364917486517649 0 -0.010083702323585105 0.0163423712206964 0 -0.0089146091158502742 0.017664720509090494 0 -0.010173564728047256 0.017451506711679669 0 -0.010083702323585105 0.0163423712206964 0 -0.010083702323585105 0.0163423712206964 0 -0.010105734106685174 0.015480098288088724 0 -0.0090729441308109518 0.016272506927181737 0 -0.0089146091158502742 0.017664720509090494 0 -0.010083702323585105 0.0163423712206964 0 -0.0090729441308109518 0.016272506927181737 0 -0.011132391820970875 0.014826144195891532 0 -0.010105734106685174 0.015480098288088724 0 -0.01010952594164518 0.014558170018090164 0 -0.011013938110483453 0.016364917486517649 0 -0.010083702323585105 0.0163423712206964 0 -0.011132391820970875 0.014826144195891532 0 -0.010083702323585105 0.0163423712206964 0 -0.011132391820970875 0.014826144195891532 0 -0.010105734106685174 0.015480098288088724 0 -0.012074006331802903 0.016198283966684938 0 -0.011013938110483453 0.016364917486517649 0 -0.011839906976488294 0.015238204193427182 0 -0.011013938110483453 0.016364917486517649 0 -0.011132391820970875 0.014826144195891532 0 -0.011839906976488294 0.015238204193427182 0 -0.011132391820970875 0.014826144195891532 0 -0.011839906976488294 0.015238204193427182 0 -0.01229555263545825 0.014282199690656847 0 -0.011038245621316528 0.014968965778326196 0 -0.013098502885380501 0.014161580355315322 0 -0.011132391820970875 0.014826144195891532 0 -0.012422565313999571 0.014450726286342665 0 -0.011807778763849886 0.013927472883900222 0 -0.011132391820970875 0.014826144195891532 0 -0.011232465170473781 0.013910398650325341 0 -0.01010952594164518 0.014558170018090164 0 -0.011132391820970875 0.014826144195891532 0 -0.011232465170473781 0.013910398650325341 0 -0.011807778763849886 0.013927472883900222 0 -0.0014267438904967231 0.0126033611378371 0 -0.00075287006646549228 0.013475384363344819 0 -0.00092162916284920502 0.012534224545900126 0 -0.00092162916284920502 0.012534224545900126 0 -0.00079079729961841665 0.011740061720440859 0 -0.0013360984670350361 0.012030996570202722 0 -0.0014267438904967231 0.0126033611378371 0 -0.00092162916284920502 0.012534224545900126 0 -0.0013360984670350361 0.012030996570202722 0 -0.006080735347322703 0.014554731181279448 0 -0.0067203284164877742 0.01336102055716137 0 3.5024179861990883e-06 0.012949159294213477 0 -0.00092162916284920502 0.012534224545900126 0 -0.00079079729961841665 0.011740061720440859 0 -0.012074006331802903 0.016198283966684938 0 -0.011839906976488294 0.015238204193427182 0 -0.012687064211338734 0.014903267002509397 0 -0.011839906976488294 0.015238204193427182 0 -0.01229555263545825 0.014282199690656847 0 -0.012687064211338734 0.014903267002509397 0 -0.01229555263545825 0.014282199690656847 0 -0.012687064211338734 0.014903267002509397 0 -0.013069341949203712 0.014004536036497227 0 -0.0067203284164877742 0.01336102055716137 0 -0.0074750704569827679 0.012528970026137041 0 -0.00079079729961841665 0.011740061720440859 0 -0.0013360984670350361 0.012030996570202722 0 -0.001659717057663765 0.01093459832225667 0 -0.0014267438904967231 0.0126033611378371 0 -0.0013360984670350361 0.012030996570202722 0 -0.0019076765587475323 0.011612431592981641 0 -0.0013360984670350361 0.012030996570202722 0 -0.001659717057663765 0.01093459832225667 0 -0.0019076765587475323 0.011612431592981641 0 -0.0021904041723061021 0.01120095603333675 0 -0.001659717057663765 0.01093459832225667 0 -0.0026564799233080782 0.010951235607748631 0 -0.0021904041723061021 0.01120095603333675 0 -0.001659717057663765 0.01093459832225667 0 -0.0019076765587475323 0.011612431592981641 0 -0.012422565313999571 0.014450726286342665 0 -0.013251109054741604 0.014245639654693984 0 -0.01244012822128355 0.013802861206232699 0 -0.013098502885380501 0.014161580355315322 0 -0.0074750704569827679 0.012528970026137041 0 -0.013251109054741604 0.014245639654693984 0 -0.01244012822128355 0.013802861206232699 0 -0.012888147373125918 0.01337231018838988 0 -0.013251109054741604 0.014245639654693984 0 -0.013305309551031519 0.013320338265426895 0 -0.013592519103260174 0.013624059069853965 0 -0.013251109054741604 0.014245639654693984 0 -0.013305309551031519 0.013320338265426895 0 -0.012888147373125918 0.01337231018838988 0 -0.0074750704569827679 0.012528970026137041 0 -0.0017061460503048906 0.011074530254084891 0 -0.0074750704569827679 0.012528970026137041 0 -0.0082415463919899828 0.012596415974823997 0 -0.0024223925910259137 0.010507628309649849 0 -0.0029974192534031794 0.01163174786724862 0 -0.0021437386908722388 0.011708165849338812 0 -0.0033208404386081986 0.011021060624490939 0 -0.0032175647287763136 0.011350865414834438 0 -0.00276285089687926 0.011083872071800342 0 -0.0082415463919899828 0.012596415974823997 0 -0.0017061460503048906 0.011074530254084891 0 -0.01197238109092858 0.013148087360274643 0 -0.01244012822128355 0.013802861206232699 0 -0.012600452503666057 0.013056161001772317 0 -0.011807778763849886 0.013927472883900222 0 -0.01197238109092858 0.013148087360274643 0 -0.01244012822128355 0.013802861206232699 0 -0.011232465170473781 0.013910398650325341 0 -0.011807778763849886 0.013927472883900222 0 -0.01197238109092858 0.013148087360274643 0 -0.012422565313999571 0.014450726286342665 0 -0.011807778763849886 0.013927472883900222 0 -0.01244012822128355 0.013802861206232699 0 -0.012888147373125918 0.01337231018838988 0 -0.012600452503666057 0.013056161001772317 0 -0.013151792409745493 0.012627534077224358 0 -0.013305309551031519 0.013320338265426895 0 -0.012888147373125918 0.01337231018838988 0 -0.013151792409745493 0.012627534077224358 0 -0.01244012822128355 0.013802861206232699 0 -0.012888147373125918 0.01337231018838988 0 -0.012600452503666057 0.013056161001772317 0 -0.01197238109092858 0.013148087360274643 0 -0.012603749522816282 0.012415363240406502 0 -0.012600452503666057 0.013056161001772317 0 -0.012603749522816282 0.012415363240406502 0 -0.012600452503666057 0.013056161001772317 0 -0.013151792409745493 0.012627534077224358 0 -0.012603749522816282 0.012415363240406502 0 -0.013151792409745493 0.012627534077224358 0 -0.013245187060356852 0.011729749950877199 0 -0.013151792409745493 0.012627534077224358 0 -0.013744195208153804 0.012160092061944093 0 -0.013245187060356852 0.011729749950877199 0 -0.013151792409745493 0.012627534077224358 0 -0.013744195208153804 0.012160092061944093 0 -0.013588269370684254 0.012823290576794665 0 -0.013305309551031519 0.013320338265426895 0 -0.013151792409745493 0.012627534077224358 0 -0.013588269370684254 0.012823290576794665 0 -0.013164736577151323 0.013355424656166034 0 -0.012829103230204765 0.01311475019155168 0 -0.013165006108701197 0.01362276406817991 0 -0.0082006663878126905 5.2953084890969823e-05 0 -0.0057465946999793417 0.0012110758408338232 0 -0.0013156752366636814 -0.0022505953584960616 0 -0.0099166677408309423 0.0050566936649152792 0 -0.015080947728515447 0.014634624462488532 0 -0.013164736577151323 0.013355424656166034 0 -0.013165697282951838 0.013154196728570476 0 -0.012829103230204765 0.01311475019155168 0 -0.0098372331297323125 0.0037807204092843742 0 -0.0099166677408309423 0.0050566936649152792 0 -0.0057567282639544746 -0.0035908595210540203 0 -0.0061477557914408299 -0.0044514104190878645 0 -0.0063187586119329764 -0.004342306111698644 0 -0.0061611551437108295 -0.0037999509556314085 0 -0.0057567282639544746 -0.0035908595210540203 0 -0.0063187586119329764 -0.004342306111698644 0 -0.0099166677408309423 0.0050566936649152792 0 -0.0095075259241604558 0.0040227719489139332 0 -0.0099166677408309423 0.0050566936649152792 0 -0.0046028838279832535 -0.0054810452421544219 0 -0.0082415463919899828 0.012596415974823997 0 -0.0084259333628527461 0.012068833587917738 0 -0.0033208404386081986 0.011021060624490939 0 -0.0038021216005997942 0.01157201786479182 0 -0.0032175647287763136 0.011350865414834438 0 -0.013249783809969331 0.013725699531965179 0 -0.013167465994665662 0.013935705467360877 0 -0.013225688733956346 0.01381192809644646 0 -0.013305309551031519 0.013320338265426895 0 -0.013592519103260174 0.013624059069853965 0 -0.013588269370684254 0.012823290576794665 0 -0.0082415463919899828 0.012596415974823997 0 -0.015080947728515447 0.014634624462488532 0 -0.013249783809969331 0.013725699531965179 0 -0.013167465994665662 0.013935705467360877 0 -0.013165006108701197 0.01362276406817991 0 -0.014318652347074636 0.0098969336102211515 0 -0.014289658744023598 0.010455002966850544 0 -0.014578079323867345 0.010646352316528841 0 -0.013249783809969331 0.013725699531965179 0 -0.013165006108701197 0.01362276406817991 0 -0.013404127085353918 0.013563473005815141 0 -0.013164736577151323 0.013355424656166034 0 -0.013165006108701197 0.01362276406817991 0 -0.013404127085353918 0.013563473005815141 0 -0.0098372331297323125 0.0037807204092843742 0 -0.015525333070596534 0.012383495036002855 0 -0.013164736577151323 0.013355424656166034 0 -0.013165697282951838 0.013154196728570476 0 -0.013404127085353918 0.013563473005815141 0 -0.014289658744023598 0.010455002966850544 0 -0.014181423546238664 0.010785879224027722 0 -0.014350319004702156 0.010764820336266757 0 -0.015525333070596534 0.012383495036002855 0 -0.0084259333628527461 0.012068833587917738 0 -0.013249783809969331 0.013725699531965179 0 -0.013404127085353918 0.013563473005815141 0 -0.013225688733956346 0.01381192809644646 0 -0.0047222630338382013 0.0087001298290897422 0 -0.0046964487683332137 0.0093055596073955242 0 -0.0039150680549178349 0.0094143521274468924 0 -0.0047222630338382013 0.0087001298290897422 0 -0.0046964487683332137 0.0093055596073955242 0 -0.0053428301889460799 0.0090629187440817178 0 -0.0046964487683332137 0.0093055596073955242 0 -0.0050585218915954857 0.0094655099752955513 0 -0.0053428301889460799 0.0090629187440817178 0 -0.0046964487683332137 0.0093055596073955242 0 -0.0039150680549178349 0.0094143521274468924 0 -0.0041309502217133009 0.0099776379205854648 0 -0.0046964487683332137 0.0093055596073955242 0 -0.0041309502217133009 0.0099776379205854648 0 -0.0050585218915954857 0.0094655099752955513 0 -0.0031759756371154621 0.011722435152968284 0 -0.0028773287678249405 0.011315720232785808 0 -0.0025982214056095303 0.01138603949131611 0 -0.0031759756371154621 0.011722435152968284 0 -0.0032175647287763136 0.011350865414834438 0 -0.0028773287678249405 0.011315720232785808 0 -0.0038021216005997942 0.01157201786479182 0 -0.0031759756371154621 0.011722435152968284 0 -0.0032175647287763136 0.011350865414834438 0 -0.0084259333628527461 0.012068833587917738 0 -0.0025631638554843455 0.010224387798007436 0 -0.0032175647287763136 0.011350865414834438 0 -0.00276285089687926 0.011083872071800342 0 -0.0028773287678249405 0.011315720232785808 0 -0.0017061460503048906 0.011074530254084891 0 -0.0027044645401803251 0.010942218730646054 0 -0.0021904041723061021 0.01120095603333675 0 -0.0026564799233080782 0.010951235607748631 0 -0.0024621021790786407 0.011254622898153481 0 -0.0026595976413574395 0.01094650310471958 0 -0.0024621021790786407 0.011254622898153481 0 -0.0028773287678249405 0.011315720232785808 0 -0.0017061460503048906 0.011074530254084891 0 -0.0024579406450770643 0.01133023711257122 0 -0.0024621021790786407 0.011254622898153481 0 -0.0028773287678249405 0.011315720232785808 0 -0.0025982214056095303 0.01138603949131611 0 -0.0031759756371154621 0.011722435152968284 0 -0.0025982214056095303 0.01138603949131611 0 -0.0023431616140377727 0.011479463515026425 0 -0.0025982214056095303 0.01138603949131611 0 -0.0023431616140377727 0.011479463515026425 0 -0.0021241966363333108 0.011608836003506226 0 -0.0024621021790786407 0.011254622898153481 0 -0.0025982214056095303 0.01138603949131611 0 -0.0021241966363333108 0.011608836003506226 0 -0.0017267806939826958 0.012083099816548195 0 -0.0021241966363333108 0.011608836003506226 0 -0.0016285276320386916 0.011854012439339447 0 -0.0023431616140377727 0.011479463515026425 0 -0.0021241966363333108 0.011608836003506226 0 -0.0016285276320386916 0.011854012439339447 0 -0.0024621021790786407 0.011254622898153481 0 -0.0021241966363333108 0.011608836003506226 0 -0.0019076765587475323 0.011612431592981641 0 -0.0021904041723061021 0.01120095603333675 0 -0.0024621021790786407 0.011254622898153481 0 -0.0019076765587475323 0.011612431592981641 0 -0.0012834994859527266 0.011785268866762386 0 -0.0016285276320386916 0.011854012439339447 0 -0.0025248611706623291 0.011308094818149551 0 -0.0023431616140377727 0.011479463515026425 0 -0.0016285276320386916 0.011854012439339447 0 -0.0025248611706623291 0.011308094818149551 0 -0.0009430381654494908 0.011968335318440958 0 -0.0012834994859527266 0.011785268866762386 0 -0.0016285276320386916 0.011854012439339447 0 -0.0012834994859527266 0.011785268866762386 0 -0.0025248611706623291 0.011308094818149551 0 -0.00097170604472093401 0.011956962439569781 0 -0.0025248611706623291 0.011308094818149551 0 -0.0034544394505814369 0.01082981136341497 0 -0.0024027761029976114 0.011561230878765729 0 -0.0025631638554843455 0.010224387798007436 0 -0.0031753336366450355 0.011361660382465315 0 -0.0039150680549178349 0.0094143521274468924 0 -0.0025248611706623291 0.011308094818149551 0 -0.0041309502217133009 0.0099776379205854648 0 -0.0031759756371154621 0.011722435152968284 0 -0.0023431616140377727 0.011479463515026425 0 -0.0025248611706623291 0.011308094818149551 0 -0.0025248611706623291 0.011308094818149551 0 -0.0041309502217133009 0.0099776379205854648 0 -0.0034544394505814369 0.01082981136341497 0 -0.0041309502217133009 0.0099776379205854648 0 -0.0034544394505814369 0.01082981136341497 0 -0.0044073882169899121 0.010284307544649419 0 -0.0034544394505814369 0.01082981136341497 0 -0.0024027761029976114 0.011561230878765729 0 -0.0034411249135298427 0.0110943685634674 0 -0.0026297193168838464 0.011515400558488542 0 -0.0024027761029976114 0.011561230878765729 0 -0.0034411249135298427 0.0110943685634674 0 -0.0019554342658954075 0.011863849367659092 0 -0.0024027761029976114 0.011561230878765729 0 -0.0011582757176265776 0.012472703108758473 0 -0.0026297193168838464 0.011515400558488542 0 -0.0019554342658954075 0.011863849367659092 0 -0.0018395897883186955 0.011857922348973692 0 -0.0026297193168838464 0.011515400558488542 0 -0.0019554342658954075 0.011863849367659092 0 -0.0024027761029976114 0.011561230878765729 0 -0.0025248611706623291 0.011308094818149551 0 -0.0024027761029976114 0.011561230878765729 0 -0.0015013392007450341 0.011996168395105271 0 -0.0024027761029976114 0.011561230878765729 0 -0.0015013392007450341 0.011996168395105271 0 -0.0011582757176265776 0.012472703108758473 0 -0.0015013392007450341 0.011996168395105271 0 -0.0011582757176265776 0.012472703108758473 0 -0.00014366739387026037 0.012440215515162239 0 -0.0011582757176265776 0.012472703108758473 0 0.00071197783164219514 0.013202731737959807 0 -0.00014366739387026037 0.012440215515162239 0 -0.0011582757176265776 0.012472703108758473 0 -0.00051841812372714863 0.013282541101991006 0 0.00071197783164219514 0.013202731737959807 0 -0.0011582757176265776 0.012472703108758473 0 -0.0018395897883186955 0.011857922348973692 0 -0.00051841812372714863 0.013282541101991006 0 -0.0019554342658954075 0.011863849367659092 0 -0.0011582757176265776 0.012472703108758473 0 -0.0018395897883186955 0.011857922348973692 0 -0.0018395897883186955 0.011857922348973692 0 -0.00051841812372714863 0.013282541101991006 0 -0.0021899406756312897 0.011358061253894172 0 0.001545243408389182 0.014117031334062171 0 -0.00051841812372714863 0.013282541101991006 0 0.0011801306469202586 0.016066777488801139 0 -0.00051841812372714863 0.013282541101991006 0 0.0011801306469202586 0.016066777488801139 0 -0.0021899406756312897 0.011358061253894172 0 0.001545243408389182 0.014117031334062171 0 -0.00051841812372714863 0.013282541101991006 0 0.00071197783164219514 0.013202731737959807 0 0.001545243408389182 0.014117031334062171 0 0.0038048090158629977 0.014961273083175795 0 0.0011801306469202586 0.016066777488801139 0 0.0038048090158629977 0.014961273083175795 0 0.0059507544844824567 0.017788870513219934 0 0.0011801306469202586 0.016066777488801139 0 0.0038048090158629977 0.014961273083175795 0 0.0029462393719971855 0.013688731893212486 0 0.006420485249942846 0.014280042539936288 0 0.001545243408389182 0.014117031334062171 0 0.0038048090158629977 0.014961273083175795 0 0.0029462393719971855 0.013688731893212486 0 0.0029462393719971855 0.013688731893212486 0 0.00071197783164219514 0.013202731737959807 0 0.0017970629016626205 0.012754190251236528 0 0.001545243408389182 0.014117031334062171 0 0.0029462393719971855 0.013688731893212486 0 0.00071197783164219514 0.013202731737959807 0 0.0017970629016626205 0.012754190251236528 0 0.00086444952448585513 0.012103453408822877 0 -0.00014366739387026037 0.012440215515162239 0 0.00071197783164219514 0.013202731737959807 0 0.0017970629016626205 0.012754190251236528 0 -0.00014366739387026037 0.012440215515162239 0 0.0029462393719971855 0.013688731893212486 0 0.0042206889097515989 0.013007526352222385 0 0.006420485249942846 0.014280042539936288 0 0.0029462393719971855 0.013688731893212486 0 0.0017970629016626205 0.012754190251236528 0 0.0042206889097515989 0.013007526352222385 0 0.0017970629016626205 0.012754190251236528 0 0.0042206889097515989 0.013007526352222385 0 0.0027224604537693202 0.01213001913444676 0 0.0042206889097515989 0.013007526352222385 0 0.0049654060928418318 0.012120249032732672 0 0.0027224604537693202 0.01213001913444676 0 0.00086444952448585513 0.012103453408822877 0 0.0027224604537693202 0.01213001913444676 0 0.0023556632278129768 0.011303861949947092 0 0.0017970629016626205 0.012754190251236528 0 0.00086444952448585513 0.012103453408822877 0 0.0027224604537693202 0.01213001913444676 0 0.00086444952448585513 0.012103453408822877 0 -0.00097170604472093401 0.011956962439569781 0 -0.00020029795595183681 0.011597382961509991 0 -0.0012834994859527266 0.011785268866762386 0 -0.00097170604472093401 0.011956962439569781 0 -0.00020029795595183681 0.011597382961509991 0 -0.0025248611706623291 0.011308094818149551 0 -0.0015013392007450341 0.011996168395105271 0 -0.00097170604472093401 0.011956962439569781 0 0.00086444952448585513 0.012103453408822877 0 -0.00097170604472093401 0.011956962439569781 0 -0.00014366739387026037 0.012440215515162239 0 -0.0015013392007450341 0.011996168395105271 0 -0.00097170604472093401 0.011956962439569781 0 -0.00014366739387026037 0.012440215515162239 0 0.013097861113846965 0.015377819172785892 0 0.013761754705038366 0.015419973247285746 0 0.012044358159292976 0.015286263064413825 0 0.013097861113846965 0.015377819172785892 0 0.012044358159292976 0.015286263064413825 0 0.011872544908744832 0.014706140638733302 0 0.013761754705038366 0.015419973247285746 0 0.011752058814590238 0.01614621993043559 0 0.012044358159292976 0.015286263064413825 0 0.013761754705038366 0.015419973247285746 0 0.011752058814590238 0.01614621993043559 0 0.013465899304698029 0.016681930302830706 0 0.015066227474413958 0.014202227057957732 0 0.013761754705038366 0.015419973247285746 0 0.013465899304698029 0.016681930302830706 0 0.011752058814590238 0.01614621993043559 0 0.013465899304698029 0.016681930302830706 0 0.010443875253908304 0.017578367775775306 0 0.011752058814590238 0.01614621993043559 0 0.0084915723457652283 0.015744025836635398 0 0.010443875253908304 0.017578367775775306 0 0.011752058814590238 0.01614621993043559 0 0.012044358159292976 0.015286263064413825 0 0.0084915723457652283 0.015744025836635398 0 0.012044358159292976 0.015286263064413825 0 0.0084915723457652283 0.015744025836635398 0 0.009450555255212139 0.014574571673230082 0 0.0084439321748471883 0.016505566196803618 0 0.0065366104327410314 0.014144901537098076 0 0.0084915723457652283 0.015744025836635398 0 0.006420485249942846 0.014280042539936288 0 0.009450555255212139 0.014574571673230082 0 0.0084439321748471883 0.016505566196803618 0 0.012446656125620481 0.011967524163782745 0 0.0081114777694994353 0.016027966479035212 0 0.0097269027667275694 0.018113555145166209 0 0.0059507544844824567 0.017788870513219934 0 0.0081114777694994353 0.016027966479035212 0 0.006048303635790675 0.01577403640960344 0 0.0059507544844824567 0.017788870513219934 0 0.0038048090158629977 0.014961273083175795 0 0.006048303635790675 0.01577403640960344 0 0.0059507544844824567 0.017788870513219934 0 0.0038048090158629977 0.014961273083175795 0 0.006048303635790675 0.01577403640960344 0 0.006420485249942846 0.014280042539936288 0 0.0081114777694994353 0.016027966479035212 0 0.006048303635790675 0.01577403640960344 0 0.006420485249942846 0.014280042539936288 0 0.0042206889097515989 0.013007526352222385 0 0.006420485249942846 0.014280042539936288 0 0.0074890446035305513 0.013230962945093662 0 0.0049654060928418318 0.012120249032732672 0 0.0074890446035305513 0.013230962945093662 0 0.0077642193381664117 0.011725734265380162 0 0.0042206889097515989 0.013007526352222385 0 0.0049654060928418318 0.012120249032732672 0 0.0074890446035305513 0.013230962945093662 0 0.0074890446035305513 0.013230962945093662 0 0.009584095215905343 0.013016323291412455 0 0.010168610436977369 0.013906116145575177 0 0.0074890446035305513 0.013230962945093662 0 0.009584095215905343 0.013016323291412455 0 0.0077642193381664117 0.011725734265380162 0 0.006420485249942846 0.014280042539936288 0 0.0074890446035305513 0.013230962945093662 0 0.009450555255212139 0.014574571673230082 0 0.0074890446035305513 0.013230962945093662 0 0.009450555255212139 0.014574571673230082 0 0.010168610436977369 0.013906116145575177 0 0.009450555255212139 0.014574571673230082 0 0.010168610436977369 0.013906116145575177 0 0.011872544908744832 0.014706140638733302 0 0.012044358159292976 0.015286263064413825 0 0.009450555255212139 0.014574571673230082 0 0.011872544908744832 0.014706140638733302 0 0.010168610436977369 0.013906116145575177 0 0.011545870861259735 0.013852339419658674 0 0.011872544908744832 0.014706140638733302 0 0.009584095215905343 0.013016323291412455 0 0.010168610436977369 0.013906116145575177 0 0.011545870861259735 0.013852339419658674 0 0.013435810644256333 0.015140987246538621 0 0.011545870861259735 0.013852339419658674 0 0.011872544908744832 0.014706140638733302 0 0.014221992121774382 0.014797804358800824 0 0.013410709056143383 0.013414061395575536 0 0.013435810644256333 0.015140987246538621 0 0.011545870861259735 0.013852339419658674 0 0.012844899842324826 0.013652262199051189 0 0.013435810644256333 0.015140987246538621 0 0.013097861113846965 0.015377819172785892 0 0.011872544908744832 0.014706140638733302 0 0.012844899842324826 0.013652262199051189 0 0.011851834289639639 0.012196441167743266 0 0.012967538747949873 0.0122217146310441 0 0.014191755240479012 0.012832572039439256 0 0.013932163173010419 0.013253521059585854 0 0.012967538747949873 0.0122217146310441 0 0.013410709056143383 0.013414061395575536 0 0.012966908805797702 0.012227976203669158 0 0.014191755240479012 0.012832572039439256 0 0.012967538747949873 0.0122217146310441 0 0.013873904261366223 0.012252367563818993 0 0.011545870861259735 0.013852339419658674 0 0.012844899842324826 0.013652262199051189 0 0.010873693200872765 0.012645696413049627 0 0.009584095215905343 0.013016323291412455 0 0.011545870861259735 0.013852339419658674 0 0.010873693200872765 0.012645696413049627 0 0.012844899842324826 0.013652262199051189 0 0.010873693200872765 0.012645696413049627 0 0.011851834289639639 0.012196441167743266 0 0.010873693200872765 0.012645696413049627 0 0.011851834289639639 0.012196441167743266 0 0.010328805774100364 0.011459291346575941 0 0.010328805774100364 0.011459291346575941 0 0.0083870049324686839 0.0094766056630820328 0 0.012746140047511529 0.012208507895960187 0 0.011851834289639639 0.012196441167743266 0 0.010328805774100364 0.011459291346575941 0 0.012746140047511529 0.012208507895960187 0 0.011851834289639639 0.012196441167743266 0 0.012746140047511529 0.012208507895960187 0 0.012967538747949873 0.0122217146310441 0 0.010328805774100364 0.011459291346575941 0 0.0077642193381664117 0.011725734265380162 0 0.0083870049324686839 0.0094766056630820328 0 0.010873693200872765 0.012645696413049627 0 0.010328805774100364 0.011459291346575941 0 0.0077642193381664117 0.011725734265380162 0 0.009584095215905343 0.013016323291412455 0 0.010873693200872765 0.012645696413049627 0 0.0077642193381664117 0.011725734265380162 0 0.0049654060928418318 0.012120249032732672 0 0.0077642193381664117 0.011725734265380162 0 0.0054150722078516022 0.010861392095143335 0 0.0077642193381664117 0.011725734265380162 0 0.0054150722078516022 0.010861392095143335 0 0.0083870049324686839 0.0094766056630820328 0 0.0054150722078516022 0.010861392095143335 0 0.0083870049324686839 0.0094766056630820328 0 0.0039863759855453202 0.0091747751228913807 0 0.0063009211885617219 0.012641106593592719 0 0.0083724414536084646 0.012173100185854628 0 0.0087033002343355152 0.015045170193199583 0 0.0063009211885617219 0.012641106593592719 0 0.0087033002343355152 0.015045170193199583 0 0.0037421481445528886 0.015114132040108997 0 0.0084306330487805125 0.012252679120284084 0 0.003960589061202488 0.012154356305598043 0 0.0063009211885617219 0.012641106593592719 0 0.005090769590316303 0.011751547697783275 0 0.0065995266913231546 0.010596666144716816 0 0.0063009211885617219 0.012641106593592719 0 0.0080411264428442604 0.010585263315047224 0 0.0065995266913231546 0.010596666144716816 0 0.0063009211885617219 0.012641106593592719 0 0.0083724414536084646 0.012173100185854628 0 0.0080411264428442604 0.010585263315047224 0 0.010260827688027779 0.012200950992463272 0 0.0099882840868436174 0.0098096022325231246 0 0.0080411264428442604 0.010585263315047224 0 0.010260827688027779 0.012200950992463272 0 0.011852805020553046 0.011557954963825921 0 0.012042168038599961 0.0099929967400305547 0 0.010534226846163841 0.012030155179214812 0 0.0098153589802411657 0.01025263797165094 0 0.0083724414536084646 0.012173100185854628 0 0.010260827688027779 0.012200950992463272 0 0.0080411264428442604 0.010585263315047224 0 0.010260827688027779 0.012200950992463272 0 0.0087033002343355152 0.015045170193199583 0 0.011045895290168344 0.013077539525819446 0 0.0083724414536084646 0.012173100185854628 0 0.010260827688027779 0.012200950992463272 0 0.0087033002343355152 0.015045170193199583 0 0.0087033002343355152 0.015045170193199583 0 0.012746140047511529 0.012208507895960187 0 0.011045895290168344 0.013077539525819446 0 0.0084306330487805125 0.012252679120284084 0 0.012234567731303948 0.012210506787555102 0 0.012746140047511529 0.012208507895960187 0 0.012911460683930032 0.012198360770535481 0 0.012072634815277112 0.012386514433646722 0 0.012746140047511529 0.012208507895960187 0 0.011045895290168344 0.013077539525819446 0 0.012072634815277112 0.012386514433646722 0 0.010260827688027779 0.012200950992463272 0 0.011045895290168344 0.013077539525819446 0 0.012072634815277112 0.012386514433646722 0 0.010260827688027779 0.012200950992463272 0 0.012072634815277112 0.012386514433646722 0 0.011852805020553046 0.011557954963825921 0 0.012072634815277112 0.012386514433646722 0 0.011852805020553046 0.011557954963825921 0 0.012911221056077983 0.011872940453309291 0 0.011852805020553046 0.011557954963825921 0 0.012975045422345666 0.011373059409693223 0 0.012468593401296022 0.01082722261994809 0 0.011852805020553046 0.011557954963825921 0 0.012975045422345666 0.011373059409693223 0 0.012911221056077983 0.011872940453309291 0 0.012975045422345666 0.011373059409693223 0 0.012911221056077983 0.011872940453309291 0 0.013911902977461739 0.011437355829623772 0 0.012911460683930032 0.012198360770535481 0 0.012072634815277112 0.012386514433646722 0 0.012911221056077983 0.011872940453309291 0 0.012911221056077983 0.011872940453309291 0 0.013490044395486797 0.011915045622090632 0 0.013911902977461739 0.011437355829623772 0 0.012911460683930032 0.012198360770535481 0 0.012911221056077983 0.011872940453309291 0 0.013490044395486797 0.011915045622090632 0 0.013490044395486797 0.011915045622090632 0 0.013911902977461739 0.011437355829623772 0 0.014179772143381576 0.011839629127870026 0 0.013490044395486797 0.011915045622090632 0 0.014179772143381576 0.011839629127870026 0 0.013604354282954355 0.012077975017904715 0 0.012975045422345666 0.011373059409693223 0 0.013911902977461739 0.011437355829623772 0 0.014101166210200208 0.010629297409217526 0 0.013911902977461739 0.011437355829623772 0 0.014791429508301391 0.01155529686465775 0 0.015324598797024473 0.011113878042830675 0 0.013911902977461739 0.011437355829623772 0 0.014791429508301391 0.01155529686465775 0 0.014179772143381576 0.011839629127870026 0 0.014799032572939562 0.011895805955738527 0 0.014791429508301391 0.01155529686465775 0 0.014179772143381576 0.011839629127870026 0 0.014799032572939562 0.011895805955738527 0 0.014179772143381576 0.011839629127870026 0 0.014175179783444299 0.012047938697052602 0 0.014175179783444299 0.012047938697052602 0 0.013604354282954355 0.012077975017904715 0 0.013873904261366223 0.012252367563818993 0 0.014179772143381576 0.011839629127870026 0 0.014175179783444299 0.012047938697052602 0 0.013604354282954355 0.012077975017904715 0 0.012911460683930032 0.012198360770535481 0 0.013490044395486797 0.011915045622090632 0 0.013604354282954355 0.012077975017904715 0 0.012911460683930032 0.012198360770535481 0 0.013604354282954355 0.012077975017904715 0 0.013191954162174092 0.012191569363455284 0 0.012746140047511529 0.012208507895960187 0 0.012911460683930032 0.012198360770535481 0 0.013191954162174092 0.012191569363455284 0 0.013191954162174092 0.012191569363455284 0 0.012967538747949873 0.0122217146310441 0 0.013873904261366223 0.012252367563818993 0 0.012746140047511529 0.012208507895960187 0 0.013191954162174092 0.012191569363455284 0 0.012967538747949873 0.0122217146310441 0 0.013604354282954355 0.012077975017904715 0 0.013191954162174092 0.012191569363455284 0 0.013873904261366223 0.012252367563818993 0 -0.00023826190020228143 0.012382747075752884 0 0.0010200470909436489 0.010234664038091491 0 -0.00020029795595183681 0.011597382961509991 0 5.902199220940133e-06 0.012331887367712485 0 0.0012795304480734042 0.012151864443947847 0 -0.0009430381654494908 0.011968335318440958 0 -0.00023826190020228143 0.012382747075752884 0 -0.00020029795595183681 0.011597382961509991 0 -0.0009430381654494908 0.011968335318440958 0 -0.0012834994859527266 0.011785268866762386 0 -0.00020029795595183681 0.011597382961509991 0 0.00086444952448585513 0.012103453408822877 0 -0.00020029795595183681 0.011597382961509991 0 0.0023556632278129768 0.011303861949947092 0 0.0010200470909436489 0.010234664038091491 0 -0.00020029795595183681 0.011597382961509991 0 0.0023556632278129768 0.011303861949947092 0 0.0049654060928418318 0.012120249032732672 0 0.0027224604537693202 0.01213001913444676 0 0.0023556632278129768 0.011303861949947092 0 0.0049654060928418318 0.012120249032732672 0 0.0054150722078516022 0.010861392095143335 0 0.0023556632278129768 0.011303861949947092 0 0.0054150722078516022 0.010861392095143335 0 0.0023556632278129768 0.011303861949947092 0 0.0039863759855453202 0.0091747751228913807 0 0.0010200470909436489 0.010234664038091491 0 0.0023556632278129768 0.011303861949947092 0 0.0039863759855453202 0.0091747751228913807 0 0.0012795304480734042 0.012151864443947847 0 0.003960589061202488 0.012154356305598043 0 0.0012352205114823907 0.014023591865840977 0 0.0037421481445528886 0.015114132040108997 0 0.0022747293868705942 0.013302011494908167 0 0.0063009211885617219 0.012641106593592719 0 0.0037421481445528886 0.015114132040108997 0 0.0034972969749285541 0.012841205072410995 0 0.0037421481445528886 0.015114132040108997 0 0.0034972969749285541 0.012841205072410995 0 0.0022747293868705942 0.013302011494908167 0 0.0063009211885617219 0.012641106593592719 0 0.005090769590316303 0.011751547697783275 0 0.0034972969749285541 0.012841205072410995 0 0.0034972969749285541 0.012841205072410995 0 0.0027263844559468836 0.012641570986281922 0 0.0029226458538970461 0.012098060834366625 0 0.005090769590316303 0.011751547697783275 0 0.0034972969749285541 0.012841205072410995 0 0.0029226458538970461 0.012098060834366625 0 0.0022747293868705942 0.013302011494908167 0 0.0027263844559468836 0.012641570986281922 0 0.0023166524382123277 0.012972912786036123 0 0.0034972969749285541 0.012841205072410995 0 0.0022747293868705942 0.013302011494908167 0 0.0027263844559468836 0.012641570986281922 0 0.0011632094160721983 0.013136316227037681 0 0.0020958074623125241 0.013124428919096253 0 0.0023166524382123277 0.012972912786036123 0 0.0022747293868705942 0.013302011494908167 0 0.0011632094160721983 0.013136316227037681 0 0.0023166524382123277 0.012972912786036123 0 0.0012352205114823907 0.014023591865840977 0 0.0022747293868705942 0.013302011494908167 0 0.0011632094160721983 0.013136316227037681 0 -0.00023826190020228143 0.012382747075752884 0 0.00032971274350216025 0.013008223763060444 0 0.0011632094160721983 0.013136316227037681 0 -0.00023826190020228143 0.012382747075752884 0 0.0012352205114823907 0.014023591865840977 0 0.0011632094160721983 0.013136316227037681 0 0.00032971274350216025 0.013008223763060444 0 0.0011632094160721983 0.013136316227037681 0 0.0013464677731760571 0.013121345821486451 0 0.0011632094160721983 0.013136316227037681 0 0.0013464677731760571 0.013121345821486451 0 0.0020958074623125241 0.013124428919096253 0 0.0013464677731760571 0.013121345821486451 0 0.0023029422611198455 0.013202161062720316 0 0.0020958074623125241 0.013124428919096253 0 0.0013464677731760571 0.013121345821486451 0 0.0023029422611198455 0.013202161062720316 0 0.0015517951664659605 0.013067853725551372 0 0.0023029422611198455 0.013202161062720316 0 0.0024671767691102887 0.013081323283448102 0 0.0015517951664659605 0.013067853725551372 0 0.002027705282064112 0.015659347297248737 0 0.00095960836526617866 0.015542670280746065 0 0.0023029422611198455 0.013202161062720316 0 0.0026231157791672672 0.013208871999696774 0 0.0033932852567685962 0.013484658510457652 0 0.0023029422611198455 0.013202161062720316 0 0.0033932852567685962 0.013484658510457652 0 0.0024671767691102887 0.013081323283448102 0 0.0023029422611198455 0.013202161062720316 0 0.0026231157791672672 0.013208871999696774 0 0.0020958074623125241 0.013124428919096253 0 0.0026231157791672672 0.013208871999696774 0 0.0020958074623125241 0.013124428919096253 0 0.0023166524382123277 0.012972912786036123 0 0.0026231157791672672 0.013208871999696774 0 0.0023166524382123277 0.012972912786036123 0 0.0028116985238809738 0.013159510592368839 0 0.0027263844559468836 0.012641570986281922 0 0.0023166524382123277 0.012972912786036123 0 0.0028116985238809738 0.013159510592368839 0 0.0027263844559468836 0.012641570986281922 0 0.0028116985238809738 0.013159510592368839 0 0.0026216094530483089 0.01326033742478328 0 0.0028116985238809738 0.013159510592368839 0 0.0026216094530483089 0.01326033742478328 0 0.0033932852567685962 0.013484658510457652 0 0.0026231157791672672 0.013208871999696774 0 0.0028116985238809738 0.013159510592368839 0 0.0033932852567685962 0.013484658510457652 0 0.0026216094530483089 0.01326033742478328 0 0.0011441892523452162 0.014420543593851601 0 0.0033932852567685962 0.013484658510457652 0 0.005090769590316303 0.011751547697783275 0 0.0029226458538970461 0.012098060834366625 0 0.0057471779995002352 0.0094008888515500402 0 0.0029226458538970461 0.012098060834366625 0 0.0011441892523452162 0.014420543593851601 0 2.7955070962702341e-05 0.014353548296280017 0 0.0028918227497152847 0.012037548895172086 0 0.0031608897677144489 0.011836180965670002 0 0.0029226458538970461 0.012098060834366625 0 0.0026216094530483089 0.01326033742478328 0 0.0011441892523452162 0.014420543593851601 0 0.0027263844559468836 0.012641570986281922 0 0.0029226458538970461 0.012098060834366625 0 0.0026216094530483089 0.01326033742478328 0 0.0011441892523452162 0.014420543593851601 0 0.00071589497614127416 0.016106831820617739 0 0.00020680336055176664 0.015633794794662276 0 0.0011441892523452162 0.014420543593851601 0 0.0010703863010234202 0.016708311090997716 0 0.0010361717041400651 0.017894236131284217 0 0.00096646465657947947 0.014408431585857797 0 0.002027705282064112 0.015659347297248737 0 0.00071589497614127416 0.016106831820617739 0 0.00082507601879530039 0.016955487568441483 0 5.3555904140724073e-05 0.016727548954362608 0 0.0011441892523452162 0.014420543593851601 0 0.00071589497614127416 0.016106831820617739 0 0.0010703863010234202 0.016708311090997716 0 0.00071589497614127416 0.016106831820617739 0 0.0010703863010234202 0.016708311090997716 0 0.00082507601879530039 0.016955487568441483 0 0.0010703863010234202 0.016708311090997716 0 0.0010780103770549985 0.017651686063201472 0 0.0011486292750148915 0.017530447373993736 0 0.0010703863010234202 0.016708311090997716 0 0.0010780103770549985 0.017651686063201472 0 0.00082507601879530039 0.016955487568441483 0 0.0010780103770549985 0.017651686063201472 0 0.0011486292750148915 0.017530447373993736 0 0.0012210191268495277 0.017967925867897656 0 0.00082507601879530039 0.016955487568441483 0 0.00088367565730066203 0.017722922852817544 0 5.3555904140724073e-05 0.016727548954362608 0 0.00088367565730066203 0.017722922852817544 0 0.00097462185446272698 0.018451456012194951 0 5.3555904140724073e-05 0.016727548954362608 0 0.0010780103770549985 0.017651686063201472 0 0.00082507601879530039 0.016955487568441483 0 0.00088367565730066203 0.017722922852817544 0 0.0010703863010234202 0.016708311090997716 0 0.0011486292750148915 0.017530447373993736 0 0.0010361717041400651 0.017894236131284217 0 0.0011486292750148915 0.017530447373993736 0 0.0010361717041400651 0.017894236131284217 0 0.0012210191268495277 0.017967925867897656 0 0.0010361717041400651 0.017894236131284217 0 0.0011365892234163624 0.01826365316408475 0 0.0012210191268495277 0.017967925867897656 0 0.0010361717041400651 0.017894236131284217 0 0.0011365892234163624 0.01826365316408475 0 0.00054455004983740708 0.018250365017860509 0 0.0011365892234163624 0.01826365316408475 0 0.0013862439982758987 0.018708155599339322 0 0.00054455004983740708 0.018250365017860509 0 0.0012210191268495277 0.017967925867897656 0 0.0012673689897013355 0.018442115197099259 0 0.0011912281890308417 0.018304211792310548 0 0.0011365892234163624 0.01826365316408475 0 0.0012210191268495277 0.017967925867897656 0 0.0012673689897013355 0.018442115197099259 0 0.0012673689897013355 0.018442115197099259 0 0.0011912281890308417 0.018304211792310548 0 0.0013600095044969105 0.018911528837753669 0 0.0012673689897013355 0.018442115197099259 0 0.0013862439982758987 0.018708155599339322 0 0.0013600095044969105 0.018911528837753669 0 0.0011365892234163624 0.01826365316408475 0 0.0012673689897013355 0.018442115197099259 0 0.0013862439982758987 0.018708155599339322 0 0.00036601895913891517 0.019273821605776557 0 0.00080510199866628412 0.019931722713163125 0 0.00093099445042470056 0.019415240162293207 0 0.00088367565730066203 0.017722922852817544 0 0.0010366043597638975 0.018437095402880781 0 0.0010724257303631271 0.018041374492538953 0 0.00088367565730066203 0.017722922852817544 0 0.0010366043597638975 0.018437095402880781 0 0.00097462185446272698 0.018451456012194951 0 0.00028960113153310706 0.018016853837555091 0 0.00018683088983671852 0.018015752059185028 0 0.0010780103770549985 0.017651686063201472 0 0.0012210191268495277 0.017967925867897656 0 0.0011912281890308417 0.018304211792310548 0 0.0010366043597638975 0.018437095402880781 0 0.0010724257303631271 0.018041374492538953 0 0.0011912281890308417 0.018304211792310548 0 0.0010780103770549985 0.017651686063201472 0 0.0010724257303631271 0.018041374492538953 0 0.0011912281890308417 0.018304211792310548 0 0.0010780103770549985 0.017651686063201472 0 0.00088367565730066203 0.017722922852817544 0 0.0010724257303631271 0.018041374492538953 0 0.0010366043597638975 0.018437095402880781 0 0.0011912281890308417 0.018304211792310548 0 0.0013600095044969105 0.018911528837753669 0 0.0010366043597638975 0.018437095402880781 0 0.00099094767069161514 0.018540743291507032 0 0.0013600095044969105 0.018911528837753669 0 0.00018683088983671852 0.018015752059185028 0 0.0013217760261697068 0.019310664542759766 0 0.00080510199866628412 0.019931722713163125 0 0.00083568959440744604 0.020673014665498878 0 0.0012284305159067093 0.020468115343226487 0 0.00036601895913891517 0.019273821605776557 0 0.00080510199866628412 0.019931722713163125 0 0.00058294195097919796 0.020076818039619727 0 0.00080510199866628412 0.019931722713163125 0 0.00093099445042470056 0.019415240162293207 0 0.0012311037938920132 0.019930100810144142 0 0.00080510199866628412 0.019931722713163125 0 0.0012311037938920132 0.019930100810144142 0 0.0012284305159067093 0.020468115343226487 0 0.0013862439982758987 0.018708155599339322 0 0.0013600095044969105 0.018911528837753669 0 0.0017620220525397944 0.019543692734881688 0 0.0013217760261697068 0.019310664542759766 0 0.0016670106971009649 0.019512050644968776 0 0.00093099445042470056 0.019415240162293207 0 0.0012311037938920132 0.019930100810144142 0 0.0017620220525397944 0.019543692734881688 0 0.0012311037938920132 0.019930100810144142 0 0.0017620220525397944 0.019543692734881688 0 0.0016302901099518791 0.020367948703436039 0 0.0013862439982758987 0.018708155599339322 0 0.0017620220525397944 0.019543692734881688 0 0.0023941174189677241 0.019306671730281218 0 -0.00090514878217184686 0.019977181235245247 0 -0.00044427916489719595 0.019218469742518507 0 0.00054455004983740708 0.018250365017860509 0 -0.00044427916489719595 0.019218469742518507 0 -0.00033189506838967166 0.019504428325819896 0 -0.00061568121681477314 0.018850611041166358 0 -0.00090514878217184686 0.019977181235245247 0 -0.00044427916489719595 0.019218469742518507 0 -0.00024669646239422011 0.02039230898356998 0 -0.00044427916489719595 0.019218469742518507 0 -0.00033189506838967166 0.019504428325819896 0 -0.00024669646239422011 0.02039230898356998 0 0.0007892703856739109 0.019717157979128451 0 0.00057491602187537127 0.018504716263926295 0 -0.00044427916489719595 0.019218469742518507 0 -0.00061568121681477314 0.018850611041166358 0 0.00054455004983740708 0.018250365017860509 0 0.0013862439982758987 0.018708155599339322 0 0.0023941174189677241 0.019306671730281218 0 0.00054455004983740708 0.018250365017860509 0 0.0010361717041400651 0.017894236131284217 0 -0.00061568121681477314 0.018850611041166358 0 0.00054455004983740708 0.018250365017860509 0 0.016709561427195676 0.010189086842001776 0 0.015682773222823809 0.010589900835814613 0 0.014101166210200208 0.010629297409217526 0 0.014562883321984896 0.0093246389022633644 0 0.014101166210200208 0.010629297409217526 0 0.013658532931020916 0.0095397426777837722 0 0.015914279237038094 0.0092430191632149987 0 0.014208397744055657 0.011010921702568437 0 0.014562883321984896 0.0093246389022633644 0 0.013896438923271179 0.0090328555150385303 0 0.014192817078256396 0.0086694867675216909 0 0.014562883321984896 0.0093246389022633644 0 0.013658532931020916 0.0095397426777837722 0 0.013896438923271179 0.0090328555150385303 0 0.016709561427195676 0.010189086842001776 0 0.01664245134545924 0.010520843413944941 0 0.015682773222823809 0.010589900835814613 0 0.015682773222823809 0.010589900835814613 0 0.015324598797024473 0.011113878042830675 0 0.014101166210200208 0.010629297409217526 0 0.01664245134545924 0.010520843413944941 0 0.015682773222823809 0.010589900835814613 0 0.015324598797024473 0.011113878042830675 0 0.013911902977461739 0.011437355829623772 0 0.015324598797024473 0.011113878042830675 0 0.014101166210200208 0.010629297409217526 0 0.014101166210200208 0.010629297409217526 0 0.012978816277268016 0.010101379463407556 0 0.013658532931020916 0.0095397426777837722 0 0.012975045422345666 0.011373059409693223 0 0.014101166210200208 0.010629297409217526 0 0.012468593401296022 0.01082722261994809 0 0.014101166210200208 0.010629297409217526 0 0.012468593401296022 0.01082722261994809 0 0.012978816277268016 0.010101379463407556 0 0.012468593401296022 0.01082722261994809 0 0.012978816277268016 0.010101379463407556 0 0.011867451265028915 0.010197824607807758 0 0.011852805020553046 0.011557954963825921 0 0.012468593401296022 0.01082722261994809 0 0.012042168038599961 0.0099929967400305547 0 0.012142090855940552 0.011099560949809885 0 0.0098153589802411657 0.01025263797165094 0 0.012978816277268016 0.010101379463407556 0 0.012804643300920137 0.0096746856400701919 0 0.011867451265028915 0.010197824607807758 0 0.012804643300920137 0.0096746856400701919 0 0.012667392154268865 0.0089058781781831183 0 0.011867451265028915 0.010197824607807758 0 0.012804643300920137 0.0096746856400701919 0 0.013658532931020916 0.0095397426777837722 0 0.012667392154268865 0.0089058781781831183 0 0.013658532931020916 0.0095397426777837722 0 0.013896438923271179 0.0090328555150385303 0 0.012667392154268865 0.0089058781781831183 0 0.012978816277268016 0.010101379463407556 0 0.012804643300920137 0.0096746856400701919 0 0.013658532931020916 0.0095397426777837722 0 0.0016710043410800702 0.017001946793918338 0 0.00063738139475581009 0.017598993451316755 0 0.00045720829263939667 0.016118001804101292 0 0.010386713141317568 0.014276745583610565 0 0.0098153589802411657 0.01025263797165094 0 0.0065322167747522766 0.011962769906242102 0 0.0066909312925687702 0.011810049082836295 0 0.0065381754854289629 0.011655803732069248 0 0.010386713141317568 0.014276745583610565 0 0.0028360098858917779 0.013881215497939426 0 0.0099882840868436174 0.0098096022325231246 0 0.0080411264428442604 0.010585263315047224 0 0.0075650423849178668 0.0093912290447783382 0 0.0028360098858917779 0.013881215497939426 0 0.0098153589802411657 0.01025263797165094 0 0.0080914995660573766 0.0079621410682683639 0 0.0099882840868436174 0.0098096022325231246 0 0.0075650423849178668 0.0093912290447783382 0 -0.0018091500634777687 0.016074341155787635 0 2.7955070962702341e-05 0.014353548296280017 0 -0.00037722728202275037 0.015728464974889458 0 0.0028360098858917779 0.013881215497939426 0 0.0031608897677144489 0.011836180965670002 0 0.0080914995660573766 0.0079621410682683639 0 0.0075650423849178668 0.0093912290447783382 0 0.0057471779995002352 0.0094008888515500402 0 0.0080411264428442604 0.010585263315047224 0 0.0075650423849178668 0.0093912290447783382 0 0.0065995266913231546 0.010596666144716816 0 0.0075650423849178668 0.0093912290447783382 0 0.0065995266913231546 0.010596666144716816 0 0.0057471779995002352 0.0094008888515500402 0 0.005090769590316303 0.011751547697783275 0 0.0065995266913231546 0.010596666144716816 0 0.0057471779995002352 0.0094008888515500402 0 2.7955070962702341e-05 0.014353548296280017 0 0.00020680336055176664 0.015633794794662276 0 -0.00037722728202275037 0.015728464974889458 0 0.0011441892523452162 0.014420543593851601 0 2.7955070962702341e-05 0.014353548296280017 0 0.00020680336055176664 0.015633794794662276 0 0.00020680336055176664 0.015633794794662276 0 -0.00037722728202275037 0.015728464974889458 0 5.3555904140724073e-05 0.016727548954362608 0 0.00018683088983671852 0.018015752059185028 0 0.0028360098858917779 0.013881215497939426 0 0.00097462185446272698 0.018451456012194951 0 -0.0018091500634777687 0.016074341155787635 0 5.3555904140724073e-05 0.016727548954362608 0 0.00071589497614127416 0.016106831820617739 0 0.00020680336055176664 0.015633794794662276 0 5.3555904140724073e-05 0.016727548954362608 0 -0.0018091500634777687 0.016074341155787635 0 -0.00037722728202275037 0.015728464974889458 0 5.3555904140724073e-05 0.016727548954362608 0 0.00036601895913891517 0.019273821605776557 0 0.00044969866098606433 0.019992721145268403 0 0.00058294195097919796 0.020076818039619727 0 -0.00090629615133847052 0.016261951024311713 0 0.00063738139475581009 0.017598993451316755 0 0.00045720829263939667 0.016118001804101292 0 0.00018683088983671852 0.018015752059185028 0 -0.0010767450346265879 0.018229864158631148 0 0.00044969866098606433 0.019992721145268403 0 0.00058294195097919796 0.020076818039619727 0 0.00042599336120084023 0.020666449761889239 0 0.00058294195097919796 0.020076818039619727 0 0.00042599336120084023 0.020666449761889239 0 0.00083568959440744604 0.020673014665498878 0 0.00080510199866628412 0.019931722713163125 0 0.00058294195097919796 0.020076818039619727 0 0.00083568959440744604 0.020673014665498878 0 0.00042599336120084023 0.020666449761889239 0 7.6147261832375064e-05 0.02043594537234528 0 0.00012330000727751088 0.021372287770180083 0 0.00044969866098606433 0.019992721145268403 0 0.00042599336120084023 0.020666449761889239 0 7.6147261832375064e-05 0.02043594537234528 0 0.0016710043410800702 0.017001946793918338 0 0.00045720829263939667 0.016118001804101292 0 0.0017783407736566459 0.016040769556467077 0 -0.0010767450346265879 0.018229864158631148 0 0.0097576608406194833 0.019728207464401237 0 0.010386713141317568 0.014276745583610565 0 0.0097576608406194833 0.019728207464401237 0 0.013896438923271179 0.0090328555150385303 0 0.012667392154268865 0.0089058781781831183 0 0.013947752682898485 0.0082723551310528599 0 0.010386713141317568 0.014276745583610565 0 0.018210877030745917 0.01252299937935889 0 0.017881801425800262 0.020772742476405943 0 0.023455585162483486 0.016985071586470415 0 0.018757853879023144 0.015235807209566625 0 0.018210877030745917 0.01252299937935889 0 0.021447916156836461 0.019141435425486537 0 0.02134659949997747 0.022691688066159336 0 0.021504110439031797 0.022363832327961557 0 0.021594057128713491 0.022586353520807404 0 0.021447916156836461 0.019141435425486537 0 0.0097576608406194833 0.019728207464401237 0 0.023455585162483486 0.016985071586470415 0 0.021331789455715969 0.014804379477937973 0 0.018757853879023144 0.015235807209566625 0 0.021594057128713491 0.022586353520807404 0 0.021499732506189521 0.02304924326347315 0 0.022184831156938006 0.023331223902872452 0 0.021504110439031797 0.022363832327961557 0 0.021594057128713491 0.022586353520807404 0 0.022184831156938006 0.023331223902872452 0 0.0097576608406194833 0.019728207464401237 0 0.011257383358180195 0.022739412724920128 0 0.021447916156836461 0.019141435425486537 0 0.022156296709040273 0.020574938547830744 0 0.021507253328371341 0.02251578431553709 0 0.021594057128713491 0.022586353520807404 0 0.021499732506189521 0.02304924326347315 0 0.021447916156836461 0.019141435425486537 0 0.017617689270603035 0.016921468231537676 0 0.021507253328371341 0.02251578431553709 0 0.021499732506189521 0.02304924326347315 0 0.021147367983811199 0.022862550758177141 0 0.021499732506189521 0.02304924326347315 0 0.021147367983811199 0.022862550758177141 0 0.02128245987482949 0.023594648540567875 0 0.015274121099990878 0.008066093880616975 0 0.014233777634111528 0.0097763125846096425 0 0.014638288092326535 0.0081344953279287504 0 0.020988774618302314 0.016418668059487961 0 0.022015517149840291 0.01733361980881586 0 0.018781001812674749 0.017939027830834016 0 0.018852761088533249 0.014842566706238725 0 0.015914279237038094 0.0092430191632149987 0 0.014233777634111528 0.0097763125846096425 0 0.014638288092326535 0.0081344953279287504 0 0.013631509743515751 0.00919695954950186 0 0.014616927987922506 0.0082450074252733273 0 0.013590774870021187 0.0091184938366953884 0 0.014237894229438735 0.0079113227145640383 0 0.018210877030745917 0.01252299937935889 0 0.017617689270603035 0.016921468231537676 0 0.017617689270603035 0.016921468231537676 0 0.014912962978583905 0.0085063445253361521 0 0.013896438923271179 0.0090328555150385303 0 0.013947752682898485 0.0082723551310528599 0 0.014192817078256396 0.0086694867675216909 0 0.018210877030745917 0.01252299937935889 0 0.014912962978583905 0.0085063445253361521 0 0.015914279237038094 0.0092430191632149987 0 0.014912962978583905 0.0085063445253361521 0 0.021715559666145384 0.024662336294179094 0 0.021727434570365124 0.023892605259441788 0 0.02253135758624401 0.024639798972796795 0 0.02143742794237374 0.025120853189276711 0 0.021245480693141711 0.024293621344852721 0 0.021715559666145384 0.024662336294179094 0 0.021245480693141711 0.024293621344852721 0 0.021715559666145384 0.024662336294179094 0 0.021727434570365124 0.023892605259441788 0 0.021245480693141711 0.024293621344852721 0 0.02128245987482949 0.023594648540567875 0 0.021727434570365124 0.023892605259441788 0 0.021499732506189521 0.02304924326347315 0 0.02128245987482949 0.023594648540567875 0 0.021727434570365124 0.023892605259441788 0 0.021499732506189521 0.02304924326347315 0 0.021727434570365124 0.023892605259441788 0 0.022184831156938006 0.023331223902872452 0 0.011257383358180195 0.022739412724920128 0 0.011530675183497704 0.023559768345376989 0 0.021727434570365124 0.023892605259441788 0 0.022184831156938006 0.023331223902872452 0 0.02253135758624401 0.024639798972796795 0 0.0009049558510621391 0.021557540468093741 0 0.001548322011380242 0.022717853341440365 0 0.00055244539149248886 0.022662999585796234 0 0.00012330000727751088 0.021372287770180083 0 0.0009049558510621391 0.021557540468093741 0 0.00055244539149248886 0.022662999585796234 0 0.00042599336120084023 0.020666449761889239 0 0.00012330000727751088 0.021372287770180083 0 0.0009049558510621391 0.021557540468093741 0 0.00083568959440744604 0.020673014665498878 0 0.0009049558510621391 0.021557540468093741 0 0.0012230207413214383 0.021110991968291967 0 0.00042599336120084023 0.020666449761889239 0 0.00083568959440744604 0.020673014665498878 0 0.0009049558510621391 0.021557540468093741 0 0.0009049558510621391 0.021557540468093741 0 0.001548322011380242 0.022717853341440365 0 0.0014959876841057101 0.021858802820707415 0 0.0009049558510621391 0.021557540468093741 0 0.0012230207413214383 0.021110991968291967 0 0.0014959876841057101 0.021858802820707415 0 0.001548322011380242 0.022717853341440365 0 0.0014959876841057101 0.021858802820707415 0 0.0018387144797377293 0.022485948758610697 0 0.001548322011380242 0.022717853341440365 0 0.0020130873449772592 0.023493004256029276 0 0.0021906583372686556 0.023019184317144694 0 0.0020130873449772592 0.023493004256029276 0 0.0021906583372686556 0.023019184317144694 0 0.0024861457490577437 0.023599276410743449 0 0.001548322011380242 0.022717853341440365 0 0.0020130873449772592 0.023493004256029276 0 0.001530153253390961 0.023413205846734828 0 0.0020130873449772592 0.023493004256029276 0 0.001530153253390961 0.023413205846734828 0 0.0019257971293756249 0.024043301033783004 0 0.001530153253390961 0.023413205846734828 0 0.0012767400168224104 0.023923034295837774 0 0.0019257971293756249 0.024043301033783004 0 0.001548322011380242 0.022717853341440365 0 0.001530153253390961 0.023413205846734828 0 0.00055244539149248886 0.022662999585796234 0 0.011530675183497704 0.023559768345376989 0 0.011977498233889709 0.024792458281801641 0 0.02253135758624401 0.024639798972796795 0 0.022593015815793548 0.025815298515879045 0 0.022025757213867951 0.025313136460773454 0 0.001530153253390961 0.023413205846734828 0 0.00055244539149248886 0.022662999585796234 0 0.0012767400168224104 0.023923034295837774 0 0.022593015815793548 0.025815298515879045 0 0.022047197216604142 0.026086828310168623 0 0.022316924668993838 0.026375238871618387 0 0.022593015815793548 0.025815298515879045 0 0.022047197216604142 0.026086828310168623 0 0.022025757213867951 0.025313136460773454 0 0.021495229531903606 0.026006693996666656 0 0.022047197216604142 0.026086828310168623 0 0.022025757213867951 0.025313136460773454 0 0.02143742794237374 0.025120853189276711 0 0.021495229531903606 0.026006693996666656 0 0.022025757213867951 0.025313136460773454 0 0.021715559666145384 0.024662336294179094 0 0.02253135758624401 0.024639798972796795 0 0.022025757213867951 0.025313136460773454 0 0.02143742794237374 0.025120853189276711 0 0.021715559666145384 0.024662336294179094 0 0.022025757213867951 0.025313136460773454 0 0.0021935623037813929 0.021817428545777083 0 0.0028652959202337788 0.021405041770528776 0 0.002072289911658668 0.020683513261498303 0 -1.1363699564839719e-05 0.021989612490417663 0 0.00041966416496110927 0.021085876337006801 0 0.0011079276793914492 0.022274970723978622 0 -0.00033189506838967166 0.019504428325819896 0 0.00041966416496110927 0.021085876337006801 0 -0.00024669646239422011 0.02039230898356998 0 -1.1363699564839719e-05 0.021989612490417663 0 0.00041966416496110927 0.021085876337006801 0 -0.00024669646239422011 0.02039230898356998 0 -0.00090514878217184686 0.019977181235245247 0 -1.1363699564839719e-05 0.021989612490417663 0 -0.00024669646239422011 0.02039230898356998 0 0.0023941174189677241 0.019306671730281218 0 0.0028652959202337788 0.021405041770528776 0 0.002072289911658668 0.020683513261498303 0 0.0007892703856739109 0.019717157979128451 0 0.0014275990001965905 0.021591576411513057 0 0.0017620220525397944 0.019543692734881688 0 0.0023941174189677241 0.019306671730281218 0 0.002072289911658668 0.020683513261498303 0 0.0017620220525397944 0.019543692734881688 0 0.002072289911658668 0.020683513261498303 0 0.0016302901099518791 0.020367948703436039 0 0.0012311037938920132 0.019930100810144142 0 0.0016302901099518791 0.020367948703436039 0 0.0012284305159067093 0.020468115343226487 0 0.0016302901099518791 0.020367948703436039 0 0.0012284305159067093 0.020468115343226487 0 0.0017579689045450226 0.02124165879177236 0 0.002072289911658668 0.020683513261498303 0 0.0016302901099518791 0.020367948703436039 0 0.0017579689045450226 0.02124165879177236 0 0.0012230207413214383 0.021110991968291967 0 0.0012284305159067093 0.020468115343226487 0 0.0017579689045450226 0.02124165879177236 0 0.00083568959440744604 0.020673014665498878 0 0.0012230207413214383 0.021110991968291967 0 0.0012284305159067093 0.020468115343226487 0 0.0014959876841057101 0.021858802820707415 0 0.0017579689045450226 0.02124165879177236 0 0.0020641640175023163 0.022328761717197203 0 0.0012230207413214383 0.021110991968291967 0 0.0014959876841057101 0.021858802820707415 0 0.0017579689045450226 0.02124165879177236 0 0.0021935623037813929 0.021817428545777083 0 0.002072289911658668 0.020683513261498303 0 0.0017579689045450226 0.02124165879177236 0 0.0021935623037813929 0.021817428545777083 0 0.0017579689045450226 0.02124165879177236 0 0.0020641640175023163 0.022328761717197203 0 0.0021935623037813929 0.021817428545777083 0 0.0020641640175023163 0.022328761717197203 0 0.0023439257124995513 0.022550425794384373 0 0.0020641640175023163 0.022328761717197203 0 0.0023858901226872036 0.022829672100923522 0 0.0023439257124995513 0.022550425794384373 0 0.001548322011380242 0.022717853341440365 0 0.0018387144797377293 0.022485948758610697 0 0.0021906583372686556 0.023019184317144694 0 0.0014959876841057101 0.021858802820707415 0 0.0020641640175023163 0.022328761717197203 0 0.0018387144797377293 0.022485948758610697 0 0.0020641640175023163 0.022328761717197203 0 0.0018387144797377293 0.022485948758610697 0 0.0021906583372686556 0.023019184317144694 0 0.0021906583372686556 0.023019184317144694 0 0.0023858901226872036 0.022829672100923522 0 0.0025867242105753778 0.023226466449878618 0 0.0020641640175023163 0.022328761717197203 0 0.0021906583372686556 0.023019184317144694 0 0.0023858901226872036 0.022829672100923522 0 0.0023858901226872036 0.022829672100923522 0 0.0026346035597863415 0.023003605639372763 0 0.0025867242105753778 0.023226466449878618 0 0.0024102257903048842 0.023250525992723068 0 0.0023439257124995513 0.022550425794384373 0 0.0021201487757465981 0.022897200625946752 0 0.0023858901226872036 0.022829672100923522 0 0.0026346035597863415 0.023003605639372763 0 0.0023439257124995513 0.022550425794384373 0 0.0021648120666568852 0.023232157116344077 0 0.0024102257903048842 0.023250525992723068 0 0.0023439257124995513 0.022550425794384373 0 0.0024463258238137911 0.023056131503189695 0 0.0023822098989866418 0.022691326615178638 0 0.0021935623037813929 0.021817428545777083 0 0.0028652959202337788 0.021405041770528776 0 0.0023439257124995513 0.022550425794384373 0 0.0028652959202337788 0.021405041770528776 0 0.0023439257124995513 0.022550425794384373 0 0.0021201487757465981 0.022897200625946752 0 -1.1363699564839719e-05 0.021989612490417663 0 0.0011079276793914492 0.022274970723978622 0 0.0021201487757465981 0.022897200625946752 0 0.0014275990001965905 0.021591576411513057 0 0.0019989448894324482 0.022703887825070854 0 0.0011079276793914492 0.022274970723978622 0 0.0021201487757465981 0.022897200625946752 0 0.0019475866822884502 0.022841425875371683 0 0.0021201487757465981 0.022897200625946752 0 0.0024452540098225829 0.023258753631538832 0 0.0026519162199277126 0.023528344975923623 0 0.0021201487757465981 0.022897200625946752 0 0.0024452540098225829 0.023258753631538832 0 0.0019475866822884502 0.022841425875371683 0 0.0024102257903048842 0.023250525992723068 0 0.0021201487757465981 0.022897200625946752 0 0.0026519162199277126 0.023528344975923623 0 0.0024452540098225829 0.023258753631538832 0 0.0019475866822884502 0.022841425875371683 0 0.002550725349434668 0.023322867573975729 0 0.0019475866822884502 0.022841425875371683 0 0.0019014435415788719 0.022754120285036306 0 0.002550725349434668 0.023322867573975729 0 0.0019014435415788719 0.022754120285036306 0 0.0016540537072361583 0.022566561840242347 0 0.0023160056865821573 0.02309354071186305 0 0.0019014435415788719 0.022754120285036306 0 0.002550725349434668 0.023322867573975729 0 0.0023160056865821573 0.02309354071186305 0 0.0019014435415788719 0.022754120285036306 0 0.0013193907036889532 0.022237773877901514 0 0.0016540537072361583 0.022566561840242347 0 0.0019014435415788719 0.022754120285036306 0 0.0013193907036889532 0.022237773877901514 0 0.0013313006534024841 0.022287473968463225 0 0.0013193907036889532 0.022237773877901514 0 0.0013313006534024841 0.022287473968463225 0 0.0009555590739104661 0.021843617614659101 0 0.0011079276793914492 0.022274970723978622 0 0.0019475866822884502 0.022841425875371683 0 0.0013313006534024841 0.022287473968463225 0 0.0019475866822884502 0.022841425875371683 0 0.0019014435415788719 0.022754120285036306 0 0.0013313006534024841 0.022287473968463225 0 0.0011542115443362133 0.02231247340045564 0 0.0016540537072361583 0.022566561840242347 0 0.0019311171575388732 0.02282973573761882 0 0.0011542115443362133 0.02231247340045564 0 0.0013301530840503057 0.022522128436658847 0 0.0019311171575388732 0.02282973573761882 0 0.0016540537072361583 0.022566561840242347 0 0.0019311171575388732 0.02282973573761882 0 0.0023160056865821573 0.02309354071186305 0 0.0011542115443362133 0.02231247340045564 0 0.0016540537072361583 0.022566561840242347 0 0.0010156123233344037 0.022080991501581635 0 0.0013193907036889532 0.022237773877901514 0 0.0010156123233344037 0.022080991501581635 0 0.00076329698336194234 0.021758093151578263 0 0.0013193907036889532 0.022237773877901514 0 0.0016540537072361583 0.022566561840242347 0 0.0010156123233344037 0.022080991501581635 0 0.0011542115443362133 0.02231247340045564 0 0.0010156123233344037 0.022080991501581635 0 0.00035945740796879371 0.021761093328275614 0 0.00042123707174795445 0.021613818422596513 0 -0.00010228332748434029 0.021136125363880341 0 -0.00017628308609237228 0.021295102147451807 0 0.00042123707174795445 0.021613818422596513 0 -0.00017628308609237228 0.021295102147451807 0 0.00035945740796879371 0.021761093328275614 0 0.0010156123233344037 0.022080991501581635 0 0.00042123707174795445 0.021613818422596513 0 0.00035945740796879371 0.021761093328275614 0 0.00042123707174795445 0.021613818422596513 0 0.00076329698336194234 0.021758093151578263 0 0.00022037140952629487 0.021281999284739755 0 0.0010156123233344037 0.022080991501581635 0 0.00042123707174795445 0.021613818422596513 0 0.00076329698336194234 0.021758093151578263 0 0.00022037140952629487 0.021281999284739755 0 -0.00010228332748434029 0.021136125363880341 0 -0.00021522761901665189 0.020852742164878771 0 -0.00012966867932053422 0.021066741981022506 0 -0.00022858020781512357 0.021032351955815733 0 0.00042123707174795445 0.021613818422596513 0 0.00022037140952629487 0.021281999284739755 0 -0.00010228332748434029 0.021136125363880341 0 -0.00010228332748434029 0.021136125363880341 0 -0.00060498652448008042 0.020618923596742649 0 -0.00047514790152816731 0.020861220823254031 0 0.00041966416496110927 0.021085876337006801 0 0.0011079276793914492 0.022274970723978622 0 0.00083303996002593737 0.021678770252378909 0 0.00041966416496110927 0.021085876337006801 0 0.00083303996002593737 0.021678770252378909 0 0.00044237030278753315 0.021268283206239132 0 0.0011079276793914492 0.022274970723978622 0 0.0013313006534024841 0.022287473968463225 0 0.00083303996002593737 0.021678770252378909 0 0.0013313006534024841 0.022287473968463225 0 0.00083303996002593737 0.021678770252378909 0 0.0009555590739104661 0.021843617614659101 0 0.00076329698336194234 0.021758093151578263 0 0.00022037140952629487 0.021281999284739755 0 0.00044237030278753315 0.021268283206239132 0 0.0013193907036889532 0.022237773877901514 0 0.00076329698336194234 0.021758093151578263 0 0.0009555590739104661 0.021843617614659101 0 0.00076329698336194234 0.021758093151578263 0 0.0009555590739104661 0.021843617614659101 0 0.00044237030278753315 0.021268283206239132 0 0.00083303996002593737 0.021678770252378909 0 0.0009555590739104661 0.021843617614659101 0 0.00044237030278753315 0.021268283206239132 0 0.00022037140952629487 0.021281999284739755 0 0.00044237030278753315 0.021268283206239132 0 -0.00021522761901665189 0.020852742164878771 0 0.00044237030278753315 0.021268283206239132 0 -0.00026586068587958043 0.020696331981215926 0 -0.00021522761901665189 0.020852742164878771 0 0.00041966416496110927 0.021085876337006801 0 0.00044237030278753315 0.021268283206239132 0 -0.00026586068587958043 0.020696331981215926 0 -0.00021279139189204937 0.021559347136789194 0 0.00049116290167398348 0.018544246707276953 0 -0.00033189506838967166 0.019504428325819896 0 0.00041966416496110927 0.021085876337006801 0 -0.0006681742618423101 0.018915932420491551 0 -0.00033189506838967166 0.019504428325819896 0 -0.00061568121681477314 0.018850611041166358 0 -0.0006681742618423101 0.018915932420491551 0 0.00095960836526617866 0.015542670280746065 0 0.00049116290167398348 0.018544246707276953 0 0.0024671767691102887 0.013081323283448102 0 0.0016793979512964884 0.012999093725888519 0 0.0023679741898556014 0.013236494831830715 0 0.0024671767691102887 0.013081323283448102 0 0.0016793979512964884 0.012999093725888519 0 0.0015517951664659605 0.013067853725551372 0 0.00049116290167398348 0.018544246707276953 0 -0.00011160794644865234 0.016032464042148149 0 0.0016793979512964884 0.012999093725888519 0 0.0023679741898556014 0.013236494831830715 0 0.00084691208797923556 0.012807753785830545 0 -0.00033820446063568274 0.020831396701470557 0 -0.00026784145091574669 0.020950961845416411 0 -0.0013993640145102562 0.019883441914273502 0 0.00049116290167398348 0.018544246707276953 0 -0.00022858020781512357 0.021032351955815733 0 -0.00010228332748434029 0.021136125363880341 0 -0.00026784145091574669 0.020950961845416411 0 -0.00087522747643261917 0.020281165227991935 0 -0.00010228332748434029 0.021136125363880341 0 -0.00060498652448008042 0.020618923596742649 0 -0.00087522747643261917 0.020281165227991935 0 -0.00060498652448008042 0.020618923596742649 0 -0.00087522747643261917 0.020281165227991935 0 -0.00080739351229779696 0.020232862942008392 0 -0.00087522747643261917 0.020281165227991935 0 -0.0013186527638685745 0.019372474683505 0 -0.00080739351229779696 0.020232862942008392 0 -0.00087522747643261917 0.020281165227991935 0 -0.0013993640145102562 0.019883441914273502 0 -0.0013186527638685745 0.019372474683505 0 -0.00026784145091574669 0.020950961845416411 0 -0.00087522747643261917 0.020281165227991935 0 -0.0013993640145102562 0.019883441914273502 0 -0.00011160794644865234 0.016032464042148149 0 -0.0013771868718792479 0.01555722445386006 0 -0.0013186527638685745 0.019372474683505 0 -0.0023202256792080032 0.018108257466100362 0 -0.0014789630741632441 0.017766356428846299 0 -0.0013993640145102562 0.019883441914273502 0 -0.0013186527638685745 0.019372474683505 0 -0.0023202256792080032 0.018108257466100362 0 -0.0016159344470614389 0.014439242459474987 0 -0.0023202256792080032 0.018108257466100362 0 -0.0014789630741632441 0.017766356428846299 0 0.00084691208797923556 0.012807753785830545 0 -0.00052008273714298527 0.012983920965414788 0 0.00040113933438220255 0.01315433773270411 0 -0.00066360573372408805 0.013483202444085235 0 -0.00052008273714298527 0.012983920965414788 0 0.00040113933438220255 0.01315433773270411 0 0.0013464677731760571 0.013121345821486451 0 0.00040113933438220255 0.01315433773270411 0 0.0015517951664659605 0.013067853725551372 0 0.0016793979512964884 0.012999093725888519 0 0.00084691208797923556 0.012807753785830545 0 0.0015517951664659605 0.013067853725551372 0 0.00084691208797923556 0.012807753785830545 0 0.00040113933438220255 0.01315433773270411 0 0.0015517951664659605 0.013067853725551372 0 -0.00072632502992957086 0.018545496072362996 0 -0.00065073560913017007 0.017376071565804618 0 -0.0012650314522106251 0.019253772557839072 0 -0.00072632502992957086 0.018545496072362996 0 -0.0012650314522106251 0.019253772557839072 0 -0.0045329442078768335 0.021316014917165373 0 -0.0048731188902138177 0.019350965763062319 0 -0.004568059826673374 0.02082806495462031 0 -0.0076068483761331926 0.020281802890184483 0 -0.0080149290413630715 0.019167239582298021 0 -0.0064666973739707654 0.020709703928583467 0 -0.0085737137644857318 0.020668070616033023 0 -0.0064800680863863775 0.020996148525729213 0 -0.0045329442078768335 0.021316014917165373 0 -0.0064800680863863775 0.020996148525729213 0 -0.0076068483761331926 0.020281802890184483 0 -0.0064666973739707654 0.020709703928583467 0 -0.0085737137644857318 0.020668070616033023 0 -0.0064800680863863775 0.020996148525729213 0 -0.0076068483761331926 0.020281802890184483 0 -0.0085737137644857318 0.020668070616033023 0 -0.0076068483761331926 0.020281802890184483 0 -0.0086586343359286878 0.019447014934711959 0 -0.0076068483761331926 0.020281802890184483 0 -0.0080149290413630715 0.019167239582298021 0 -0.0086586343359286878 0.019447014934711959 0 -0.0091502738814373021 0.01847801209984893 0 -0.0080149290413630715 0.019167239582298021 0 -0.0086586343359286878 0.019447014934711959 0 -0.010122312099110574 0.018625996116596589 0 -0.0085737137644857318 0.020668070616033023 0 -0.0086586343359286878 0.019447014934711959 0 -0.0091502738814373021 0.01847801209984893 0 -0.010122312099110574 0.018625996116596589 0 -0.0086586343359286878 0.019447014934711959 0 0.00028304362243160964 0.015240653983484984 0 -0.00072632502992957086 0.018545496072362996 0 -0.00065073560913017007 0.017376071565804618 0 -0.0045906744288560309 0.016491603474191725 0 -0.0048731188902138177 0.019350965763062319 0 -0.010122312099110574 0.018625996116596589 0 -0.011137478615965885 0.01827140023352939 0 -0.0085737137644857318 0.020668070616033023 0 -0.00054191474185883359 0.016250882201870286 0 -0.00091734816579856966 0.017042916996976149 0 -0.00065073560913017007 0.017376071565804618 0 -0.00091734816579856966 0.017042916996976149 0 -0.00065073560913017007 0.017376071565804618 0 -0.0011356838324042421 0.018518645725663117 0 -0.0016159344470614389 0.014439242459474987 0 -0.00091734816579856966 0.017042916996976149 0 -0.0014789630741632441 0.017766356428846299 0 -0.00091734816579856966 0.017042916996976149 0 -0.0014789630741632441 0.017766356428846299 0 -0.0011356838324042421 0.018518645725663117 0 -0.0013186527638685745 0.019372474683505 0 -0.0011356838324042421 0.018518645725663117 0 -0.0010375124220360821 0.019479167177779717 0 -0.0013186527638685745 0.019372474683505 0 -0.0014789630741632441 0.017766356428846299 0 -0.0011356838324042421 0.018518645725663117 0 -0.00065073560913017007 0.017376071565804618 0 -0.0011356838324042421 0.018518645725663117 0 -0.0012650314522106251 0.019253772557839072 0 -0.0011356838324042421 0.018518645725663117 0 -0.0012650314522106251 0.019253772557839072 0 -0.0010375124220360821 0.019479167177779717 0 -0.0012650314522106251 0.019253772557839072 0 -0.00099091755205298385 0.019739009287742759 0 -0.00087029970613510866 0.019797475836070864 0 -0.00099091755205298385 0.019739009287742759 0 -0.0010375124220360821 0.019479167177779717 0 -0.00080739351229779696 0.020232862942008392 0 -0.0012650314522106251 0.019253772557839072 0 -0.00099091755205298385 0.019739009287742759 0 -0.0010375124220360821 0.019479167177779717 0 -0.0013186527638685745 0.019372474683505 0 -0.0010375124220360821 0.019479167177779717 0 -0.00080739351229779696 0.020232862942008392 0 -0.00080739351229779696 0.020232862942008392 0 -0.00047514790152816731 0.020861220823254031 0 -0.0006252786227450317 0.020808914417947605 0 -0.00060498652448008042 0.020618923596742649 0 -0.00080739351229779696 0.020232862942008392 0 -0.00047514790152816731 0.020861220823254031 0 -0.00099091755205298385 0.019739009287742759 0 -0.00080739351229779696 0.020232862942008392 0 -0.0009243552389595625 0.020019468925698711 0 -0.00080739351229779696 0.020232862942008392 0 -0.0009243552389595625 0.020019468925698711 0 -0.00082665494080480517 0.020499277585952002 0 -0.00080739351229779696 0.020232862942008392 0 -0.00082665494080480517 0.020499277585952002 0 -0.0006252786227450317 0.020808914417947605 0 -0.00099091755205298385 0.019739009287742759 0 -0.0009243552389595625 0.020019468925698711 0 -0.00087029970613510866 0.019797475836070864 0 -0.0009243552389595625 0.020019468925698711 0 -0.00082665494080480517 0.020499277585952002 0 -0.00092523678941970025 0.020393546244141313 0 -0.00092523678941970025 0.020393546244141313 0 -0.00087029970613510866 0.019797475836070864 0 -0.0010231062346278991 0.02044371512104463 0 -0.00087029970613510866 0.019797475836070864 0 -0.0010231062346278991 0.02044371512104463 0 -0.0011462323069070699 0.020577310021324475 0 -0.0043057243127922473 0.021621152072823564 0 -0.0045960776339123094 0.021654577025677545 0 -0.0047451571395377024 0.022016495492873166 0 -0.0043057243127922473 0.021621152072823564 0 -0.0045329442078768335 0.021316014917165373 0 -0.0045960776339123094 0.021654577025677545 0 -0.0009243552389595625 0.020019468925698711 0 -0.00092523678941970025 0.020393546244141313 0 -0.00087029970613510866 0.019797475836070864 0 -0.001447486542963731 0.019619832336410993 0 -0.0024437421997718567 0.020754267066499018 0 -0.0012650314522106251 0.019253772557839072 0 -0.0043057243127922473 0.021621152072823564 0 -0.0045329442078768335 0.021316014917165373 0 -0.0064800680863863775 0.020996148525729213 0 -0.0045329442078768335 0.021316014917165373 0 -0.0048780223851240213 0.02149949021987806 0 -0.0064800680863863775 0.020996148525729213 0 -0.0048780223851240213 0.02149949021987806 0 -0.0064666973739707654 0.020709703928583467 0 -0.0048780223851240213 0.02149949021987806 0 -0.0047451571395377024 0.022016495492873166 0 -0.0049798507543426665 0.022612114874484061 0 -0.0043057243127922473 0.021621152072823564 0 -0.0047451571395377024 0.022016495492873166 0 -0.0049791079282451474 0.022673285135195443 0 -0.0045329442078768335 0.021316014917165373 0 -0.0048780223851240213 0.02149949021987806 0 -0.0045960776339123094 0.021654577025677545 0 -0.0048780223851240213 0.02149949021987806 0 -0.0045960776339123094 0.021654577025677545 0 -0.0047451571395377024 0.022016495492873166 0 -0.0078430076062264552 0.021586935420750058 0 -0.0061558032050414062 0.022176704389383243 0 -0.0049798507543426665 0.022612114874484061 0 -0.0063596990841309044 0.021466337497423296 0 -0.0051890286505096878 0.022353644502817974 0 -0.0061558032050414062 0.022176704389383243 0 -0.0054958454675291101 0.022328779306605085 0 -0.0049798507543426665 0.022612114874484061 0 -0.0061558032050414062 0.022176704389383243 0 -0.0054958454675291101 0.022328779306605085 0 -0.0059134749493574591 0.022188826601028402 0 -0.0054958454675291101 0.022328779306605085 0 -0.0049798507543426665 0.022612114874484061 0 -0.0051180170417717986 0.022226130538884434 0 -0.0047451571395377024 0.022016495492873166 0 -0.0049798507543426665 0.022612114874484061 0 -0.0049791079282451474 0.022673285135195443 0 -0.0013818091356241095 0.020763967109373529 0 -0.0011462323069070699 0.020577310021324475 0 -0.001256818367308996 0.020786226447969423 0 -0.0013818091356241095 0.020763967109373529 0 -0.001256818367308996 0.020786226447969423 0 -0.0012493952139505983 0.020982545467425034 0 -0.0024437421997718567 0.020754267066499018 0 -0.0031968572878635845 0.021582730567872643 0 -0.00087029970613510866 0.019797475836070864 0 -0.0013818091356241095 0.020763967109373529 0 -0.0011462323069070699 0.020577310021324475 0 -0.0010231062346278991 0.02044371512104463 0 -0.0011462323069070699 0.020577310021324475 0 -0.0010864213552242848 0.020816426746362002 0 -0.0010231062346278991 0.02044371512104463 0 -0.00096826082387658574 0.020620058679559957 0 -0.0010864213552242848 0.020816426746362002 0 -0.00096826082387658574 0.020620058679559957 0 -0.0010864213552242848 0.020816426746362002 0 -0.00083456559132980902 0.020818764494246505 0 -0.00092523678941970025 0.020393546244141313 0 -0.00096826082387658574 0.020620058679559957 0 -0.00083456559132980902 0.020818764494246505 0 -0.00092523678941970025 0.020393546244141313 0 -0.0010231062346278991 0.02044371512104463 0 -0.00096826082387658574 0.020620058679559957 0 -0.00095110959940749033 0.021077269467484588 0 -0.0010864213552242848 0.020816426746362002 0 -0.00083456559132980902 0.020818764494246505 0 -0.00095110959940749033 0.021077269467484588 0 -0.0010864213552242848 0.020816426746362002 0 -0.0012493952139505983 0.020982545467425034 0 -0.0011462323069070699 0.020577310021324475 0 -0.0011947221751961756 0.020812457270994345 0 -0.001256818367308996 0.020786226447969423 0 -0.0011462323069070699 0.020577310021324475 0 -0.0011947221751961756 0.020812457270994345 0 -0.0010864213552242848 0.020816426746362002 0 -0.0011947221751961756 0.020812457270994345 0 -0.0010864213552242848 0.020816426746362002 0 -0.0012493952139505983 0.020982545467425034 0 -0.0011947221751961756 0.020812457270994345 0 -0.001256818367308996 0.020786226447969423 0 -0.0012493952139505983 0.020982545467425034 0 -0.00095110959940749033 0.021077269467484588 0 -0.0012493952139505983 0.020982545467425034 0 -0.0010725196753138891 0.021294809804546278 0 -0.0012493952139505983 0.020982545467425034 0 -0.0010725196753138891 0.021294809804546278 0 -0.0015887930784033823 0.02135596383679161 0 -0.00095110959940749033 0.021077269467484588 0 -0.0010725196753138891 0.021294809804546278 0 -0.000668971575235341 0.021376159786761235 0 -0.0010725196753138891 0.021294809804546278 0 -0.000668971575235341 0.021376159786761235 0 -0.00096207520658763812 0.021560829549417806 0 -0.0010725196753138891 0.021294809804546278 0 -0.0015887930784033823 0.02135596383679161 0 -0.00096207520658763812 0.021560829549417806 0 -0.0031968572878635845 0.021582730567872643 0 -0.0035598410582945209 0.021396696760842302 0 -0.0049798507543426665 0.022612114874484061 0 -0.0051180170417717986 0.022226130538884434 0 -0.003486554041521899 0.021580871654694144 0 -0.0013818091356241095 0.020763967109373529 0 -0.0015887930784033823 0.02135596383679161 0 -0.003486554041521899 0.021580871654694144 0 -0.0049798507543426665 0.022612114874484061 0 -0.0049791079282451474 0.022673285135195443 0 -0.003486554041521899 0.021580871654694144 0 -0.0013818091356241095 0.020763967109373529 0 -0.0012493952139505983 0.020982545467425034 0 -0.0015887930784033823 0.02135596383679161 0 -0.00010228332748434029 0.021136125363880341 0 -0.00017628308609237228 0.021295102147451807 0 -0.00047514790152816731 0.020861220823254031 0 -0.00017628308609237228 0.021295102147451807 0 -0.00047514790152816731 0.020861220823254031 0 -0.0006252786227450317 0.020808914417947605 0 -0.00017628308609237228 0.021295102147451807 0 -0.00053871306970895586 0.021148896924494284 0 -0.0006252786227450317 0.020808914417947605 0 -0.00053871306970895586 0.021148896924494284 0 -0.0006252786227450317 0.020808914417947605 0 -0.00083456559132980902 0.020818764494246505 0 -0.00082665494080480517 0.020499277585952002 0 -0.00092523678941970025 0.020393546244141313 0 -0.00083456559132980902 0.020818764494246505 0 -0.00082665494080480517 0.020499277585952002 0 -0.0006252786227450317 0.020808914417947605 0 -0.00083456559132980902 0.020818764494246505 0 -0.00095110959940749033 0.021077269467484588 0 -0.00083456559132980902 0.020818764494246505 0 -0.00074337376786937071 0.021108726716245488 0 -0.00053871306970895586 0.021148896924494284 0 -0.00083456559132980902 0.020818764494246505 0 -0.00074337376786937071 0.021108726716245488 0 -0.00053871306970895586 0.021148896924494284 0 -0.00074337376786937071 0.021108726716245488 0 -0.000668971575235341 0.021376159786761235 0 -0.00095110959940749033 0.021077269467484588 0 -0.00074337376786937071 0.021108726716245488 0 -0.000668971575235341 0.021376159786761235 0 -0.000668971575235341 0.021376159786761235 0 -0.00032654480051834552 0.021721150459515844 0 -0.00096207520658763812 0.021560829549417806 0 -0.000668971575235341 0.021376159786761235 0 -0.00015295912844116462 0.021569732852537424 0 -0.00032654480051834552 0.021721150459515844 0 -0.00053871306970895586 0.021148896924494284 0 -0.000668971575235341 0.021376159786761235 0 -0.00015295912844116462 0.021569732852537424 0 -0.00017628308609237228 0.021295102147451807 0 -0.00053871306970895586 0.021148896924494284 0 -0.00015295912844116462 0.021569732852537424 0 -0.00017628308609237228 0.021295102147451807 0 -0.00015295912844116462 0.021569732852537424 0 0.00035945740796879371 0.021761093328275614 0 0.0011542115443362133 0.02231247340045564 0 0.00035945740796879371 0.021761093328275614 0 0.00038588253805619703 0.022029408283599897 0 -0.00015295912844116462 0.021569732852537424 0 0.00035945740796879371 0.021761093328275614 0 0.00038588253805619703 0.022029408283599897 0 0.00038588253805619703 0.022029408283599897 0 -0.00032654480051834552 0.021721150459515844 0 -0.00044618321306435962 0.021839431728943339 0 -0.00015295912844116462 0.021569732852537424 0 0.00038588253805619703 0.022029408283599897 0 -0.00032654480051834552 0.021721150459515844 0 0.00038588253805619703 0.022029408283599897 0 -0.00044618321306435962 0.021839431728943339 0 0.00035223805686838072 0.022136100128405674 0 0.0011542115443362133 0.02231247340045564 0 0.00038588253805619703 0.022029408283599897 0 0.0013301530840503057 0.022522128436658847 0 0.00038588253805619703 0.022029408283599897 0 0.00035223805686838072 0.022136100128405674 0 0.0013301530840503057 0.022522128436658847 0 -0.0010373543491285246 0.021698852047782703 0 -0.0022476165359726782 0.021349964889654946 0 -0.003486554041521899 0.021580871654694144 0 -0.0015887930784033823 0.02135596383679161 0 -0.0014740815415263211 0.021659646472976003 0 -0.003486554041521899 0.021580871654694144 0 -0.0014740815415263211 0.021659646472976003 0 -0.0010373543491285246 0.021698852047782703 0 -0.003486554041521899 0.021580871654694144 0 -0.0015887930784033823 0.02135596383679161 0 -0.00096207520658763812 0.021560829549417806 0 -0.0014740815415263211 0.021659646472976003 0 -0.00032654480051834552 0.021721150459515844 0 -0.00096207520658763812 0.021560829549417806 0 -0.00044618321306435962 0.021839431728943339 0 -0.00096207520658763812 0.021560829549417806 0 -0.00044618321306435962 0.021839431728943339 0 -0.0014740815415263211 0.021659646472976003 0 -0.00044618321306435962 0.021839431728943339 0 -0.0014740815415263211 0.021659646472976003 0 -0.0010373543491285246 0.021698852047782703 0 -0.00044618321306435962 0.021839431728943339 0 -0.0010373543491285246 0.021698852047782703 0 0.00035223805686838072 0.022136100128405674 0 -0.0010373543491285246 0.021698852047782703 0 -0.0022476165359726782 0.021349964889654946 0 -0.00043399110759240374 0.021822516198326331 0 -0.0010373543491285246 0.021698852047782703 0 0.00063809682213564276 0.022256351127370292 0 0.00035223805686838072 0.022136100128405674 0 -0.0010373543491285246 0.021698852047782703 0 -0.00043399110759240374 0.021822516198326331 0 0.00063809682213564276 0.022256351127370292 0 -0.00043399110759240374 0.021822516198326331 0 0.0012591745299165508 0.022422563239785413 0 0.00063809682213564276 0.022256351127370292 0 -0.0022476165359726782 0.021349964889654946 0 -0.00043399110759240374 0.021822516198326331 0 -0.0015116658844901705 0.021231451036101037 0 -0.00043399110759240374 0.021822516198326331 0 -0.0015116658844901705 0.021231451036101037 0 0.00056476957186466772 0.021995354336300055 0 -0.0015116658844901705 0.021231451036101037 0 0.00056476957186466772 0.021995354336300055 0 0.0015883600483595833 0.022446587964257608 0 -0.00043399110759240374 0.021822516198326331 0 0.00056476957186466772 0.021995354336300055 0 0.0012591745299165508 0.022422563239785413 0 0.00056476957186466772 0.021995354336300055 0 0.0018952722619702868 0.022719151111567002 0 0.0012591745299165508 0.022422563239785413 0 0.00056476957186466772 0.021995354336300055 0 0.0015883600483595833 0.022446587964257608 0 0.0018952722619702868 0.022719151111567002 0 0.0015883600483595833 0.022446587964257608 0 0.0018952722619702868 0.022719151111567002 0 0.0025750914982991544 0.023099473838985592 0 -0.0014476581501001618 0.021739260044499987 0 -0.00029045569581939202 0.021022637342434057 0 -0.0015116658844901705 0.021231451036101037 0 -0.0020109745685877854 0.020595932043001898 0 -0.0023852745769300282 0.020668664223092732 0 0.0023050440398863863 0.023046996275928686 0 0.0033495099235869245 0.023801451381446296 0 0.003237501727962301 0.023609021267530696 0 0.0033495099235869245 0.023801451381446296 0 0.0043607651917111703 0.02450724027198109 0 0.003237501727962301 0.023609021267530696 0 0.0018952722619702868 0.022719151111567002 0 0.0025750914982991544 0.023099473838985592 0 0.003237501727962301 0.023609021267530696 0 0.0018952722619702868 0.022719151111567002 0 0.0023050440398863863 0.023046996275928686 0 0.003237501727962301 0.023609021267530696 0 0.0018952722619702868 0.022719151111567002 0 0.0023050440398863863 0.023046996275928686 0 0.0012591745299165508 0.022422563239785413 0 0.0023050440398863863 0.023046996275928686 0 0.0012591745299165508 0.022422563239785413 0 0.0016709450177303173 0.022714447306381114 0 0.0023050440398863863 0.023046996275928686 0 0.0024243128986648032 0.02318344805744324 0 0.0016709450177303173 0.022714447306381114 0 0.0023050440398863863 0.023046996275928686 0 0.0024243128986648032 0.02318344805744324 0 0.0033495099235869245 0.023801451381446296 0 0.0024243128986648032 0.02318344805744324 0 0.0016088554124117046 0.022707504899599815 0 0.0016709450177303173 0.022714447306381114 0 0.0024243128986648032 0.02318344805744324 0 0.0016088554124117046 0.022707504899599815 0 0.0022236329163841878 0.023062573193593571 0 0.0012591745299165508 0.022422563239785413 0 0.00063809682213564276 0.022256351127370292 0 0.0016709450177303173 0.022714447306381114 0 0.0016088554124117046 0.022707504899599815 0 0.00063809682213564276 0.022256351127370292 0 0.0016709450177303173 0.022714447306381114 0 0.0016088554124117046 0.022707504899599815 0 0.00063809682213564276 0.022256351127370292 0 0.00035223805686838072 0.022136100128405674 0 0.0016088554124117046 0.022707504899599815 0 0.0013301530840503057 0.022522128436658847 0 0.0022236329163841878 0.023062573193593571 0 0.0016088554124117046 0.022707504899599815 0 0.00035223805686838072 0.022136100128405674 0 0.0013301530840503057 0.022522128436658847 0 0.0019311171575388732 0.02282973573761882 0 0.0027019541161750148 0.023400272636025558 0 0.0022236329163841878 0.023062573193593571 0 0.0013301530840503057 0.022522128436658847 0 0.0019311171575388732 0.02282973573761882 0 0.0022236329163841878 0.023062573193593571 0 0.0019311171575388732 0.02282973573761882 0 0.0027019541161750148 0.023400272636025558 0 0.0023160056865821573 0.02309354071186305 0 0.0027019541161750148 0.023400272636025558 0 0.0023160056865821573 0.02309354071186305 0 0.0029320800573204172 0.023626236452657788 0 0.0027019541161750148 0.023400272636025558 0 0.0031343341151696996 0.023708672517499856 0 0.0035714477613362173 0.024135832386981693 0 0.0027019541161750148 0.023400272636025558 0 0.0029320800573204172 0.023626236452657788 0 0.0035714477613362173 0.024135832386981693 0 0.0024243128986648032 0.02318344805744324 0 0.0022236329163841878 0.023062573193593571 0 0.0031343341151696996 0.023708672517499856 0 0.0027019541161750148 0.023400272636025558 0 0.0022236329163841878 0.023062573193593571 0 0.0031343341151696996 0.023708672517499856 0 0.0024452540098225829 0.023258753631538832 0 0.002550725349434668 0.023322867573975729 0 0.0029868091393615978 0.023841639454999397 0 0.002550725349434668 0.023322867573975729 0 0.0030843284172625109 0.023852811902870859 0 0.0029868091393615978 0.023841639454999397 0 0.002550725349434668 0.023322867573975729 0 0.0023160056865821573 0.02309354071186305 0 0.0029320800573204172 0.023626236452657788 0 0.002550725349434668 0.023322867573975729 0 0.0030843284172625109 0.023852811902870859 0 0.0029320800573204172 0.023626236452657788 0 0.0029320800573204172 0.023626236452657788 0 0.0037449500681364383 0.024445492347802699 0 0.0035714477613362173 0.024135832386981693 0 0.0030843284172625109 0.023852811902870859 0 0.0029320800573204172 0.023626236452657788 0 0.0037449500681364383 0.024445492347802699 0 0.0030843284172625109 0.023852811902870859 0 0.0037449500681364383 0.024445492347802699 0 0.0035508815146851349 0.0244681870869022 0 0.0030843284172625109 0.023852811902870859 0 0.0035508815146851349 0.0244681870869022 0 0.0029868091393615978 0.023841639454999397 0 0.0037449500681364383 0.024445492347802699 0 0.0041344544962367323 0.025168827775342465 0 0.0045274943811606889 0.02538002896151623 0 0.0041344544962367323 0.025168827775342465 0 0.0045274943811606889 0.02538002896151623 0 0.0046891510347096734 0.02601837206322153 0 0.0035508815146851349 0.0244681870869022 0 0.0041344544962367323 0.025168827775342465 0 0.0037880642346209787 0.024926965842711327 0 0.0037449500681364383 0.024445492347802699 0 0.0035508815146851349 0.0244681870869022 0 0.0041344544962367323 0.025168827775342465 0 0.0037449500681364383 0.024445492347802699 0 0.0045274943811606889 0.02538002896151623 0 0.0044520976802185754 0.025032024699640384 0 0.0037449500681364383 0.024445492347802699 0 0.0044520976802185754 0.025032024699640384 0 0.0035714477613362173 0.024135832386981693 0 0.0044520976802185754 0.025032024699640384 0 0.0053325847806289456 0.026283677791106658 0 0.0051115104464001717 0.025657887213714845 0 0.0045274943811606889 0.02538002896151623 0 0.0044520976802185754 0.025032024699640384 0 0.0053325847806289456 0.026283677791106658 0 0.0053325847806289456 0.026283677791106658 0 0.0052694389250450167 0.026834373771151974 0 0.0046891510347096734 0.02601837206322153 0 0.0045274943811606889 0.02538002896151623 0 0.0053325847806289456 0.026283677791106658 0 0.0046891510347096734 0.02601837206322153 0 0.0031343341151696996 0.023708672517499856 0 0.0041921469899584649 0.024576230476634559 0 0.0033495099235869245 0.023801451381446296 0 0.0024243128986648032 0.02318344805744324 0 0.0031343341151696996 0.023708672517499856 0 0.0033495099235869245 0.023801451381446296 0 0.0044520976802185754 0.025032024699640384 0 0.0035714477613362173 0.024135832386981693 0 0.0041921469899584649 0.024576230476634559 0 0.0031343341151696996 0.023708672517499856 0 0.0035714477613362173 0.024135832386981693 0 0.0041921469899584649 0.024576230476634559 0 0.0041921469899584649 0.024576230476634559 0 0.0050467955083987959 0.025322099490754715 0 0.0051115104464001717 0.025657887213714845 0 0.0044520976802185754 0.025032024699640384 0 0.0041921469899584649 0.024576230476634559 0 0.0051115104464001717 0.025657887213714845 0 0.0041921469899584649 0.024576230476634559 0 0.0043607651917111703 0.02450724027198109 0 0.0050467955083987959 0.025322099490754715 0 0.0041921469899584649 0.024576230476634559 0 0.0033495099235869245 0.023801451381446296 0 0.0043607651917111703 0.02450724027198109 0 0.0043607651917111703 0.02450724027198109 0 0.0056955281283631856 0.025645934970745101 0 0.0043412452603473007 0.024246154547280491 0 0.0043607651917111703 0.02450724027198109 0 0.0050467955083987959 0.025322099490754715 0 0.0056955281283631856 0.025645934970745101 0 0.0050467955083987959 0.025322099490754715 0 0.0056955281283631856 0.025645934970745101 0 0.0058453346165538008 0.026310237729587096 0 0.0056955281283631856 0.025645934970745101 0 0.0058453346165538008 0.026310237729587096 0 0.006777524724192973 0.026911973658911331 0 0.0051923499959527723 0.024804326467180553 0 0.0056385129054113414 0.026778762173906116 0 0.0056955281283631856 0.025645934970745101 0 0.0043412452603473007 0.024246154547280491 0 0.0046630688705684188 0.024107909551579015 0 0.0056955281283631856 0.025645934970745101 0 0.0053539874154695972 0.023887826207196424 0 0.0046630688705684188 0.024107909551579015 0 0.0053325847806289456 0.026283677791106658 0 0.0062583688581029041 0.027404847709179076 0 0.005878954043044571 0.027522614959920724 0 0.0053325847806289456 0.026283677791106658 0 0.0058453346165538008 0.026310237729587096 0 0.0062583688581029041 0.027404847709179076 0 0.0053325847806289456 0.026283677791106658 0 0.0052694389250450167 0.026834373771151974 0 0.005878954043044571 0.027522614959920724 0 0.0053325847806289456 0.026283677791106658 0 0.0051115104464001717 0.025657887213714845 0 0.0058453346165538008 0.026310237729587096 0 0.0050467955083987959 0.025322099490754715 0 0.0051115104464001717 0.025657887213714845 0 0.0058453346165538008 0.026310237729587096 0 0.0058453346165538008 0.026310237729587096 0 0.0066366678361288629 0.027195094407219692 0 0.0062583688581029041 0.027404847709179076 0 0.0058453346165538008 0.026310237729587096 0 0.0066366678361288629 0.027195094407219692 0 0.006777524724192973 0.026911973658911331 0 0.0062583688581029041 0.027404847709179076 0 0.0076428383323741793 0.028059779218366575 0 0.0068746014460267391 0.028768462423157042 0 0.0066366678361288629 0.027195094407219692 0 0.0062583688581029041 0.027404847709179076 0 0.0076428383323741793 0.028059779218366575 0 0.0024755171734933117 0.035535465661815827 0 0.0033433587567114633 0.036736162343259535 0 0.0028103771887661513 0.036362139128540437 0 0.0076428383323741793 0.028059779218366575 0 0.006777524724192973 0.026911973658911331 0 0.0079266631911283515 0.027473755058394733 0 0.0066366678361288629 0.027195094407219692 0 0.0076428383323741793 0.028059779218366575 0 0.006777524724192973 0.026911973658911331 0 0.0050306118240475489 0.033669223059704496 0 0.0027079639517040613 0.036479521130258791 0 0.0050349707327603599 0.031305927880452604 0 0.0050306118240475489 0.033669223059704496 0 0.0024755171734933117 0.035535465661815827 0 0.003135337474958165 0.034069591199070742 0 0.0036723756484410837 0.036586140190870954 0 0.0038429498740744539 0.036668100192301607 0 0.0036723756484410837 0.036586140190870954 0 0.0048142890141771892 0.037643799233851243 0 0.0024755171734933117 0.035535465661815827 0 0.0036723756484410837 0.036586140190870954 0 0.0033433587567114633 0.036736162343259535 0 0.0036723756484410837 0.036586140190870954 0 0.0033433587567114633 0.036736162343259535 0 0.0040760462313382956 0.037813882062092533 0 0.0056955281283631856 0.025645934970745101 0 0.006313462448783465 0.026264144652360204 0 0.0047041467579236902 0.025031087598990674 0 0.006584211773281232 0.026442805191420116 0 0.0061207925299424102 0.026146971539872787 0 0.0055739879805917578 0.026749155817667923 0 0.006313462448783465 0.026264144652360204 0 0.006584211773281232 0.026442805191420116 0 0.0047041467579236902 0.025031087598990674 0 0.0061901935513167675 0.026160700023509821 0 0.0056385129054113414 0.026778762173906116 0 0.006777524724192973 0.026911973658911331 0 0.0079266631911283515 0.027473755058394733 0 0.006904829483097368 0.026794990924587165 0 0.0056955281283631856 0.025645934970745101 0 0.006777524724192973 0.026911973658911331 0 0.006313462448783465 0.026264144652360204 0 0.006777524724192973 0.026911973658911331 0 0.006313462448783465 0.026264144652360204 0 0.006904829483097368 0.026794990924587165 0 0.006313462448783465 0.026264144652360204 0 0.006904829483097368 0.026794990924587165 0 0.006584211773281232 0.026442805191420116 0 0.0079266631911283515 0.027473755058394733 0 0.006584211773281232 0.026442805191420116 0 0.0061207925299424102 0.026146971539872787 0 0.0050306118240475489 0.033669223059704496 0 0.0067678872719157427 0.030092893323111634 0 0.0044800938528364257 0.035767916377014923 0 0.0058109400623148648 0.035445371343242292 0 0.0068046968699352556 0.034356480930089313 0 0.0079266631911283515 0.027473755058394733 0 0.006904829483097368 0.026794990924587165 0 0.006584211773281232 0.026442805191420116 0 0.0050306118240475489 0.033669223059704496 0 0.005817607096826524 0.036894851038312547 0 0.0044800938528364257 0.035767916377014923 0 0.0058109400623148648 0.035445371343242292 0 0.0057327553190801728 0.036740705542441854 0 0.0081867808249943934 0.036290976464237498 0 0.0039763032914912812 0.033293768427614931 0 0.0058109400623148648 0.035445371343242292 0 0.0068046968699352556 0.034356480930089313 0 0.0089928491767255498 0.035554482852956704 0 0.0020176682746884402 0.029192014670092328 0 0.0039763032914912812 0.033293768427614931 0 0.0068046968699352556 0.034356480930089313 0 0.0083590268529050576 0.034077376772519215 0 0.0089928491767255498 0.035554482852956704 0 0.0068046968699352556 0.034356480930089313 0 0.0083590268529050576 0.034077376772519215 0 0.0087393721065667472 0.032972627535329632 0 0.0083590268529050576 0.034077376772519215 0 0.0091395851364275364 0.033088661173715506 0 0.0089928491767255498 0.035554482852956704 0 0.0061207925299424102 0.026146971539872787 0 0.0055739879805917578 0.026749155817667923 0 0.0054292238220517526 0.026520786403482266 0 0.0067678872719157427 0.030092893323111634 0 0.0071367157601770455 0.029735179129605955 0 0.0056385129054113414 0.026778762173906116 0 0.0071367157601770455 0.029735179129605955 0 0.0083590268529050576 0.034077376772519215 0 0.0087393721065667472 0.032972627535329632 0 0.0091395851364275364 0.033088661173715506 0 0.0056385129054113414 0.026778762173906116 0 0.0062603025048065279 0.026839312788963388 0 0.0084504329106712336 0.030629298507605138 0 0.0084188952372418208 0.030214566668156913 0 0.0080581573885912337 0.030936646532291296 0 -0.0029991085640853881 0.025983734168773504 0 -0.0030393463914143233 0.025847800431235947 0 -0.0036843554098167633 0.024504404339028452 0 0.0026581800856279418 0.029060037303027846 0 0.00098393705399778524 0.024813023349904727 0 -0.002486346432900318 0.026656736215159182 0 -0.0030393463914143233 0.025847800431235947 0 -0.0030792424340034775 0.025765138024682312 0 0.0080598989458479792 0.03020588364007485 0 0.0084188952372418208 0.030214566668156913 0 0.0080581573885912337 0.030936646532291296 0 0.0026581800856279418 0.029060037303027846 0 0.0071367157601770455 0.029735179129605955 0 0.0071367157601770455 0.029735179129605955 0 0.0020176682746884402 0.029192014670092328 0 0.0026581800856279418 0.029060037303027846 0 0.0020176682746884402 0.029192014670092328 0 0.0068222890180128894 0.033074012579066329 0 0.011053572999810609 0.032477726086393419 0 0.0085223947902641033 0.030600512539044722 0 -0.002899440976368677 0.026349616234556044 0 -0.002486346432900318 0.026656736215159182 0 -0.0030393463914143233 0.025847800431235947 0 0.0026581800856279418 0.029060037303027846 0 -0.00051249466252320909 0.028791978268144572 0 -0.0034513476071074776 0.028992368839575618 0 -0.0027187858639806397 0.02823870881396081 0 -0.0042074903704127746 0.027767460881454063 0 0.0020176682746884402 0.029192014670092328 0 -0.0045010902035112895 0.026568542986235281 0 -0.0034513476071074776 0.028992368839575618 0 -0.0027187858639806397 0.02823870881396081 0 -0.00032972349744933295 0.02837199077738202 0 -0.002486346432900318 0.026656736215159182 0 -0.0028357617061850089 0.025991260216146426 0 -0.0030792424340034775 0.025765138024682312 0 -0.0028357617061850089 0.025991260216146426 0 -0.0032202305160296462 0.025748573065383158 0 -0.0030792424340034775 0.025765138024682312 0 -0.0028357617061850089 0.025991260216146426 0 -0.0032202305160296462 0.025748573065383158 0 -0.0036334371188675163 0.027152491076106827 0 -0.0032202305160296462 0.025748573065383158 0 -0.0032407866695086515 0.025823295192536146 0 -0.0036334371188675163 0.027152491076106827 0 -0.0032407866695086515 0.025823295192536146 0 -0.0032265787675192312 0.025049834210209006 0 -0.0030385379977858579 0.025122255210443954 0 -0.0032202305160296462 0.025748573065383158 0 -0.0032407866695086515 0.025823295192536146 0 -0.0032265787675192312 0.025049834210209006 0 -0.0032202305160296462 0.025748573065383158 0 -0.0032265787675192312 0.025049834210209006 0 -0.0032820118809611465 0.024988947122017682 0 -0.0032820118809611465 0.024988947122017682 0 -0.0032183268446442496 0.024231498606622163 0 -0.0033708660335467705 0.024156301551343531 0 -0.0032265787675192312 0.025049834210209006 0 -0.0032820118809611465 0.024988947122017682 0 -0.0032183268446442496 0.024231498606622163 0 -0.0032265787675192312 0.025049834210209006 0 -0.0032183268446442496 0.024231498606622163 0 -0.0029568381740234608 0.024336237855558607 0 -0.0030393463914143233 0.025847800431235947 0 -0.0033265894340346685 0.02507366066820621 0 -0.0036843554098167633 0.024504404339028452 0 -0.0030393463914143233 0.025847800431235947 0 -0.0030792424340034775 0.025765138024682312 0 -0.0033265894340346685 0.02507366066820621 0 -0.0032202305160296462 0.025748573065383158 0 -0.0032820118809611465 0.024988947122017682 0 -0.0030792424340034775 0.025765138024682312 0 -0.0032820118809611465 0.024988947122017682 0 -0.0030792424340034775 0.025765138024682312 0 -0.0033265894340346685 0.02507366066820621 0 -0.0032820118809611465 0.024988947122017682 0 -0.0033265894340346685 0.02507366066820621 0 -0.0033708660335467705 0.024156301551343531 0 -0.0036843554098167633 0.024504404339028452 0 -0.0033708660335467705 0.024156301551343531 0 -0.0034732154248696863 0.022749670223440047 0 -0.0033265894340346685 0.02507366066820621 0 -0.0036843554098167633 0.024504404339028452 0 -0.0033708660335467705 0.024156301551343531 0 0.00098393705399778524 0.024813023349904727 0 -0.0034239178541209847 0.021424328208744819 0 -0.0032183268446442496 0.024231498606622163 0 -0.0032341921955962405 0.023327061627730371 0 -0.0029448150978756767 0.023349365717605729 0 -0.0032183268446442496 0.024231498606622163 0 -0.0033708660335467705 0.024156301551343531 0 -0.0032341921955962405 0.023327061627730371 0 -0.0033708660335467705 0.024156301551343531 0 -0.0032341921955962405 0.023327061627730371 0 -0.0034732154248696863 0.022749670223440047 0 -0.0032341921955962405 0.023327061627730371 0 -0.0034732154248696863 0.022749670223440047 0 -0.0030655812423509474 0.022453219273768851 0 -0.0020109745685877854 0.020595932043001898 0 -0.0021486216895291684 0.020428956073440193 0 -0.0023852745769300282 0.020668664223092732 0 -0.00029045569581939202 0.021022637342434057 0 0.00098393705399778524 0.024813023349904727 0 0.0015883600483595833 0.022446587964257608 0 0.0030198264922374741 0.023187535492841964 0 0.0025750914982991544 0.023099473838985592 0 -0.0020109745685877854 0.020595932043001898 0 -0.0020243989535502194 0.020589905612277869 0 -0.0021486216895291684 0.020428956073440193 0 0.0025750914982991544 0.023099473838985592 0 0.003237501727962301 0.023609021267530696 0 0.0035884876448841179 0.023655380205973128 0 0.0030198264922374741 0.023187535492841964 0 0.0025750914982991544 0.023099473838985592 0 0.0035884876448841179 0.023655380205973128 0 0.0043607651917111703 0.02450724027198109 0 0.003237501727962301 0.023609021267530696 0 0.0043412452603473007 0.024246154547280491 0 0.003237501727962301 0.023609021267530696 0 0.0043412452603473007 0.024246154547280491 0 0.0035884876448841179 0.023655380205973128 0 0.0043412452603473007 0.024246154547280491 0 0.0046630688705684188 0.024107909551579015 0 0.0035884876448841179 0.023655380205973128 0 0.0053539874154695972 0.023887826207196424 0 0.0046630688705684188 0.024107909551579015 0 0.0039321497720729006 0.023415038629573372 0 0.0046630688705684188 0.024107909551579015 0 0.0039321497720729006 0.023415038629573372 0 0.0035884876448841179 0.023655380205973128 0 0.0080598989458479792 0.03020588364007485 0 0.0068618433708090556 0.03139961725443309 0 0.0080581573885912337 0.030936646532291296 0 0.00098393705399778524 0.024813023349904727 0 0.0062603025048065279 0.026839312788963388 0 0.0030198264922374741 0.023187535492841964 0 0.0039321497720729006 0.023415038629573372 0 0.0035884876448841179 0.023655380205973128 0 0.02188217977497478 0.026825558052644582 0 0.022111540143651777 0.026463913483388005 0 0.021585634937927242 0.026100498587913103 0 0.0054177766991492394 0.024977052787909362 0 0.0050845265135751831 0.02483801026749765 0 0.0053209366429917034 0.024695903494668183 0 0.0050845265135751831 0.02483801026749765 0 0.0049391125505088502 0.024737742386099507 0 0.0053209366429917034 0.024695903494668183 0 0.0054177766991492394 0.024977052787909362 0 0.0050845265135751831 0.02483801026749765 0 0.0046538042345485014 0.024846667843103805 0 0.0050845265135751831 0.02483801026749765 0 0.0046538042345485014 0.024846667843103805 0 0.0049391125505088502 0.024737742386099507 0 0.0054177766991492394 0.024977052787909362 0 0.0046538042345485014 0.024846667843103805 0 0.0042598781692966825 0.024912431770425944 0 0.01336658132716096 0.025633020445268911 0 0.014070507580427936 0.025041062146265558 0 0.0046538042345485014 0.024846667843103805 0 0.0042598781692966825 0.024912431770425944 0 0.0041538360058536433 0.024738820623775651 0 0.014070507580427936 0.025041062146265558 0 0.0026284782346931122 0.024692534566505872 0 0.021736605433774193 0.026381402473438027 0 0.021958947166770833 0.026521259374845937 0 0.021959549642474371 0.025975973635747284 0 0.021958947166770833 0.026521259374845937 0 0.02210626345626689 0.02567433510182926 0 0.021959549642474371 0.025975973635747284 0 0.021634398842609433 0.026989472060487654 0 0.014070507580427936 0.025041062146265558 0 0.02188217977497478 0.026825558052644582 0 0.021585634937927242 0.026100498587913103 0 0.021378709190839968 0.026764310897423999 0 0.021767935294677389 0.02681070684231137 0 0.021963779960578717 0.027307423868390378 0 0.022204372168735297 0.02705209710254642 0 0.021736605433774193 0.026381402473438027 0 0.021959549642474371 0.025975973635747284 0 0.022081162868229007 0.025383545660476181 0 0.020639631136911453 0.027141956840425065 0 0.018550400834957789 0.026333498038128626 0 0.021959549642474371 0.025975973635747284 0 0.022081162868229007 0.025383545660476181 0 0.022062957642633024 0.025615348100663085 0 0.02210626345626689 0.02567433510182926 0 0.021959549642474371 0.025975973635747284 0 0.022062957642633024 0.025615348100663085 0 0.021767935294677389 0.02681070684231137 0 0.022047197216604142 0.026086828310168623 0 0.022316924668993838 0.026375238871618387 0 0.023260695498139295 0.02721821926575339 0 0.018550400834957789 0.026333498038128626 0 0.021767935294677389 0.02681070684231137 0 0.022316924668993838 0.026375238871618387 0 0.02254179623759282 0.026575708641461498 0 0.022593015815793548 0.025815298515879045 0 0.022316924668993838 0.026375238871618387 0 0.022574602244930964 0.026550899345249745 0 0.0012767400168224104 0.023923034295837774 0 0.0022699877544532739 0.024723256401723789 0 0.0019257971293756249 0.024043301033783004 0 0.011977498233889709 0.024792458281801641 0 0.012153780534388195 0.02575025041436696 0 0.0022699877544532739 0.024723256401723789 0 0.0023787904400542461 0.024502173853958507 0 0.0019257971293756249 0.024043301033783004 0 0.012153780534388195 0.02575025041436696 0 0.00050986188049860395 0.025464245122352819 0 0.0023130703443976814 0.025043326101144726 0 0.0023874508031178385 0.025089741758842505 0 0.0023787904400542461 0.024502173853958507 0 0.022316924668993838 0.026375238871618387 0 0.022574602244930964 0.026550899345249745 0 0.02254179623759282 0.026575708641461498 0 0.012153780534388195 0.02575025041436696 0 0.01242786784894665 0.024837061926743169 0 0.022354870299278951 0.025782299841230517 0 0.022170043762517869 0.027909748663048812 0 0.019685232278026512 0.026156185410146981 0 0.01242786784894665 0.024837061926743169 0 0.018550400834957789 0.026333498038128626 0 0.012153780534388195 0.02575025041436696 0 0.018550400834957789 0.026333498038128626 0 0.014070507580427936 0.025041062146265558 0 0.01242786784894665 0.024837061926743169 0 0.02210626345626689 0.02567433510182926 0 0.022151594116808029 0.025323142085812277 0 0.022062957642633024 0.025615348100663085 0 0.022151594116808029 0.025323142085812277 0 0.022081162868229007 0.025383545660476181 0 0.022062957642633024 0.025615348100663085 0 0.0057294033195342837 0.021937971115613124 0 0.004804869088833639 0.026046000952676739 0 0.0011419769321710631 0.022697423969402063 0 0.0023874508031178385 0.025089741758842505 0 0.002688107549035207 0.024884156080766957 0 0.0023787904400542461 0.024502173853958507 0 0.01242786784894665 0.024837061926743169 0 0.0026284782346931122 0.024692534566505872 0 0.0023787904400542461 0.024502173853958507 0 0.0023114526671663307 0.023978102354299688 0 0.0027459282330716088 0.024130807392130547 0 0.0026284782346931122 0.024692534566505872 0 0.0029707998365018176 0.025021947720445373 0 0.002688107549035207 0.024884156080766957 0 0.0023787904400542461 0.024502173853958507 0 0.0027459282330716088 0.024130807392130547 0 0.0023787904400542461 0.024502173853958507 0 0.0023114526671663307 0.023978102354299688 0 0.0019257971293756249 0.024043301033783004 0 0.0020130873449772592 0.023493004256029276 0 0.0023114526671663307 0.023978102354299688 0 0.0019257971293756249 0.024043301033783004 0 0.0023114526671663307 0.023978102354299688 0 0.0024861457490577437 0.023599276410743449 0 0.0027459282330716088 0.024130807392130547 0 0.0020130873449772592 0.023493004256029276 0 0.0023114526671663307 0.023978102354299688 0 0.0024861457490577437 0.023599276410743449 0 0.0029707998365018176 0.025021947720445373 0 0.0032163992795697853 0.024504448016005653 0 0.0031595675883264733 0.025773775199877613 0 0.0035492247526884482 0.025762101427730638 0 0.0035252610858453482 0.02536631505718252 0 0.0024861457490577437 0.023599276410743449 0 0.0027459282330716088 0.024130807392130547 0 0.0028846936132210007 0.023581808729802558 0 0.0031595675883264733 0.025773775199877613 0 0.0035492247526884482 0.025762101427730638 0 0.0033927518747024301 0.026047839296497656 0 0.0035492247526884482 0.025762101427730638 0 0.0033927518747024301 0.026047839296497656 0 0.0037335196512015365 0.026102303446927648 0 0.0039000895298215597 0.02523258744950679 0 0.0057664353999451572 0.026658560413515702 0 0.0031947665151542634 0.026233936722397495 0 0.0031595675883264733 0.025773775199877613 0 0.0033927518747024301 0.026047839296497656 0 0.0026284782346931122 0.024692534566505872 0 0.0039000895298215597 0.02523258744950679 0 0.0046538042345485014 0.024846667843103805 0 0.0041538360058536433 0.024738820623775651 0 0.0045162196005700444 0.024692794879762531 0 0.0041538360058536433 0.024738820623775651 0 0.0045162196005700444 0.024692794879762531 0 0.0045906318920510975 0.024495475732466795 0 0.0046538042345485014 0.024846667843103805 0 0.0045162196005700444 0.024692794879762531 0 0.0047225341360306299 0.024653851495133858 0 0.0045162196005700444 0.024692794879762531 0 0.0045906318920510975 0.024495475732466795 0 0.0047225341360306299 0.024653851495133858 0 0.0047225341360306299 0.024653851495133858 0 0.0049438268392325421 0.024507874546007336 0 0.0049401166891212571 0.024573576803305665 0 0.0047225341360306299 0.024653851495133858 0 0.0047822393416292802 0.024510596099087095 0 0.0049438268392325421 0.024507874546007336 0 0.0045906318920510975 0.024495475732466795 0 0.0047225341360306299 0.024653851495133858 0 0.0047822393416292802 0.024510596099087095 0 0.0046538042345485014 0.024846667843103805 0 0.0047225341360306299 0.024653851495133858 0 0.0049391125505088502 0.024737742386099507 0 0.0049391125505088502 0.024737742386099507 0 0.0049800642724068906 0.024579442501252345 0 0.0053209366429917034 0.024695903494668183 0 0.0049535035673732462 0.024116317905083482 0 0.0053826958948005885 0.026546771472633617 0 0.0047225341360306299 0.024653851495133858 0 0.0049391125505088502 0.024737742386099507 0 0.0049800642724068906 0.024579442501252345 0 0.0057664353999451572 0.026658560413515702 0 0.007538357891133482 0.030029654030461792 0 0.0072233379852161628 0.030154156476880405 0 0.0078936353434318034 0.027142168087175164 0 0.010720522406589649 0.027855774987167507 0 0.0048874248565837705 0.024331656191446369 0 0.0047822393416292802 0.024510596099087095 0 0.0049438268392325421 0.024507874546007336 0 0.0045906318920510975 0.024495475732466795 0 0.0048874248565837705 0.024331656191446369 0 0.0047822393416292802 0.024510596099087095 0 0.0062059082556560653 0.028278116195256713 0 0.0066179173028083444 0.028835269482442888 0 0.0063240144676486492 0.027786520648535044 0 0.0053390094249335662 0.028377770661466174 0 0.0047854001305753738 0.027354541034671893 0 0.0072233379852161628 0.030154156476880405 0 0.004779671941730815 0.028110444546119689 0 0.0078936353434318034 0.027142168087175164 0 0.0041941957310980419 0.027967751989722081 0 0.0033007913521275562 0.026880183239552352 0 0.0044121814984550336 0.028048069212356232 0 0.0060452344962917542 0.028496483408137641 0 0.0062059082556560653 0.028278116195256713 0 0.0066179173028083444 0.028835269482442888 0 0.0057664353999451572 0.026658560413515702 0 0.0053390094249335662 0.028377770661466174 0 0.0053390094249335662 0.028377770661466174 0 0.003868316206521347 0.028205793483999 0 0.0038594753679044463 0.026879562299116633 0 0.0029828205508737448 0.026191243348044308 0 0.0033188616567396923 0.027704570166434742 0 0.0033007913521275562 0.026880183239552352 0 0.0029828205508737448 0.026191243348044308 0 0.0044121814984550336 0.028048069212356232 0 0.0031648921554781155 0.026248003733900582 0 0.003868316206521347 0.028205793483999 0 0.0042157959521365229 0.027563403228117619 0 0.0038594753679044463 0.026879562299116633 0 0.0033188616567396923 0.027704570166434742 0 0.0042157959521365229 0.027563403228117619 0 0.0038594753679044463 0.026879562299116633 0 0.0044856636841418508 0.02732637672808139 0 0.0047854001305753738 0.027354541034671893 0 0.0038711171925839994 0.025921816699926409 0 0.0063240144676486492 0.027786520648535044 0 0.0059008651794635091 0.027860267890530161 0 0.0056424679085244978 0.02689911385236101 0 0.0033007913521275562 0.026880183239552352 0 0.0029828205508737448 0.026191243348044308 0 0.0025277932954801074 0.025806655054187388 0 0.0038594753679044463 0.026879562299116633 0 0.0029828205508737448 0.026191243348044308 0 0.0035544644318725839 0.026157582903692408 0 0.0029828205508737448 0.026191243348044308 0 0.0030449613545128719 0.025693344342955709 0 0.0035544644318725839 0.026157582903692408 0 0.0029828205508737448 0.026191243348044308 0 0.0030449613545128719 0.025693344342955709 0 0.0025277932954801074 0.025806655054187388 0 0.0049008910539258864 0.026684298553739941 0 0.0038711171925839994 0.025921816699926409 0 0.0035492247526884482 0.025762101427730638 0 0.0040182324028959875 0.025513565180235745 0 0.0035252610858453482 0.02536631505718252 0 0.0062059082556560653 0.028278116195256713 0 0.0063240144676486492 0.027786520648535044 0 0.0059008651794635091 0.027860267890530161 0 0.0057664353999451572 0.026658560413515702 0 0.0049008910539258864 0.026684298553739941 0 0.0035492247526884482 0.025762101427730638 0 0.0037335196512015365 0.026102303446927648 0 0.0040182324028959875 0.025513565180235745 0 0.0060452344962917542 0.028496483408137641 0 0.0062059082556560653 0.028278116195256713 0 0.0059008651794635091 0.027860267890530161 0 0.0040182324028959875 0.025513565180235745 0 0.0035252610858453482 0.02536631505718252 0 0.0039192697141738298 0.025170073961313995 0 0.0021906583372686556 0.023019184317144694 0 0.0024861457490577437 0.023599276410743449 0 0.0025867242105753778 0.023226466449878618 0 0.0024861457490577437 0.023599276410743449 0 0.0028846936132210007 0.023581808729802558 0 0.0025867242105753778 0.023226466449878618 0 0.0028846936132210007 0.023581808729802558 0 0.0025867242105753778 0.023226466449878618 0 0.0028842985515529669 0.023293364596054668 0 0.0032163992795697853 0.024504448016005653 0 0.0029391149766415325 0.024264310542331483 0 0.0026346035597863415 0.023003605639372763 0 0.0025867242105753778 0.023226466449878618 0 0.0028842985515529669 0.023293364596054668 0 0.0024463258238137911 0.023056131503189695 0 0.0029391149766415325 0.024264310542331483 0 0.0029391149766415325 0.024264310542331483 0 0.0027104063462632631 0.024277174907997134 0 0.0029391149766415325 0.024264310542331483 0 0.0038711171925839994 0.025921816699926409 0 0.0035252610858453482 0.02536631505718252 0 0.0034275456233116195 0.025356503941268704 0 0.0039192697141738298 0.025170073961313995 0 0.0022602138562259691 0.024128926432519578 0 0.0025763379619162408 0.025037142104331181 0 0.0026922689551975767 0.024502230095982135 0 0.0022602138562259691 0.024128926432519578 0 0.0025763379619162408 0.025037142104331181 0 0.0022264696184527786 0.025466122890391261 0 0.0030449613545128719 0.025693344342955709 0 0.0025763379619162408 0.025037142104331181 0 0.0025277932954801074 0.025806655054187388 0 0.0031431768771841063 0.025774642233365033 0 0.0038711171925839994 0.025921816699926409 0 0.0030449613545128719 0.025693344342955709 0 0.0030903227613339876 0.025094095634823347 0 0.0035216076034936985 0.02561051480301476 0 0.0030449613545128719 0.025693344342955709 0 0.0025763379619162408 0.025037142104331181 0 0.0030903227613339876 0.025094095634823347 0 0.0030903227613339876 0.025094095634823347 0 0.0034533927092461484 0.02504028514409171 0 0.003053168822249167 0.024515439794756778 0 0.0030903227613339876 0.025094095634823347 0 0.0034533927092461484 0.02504028514409171 0 0.0035216076034936985 0.02561051480301476 0 0.0030903227613339876 0.025094095634823347 0 0.003053168822249167 0.024515439794756778 0 0.0026922689551975767 0.024502230095982135 0 0.003053168822249167 0.024515439794756778 0 0.0026922689551975767 0.024502230095982135 0 0.002686771998495771 0.024146528242437768 0 0.0025763379619162408 0.025037142104331181 0 0.0030903227613339876 0.025094095634823347 0 0.0026922689551975767 0.024502230095982135 0 0.0021648120666568852 0.023232157116344077 0 0.0022485552640216146 0.024091075150187598 0 0.0023997470620456111 0.024028071207551457 0 0.0026922689551975767 0.024502230095982135 0 0.0023997470620456111 0.024028071207551457 0 0.002686771998495771 0.024146528242437768 0 0.0022602138562259691 0.024128926432519578 0 0.0026922689551975767 0.024502230095982135 0 0.0023997470620456111 0.024028071207551457 0 0.0023997470620456111 0.024028071207551457 0 0.002686771998495771 0.024146528242437768 0 0.0024922420107572124 0.023723234397857972 0 0.003053168822249167 0.024515439794756778 0 0.002686771998495771 0.024146528242437768 0 0.0027345335478953588 0.023900568594700185 0 0.003053168822249167 0.024515439794756778 0 0.0027345335478953588 0.023900568594700185 0 0.0029925946890165494 0.024065439693470313 0 0.002686771998495771 0.024146528242437768 0 0.0027345335478953588 0.023900568594700185 0 0.0024922420107572124 0.023723234397857972 0 0.0024102257903048842 0.023250525992723068 0 0.0027345335478953588 0.023900568594700185 0 0.0026519162199277126 0.023528344975923623 0 0.0024102257903048842 0.023250525992723068 0 0.0027345335478953588 0.023900568594700185 0 0.0024922420107572124 0.023723234397857972 0 0.0021648120666568852 0.023232157116344077 0 0.0023997470620456111 0.024028071207551457 0 0.0024922420107572124 0.023723234397857972 0 0.0021648120666568852 0.023232157116344077 0 0.0024102257903048842 0.023250525992723068 0 0.0024922420107572124 0.023723234397857972 0 0.0024452540098225829 0.023258753631538832 0 0.0026519162199277126 0.023528344975923623 0 0.0029868091393615978 0.023841639454999397 0 0.0027345335478953588 0.023900568594700185 0 0.0026519162199277126 0.023528344975923623 0 0.0029925946890165494 0.024065439693470313 0 0.0026519162199277126 0.023528344975923623 0 0.0029925946890165494 0.024065439693470313 0 0.0029868091393615978 0.023841639454999397 0 0.0029925946890165494 0.024065439693470313 0 0.0029868091393615978 0.023841639454999397 0 0.003433866706510674 0.02459279004190457 0 0.0035508815146851349 0.0244681870869022 0 0.0029868091393615978 0.023841639454999397 0 0.003433866706510674 0.02459279004190457 0 0.003053168822249167 0.024515439794756778 0 0.0029925946890165494 0.024065439693470313 0 0.003433866706510674 0.02459279004190457 0 0.0034533927092461484 0.02504028514409171 0 0.003053168822249167 0.024515439794756778 0 0.003433866706510674 0.02459279004190457 0 0.0034533927092461484 0.02504028514409171 0 0.003433866706510674 0.02459279004190457 0 0.0039445562141091949 0.025448414461289277 0 0.0035508815146851349 0.0244681870869022 0 0.003433866706510674 0.02459279004190457 0 0.0037880642346209787 0.024926965842711327 0 0.003433866706510674 0.02459279004190457 0 0.0037880642346209787 0.024926965842711327 0 0.0039445562141091949 0.025448414461289277 0 0.0041344544962367323 0.025168827775342465 0 0.0037880642346209787 0.024926965842711327 0 0.0039445562141091949 0.025448414461289277 0 0.0041344544962367323 0.025168827775342465 0 0.0039445562141091949 0.025448414461289277 0 0.0046891510347096734 0.02601837206322153 0 0.0039445562141091949 0.025448414461289277 0 0.0046891510347096734 0.02601837206322153 0 0.0043175976882967463 0.026168354733006015 0 0.0039445562141091949 0.025448414461289277 0 0.0039198464229099261 0.026007114539889391 0 0.0043175976882967463 0.026168354733006015 0 0.0039445562141091949 0.025448414461289277 0 0.0035216076034936985 0.02561051480301476 0 0.0039198464229099261 0.026007114539889391 0 0.0034533927092461484 0.02504028514409171 0 0.0039445562141091949 0.025448414461289277 0 0.0035216076034936985 0.02561051480301476 0 0.0030449613545128719 0.025693344342955709 0 0.0035216076034936985 0.02561051480301476 0 0.0035544644318725839 0.026157582903692408 0 0.0035216076034936985 0.02561051480301476 0 0.0035544644318725839 0.026157582903692408 0 0.0039198464229099261 0.026007114539889391 0 0.0035544644318725839 0.026157582903692408 0 0.0039198464229099261 0.026007114539889391 0 0.0042332795175553019 0.026612327575672071 0 0.0039198464229099261 0.026007114539889391 0 0.0042332795175553019 0.026612327575672071 0 0.0043175976882967463 0.026168354733006015 0 0.0042332795175553019 0.026612327575672071 0 0.0048624389282733412 0.026776729183022589 0 0.0043175976882967463 0.026168354733006015 0 0.0038594753679044463 0.026879562299116633 0 0.0035544644318725839 0.026157582903692408 0 0.0042332795175553019 0.026612327575672071 0 0.0042332795175553019 0.026612327575672071 0 0.0044856636841418508 0.02732637672808139 0 0.0049660102440855607 0.027415670962117531 0 0.0038594753679044463 0.026879562299116633 0 0.0042332795175553019 0.026612327575672071 0 0.0044856636841418508 0.02732637672808139 0 0.0048624389282733412 0.026776729183022589 0 0.0054199623303315238 0.027370680397142119 0 0.0049660102440855607 0.027415670962117531 0 0.0042332795175553019 0.026612327575672071 0 0.0048624389282733412 0.026776729183022589 0 0.0049660102440855607 0.027415670962117531 0 0.0048624389282733412 0.026776729183022589 0 0.0052694389250450167 0.026834373771151974 0 0.0054199623303315238 0.027370680397142119 0 0.0048624389282733412 0.026776729183022589 0 0.0052694389250450167 0.026834373771151974 0 0.0046891510347096734 0.02601837206322153 0 0.0048624389282733412 0.026776729183022589 0 0.0046891510347096734 0.02601837206322153 0 0.0043175976882967463 0.026168354733006015 0 0.0059199620196835889 0.028350874291887863 0 0.005878954043044571 0.027522614959920724 0 0.0054199623303315238 0.027370680397142119 0 0.0052694389250450167 0.026834373771151974 0 0.005878954043044571 0.027522614959920724 0 0.0054199623303315238 0.027370680397142119 0 0.0059199620196835889 0.028350874291887863 0 0.0054199623303315238 0.027370680397142119 0 0.0049660102440855607 0.027415670962117531 0 0.0059199620196835889 0.028350874291887863 0 0.0049660102440855607 0.027415670962117531 0 0.0052370994714421295 0.028251038254878014 0 0.0065144671765466856 0.028673466180308273 0 0.0035769683056841813 0.03117863063021559 0 0.0044856636841418508 0.02732637672808139 0 0.0049660102440855607 0.027415670962117531 0 0.0052370994714421295 0.028251038254878014 0 0.0022939601974799411 0.036414628597141209 0 0.0018382692594539974 0.035711182185998232 0 0.0013546388597143644 0.036072880551051338 0 0.0042751835728821429 0.032654469082471729 0 0.0035769683056841813 0.03117863063021559 0 0.0022939601974799411 0.036414628597141209 0 0.0018382692594539974 0.035711182185998232 0 0.0029948707909637864 0.03678531321186336 0 0.0059199620196835889 0.028350874291887863 0 0.0068746014460267391 0.028768462423157042 0 0.0048763606151171549 0.030921607107811173 0 0.0062583688581029041 0.027404847709179076 0 0.005878954043044571 0.027522614959920724 0 0.0068746014460267391 0.028768462423157042 0 0.0059199620196835889 0.028350874291887863 0 0.005878954043044571 0.027522614959920724 0 0.0068746014460267391 0.028768462423157042 0 0.0018382692594539974 0.035711182185998232 0 0.0028103771887661513 0.036362139128540437 0 0.0029948707909637864 0.03678531321186336 0 0.0050349707327603599 0.031305927880452604 0 0.0042751835728821429 0.032654469082471729 0 0.0024755171734933117 0.035535465661815827 0 0.0018382692594539974 0.035711182185998232 0 0.0028103771887661513 0.036362139128540437 0 0.0028103771887661513 0.036362139128540437 0 0.0037961231594422266 0.03752298457220616 0 0.0029948707909637864 0.03678531321186336 0 0.0033433587567114633 0.036736162343259535 0 0.0028103771887661513 0.036362139128540437 0 0.0037961231594422266 0.03752298457220616 0 0.0033433587567114633 0.036736162343259535 0 0.0037961231594422266 0.03752298457220616 0 0.0040760462313382956 0.037813882062092533 0 0.0037961231594422266 0.03752298457220616 0 0.0040944587690305905 0.037786889864721167 0 0.0029948707909637864 0.03678531321186336 0 0.0040944587690305905 0.037786889864721167 0 0.0029948707909637864 0.03678531321186336 0 0.0032433427204329214 0.037094422076389993 0 0.0022939601974799411 0.036414628597141209 0 0.0029948707909637864 0.03678531321186336 0 0.0032433427204329214 0.037094422076389993 0 0.0032433427204329214 0.037094422076389993 0 0.0035489737843245419 0.037480908168486912 0 0.0025107814135474165 0.036727009568531484 0 0.0040944587690305905 0.037786889864721167 0 0.0032433427204329214 0.037094422076389993 0 0.0044504113859011266 0.037835559738345036 0 0.0040944587690305905 0.037786889864721167 0 0.0049836623063491221 0.038612112551991457 0 0.0044504113859011266 0.037835559738345036 0 0.0049836623063491221 0.038612112551991457 0 0.0044504113859011266 0.037835559738345036 0 0.0062783859784505385 0.037975634836004434 0 0.0048992898027375763 0.039139238540863132 0 0.007130492881089228 0.037058857073649198 0 0.0044504113859011266 0.037835559738345036 0 0.0035489737843245419 0.037480908168486912 0 0.0062783859784505385 0.037975634836004434 0 0.0032433427204329214 0.037094422076389993 0 0.0044504113859011266 0.037835559738345036 0 0.0035489737843245419 0.037480908168486912 0 0.0044121489918394867 0.036954771041691099 0 0.007130492881089228 0.037058857073649198 0 0.0035489737843245419 0.037480908168486912 0 0.0025107814135474165 0.036727009568531484 0 0.00231323372448391 0.036981466608871881 0 0.0044121489918394867 0.036954771041691099 0 0.0034165008579813104 0.034447032529729561 0 0.0022939601974799411 0.036414628597141209 0 0.0025107814135474165 0.036727009568531484 0 0.0013546388597143644 0.036072880551051338 0 0.0022939601974799411 0.036414628597141209 0 0.0032433427204329214 0.037094422076389993 0 0.0025107814135474165 0.036727009568531484 0 0.0025107814135474165 0.036727009568531484 0 0.0013546388597143644 0.036072880551051338 0 0.00231323372448391 0.036981466608871881 0 0.0024451278699215199 0.03012170109639092 0 0.0028669633122721983 0.030417802025699731 0 0.0029443970278404067 0.030197961717188113 0 0.0035769683056841813 0.03117863063021559 0 0.0034165008579813104 0.034447032529729561 0 0.0042157959521365229 0.027563403228117619 0 0.0044856636841418508 0.02732637672808139 0 0.0052370994714421295 0.028251038254878014 0 0.0042157959521365229 0.027563403228117619 0 0.0052370994714421295 0.028251038254878014 0 0.0033188616567396923 0.027704570166434742 0 0.0035769683056841813 0.03117863063021559 0 0.003868316206521347 0.028205793483999 0 0.004626706030787184 0.028060755132373955 0 0.0041583041155536073 0.027703569298734704 0 0.0051243339376325636 0.027469530864684729 0 0.0041583041155536073 0.027703569298734704 0 0.0051243339376325636 0.027469530864684729 0 0.0049651331071678805 0.026511912516306812 0 0.0051243339376325636 0.027469530864684729 0 0.0049651331071678805 0.026511912516306812 0 0.0078936353434318034 0.027142168087175164 0 0.0053390094249335662 0.028377770661466174 0 0.0053462885018037351 0.0280805088022336 0 0.0034165008579813104 0.034447032529729561 0 0.0075124571277408562 0.033747286537840829 0 0.0054425844300221397 0.035772619409446961 0 0.0032726997129433988 0.039584926751559495 0 0.0060398341628052268 0.040296424149103713 0 0.003868316206521347 0.028205793483999 0 0.0034165008579813104 0.034447032529729561 0 0.004779671941730815 0.028110444546119689 0 0.0051243339376325636 0.027469530864684729 0 0.0078936353434318034 0.027142168087175164 0 0.0075124571277408562 0.033747286537840829 0 0.007538357891133482 0.030029654030461792 0 0.0060398341628052268 0.040296424149103713 0 0.0090259947363065165 0.040949407061852641 0 0.0083362255322439148 0.038342725199089253 0 0.007538357891133482 0.030029654030461792 0 0.0053826958948005885 0.026546771472633617 0 0.007538357891133482 0.030029654030461792 0 0.0097798589230317437 0.034660840660439646 0 0.0049770571897246717 0.024598820000380484 0 0.0051334760215333928 0.024176700289389574 0 0.0054259054034664009 0.024480700013000817 0 0.0053826958948005885 0.026546771472633617 0 0.0097798589230317437 0.034660840660439646 0 0.0034504280521500661 0.030601242129231432 0 0.0047701502565948625 0.030782452650938107 0 0.0050419871969804922 0.029241964673146825 0 0.0090259947363065165 0.040949407061852641 0 0.010506463010028487 0.039956865302441469 0 0.0083362255322439148 0.038342725199089253 0 0.010506463010028487 0.039956865302441469 0 0.0083362255322439148 0.038342725199089253 0 0.011535707963631556 0.036488574751457961 0 0.0097798589230317437 0.034660840660439646 0 0.015930503412291814 0.036824645544707858 0 0.0083362255322439148 0.038342725199089253 0 0.0090257364414679329 0.036140622574326611 0 0.011535707963631556 0.036488574751457961 0 0.0054425844300221397 0.035772619409446961 0 0.0083362255322439148 0.038342725199089253 0 0.0090257364414679329 0.036140622574326611 0 0.0054425844300221397 0.035772619409446961 0 0.0060398341628052268 0.040296424149103713 0 0.0083362255322439148 0.038342725199089253 0 0.0054425844300221397 0.035772619409446961 0 0.0074416953808121994 0.032057540876278531 0 0.009572685740516132 0.033834325754606195 0 0.0054425844300221397 0.035772619409446961 0 0.009572685740516132 0.033834325754606195 0 0.0090257364414679329 0.036140622574326611 0 0.007130492881089228 0.037058857073649198 0 0.0081297770235762845 0.040530082404271313 0 0.0074416953808121994 0.032057540876278531 0 0.010407310437760019 0.032542599990273681 0 0.009572685740516132 0.033834325754606195 0 0.0065770967916402093 0.040471915630215648 0 0.0063714375870080452 0.040826447075992527 0 0.0085843105670710285 0.04160187416912816 0 0.0067837076058234191 0.03831282710756654 0 0.007130492881089228 0.037058857073649198 0 0.0081297770235762845 0.040530082404271313 0 0.016053168170351802 0.04029202054574945 0 0.010486207322004054 0.032489289016079267 0 0.009572685740516132 0.033834325754606195 0 0.011116505983395138 0.033954687046905678 0 0.0081297770235762845 0.040530082404271313 0 0.010498755460110885 0.03344485584253272 0 0.010486207322004054 0.032489289016079267 0 0.011116505983395138 0.033954687046905678 0 0.012849091941874738 0.03289976104227104 0 0.011116505983395138 0.033954687046905678 0 0.010308921873951863 0.035108391540936604 0 0.011535707963631556 0.036488574751457961 0 0.011116505983395138 0.033954687046905678 0 0.011535707963631556 0.036488574751457961 0 0.012849091941874738 0.03289976104227104 0 0.009572685740516132 0.033834325754606195 0 0.010308921873951863 0.035108391540936604 0 0.0090257364414679329 0.036140622574326611 0 0.009572685740516132 0.033834325754606195 0 0.011116505983395138 0.033954687046905678 0 0.010308921873951863 0.035108391540936604 0 0.010308921873951863 0.035108391540936604 0 0.0090257364414679329 0.036140622574326611 0 0.011535707963631556 0.036488574751457961 0 0.019462041275442325 0.037622753516881463 0 0.02137489790159516 0.036171239674566466 0 0.022254949411737588 0.038487252132471575 0 0.019462041275442325 0.037622753516881463 0 0.02137489790159516 0.036171239674566466 0 0.020770259096465647 0.034264992939505683 0 0.02137489790159516 0.036171239674566466 0 0.02332244888868007 0.034621102361723041 0 0.022254949411737588 0.038487252132471575 0 0.015930503412291814 0.036824645544707858 0 0.016053168170351802 0.04029202054574945 0 0.018672076991470058 0.043386933332929818 0 0.022569183130887873 0.043411838666818373 0 0.022398668077765888 0.044113262093111602 0 0.018672076991470058 0.043386933332929818 0 0.022569183130887873 0.043411838666818373 0 0.023234713308621563 0.040488039346360756 0 0.016053168170351802 0.04029202054574945 0 0.024424170601384722 0.038407647532537129 0 0.02137489790159516 0.036171239674566466 0 0.020770259096465647 0.034264992939505683 0 0.02332244888868007 0.034621102361723041 0 0.026485748705208808 0.044938938097114051 0 0.024899351007829702 0.043314515023413221 0 0.022516853390131982 0.044123826059344576 0 0.027479859464504271 0.033992792661350121 0 0.024424170601384722 0.038407647532537129 0 0.024899351007829702 0.043314515023413221 0 0.022569183130887873 0.043411838666818373 0 0.023234713308621563 0.040488039346360756 0 0.024899351007829702 0.043314515023413221 0 0.022569183130887873 0.043411838666818373 0 0.022516853390131982 0.044123826059344576 0 0.024167039482788897 0.039936359459265068 0 0.024424170601384722 0.038407647532537129 0 0.027479859464504271 0.033992792661350121 0 0.022860620911336768 0.027160185057663842 0 0.024424170601384722 0.038407647532537129 0 0.017913273591467466 0.030447457281316769 0 0.025958268363390335 0.033347121288570029 0 0.02630674706907344 0.033840261624923013 0 0.025788976342412027 0.034222168968487454 0 0.026658251232587128 0.033444992344435757 0 0.025958268363390335 0.033347121288570029 0 0.02630674706907344 0.033840261624923013 0 0.022860620911336768 0.027160185057663842 0 0.017913273591467466 0.030447457281316769 0 0.0223593535446708 0.025578882830885011 0 0.022227633260735312 0.025682297766940032 0 0.021877581834451907 0.025525130111586532 0 0.017942438988130107 0.025667695826839757 0 0.018663101230099274 0.024884494556966699 0 0.018670617237808298 0.024419941965298956 0 0.022860620911336768 0.027160185057663842 0 0.014305820562657114 0.024688676745696095 0 0.022227633260735312 0.025682297766940032 0 0.021877581834451907 0.025525130111586532 0 0.022143822278560255 0.025968139534549621 0 0.017913273591467466 0.030447457281316769 0 0.014305820562657114 0.024688676745696095 0 0.0097798589230317437 0.034660840660439646 0 0.017913273591467466 0.030447457281316769 0 0.018187167433793908 0.04128443521460181 0 0.019462041275442325 0.037622753516881463 0 0.022254949411737588 0.038487252132471575 0 0.0051334760215333928 0.024176700289389574 0 0.0068012540517852337 0.023370725266126657 0 0.0066011600621742016 0.023795383995292792 0 0.014305820562657114 0.024688676745696095 0 0.0043400945148587252 0.025308350745386024 0 0.0054177766991492394 0.024977052787909362 0 0.0066676749993859578 0.023844336973049433 0 0.0054259054034664009 0.024480700013000817 0 0.0051334760215333928 0.024176700289389574 0 0.0066011600621742016 0.023795383995292792 0 0.0054259054034664009 0.024480700013000817 0 0.01336658132716096 0.025633020445268911 0 0.014305820562657114 0.024688676745696095 0 0.0053826958948005885 0.026546771472633617 0 0.0050605587498610402 0.025235599658042954 0 0.0049770571897246717 0.024598820000380484 0 0.0054259054034664009 0.024480700013000817 0 0.0053209366429917034 0.024695903494668183 0 0.0054177766991492394 0.024977052787909362 0 0.0054259054034664009 0.024480700013000817 0 0.0053209366429917034 0.024695903494668183 0 0.022111540143651777 0.026463913483388005 0 0.021585634937927242 0.026100498587913103 0 0.022143822278560255 0.025968139534549621 0 0.021585634937927242 0.026100498587913103 0 0.021877581834451907 0.025525130111586532 0 0.022143822278560255 0.025968139534549621 0 0.018682813836290352 0.040706436047490871 0 0.021716757065699865 0.037321346354282178 0 0.02712186876355261 0.040804931145738604 0 0.023828887089812571 0.04146080685657539 0 0.02651293268416496 0.042212081888802856 0 0.02712186876355261 0.040804931145738604 0 0.023828887089812571 0.04146080685657539 0 0.027221277424382639 0.039131796685292562 0 0.013655058409546287 0.038261574416124808 0 0.012591252008258266 0.0359194031543075 0 0.01629178637072139 0.035878365155723041 0 0.013655058409546287 0.038261574416124808 0 0.011022598477681507 0.038887307859837232 0 0.012591252008258266 0.0359194031543075 0 0.018682813836290352 0.040706436047490871 0 0.014605125887278872 0.039339626373876099 0 0.023828887089812571 0.04146080685657539 0 0.023232222330415671 0.04431887491134013 0 0.021715844062037963 0.044755693472920868 0 0.013655058409546287 0.038261574416124808 0 0.010937190354227534 0.04065047280065185 0 0.011022598477681507 0.038887307859837232 0 0.024776597012157283 0.043204778728772535 0 0.025757010441315092 0.043616363312580397 0 0.024508889787502621 0.044632341039621437 0 0.023828887089812571 0.04146080685657539 0 0.024776597012157283 0.043204778728772535 0 0.023232222330415671 0.04431887491134013 0 0.023828887089812571 0.04146080685657539 0 0.024776597012157283 0.043204778728772535 0 0.02651293268416496 0.042212081888802856 0 0.024776597012157283 0.043204778728772535 0 0.02651293268416496 0.042212081888802856 0 0.025757010441315092 0.043616363312580397 0 0.026942340896678709 0.043392763240717849 0 0.02651293268416496 0.042212081888802856 0 0.025757010441315092 0.043616363312580397 0 0.026942340896678709 0.043392763240717849 0 0.025757010441315092 0.043616363312580397 0 0.02592606599336509 0.044942923851241177 0 0.026696628645194939 0.045622056724672816 0 0.024508889787502621 0.044632341039621437 0 0.021464087889604227 0.045965684760193602 0 0.026291586735982024 0.036576924992598618 0 0.023234713308621563 0.040488039346360756 0 0.020727773572286699 0.036584945800615706 0 0.026696628645194939 0.045622056724672816 0 0.02592606599336509 0.044942923851241177 0 0.024508889787502621 0.044632341039621437 0 0.026124270188752137 0.041523952242659687 0 0.020255795996773497 0.038355982547881327 0 0.025757010441315092 0.043616363312580397 0 0.02592606599336509 0.044942923851241177 0 0.024508889787502621 0.044632341039621437 0 0.024776597012157283 0.043204778728772535 0 0.024508889787502621 0.044632341039621437 0 0.023232222330415671 0.04431887491134013 0 0.026001527826714579 0.040164521882403034 0 0.026291586735982024 0.036576924992598618 0 0.023234713308621563 0.040488039346360756 0 0.026001527826714579 0.040164521882403034 0 0.024899351007829702 0.043314515023413221 0 0.023234713308621563 0.040488039346360756 0 0.015662729392513133 0.056845760932472858 0 0.022485296035083313 0.022928197255798421 0 0.015404734926184488 0.023321540143665907 0 0.018672076991470058 0.043386933332929818 0 0.023234713308621563 0.040488039346360756 0 0.020727773572286699 0.036584945800615706 0 0.016053168170351802 0.04029202054574945 0 0.020255795996773497 0.038355982547881327 0 0.023828887089812571 0.04146080685657539 0 0.019651275681116416 0.045747261446186176 0 0.021715844062037963 0.044755693472920868 0 0.020255795996773497 0.038355982547881327 0 0.014605125887278872 0.039339626373876099 0 0.021048186937185957 0.045900221612063793 0 0.019651275681116416 0.045747261446186176 0 0.021715844062037963 0.044755693472920868 0 0.024508889787502621 0.044632341039621437 0 0.021464087889604227 0.045965684760193602 0 0.023232222330415671 0.04431887491134013 0 0.021464087889604227 0.045965684760193602 0 0.023232222330415671 0.04431887491134013 0 0.021715844062037963 0.044755693472920868 0 0.020255795996773497 0.038355982547881327 0 0.020186686810697112 0.042986300247734227 0 0.010937190354227534 0.04065047280065185 0 0.0085160949454143008 0.039857466542194832 0 0.011022598477681507 0.038887307859837232 0 0.014605125887278872 0.039339626373876099 0 0.0074287051486922528 0.040015009591830727 0 0.01084586534701598 0.039178775635928649 0 0.0083312277695492543 0.040217612190354857 0 0.0085160949454143008 0.039857466542194832 0 0.00024610073478222608 0.05430694175922747 0 0.015662729392513133 0.056845760932472858 0 0.015404734926184488 0.023321540143665907 0 0.0085843105670710285 0.04160187416912816 0 0.01084586534701598 0.039178775635928649 0 0.0083312277695492543 0.040217612190354857 0 0.0081297770235762845 0.040530082404271313 0 0.014605125887278872 0.039339626373876099 0 0.0072893543759738099 0.039931336724661697 0 0.0085160949454143008 0.039857466542194832 0 0.0069608642633855492 0.039701636994372611 0 0.0065770967916402093 0.040471915630215648 0 0.0085843105670710285 0.04160187416912816 0 0.0083312277695492543 0.040217612190354857 0 0.0065770967916402093 0.040471915630215648 0 0.0072893543759738099 0.039931336724661697 0 0.0062152820454605302 0.03985181495487633 0 0.0065770967916402093 0.040471915630215648 0 0.0083312277695492543 0.040217612190354857 0 0.0072893543759738099 0.039931336724661697 0 0.0065770967916402093 0.040471915630215648 0 0.0058424969934986037 0.040660792435736073 0 0.0062152820454605302 0.03985181495487633 0 0.0083312277695492543 0.040217612190354857 0 0.0072893543759738099 0.039931336724661697 0 0.0085160949454143008 0.039857466542194832 0 0.0085160949454143008 0.039857466542194832 0 0.0085577025964505785 0.039810242270967952 0 0.0069608642633855492 0.039701636994372611 0 0.011606506206891338 0.039603605159148694 0 0.0091812538466072933 0.03983851062032389 0 0.0085160949454143008 0.039857466542194832 0 0.0098279310238143357 0.037871674169079467 0 0.0085577025964505785 0.039810242270967952 0 0.0085160949454143008 0.039857466542194832 0 0.011022598477681507 0.038887307859837232 0 0.0098279310238143357 0.037871674169079467 0 0.011022598477681507 0.038887307859837232 0 0.0098279310238143357 0.037871674169079467 0 0.012591252008258266 0.0359194031543075 0 0.011606506206891338 0.039603605159148694 0 0.015159997595963181 0.038577948180653861 0 0.013217313780281738 0.041724955256991395 0 0.010494656404857952 0.040473293365377402 0 0.014863257801994021 0.039561407032137959 0 0.010494656404857952 0.040473293365377402 0 0.0090969624520971498 0.040021893832447843 0 0.011009077552329851 0.039542147020542609 0 0.0090969624520971498 0.040021893832447843 0 0.011877365752445636 0.040862083240650715 0 0.011125639922503676 0.043637693204851502 0 0.0095645826780267305 0.040113038481418423 0 0.011053704279335129 0.041616473195265381 0 0.010494656404857952 0.040473293365377402 0 0.0090969624520971498 0.040021893832447843 0 0.0081769810076255927 0.039817060386764823 0 0.0090969624520971498 0.040021893832447843 0 0.0081769810076255927 0.039817060386764823 0 0.0068579775231558775 0.039674453030429782 0 0.0081769810076255927 0.039817060386764823 0 0.0062828838060077037 0.039564790935359091 0 0.0068579775231558775 0.039674453030429782 0 0.010494656404857952 0.040473293365377402 0 0.0081769810076255927 0.039817060386764823 0 0.0085577025964505785 0.039810242270967952 0 0.013217313780281738 0.041724955256991395 0 0.010494656404857952 0.040473293365377402 0 0.0085577025964505785 0.039810242270967952 0 0.0085577025964505785 0.039810242270967952 0 0.0069608642633855492 0.039701636994372611 0 0.0066948188284952958 0.039548583127848556 0 0.0081769810076255927 0.039817060386764823 0 0.0085577025964505785 0.039810242270967952 0 0.0066948188284952958 0.039548583127848556 0 0.0049836623063491221 0.038612112551991457 0 0.0069608642633855492 0.039701636994372611 0 0.0066948188284952958 0.039548583127848556 0 0.0049836623063491221 0.038612112551991457 0 0.0058424969934986037 0.040660792435736073 0 0.0062152820454605302 0.03985181495487633 0 0.0072893543759738099 0.039931336724661697 0 0.0069608642633855492 0.039701636994372611 0 0.0062152820454605302 0.03985181495487633 0 0.0049836623063491221 0.038612112551991457 0 0.0069608642633855492 0.039701636994372611 0 0.0062152820454605302 0.03985181495487633 0 0.0040944587690305905 0.037786889864721167 0 0.0049836623063491221 0.038612112551991457 0 0.0051992278141648586 0.038945831970804694 0 0.0049836623063491221 0.038612112551991457 0 0.0066948188284952958 0.039548583127848556 0 0.0051992278141648586 0.038945831970804694 0 0.0066948188284952958 0.039548583127848556 0 0.0062828838060077037 0.039564790935359091 0 0.0051992278141648586 0.038945831970804694 0 0.0081769810076255927 0.039817060386764823 0 0.0066948188284952958 0.039548583127848556 0 0.0062828838060077037 0.039564790935359091 0 0.0062828838060077037 0.039564790935359091 0 0.0055357631989358764 0.039500078360678904 0 0.0068579775231558775 0.039674453030429782 0 0.0055357631989358764 0.039500078360678904 0 0.0051992278141648586 0.038945831970804694 0 0.0046693631796673029 0.038586835851536209 0 0.0062828838060077037 0.039564790935359091 0 0.0055357631989358764 0.039500078360678904 0 0.0051992278141648586 0.038945831970804694 0 0.0037961231594422266 0.03752298457220616 0 0.0040944587690305905 0.037786889864721167 0 0.0051992278141648586 0.038945831970804694 0 0.0037961231594422266 0.03752298457220616 0 0.0051992278141648586 0.038945831970804694 0 0.0046693631796673029 0.038586835851536209 0 0.0040760462313382956 0.037813882062092533 0 0.0046693631796673029 0.038586835851536209 0 0.0049302037872860993 0.039090159082544762 0 0.0037961231594422266 0.03752298457220616 0 0.0040760462313382956 0.037813882062092533 0 0.0046693631796673029 0.038586835851536209 0 0.0055357631989358764 0.039500078360678904 0 0.0049302037872860993 0.039090159082544762 0 0.0056704295677868881 0.04013849574634222 0 0.0055357631989358764 0.039500078360678904 0 0.0046693631796673029 0.038586835851536209 0 0.0049302037872860993 0.039090159082544762 0 0.0049302037872860993 0.039090159082544762 0 0.0056704295677868881 0.04013849574634222 0 0.0055756418827340223 0.040070160192532664 0 0.0056704295677868881 0.04013849574634222 0 0.0062479686367202299 0.041829483629917161 0 0.0055756418827340223 0.040070160192532664 0 0.0056704295677868881 0.04013849574634222 0 0.0068579775231558775 0.039674453030429782 0 0.0059920110187021485 0.041287762764264054 0 0.0055357631989358764 0.039500078360678904 0 0.0056704295677868881 0.04013849574634222 0 0.0068579775231558775 0.039674453030429782 0 0.0068579775231558775 0.039674453030429782 0 0.0052748023458246036 0.042591302505322295 0 0.0059920110187021485 0.041287762764264054 0 0.0090969624520971498 0.040021893832447843 0 0.0068579775231558775 0.039674453030429782 0 0.011877365752445636 0.040862083240650715 0 0.0072523101234384622 0.040165692838487019 0 0.0086367701968021217 0.041997166489678862 0 0.0052748023458246036 0.042591302505322295 0 0.0059920110187021485 0.041287762764264054 0 0.0069890369374286847 0.043791854701869547 0 0.0056704295677868881 0.04013849574634222 0 0.0059920110187021485 0.041287762764264054 0 0.0062479686367202299 0.041829483629917161 0 0.0059920110187021485 0.041287762764264054 0 0.0062479686367202299 0.041829483629917161 0 0.0069890369374286847 0.043791854701869547 0 0.0069890369374286847 0.043791854701869547 0 0.0067724198896083228 0.046672295885091038 0 0.0098752115591634604 0.045542013545652425 0 0.0064953688829944341 0.042368560781609964 0 0.0077136913435694662 0.045938245445681952 0 0.0062479686367202299 0.041829483629917161 0 0.0069890369374286847 0.043791854701869547 0 0.0098752115591634604 0.045542013545652425 0 0.0052748023458246036 0.042591302505322295 0 0.0069890369374286847 0.043791854701869547 0 0.0067724198896083228 0.046672295885091038 0 0.0086367701968021217 0.041997166489678862 0 0.010799907399770541 0.045592138262296994 0 0.011877365752445636 0.040862083240650715 0 0.01261355537509783 0.043238319771036045 0 0.014919900136905289 0.044539790087929167 0 0.01261355537509783 0.043238319771036045 0 0.013992948026548362 0.047159400497789515 0 0.014919900136905289 0.044539790087929167 0 0.013992948026548362 0.047159400497789515 0 0.014919900136905289 0.044539790087929167 0 0.015429307368109619 0.048421239134486052 0 0.0067724198896083228 0.046672295885091038 0 0.0095882362432364865 0.047929131510656829 0 0.009783911097978255 0.049900199435612032 0 0.0098752115591634604 0.045542013545652425 0 0.0095882362432364865 0.047929131510656829 0 0.01155862785330658 0.049340547004502085 0 0.0067724198896083228 0.046672295885091038 0 0.0098752115591634604 0.045542013545652425 0 0.0095882362432364865 0.047929131510656829 0 0.010799907399770541 0.045592138262296994 0 0.012455533193126664 0.048770828507364049 0 0.009783911097978255 0.049900199435612032 0 0.011728636232138052 0.049996851042656609 0 0.01155862785330658 0.049340547004502085 0 0.0095882362432364865 0.047929131510656829 0 0.009783911097978255 0.049900199435612032 0 0.01155862785330658 0.049340547004502085 0 0.015429307368109619 0.048421239134486052 0 0.013191604619299207 0.049998849403468132 0 0.01494898671190286 0.049440280026969936 0 0.012455533193126664 0.048770828507364049 0 0.013186259373234593 0.049998943599447378 0 0.009783911097978255 0.049900199435612032 0 0.011728636232138052 0.049996851042656609 0 0.013181339248561089 0.050000561633739095 0 0.011728636232138052 0.049996851042656609 0 0.013181339248561089 0.050000561633739095 0 0.011848365748137827 0.049999270574636906 0 0.013191604619299207 0.049998849403468132 0 0.01494898671190286 0.049440280026969936 0 0.015946114796380296 0.049998169763317842 0 0.013992948026548362 0.047159400497789515 0 0.015429307368109619 0.048421239134486052 0 0.01494898671190286 0.049440280026969936 0 0.013992948026548362 0.047159400497789515 0 0.015040549300262262 0.049370306936004679 0 0.013257032387470785 0.047987742481440616 0 0.013992948026548362 0.047159400497789515 0 0.01494898671190286 0.049440280026969936 0 0.015040549300262262 0.049370306936004679 0 0.01494898671190286 0.049440280026969936 0 0.015040549300262262 0.049370306936004679 0 0.015946114796380296 0.049998169763317842 0 0.015040549300262262 0.049370306936004679 0 0.015946114796380296 0.049998169763317842 0 0.01706906657577939 0.050073382111937327 0 0.015946114796380296 0.049998169763317842 0 0.01706906657577939 0.050073382111937327 0 0.018705260752242648 0.050000179653990423 0 0.01706906657577939 0.050073382111937327 0 0.017325866837466425 0.05011882600954827 0 0.013257032387470785 0.047987742481440616 0 0.017896807233210896 0.046125843855356341 0 0.01849165170987618 0.045394844705863267 0 0.01706906657577939 0.050073382111937327 0 0.017324903682869052 0.0503231051772937 0 0.018705260752242648 0.050000179653990423 0 0.01849165170987618 0.045394844705863267 0 0.018708655608834283 0.049998467375315804 0 0.01849165170987618 0.045394844705863267 0 0.01362914349973152 0.042087053146324861 0 0.017422966547824291 0.034886712074376797 0 0.013782261840984444 0.037531964021703508 0 0.017095356040155312 0.036887440976887766 0 0.015040549300262262 0.049370306936004679 0 0.01706906657577939 0.050073382111937327 0 0.013257032387470785 0.047987742481440616 0 0.013782261840984444 0.037531964021703508 0 0.011009077552329851 0.039542147020542609 0 0.014863257801994021 0.039561407032137959 0 0.01362914349973152 0.042087053146324861 0 0.011053704279335129 0.041616473195265381 0 0.013992948026548362 0.047159400497789515 0 0.013257032387470785 0.047987742481440616 0 0.011125639922503676 0.043637693204851502 0 0.01261355537509783 0.043238319771036045 0 0.013992948026548362 0.047159400497789515 0 0.011125639922503676 0.043637693204851502 0 0.011877365752445636 0.040862083240650715 0 0.01261355537509783 0.043238319771036045 0 0.011125639922503676 0.043637693204851502 0 0.010494656404857952 0.040473293365377402 0 0.011009077552329851 0.039542147020542609 0 0.014863257801994021 0.039561407032137959 0 0.014863257801994021 0.039561407032137959 0 0.017495151977576413 0.041415541898782389 0 0.018739222132187556 0.039642751900678452 0 0.013217313780281738 0.041724955256991395 0 0.014863257801994021 0.039561407032137959 0 0.017495151977576413 0.041415541898782389 0 0.014863257801994021 0.039561407032137959 0 0.018410696291463954 0.037971530303998205 0 0.018739222132187556 0.039642751900678452 0 0.013782261840984444 0.037531964021703508 0 0.014863257801994021 0.039561407032137959 0 0.017095356040155312 0.036887440976887766 0 0.014863257801994021 0.039561407032137959 0 0.018410696291463954 0.037971530303998205 0 0.017095356040155312 0.036887440976887766 0 0.01849165170987618 0.045394844705863267 0 0.020382550143670596 0.042627508982341161 0 0.017638573550659578 0.05043817587694114 0 0.018706825232689954 0.049998462237714494 0 0.020403585994964651 0.050681718663601584 0 0.017422966547824291 0.034886712074376797 0 0.017095356040155312 0.036887440976887766 0 0.02081045471303114 0.035226932869051791 0 0.018706825232689954 0.049998462237714494 0 0.021333657130888323 0.050000311555555406 0 0.020403585994964651 0.050681718663601584 0 0.018410696291463954 0.037971530303998205 0 0.017095356040155312 0.036887440976887766 0 0.02081045471303114 0.035226932869051791 0 0.018410696291463954 0.037971530303998205 0 0.02081045471303114 0.035226932869051791 0 0.021095823026528918 0.037770288557322923 0 0.020382550143670596 0.042627508982341161 0 0.023183054885143693 0.043267164577970176 0 0.021333657130888323 0.050000311555555406 0 0.023960585420256517 0.049999841688992595 0 0.023339624043975951 0.050687587420642818 0 0.021333657130888323 0.050000311555555406 0 0.020403585994964651 0.050681718663601584 0 0.023339624043975951 0.050687587420642818 0 0.02081045471303114 0.035226932869051791 0 0.021095823026528918 0.037770288557322923 0 0.023121361661688426 0.035679223594587188 0 0.026104505877287108 0.050681916199123503 0 0.023960585420256517 0.049999841688992595 0 0.023339624043975951 0.050687587420642818 0 0.026701068989473102 0.04280311334013092 0 0.023183054885143693 0.043267164577970176 0 0.02416749225293853 0.038840374102031033 0 0.021095823026528918 0.037770288557322923 0 0.023121361661688426 0.035679223594587188 0 0.019390840796159298 0.033487944428182821 0 0.015841933310705117 0.034428810563044199 0 0.01629178637072139 0.035878365155723041 0 0.02416749225293853 0.038840374102031033 0 0.021095823026528918 0.037770288557322923 0 0.021110680032528414 0.040400891556841879 0 0.024527243677394572 0.036640596784552712 0 0.021716757065699865 0.037321346354282178 0 0.024527243677394572 0.036640596784552712 0 0.018046848944102255 0.037521203369496894 0 0.021095823026528918 0.037770288557322923 0 0.021110680032528414 0.040400891556841879 0 0.018739222132187556 0.039642751900678452 0 0.018410696291463954 0.037971530303998205 0 0.021095823026528918 0.037770288557322923 0 0.018739222132187556 0.039642751900678452 0 0.012591252008258266 0.0359194031543075 0 0.015841933310705117 0.034428810563044199 0 0.01629178637072139 0.035878365155723041 0 0.017495151977576413 0.041415541898782389 0 0.021110680032528414 0.040400891556841879 0 0.018739222132187556 0.039642751900678452 0 0.015159997595963181 0.038577948180653861 0 0.018046848944102255 0.037521203369496894 0 -0.00090837690113667365 0.038081056729542241 0 0.00093813290861062505 0.040071469104227375 0 -0.0024927208797945201 0.039654236847435596 0 -0.00090837690113667365 0.038081056729542241 0 0.00093813290861062505 0.040071469104227375 0 0.0028596430574856207 0.039223488363857521 0 0.00093813290861062505 0.040071469104227375 0 0.0031511169999972866 0.040039852775751374 0 0.0028596430574856207 0.039223488363857521 0 0.0031511169999972866 0.040039852775751374 0 0.0028596430574856207 0.039223488363857521 0 0.0051879312465662906 0.039788360120739344 0 -0.00090837690113667365 0.038081056729542241 0 0.0028596430574856207 0.039223488363857521 0 0.0043706114227797669 0.038558039121496988 0 0.0028596430574856207 0.039223488363857521 0 0.0043706114227797669 0.038558039121496988 0 0.0051879312465662906 0.039788360120739344 0 0.0013173630690096378 0.044238783439535252 0 0.0046707138833877128 0.044592541496067305 0 0.0034660294489677074 0.050240397137777372 0 0.0052491005411457363 0.050439440951270113 0 0.0034231093368183871 0.049483059206501298 0 0.0034660294489677074 0.050240397137777372 0 0.0026434890436478247 0.04941715546320137 0 0.0034231093368183871 0.049483059206501298 0 0.0034660294489677074 0.050240397137777372 0 0.0026434890436478247 0.04941715546320137 0 0.0018510398379139943 0.049345475539196507 0 0.0018510398379139943 0.049345475539196507 0 0.0019614681625226625 0.048991872558784184 0 0.0013591242116215052 0.048817076374507225 0 0.0026434890436478247 0.04941715546320137 0 0.0018510398379139943 0.049345475539196507 0 0.0019614681625226625 0.048991872558784184 0 0.0018510398379139943 0.049345475539196507 0 0.0011465070871350177 0.049045089832758494 0 0.0013591242116215052 0.048817076374507225 0 0.0018510398379139943 0.049345475539196507 0 0.0011490912710012148 0.049328960467531227 0 0.0017589435709338065 0.049875614459652703 0 0.0011465070871350177 0.049045089832758494 0 0.0011490912710012148 0.049328960467531227 0 0.00056118085008802351 0.048979881164848325 0 0.0018510398379139943 0.049345475539196507 0 0.0011465070871350177 0.049045089832758494 0 0.0011490912710012148 0.049328960467531227 0 0.0011490912710012148 0.049328960467531227 0 0.00051477249681692878 0.049409267911762082 0 0.00056118085008802351 0.048979881164848325 0 0.0011490912710012148 0.049328960467531227 0 0.0017589435709338065 0.049875614459652703 0 0.00051477249681692878 0.049409267911762082 0 0.0013173630690096378 0.044238783439535252 0 -0.0013209974741221874 0.044222122928652331 0 -0.00090837690113667365 0.038081056729542241 0 -0.0042545410597534866 0.038667299908531488 0 -0.0024927208797945201 0.039654236847435596 0 0.0034660294489677074 0.050240397137777372 0 0.0018510398379139943 0.049345475539196507 0 0.0017589435709338065 0.049875614459652703 0 -0.0024927208797945201 0.039654236847435596 0 -0.0041345733366574102 0.039359303816565293 0 -0.0013194624129264881 0.041490070245296704 0 -0.0042545410597534866 0.038667299908531488 0 -0.0024927208797945201 0.039654236847435596 0 -0.0041345733366574102 0.039359303816565293 0 -0.0040879298847947823 0.034009206466036272 0 -0.0024262895719696469 0.036409885471616582 0 -0.0013209974741221874 0.044222122928652331 0 -0.0015278887758578233 0.042693120793021989 0 0.0017589435709338065 0.049875614459652703 0 0.00051477249681692878 0.049409267911762082 0 -0.0010009451711469053 0.049188460451347955 0 -0.0042545410597534866 0.038667299908531488 0 -0.0038274890385791094 0.036981707535792704 0 -0.0031945439616988293 0.036447164119324846 0 -0.0042545410597534866 0.038667299908531488 0 -0.0041345733366574102 0.039359303816565293 0 -0.0040025887382100136 0.037500602892899221 0 -0.0037150420889417932 0.038203732184697484 0 -0.0040025887382100136 0.037500602892899221 0 -0.0040691194326399381 0.035697901774087021 0 -0.0042545410597534866 0.038667299908531488 0 -0.0038274890385791094 0.036981707535792704 0 -0.0040025887382100136 0.037500602892899221 0 -0.0040879298847947823 0.034009206466036272 0 -0.0032724341878081604 0.037359352776610032 0 -0.0038274890385791094 0.036981707535792704 0 -0.0040025887382100136 0.037500602892899221 0 -0.0040691194326399381 0.035697901774087021 0 -0.0045010902035112895 0.026568542986235281 0 -0.0030876882004779276 0.027346563237786958 0 -0.0038848951187245213 0.02721238645703597 0 -0.0036334371188675163 0.027152491076106827 0 -0.0035390377881640111 0.027560963120282115 0 -0.0042074903704127746 0.027767460881454063 0 -0.0038848951187245213 0.02721238645703597 0 -0.0036334371188675163 0.027152491076106827 0 -0.0040879298847947823 0.034009206466036272 0 -0.0032105860503250858 0.031379565176740704 0 -0.0042074903704127746 0.027767460881454063 0 -0.0038848951187245213 0.02721238645703597 0 -0.0025210820584761445 0.027431050238340995 0 -0.0040879298847947823 0.034009206466036272 0 -0.0045827117880915215 0.029471743070787371 0 -0.0027187858639806397 0.02823870881396081 0 -0.0025210820584761445 0.027431050238340995 0 -0.00032972349744933295 0.02837199077738202 0 -0.0027187858639806397 0.02823870881396081 0 -0.0042074903704127746 0.027767460881454063 0 -0.0025210820584761445 0.027431050238340995 0 -0.0054687133064184072 0.031586407747070083 0 -0.00429383097295097 0.03229447909376304 0 -0.0031821880932440963 0.031202205140187084 0 -0.00429383097295097 0.03229447909376304 0 -0.0031821880932440963 0.031202205140187084 0 -0.002428675118870341 0.034167089257913959 0 -0.0045827117880915215 0.029471743070787371 0 0.0039763032914912812 0.033293768427614931 0 0.00093813290861062505 0.040071469104227375 0 -0.0024927208797945201 0.039654236847435596 0 -0.0013194624129264881 0.041490070245296704 0 0.00093813290861062505 0.040071469104227375 0 -0.0013194624129264881 0.041490070245296704 0 0.0032763451303004154 0.041660897608593046 0 -0.0024262895719696469 0.036409885471616582 0 0.0032889299627738011 0.036756777453435377 0 0.0031511169999972866 0.040039852775751374 0 0.0039230534126114243 0.041116943306332893 0 0.0032763451303004154 0.041660897608593046 0 0.00093813290861062505 0.040071469104227375 0 0.0031511169999972866 0.040039852775751374 0 0.0032763451303004154 0.041660897608593046 0 -0.0031821880932440963 0.031202205140187084 0 -0.002428675118870341 0.034167089257913959 0 0.001489876131464512 0.031327121395070961 0 0.0039763032914912812 0.033293768427614931 0 0.0032889299627738011 0.036756777453435377 0 0.0089685911110259815 0.035623453590373187 0 0.0069796385399394653 0.037407693532956872 0 0.0081129954542114111 0.039144605341222251 0 0.0058109400623148648 0.035445371343242292 0 0.0069796385399394653 0.037407693532956872 0 0.0057327553190801728 0.036740705542441854 0 0.0058109400623148648 0.035445371343242292 0 0.0089685911110259815 0.035623453590373187 0 0.0069796385399394653 0.037407693532956872 0 0.0069796385399394653 0.037407693532956872 0 0.0057327553190801728 0.036740705542441854 0 0.0057574550819945699 0.037850982743441161 0 0.0069796385399394653 0.037407693532956872 0 0.0057574550819945699 0.037850982743441161 0 0.0060893431790566598 0.038713302334050924 0 0.0057327553190801728 0.036740705542441854 0 0.0048142890141771892 0.037643799233851243 0 0.0057574550819945699 0.037850982743441161 0 0.0038429498740744539 0.036668100192301607 0 0.0057327553190801728 0.036740705542441854 0 0.0048142890141771892 0.037643799233851243 0 0.0048142890141771892 0.037643799233851243 0 0.0055768332607647186 0.038758253350769989 0 0.005224676220428306 0.038670470201280664 0 0.0048142890141771892 0.037643799233851243 0 0.0057574550819945699 0.037850982743441161 0 0.0055768332607647186 0.038758253350769989 0 0.0055768332607647186 0.038758253350769989 0 0.0058532248149656928 0.039692018249305294 0 0.0060893431790566598 0.038713302334050924 0 0.0057574550819945699 0.037850982743441161 0 0.0055768332607647186 0.038758253350769989 0 0.0060893431790566598 0.038713302334050924 0 0.0055768332607647186 0.038758253350769989 0 0.0057124829355679474 0.039505947090970238 0 0.0058532248149656928 0.039692018249305294 0 0.0055768332607647186 0.038758253350769989 0 0.0057124829355679474 0.039505947090970238 0 0.005224676220428306 0.038670470201280664 0 0.0058532248149656928 0.039692018249305294 0 0.0057919969588084742 0.040077647889164576 0 0.0060931243269624997 0.040064880718197082 0 0.0057124829355679474 0.039505947090970238 0 0.0058532248149656928 0.039692018249305294 0 0.0060931243269624997 0.040064880718197082 0 0.0058532248149656928 0.039692018249305294 0 0.0057919969588084742 0.040077647889164576 0 0.0060294301611700553 0.040219964849440598 0 0.0057919969588084742 0.040077647889164576 0 0.0060294301611700553 0.040219964849440598 0 0.0049528195107286389 0.040169850886568152 0 0.0031511169999972866 0.040039852775751374 0 0.0049528195107286389 0.040169850886568152 0 0.0039230534126114243 0.041116943306332893 0 0.0060294301611700553 0.040219964849440598 0 0.0039230534126114243 0.041116943306332893 0 0.0036016776784306551 0.04182828996908753 0 0.0030879860130062233 0.037436441744930042 0 0.0032889299627738011 0.036756777453435377 0 0.0060294301611700553 0.040219964849440598 0 0.0049528195107286389 0.040169850886568152 0 0.0039230534126114243 0.041116943306332893 0 0.0051788007456839858 0.038183447803768367 0 0.0032889299627738011 0.036756777453435377 0 0.0069796385399394653 0.037407693532956872 0 0.0081129954542114111 0.039144605341222251 0 0.0067542161631573543 0.038786744014876341 0 0.0060294301611700553 0.040219964849440598 0 0.0081129954542114111 0.039144605341222251 0 0.0067542161631573543 0.038786744014876341 0 0.0058532248149656928 0.039692018249305294 0 0.0060294301611700553 0.040219964849440598 0 0.0060893431790566598 0.038713302334050924 0 0.0069796385399394653 0.037407693532956872 0 0.0067542161631573543 0.038786744014876341 0 0.0060893431790566598 0.038713302334050924 0 0.0060294301611700553 0.040219964849440598 0 0.0067542161631573543 0.038786744014876341 0 0.0060893431790566598 0.038713302334050924 0 0.0040760462313382956 0.037813882062092533 0 0.0049302037872860993 0.039090159082544762 0 0.004500032831221152 0.038305263864934394 0 0.0036723756484410837 0.036586140190870954 0 0.004500032831221152 0.038305263864934394 0 0.0047910792483481504 0.038360853864863535 0 0.0036723756484410837 0.036586140190870954 0 0.0040760462313382956 0.037813882062092533 0 0.004500032831221152 0.038305263864934394 0 0.0036723756484410837 0.036586140190870954 0 0.0048142890141771892 0.037643799233851243 0 0.0047910792483481504 0.038360853864863535 0 0.0048142890141771892 0.037643799233851243 0 0.0047910792483481504 0.038360853864863535 0 0.005224676220428306 0.038670470201280664 0 0.0057124829355679474 0.039505947090970238 0 0.005224676220428306 0.038670470201280664 0 0.005414236392005182 0.039257803065150067 0 0.0047910792483481504 0.038360853864863535 0 0.005224676220428306 0.038670470201280664 0 0.005414236392005182 0.039257803065150067 0 0.0057124829355679474 0.039505947090970238 0 0.005414236392005182 0.039257803065150067 0 0.0061010289125265418 0.040195990316188049 0 0.005414236392005182 0.039257803065150067 0 0.005265572131701755 0.039395901959810506 0 0.0061010289125265418 0.040195990316188049 0 0.0047910792483481504 0.038360853864863535 0 0.005414236392005182 0.039257803065150067 0 0.005265572131701755 0.039395901959810506 0 0.0049302037872860993 0.039090159082544762 0 0.004500032831221152 0.038305263864934394 0 0.005265572131701755 0.039395901959810506 0 0.0049302037872860993 0.039090159082544762 0 0.005265572131701755 0.039395901959810506 0 0.0055756418827340223 0.040070160192532664 0 0.004500032831221152 0.038305263864934394 0 0.0047910792483481504 0.038360853864863535 0 0.005265572131701755 0.039395901959810506 0 0.0062479686367202299 0.041829483629917161 0 0.0059971877340790018 0.04067301400893996 0 0.0055756418827340223 0.040070160192532664 0 0.005265572131701755 0.039395901959810506 0 0.0059971877340790018 0.04067301400893996 0 0.0055756418827340223 0.040070160192532664 0 0.005265572131701755 0.039395901959810506 0 0.0059971877340790018 0.04067301400893996 0 0.0061010289125265418 0.040195990316188049 0 0.0059971877340790018 0.04067301400893996 0 0.0061010289125265418 0.040195990316188049 0 0.0068330942814398025 0.042055365456369141 0 0.0061010289125265418 0.040195990316188049 0 0.0068330942814398025 0.042055365456369141 0 0.0065835605639934505 0.040457904009965746 0 0.0062479686367202299 0.041829483629917161 0 0.0059971877340790018 0.04067301400893996 0 0.0068330942814398025 0.042055365456369141 0 0.0062479686367202299 0.041829483629917161 0 0.0068330942814398025 0.042055365456369141 0 0.0063493889343123012 0.043613012280449323 0 0.0031511169999972866 0.040039852775751374 0 0.0049528195107286389 0.040169850886568152 0 0.0051879312465662906 0.039788360120739344 0 0.0057919969588084742 0.040077647889164576 0 0.0049528195107286389 0.040169850886568152 0 0.0051879312465662906 0.039788360120739344 0 0.0057919969588084742 0.040077647889164576 0 0.0051879312465662906 0.039788360120739344 0 0.0060931243269624997 0.040064880718197082 0 0.0057124829355679474 0.039505947090970238 0 0.0061010289125265418 0.040195990316188049 0 0.0060931243269624997 0.040064880718197082 0 0.0061010289125265418 0.040195990316188049 0 0.0060931243269624997 0.040064880718197082 0 0.0065835605639934505 0.040457904009965746 0 0.0051879312465662906 0.039788360120739344 0 0.0060931243269624997 0.040064880718197082 0 0.0065835605639934505 0.040457904009965746 0 0.0068330942814398025 0.042055365456369141 0 0.0065835605639934505 0.040457904009965746 0 0.0074646608361423009 0.041685179258095298 0 0.0043706114227797669 0.038558039121496988 0 0.0065835605639934505 0.040457904009965746 0 0.0074646608361423009 0.041685179258095298 0 0.0043706114227797669 0.038558039121496988 0 0.0051879312465662906 0.039788360120739344 0 0.0065835605639934505 0.040457904009965746 0 0.0052491005411457363 0.050439440951270113 0 0.007248958315188082 0.049624778954508217 0 0.0057700728679391314 0.049671318672893774 0 0.0046707138833877128 0.044592541496067305 0 0.0070705295727290143 0.045786372672172101 0 0.0070705295727290143 0.045786372672172101 0 0.0075309241956040031 0.047091786027916659 0 0.007248958315188082 0.049624778954508217 0 0.0067937850091971059 0.049578593874153316 0 0.0084105188719666088 0.049197632479706488 0 0.007248958315188082 0.049624778954508217 0 0.0079508275415704922 0.04718670763832028 0 0.0084105188719666088 0.049197632479706488 0 0.007248958315188082 0.049624778954508217 0 0.0067937850091971059 0.049578593874153316 0 0.0057700728679391314 0.049671318672893774 0 0.0062479686367202299 0.041829483629917161 0 0.0054435609414301145 0.046183733423907365 0 0.0063493889343123012 0.043613012280449323 0 0.0054435609414301145 0.046183733423907365 0 0.0063493889343123012 0.043613012280449323 0 0.0079508275415704922 0.04718670763832028 0 0.0068330942814398025 0.042055365456369141 0 0.0074646608361423009 0.041685179258095298 0 0.0079508275415704922 0.04718670763832028 0 0.0068330942814398025 0.042055365456369141 0 0.0063493889343123012 0.043613012280449323 0 0.0079508275415704922 0.04718670763832028 0 0.0079508275415704922 0.04718670763832028 0 0.0083121186034702185 0.049022563683071167 0 0.0084105188719666088 0.049197632479706488 0 0.0054435609414301145 0.046183733423907365 0 0.0077179357969625398 0.049896301205331096 0 0.0083121186034702185 0.049022563683071167 0 0.0077136913435694662 0.045938245445681952 0 0.0096678645691429862 0.049322044743386639 0 0.0054435609414301145 0.046183733423907365 0 0.0079508275415704922 0.04718670763832028 0 0.0083121186034702185 0.049022563683071167 0 0.0077179357969625398 0.049896301205331096 0 0.0083121186034702185 0.049022563683071167 0 0.0092497921474722616 0.049965900343731585 0 0.0083121186034702185 0.049022563683071167 0 0.0092497921474722616 0.049965900343731585 0 0.0084105188719666088 0.049197632479706488 0 0.0092497921474722616 0.049965900343731585 0 0.011838167236660254 0.050000375794949571 0 0.0090720382387118499 0.04999854422776577 0 0.0092497921474722616 0.049965900343731585 0 0.0084105188719666088 0.049197632479706488 0 0.0090720382387118499 0.04999854422776577 0 0.0077179357969625398 0.049896301205331096 0 0.0092497921474722616 0.049965900343731585 0 0.011838167236660254 0.050000375794949571 0 0.011728636232138052 0.049996851042656609 0 0.01155862785330658 0.049340547004502085 0 0.011848365748137827 0.049999270574636906 0 0.0096678645691429862 0.049322044743386639 0 0.011844300061530836 0.049999412492376924 0 0.0067937850091971059 0.049578593874153316 0 0.0084105188719666088 0.049197632479706488 0 0.0090720382387118499 0.04999854422776577 0 0.0067937850091971059 0.049578593874153316 0 0.0090720382387118499 0.04999854422776577 0 0.006298277072730534 0.049998426881321653 0 0.006298277072730534 0.049998426881321653 0 0.0047732852837741669 0.049776456596584945 0 0.0035263474543434318 0.049998423613827482 0 0.0067937850091971059 0.049578593874153316 0 0.006298277072730534 0.049998426881321653 0 0.0047732852837741669 0.049776456596584945 0 0.0035263474543434318 0.049998423613827482 0 0.0036684882141254948 0.049736643361441783 0 0.0030358142825211887 0.050055782841969584 0 0.0047732852837741669 0.049776456596584945 0 0.0035263474543434318 0.049998423613827482 0 0.0036684882141254948 0.049736643361441783 0 0.0047732852837741669 0.049776456596584945 0 0.0036184542594060666 0.049367702493713993 0 0.0048401074034205268 0.049539570238703555 0 0.0047732852837741669 0.049776456596584945 0 0.0036684882141254948 0.049736643361441783 0 0.0036184542594060666 0.049367702493713993 0 0.0067937850091971059 0.049578593874153316 0 0.0047732852837741669 0.049776456596584945 0 0.0048401074034205268 0.049539570238703555 0 0.0067937850091971059 0.049578593874153316 0 0.0057700728679391314 0.049671318672893774 0 0.0048401074034205268 0.049539570238703555 0 0.0057700728679391314 0.049671318672893774 0 0.0048401074034205268 0.049539570238703555 0 0.0045884559946028029 0.049634685595527452 0 0.0036184542594060666 0.049367702493713993 0 0.0048401074034205268 0.049539570238703555 0 0.0038427916188085221 0.049367076322812085 0 0.0048401074034205268 0.049539570238703555 0 0.0038427916188085221 0.049367076322812085 0 0.0045884559946028029 0.049634685595527452 0 0.0038427916188085221 0.049367076322812085 0 0.0034231093368183871 0.049483059206501298 0 0.0045884559946028029 0.049634685595527452 0 0.0052491005411457363 0.050439440951270113 0 0.0034231093368183871 0.049483059206501298 0 0.0045884559946028029 0.049634685595527452 0 0.0052491005411457363 0.050439440951270113 0 0.0057700728679391314 0.049671318672893774 0 0.0045884559946028029 0.049634685595527452 0 0.0023618918306503268 0.048947586839021354 0 0.0016220897119087314 0.048688732307041321 0 0.0017679314583635747 0.048554861899296177 0 0.0023618918306503268 0.048947586839021354 0 0.0016220897119087314 0.048688732307041321 0 0.0019614681625226625 0.048991872558784184 0 0.0016220897119087314 0.048688732307041321 0 0.0019614681625226625 0.048991872558784184 0 0.0013591242116215052 0.048817076374507225 0 0.0026434890436478247 0.04941715546320137 0 0.0023618918306503268 0.048947586839021354 0 0.0019614681625226625 0.048991872558784184 0 0.0034231093368183871 0.049483059206501298 0 0.0023618918306503268 0.048947586839021354 0 0.0030168579845060231 0.049015912453318537 0 0.0026434890436478247 0.04941715546320137 0 0.0034231093368183871 0.049483059206501298 0 0.0023618918306503268 0.048947586839021354 0 0.0038427916188085221 0.049367076322812085 0 0.0034231093368183871 0.049483059206501298 0 0.0030168579845060231 0.049015912453318537 0 0.0036184542594060666 0.049367702493713993 0 0.0038427916188085221 0.049367076322812085 0 0.0030168579845060231 0.049015912453318537 0 0.0030168579845060231 0.049015912453318537 0 0.0022814761313764429 0.048658880306000352 0 0.0028171214729853034 0.048839677112088087 0 0.0022814761313764429 0.048658880306000352 0 0.0028171214729853034 0.048839677112088087 0 0.0019508468059801047 0.048366704823742994 0 0.0023618918306503268 0.048947586839021354 0 0.0030168579845060231 0.049015912453318537 0 0.0022814761313764429 0.048658880306000352 0 0.0022814761313764429 0.048658880306000352 0 0.0017679314583635747 0.048554861899296177 0 0.0018419914102709779 0.048467793278020053 0 0.0023618918306503268 0.048947586839021354 0 0.0022814761313764429 0.048658880306000352 0 0.0017679314583635747 0.048554861899296177 0 0.0021172328566656192 0.049944524942563705 0 0.0013801399053851126 0.049661525555070266 0 0.0012201791584935562 0.050906958761644014 0 0.00072401977431775304 0.050879228145408253 0 0.00074460772141477503 0.050840809326448869 0 0.0028171214729853034 0.048839677112088087 0 0.0030623051751732097 0.04896145562071845 0 0.0019508468059801047 0.048366704823742994 0 0.0036184542594060666 0.049367702493713993 0 0.0030168579845060231 0.049015912453318537 0 0.0028171214729853034 0.048839677112088087 0 0.0036184542594060666 0.049367702493713993 0 0.0028171214729853034 0.048839677112088087 0 0.0032454112823931693 0.049356212178553655 0 0.0028171214729853034 0.048839677112088087 0 0.0030623051751732097 0.04896145562071845 0 0.0032454112823931693 0.049356212178553655 0 0.0036684882141254948 0.049736643361441783 0 0.0036184542594060666 0.049367702493713993 0 0.0032454112823931693 0.049356212178553655 0 0.0030623051751732097 0.04896145562071845 0 0.0032454112823931693 0.049356212178553655 0 0.0030358142825211887 0.050055782841969584 0 0.0035263474543434318 0.049998423613827482 0 0.0030358142825211887 0.050055782841969584 0 0.00075340873235632414 0.049999992657950326 0 0.0021172328566656192 0.049944524942563705 0 0.0028790305576120207 0.049971240107847391 0 0.0012201791584935562 0.050906958761644014 0 0.0030358142825211887 0.050055782841969584 0 0.00075340873235632414 0.049999992657950326 0 0.0036684882141254948 0.049736643361441783 0 0.0032454112823931693 0.049356212178553655 0 0.0030358142825211887 0.050055782841969584 0 0.0012201791584935562 0.050906958761644014 0 0.00075340873235632414 0.049999992657950326 0 0.00072401977431775304 0.050879228145408253 0 0.0007524184190648356 0.049999611656009954 0 3.4218253951266073e-05 0.050524624305739833 0 0.00050237912840412735 0.049997865687188739 0 0.00074951461608502529 0.050001944879159051 0 -0.00059792171122459577 0.050002880787681114 0 0.00049971600927219161 0.050000112166546699 0 -0.0023807375140713978 0.049999447623882962 0 -0.0019843687091668808 0.051338913118690536 0 0.00050237912840412735 0.049997865687188739 0 -0.00075550906751278087 0.049905157124687481 0 -0.00059792171122459577 0.050002880787681114 0 0.00049904277638004727 0.050000396483653974 0 -0.0010507260235122805 0.050455978001642462 0 -0.0023807375140713978 0.049999447623882962 0 -0.0019843687091668808 0.051338913118690536 0 -0.0035408001836909446 0.051043273569238753 0 -0.0010507260235122805 0.050455978001642462 0 -0.0038699527995626529 0.050784890046681977 0 -0.0019843687091668808 0.051338913118690536 0 -0.0035408001836909446 0.051043273569238753 0 -0.0040387333476498777 0.051525704900066076 0 0.00072401977431775304 0.050879228145408253 0 0.00074460772141477503 0.050840809326448869 0 0.0010564262542725475 0.050560456596156225 0 -0.00075550906751278087 0.049905157124687481 0 -0.00059792171122459577 0.050002880787681114 0 -0.00092899865568858047 0.049255479817349894 0 -0.0052604807094673248 0.049999472122441248 0 -0.0049987363404840049 0.050655791730251414 0 -0.0066570235920928268 0.050618940928709714 0 -0.0023807375140713978 0.049999447623882962 0 -0.0052604807094673248 0.049999472122441248 0 -0.0049987363404840049 0.050655791730251414 0 -0.0023807375140713978 0.049999447623882962 0 -0.0049987363404840049 0.050655791730251414 0 -0.0035408001836909446 0.051043273569238753 0 -0.0052651811252916111 0.051011532559838375 0 -0.0038699527995626529 0.050784890046681977 0 -0.0049987363404840049 0.050655791730251414 0 -0.0035408001836909446 0.051043273569238753 0 -0.0040387333476498777 0.051525704900066076 0 -0.0049987363404840049 0.050655791730251414 0 -0.0057565540471448805 0.051542166065677207 0 -0.0055006008678431832 0.052167746558620789 0 -0.0049987363404840049 0.050655791730251414 0 -0.0057565540471448805 0.051542166065677207 0 -0.0066570235920928268 0.050618940928709714 0 -0.0057565540471448805 0.051542166065677207 0 -0.0074956399457435366 0.051485716459077749 0 -0.0066570235920928268 0.050618940928709714 0 -0.0057565540471448805 0.051542166065677207 0 -0.0057980706971665248 0.051378841120313788 0 -0.0074956399457435366 0.051485716459077749 0 -0.0057565540471448805 0.051542166065677207 0 -0.0057980706971665248 0.051378841120313788 0 -0.0056864345310285117 0.05147941328968781 0 -0.0057980706971665248 0.051378841120313788 0 -0.0052688818054998183 0.050735017465112518 0 -0.0074956399457435366 0.051485716459077749 0 -0.0057980706971665248 0.051378841120313788 0 -0.0055703186711437468 0.050865136344076418 0 -0.0052688818054998183 0.050735017465112518 0 -0.0057980706971665248 0.051378841120313788 0 -0.0056864345310285117 0.05147941328968781 0 -0.0055703186711437468 0.050865136344076418 0 -0.0057565540471448805 0.051542166065677207 0 -0.0056864345310285117 0.05147941328968781 0 -0.0055006008678431832 0.052167746558620789 0 -0.0056310756719506238 0.051881061346581922 0 -0.0038699527995626529 0.050784890046681977 0 -0.0038699527995626529 0.050784890046681977 0 -0.0028984923927245507 0.049425763016381873 0 -0.0056864345310285117 0.05147941328968781 0 -0.005843940362690766 0.051773538726427384 0 -0.0065362864735747555 0.051098844350138478 0 -0.0042323083203934112 0.049548768417379235 0 -0.004672084717532228 0.049575859307844083 0 -0.0053270724713130888 0.049519160389453372 0 -0.0028984923927245507 0.049425763016381873 0 -0.0061849974745983071 0.05015844645019607 0 -0.005764938473602303 0.050762109074158485 0 -0.0065362864735747555 0.051098844350138478 0 -0.0053270724713130888 0.049519160389453372 0 -0.0042323083203934112 0.049548768417379235 0 -0.0043290040081807252 0.049647523572102358 0 -0.004672084717532228 0.049575859307844083 0 -0.0056864345310285117 0.05147941328968781 0 -0.005764938473602303 0.050762109074158485 0 -0.0065362864735747555 0.051098844350138478 0 -0.0056864345310285117 0.05147941328968781 0 -0.005764938473602303 0.050762109074158485 0 -0.0055703186711437468 0.050865136344076418 0 -0.0082138605277207958 0.049452193289815205 0 -0.0075952716021844306 0.051175530967376669 0 -0.0055703186711437468 0.050865136344076418 0 -0.0053270724713130888 0.049519160389453372 0 -0.0052688818054998183 0.050735017465112518 0 -0.005764938473602303 0.050762109074158485 0 -0.0055703186711437468 0.050865136344076418 0 -0.0053270724713130888 0.049519160389453372 0 3.4218253951266073e-05 0.050524624305739833 0 0.00045317866730705395 0.049012248538918564 0 0.0019508468059801047 0.048366704823742994 0 0.0013733182907239817 0.048294584710436232 0 0.00086557595819641126 0.048008534762908249 0 0.0013801399053851126 0.049661525555070266 0 0.00045317866730705395 0.049012248538918564 0 0.0013733182907239817 0.048294584710436232 0 0.00086557595819641126 0.048008534762908249 0 0.00091981800382055106 0.048195699203789154 0 0.0013733182907239817 0.048294584710436232 0 0.0017679314583635747 0.048554861899296177 0 0.0018419914102709779 0.048467793278020053 0 0.0013733182907239817 0.048294584710436232 0 0.0017679314583635747 0.048554861899296177 0 0.0013402830141097727 0.048436397994214363 0 0.0019508468059801047 0.048366704823742994 0 0.0013733182907239817 0.048294584710436232 0 0.0018419914102709779 0.048467793278020053 0 0.0022814761313764429 0.048658880306000352 0 0.0019508468059801047 0.048366704823742994 0 0.0018419914102709779 0.048467793278020053 0 -0.00075550906751278087 0.049905157124687481 0 -0.00065133898795978831 0.049240451272185071 0 -0.00092899865568858047 0.049255479817349894 0 -0.00065133898795978831 0.049240451272185071 0 -0.00092899865568858047 0.049255479817349894 0 -0.00080117992304324964 0.048831694331286563 0 0.00045317866730705395 0.049012248538918564 0 -0.0028984923927245507 0.049425763016381873 0 0.00045317866730705395 0.049012248538918564 0 0.00072407921040399672 0.047957367110671993 0 0.00054380349271994084 0.048029889927230764 0 0.00038342021293396173 0.047810779269729313 0 0.00091981800382055106 0.048195699203789154 0 -0.0042323083203934112 0.049548768417379235 0 -0.0037430614288942502 0.049864189140579988 0 -0.0043290040081807252 0.049647523572102358 0 0.00086557595819641126 0.048008534762908249 0 0.00038342021293396173 0.047810779269729313 0 0.00091981800382055106 0.048195699203789154 0 0.00058210434382825673 0.047821556181378358 0 0.00038342021293396173 0.047810779269729313 0 0.00014568501644364679 0.047625285090473896 0 0.00054380349271994084 0.048029889927230764 0 0.00038342021293396173 0.047810779269729313 0 0.00014568501644364679 0.047625285090473896 0 0.00054380349271994084 0.048029889927230764 0 0.00014568501644364679 0.047625285090473896 0 0.00050768496187187327 0.048197432550022179 0 0.00054380349271994084 0.048029889927230764 0 0.00050768496187187327 0.048197432550022179 0 0.00075922484343830875 0.048298073152129167 0 0.00054380349271994084 0.048029889927230764 0 0.00075922484343830875 0.048298073152129167 0 0.00091981800382055106 0.048195699203789154 0 0.00075922484343830875 0.048298073152129167 0 0.0010452749441141008 0.048517133276121067 0 0.00067634590582625208 0.048509032725847112 0 0.00075922484343830875 0.048298073152129167 0 0.0010452749441141008 0.048517133276121067 0 0.00091981800382055106 0.048195699203789154 0 0.0010452749441141008 0.048517133276121067 0 0.00091981800382055106 0.048195699203789154 0 0.0013402830141097727 0.048436397994214363 0 0.0013733182907239817 0.048294584710436232 0 0.00091981800382055106 0.048195699203789154 0 0.0013402830141097727 0.048436397994214363 0 0.0016220897119087314 0.048688732307041321 0 0.0017679314583635747 0.048554861899296177 0 0.0013402830141097727 0.048436397994214363 0 0.0016220897119087314 0.048688732307041321 0 0.0010452749441141008 0.048517133276121067 0 0.0013591242116215052 0.048817076374507225 0 0.0016220897119087314 0.048688732307041321 0 0.0010452749441141008 0.048517133276121067 0 0.0013402830141097727 0.048436397994214363 0 0.0010452749441141008 0.048517133276121067 0 0.0013591242116215052 0.048817076374507225 0 0.00086241622431325077 0.048751978894512923 0 0.0010452749441141008 0.048517133276121067 0 0.00067634590582625208 0.048509032725847112 0 0.00086241622431325077 0.048751978894512923 0 0.00067634590582625208 0.048509032725847112 0 0.00051799543775322911 0.04872671413123307 0 0.00086241622431325077 0.048751978894512923 0 0.00067634590582625208 0.048509032725847112 0 0.00051799543775322911 0.04872671413123307 0 0.00040552684870260902 0.048500493354178664 0 0.0011465070871350177 0.049045089832758494 0 0.00086241622431325077 0.048751978894512923 0 0.00056118085008802351 0.048979881164848325 0 0.00051799543775322911 0.04872671413123307 0 0.00086241622431325077 0.048751978894512923 0 0.00056118085008802351 0.048979881164848325 0 0.0011465070871350177 0.049045089832758494 0 0.0013591242116215052 0.048817076374507225 0 0.00086241622431325077 0.048751978894512923 0 0.00015539813983544463 0.048868561822771557 0 0.00040552684870260902 0.048500493354178664 0 -0.00069069650204513244 0.049123604103690335 0 -0.0010963922681906395 0.049158353122077482 0 -0.00071848568207170819 0.049387849542673466 0 0.00051799543775322911 0.04872671413123307 0 0.00056118085008802351 0.048979881164848325 0 0.00015539813983544463 0.048868561822771557 0 0.00051799543775322911 0.04872671413123307 0 0.00015539813983544463 0.048868561822771557 0 0.00040552684870260902 0.048500493354178664 0 0.00015539813983544463 0.048868561822771557 0 7.7717175157558991e-05 0.049093529906992603 0 -0.00069069650204513244 0.049123604103690335 0 0.00056118085008802351 0.048979881164848325 0 0.00015539813983544463 0.048868561822771557 0 7.7717175157558991e-05 0.049093529906992603 0 0.00051477249681692878 0.049409267911762082 0 0.00056118085008802351 0.048979881164848325 0 7.7717175157558991e-05 0.049093529906992603 0 -0.00094197192893793959 0.049062112078130868 0 -0.0018567972486345824 0.049466837601299635 0 -0.0037430614288942502 0.049864189140579988 0 -0.0037211052870722468 0.049291395560713054 0 -0.0036932020089097324 0.049121851574901496 0 -0.0018567972486345824 0.049466837601299635 0 -0.0028908818677593979 0.04994881080410854 0 -0.00069069650204513244 0.049123604103690335 0 -0.0065219142063065675 0.048449883399912394 0 -0.0037430614288942502 0.049864189140579988 0 -0.0051227362110090749 0.049311289733132098 0 -0.0018567972486345824 0.049466837601299635 0 -0.0037430614288942502 0.049864189140579988 0 -0.0028908818677593979 0.04994881080410854 0 -0.00094197192893793959 0.049062112078130868 0 -0.0018567972486345824 0.049466837601299635 0 -0.0012385569421681977 0.049008106781697792 0 -0.0042323083203934112 0.049548768417379235 0 -0.0037430614288942502 0.049864189140579988 0 -0.0028908818677593979 0.04994881080410854 0 0.00014568501644364679 0.047625285090473896 0 0.00050768496187187327 0.048197432550022179 0 0.00040552684870260902 0.048500493354178664 0 -0.0028984923927245507 0.049425763016381873 0 -0.0010963922681906395 0.049158353122077482 0 0.00050768496187187327 0.048197432550022179 0 0.00075922484343830875 0.048298073152129167 0 0.00067634590582625208 0.048509032725847112 0 0.00050768496187187327 0.048197432550022179 0 0.00067634590582625208 0.048509032725847112 0 0.00040552684870260902 0.048500493354178664 0 -0.0037430614288942502 0.049864189140579988 0 -0.0043290040081807252 0.049647523572102358 0 -0.0046778568349538788 0.049555868162892931 0 -0.0043290040081807252 0.049647523572102358 0 -0.004672084717532228 0.049575859307844083 0 -0.0046778568349538788 0.049555868162892931 0 -0.004672084717532228 0.049575859307844083 0 -0.0050032626030291029 0.04944710844478202 0 -0.0046778568349538788 0.049555868162892931 0 -0.004672084717532228 0.049575859307844083 0 -0.0050032626030291029 0.04944710844478202 0 -0.0053270724713130888 0.049519160389453372 0 -0.0051844736913207734 0.049151165654779963 0 -0.0050032626030291029 0.04944710844478202 0 -0.0053270724713130888 0.049519160389453372 0 -0.0051844736913207734 0.049151165654779963 0 -0.0050032626030291029 0.04944710844478202 0 -0.0051227362110090749 0.049311289733132098 0 -0.0037430614288942502 0.049864189140579988 0 -0.0051227362110090749 0.049311289733132098 0 -0.0046778568349538788 0.049555868162892931 0 -0.0050032626030291029 0.04944710844478202 0 -0.0051227362110090749 0.049311289733132098 0 -0.0046778568349538788 0.049555868162892931 0 -0.0053270724713130888 0.049519160389453372 0 -0.0048911347840347782 0.048744549289150021 0 -0.0052688818054998183 0.050735017465112518 0 -0.0051844736913207734 0.049151165654779963 0 -0.0053270724713130888 0.049519160389453372 0 -0.0048911347840347782 0.048744549289150021 0 -0.0048911347840347782 0.048744549289150021 0 -0.0054381266017157134 0.048466587062109594 0 -0.0053385360417797416 0.047309298052049524 0 -0.011524074817950009 0.050338366464135961 0 -0.011385272721480308 0.04962749578368212 0 -0.012049136883078347 0.049182011725536275 0 -0.0082138605277207958 0.049452193289815205 0 -0.0086848388074928697 0.048591075312164181 0 -0.010797866483900935 0.049094555034328621 0 -0.0086848388074928697 0.048591075312164181 0 -0.0099056188257905312 0.048625667626653338 0 -0.0094307026321167418 0.047409963841762735 0 -0.0096318724840807352 0.047571244863302338 0 -0.0051844736913207734 0.049151165654779963 0 -0.0048911347840347782 0.048744549289150021 0 -0.0054381266017157134 0.048466587062109594 0 -0.0051844736913207734 0.049151165654779963 0 -0.0051227362110090749 0.049311289733132098 0 -0.0054381266017157134 0.048466587062109594 0 -0.0065219142063065675 0.048449883399912394 0 -0.0051227362110090749 0.049311289733132098 0 -0.0054381266017157134 0.048466587062109594 0 -0.0065219142063065675 0.048449883399912394 0 -0.0064798078696673049 0.04681315576717994 0 -0.0070236060163835507 0.04638087444677437 0 -0.0086848388074928697 0.048591075312164181 0 -0.0057463113122701148 0.038714881874991933 0 -0.0064798078696673049 0.04681315576717994 0 -0.0053385360417797416 0.047309298052049524 0 -0.007184494335364903 0.045372222186293887 0 -0.0083011124628209372 0.047116598285855224 0 -0.0081351204526828435 0.048213378744763676 0 -0.0086186459157540779 0.04767475276233149 0 -0.0065219142063065675 0.048449883399912394 0 -0.0077133746083218853 0.046075145316384319 0 -0.0070236060163835507 0.04638087444677437 0 -0.0054381266017157134 0.048466587062109594 0 -0.0064798078696673049 0.04681315576717994 0 -0.0053385360417797416 0.047309298052049524 0 -0.0065219142063065675 0.048449883399912394 0 -0.0054381266017157134 0.048466587062109594 0 -0.0064798078696673049 0.04681315576717994 0 -0.0095332259735519276 0.047183581358871976 0 -0.0094307026321167418 0.047409963841762735 0 -0.0096318724840807352 0.047571244863302338 0 -0.0094307026321167418 0.047409963841762735 0 -0.0093147623198389286 0.047299066592024278 0 -0.0086186459157540779 0.04767475276233149 0 -0.0086848388074928697 0.048591075312164181 0 -0.0087758375643673479 0.047476540973363658 0 -0.0095332259735519276 0.047183581358871976 0 -0.0093147623198389286 0.047299066592024278 0 -0.0095519743702656285 0.046998260287654338 0 -0.0095332259735519276 0.047183581358871976 0 -0.0094307026321167418 0.047409963841762735 0 -0.0093147623198389286 0.047299066592024278 0 -0.0055447805538134127 0.027336333559162086 0 -0.0052804179167487229 0.024883946829779513 0 -0.0050067097530547833 0.024075528822889519 0 -0.0057463113122701148 0.038714881874991933 0 -0.0084285014043293978 0.036582533323442919 0 -0.0092189212280573262 0.047382817340951414 0 -0.0081351204526828435 0.048213378744763676 0 -0.0095343965004947261 0.047192517472843823 0 -0.0093147623198389286 0.047299066592024278 0 -0.0092189212280573262 0.047382817340951414 0 -0.0095519743702656285 0.046998260287654338 0 -0.0092189212280573262 0.047382817340951414 0 -0.0096238857328965512 0.046978082846863667 0 -0.0095519743702656285 0.046998260287654338 0 -0.0093147623198389286 0.047299066592024278 0 -0.0092189212280573262 0.047382817340951414 0 -0.0086186459157540779 0.04767475276233149 0 -0.0092189212280573262 0.047382817340951414 0 -0.0096238857328965512 0.046978082846863667 0 -0.0095343965004947261 0.047192517472843823 0 -0.0092189212280573262 0.047382817340951414 0 -0.0081351204526828435 0.048213378744763676 0 -0.0086186459157540779 0.04767475276233149 0 -0.0064798078696673049 0.04681315576717994 0 -0.007184494335364903 0.045372222186293887 0 -0.0070236060163835507 0.04638087444677437 0 -0.007184494335364903 0.045372222186293887 0 -0.0077133746083218853 0.046075145316384319 0 -0.0070236060163835507 0.04638087444677437 0 -0.0057463113122701148 0.038714881874991933 0 -0.0051528940710081359 0.042575471080335617 0 0.019578034309010627 0.028272457954750481 0 -0.036965646514183742 0.058397176871686843 0 -0.032961195956884549 0.023940973130371909 0 -0.0051528940710081359 0.042575471080335617 0 -0.003153898889647714 0.035023708391918595 0 -0.0053420804735275582 0.032121018409688187 0 -0.0049130269647855414 0.024493954571620197 0 -0.0055447805538134127 0.027336333559162086 0 -0.0056826868969366215 0.027163084930564609 0 -0.0052804179167487229 0.024883946829779513 0 -0.006580162367887275 0.026168854714970598 0 -0.0060723914278780098 0.025009691605261716 0 -0.0052090694590211104 0.024400671867604175 0 -0.006580162367887275 0.026168854714970598 0 -0.0070322918258829692 0.025693592858377402 0 -0.0060723914278780098 0.025009691605261716 0 0.019578034309010627 0.028272457954750481 0 0.002723227730841383 0.0035322710218486991 0 -0.032961195956884549 0.023940973130371909 0 -0.0057463113122701148 0.038714881874991933 0 -0.0053420804735275582 0.032121018409688187 0 -0.0051674246948978739 0.027648628648939546 0 -0.0084433728865475084 0.029564019404466627 0 -0.0078460042619281009 0.023810529517446055 0 -0.003153898889647714 0.035023708391918595 0 -0.0035313646954027249 0.027605243970290148 0 -0.0053420804735275582 0.032121018409688187 0 -0.003153898889647714 0.035023708391918595 0 -0.0053420804735275582 0.032121018409688187 0 -0.0035313646954027249 0.027605243970290148 0 0.0011360878932942353 0.028591008990618897 0 -0.000684310100787747 0.029698949478959676 0 -0.0031945439616988293 0.036447164119324846 0 5.1213134913503301e-05 0.027553496286859599 0 -0.000684310100787747 0.029698949478959676 0 -0.0012088446671386708 0.02710828483012832 0 0.0011360878932942353 0.028591008990618897 0 5.1213134913503301e-05 0.027553496286859599 0 -0.000684310100787747 0.029698949478959676 0 0.0011360878932942353 0.028591008990618897 0 0.00085582921472807799 0.027005739118512055 0 5.1213134913503301e-05 0.027553496286859599 0 -0.003153898889647714 0.035023708391918595 0 -0.0015278887758578233 0.042693120793021989 0 -0.00055694626003720228 0.04507995587865013 0 -0.0010009451711469053 0.049188460451347955 0 -0.00087782644809025734 0.04821527663535316 0 -0.00044842039659529485 0.045629838343286905 0 -0.00055694626003720228 0.04507995587865013 0 -0.00087782644809025734 0.04821527663535316 0 -0.0051528940710081359 0.042575471080335617 0 -0.00043240178230628801 0.04722902729631636 0 -0.000684310100787747 0.029698949478959676 0 -0.0012088446671386708 0.02710828483012832 0 -0.002311888790910945 0.027666962530294738 0 -0.0012088446671386708 0.02710828483012832 0 -0.002311888790910945 0.027666962530294738 0 -0.0024695993931034615 0.026400844426048526 0 -0.000486695623768695 0.030018895926025801 0 -0.0032105860503250858 0.031379565176740704 0 -0.000684310100787747 0.029698949478959676 0 -0.002311888790910945 0.027666962530294738 0 -0.0035390377881640111 0.027560963120282115 0 -0.000684310100787747 0.029698949478959676 0 -0.0040691194326399381 0.035697901774087021 0 -0.0033761422852076383 0.035380550510541522 0 -0.000684310100787747 0.029698949478959676 0 -0.0033761422852076383 0.035380550510541522 0 -0.0031945439616988293 0.036447164119324846 0 -0.002311888790910945 0.027666962530294738 0 -0.0030641713242933778 0.027195677206602275 0 -0.0024695993931034615 0.026400844426048526 0 -0.002311888790910945 0.027666962530294738 0 -0.0030641713242933778 0.027195677206602275 0 -0.0035390377881640111 0.027560963120282115 0 -0.0036334371188675163 0.027152491076106827 0 -0.0030641713242933778 0.027195677206602275 0 -0.0035390377881640111 0.027560963120282115 0 -0.0036334371188675163 0.027152491076106827 0 -0.0030641713242933778 0.027195677206602275 0 -0.0031284950663460517 0.026491754892917281 0 -0.0010009451711469053 0.049188460451347955 0 -0.0010173323248722007 0.04889681036608854 0 -0.00069069650204513244 0.049123604103690335 0 -0.0010009451711469053 0.049188460451347955 0 -0.0010173323248722007 0.04889681036608854 0 -0.00087782644809025734 0.04821527663535316 0 -0.0038274890385791094 0.036981707535792704 0 -0.0033761422852076383 0.035380550510541522 0 -0.0031945439616988293 0.036447164119324846 0 -0.0038274890385791094 0.036981707535792704 0 -0.0040691194326399381 0.035697901774087021 0 -0.0033761422852076383 0.035380550510541522 0 0.00051477249681692878 0.049409267911762082 0 -0.0010009451711469053 0.049188460451347955 0 -0.0002748430942407094 0.049199635960118941 0 7.7717175157558991e-05 0.049093529906992603 0 -0.0002748430942407094 0.049199635960118941 0 -0.00069069650204513244 0.049123604103690335 0 0.00051477249681692878 0.049409267911762082 0 7.7717175157558991e-05 0.049093529906992603 0 -0.0002748430942407094 0.049199635960118941 0 -0.0010173323248722007 0.04889681036608854 0 -0.00069069650204513244 0.049123604103690335 0 -0.0012385569421681977 0.049008106781697792 0 -0.0010009451711469053 0.049188460451347955 0 -0.0002748430942407094 0.049199635960118941 0 -0.00069069650204513244 0.049123604103690335 0 -0.0018567972486345824 0.049466837601299635 0 -0.00069069650204513244 0.049123604103690335 0 -0.0012385569421681977 0.049008106781697792 0 -0.00094197192893793959 0.049062112078130868 0 -0.0001000940533559046 0.047065811350503368 0 -0.00087782644809025734 0.04821527663535316 0 -0.0037211052870722468 0.049291395560713054 0 -0.0051528940710081359 0.042575471080335617 0 -0.00094197192893793959 0.049062112078130868 0 -0.0012385569421681977 0.049008106781697792 0 -0.00087782644809025734 0.04821527663535316 0 -0.0010173323248722007 0.04889681036608854 0 -0.0012385569421681977 0.049008106781697792 0 -0.00087782644809025734 0.04821527663535316 0 -0.010171034514332756 0.045407178298236851 0 -0.0099408644833217253 0.046067902055949253 0 -0.0091933248980244058 0.045646139317854426 0 -0.010171034514332756 0.045407178298236851 0 -0.011277506004196903 0.044859847245252354 0 -0.01084141397320775 0.045739048171496086 0 -0.010171034514332756 0.045407178298236851 0 -0.011277506004196903 0.044859847245252354 0 -0.010016790857638418 0.044393538952098376 0 -0.010171034514332756 0.045407178298236851 0 -0.0091933248980244058 0.045646139317854426 0 -0.010016790857638418 0.044393538952098376 0 -0.010208234986348425 0.044065101923017748 0 -0.013176979569457748 0.044048773357785724 0 -0.010016790857638418 0.044393538952098376 0 -0.012001672771981001 0.043318620210868283 0 -0.013006678968468452 0.043835490267210626 0 -0.011277506004196903 0.044859847245252354 0 -0.010016790857638418 0.044393538952098376 0 -0.01308184361328609 0.04367205469457687 0 -0.011277506004196903 0.044859847245252354 0 -0.012338598582620196 0.044707924829824844 0 -0.01308184361328609 0.04367205469457687 0 -0.011277506004196903 0.044859847245252354 0 -0.011530817637662519 0.04532419612275769 0 -0.012338598582620196 0.044707924829824844 0 -0.011277506004196903 0.044859847245252354 0 -0.011530817637662519 0.04532419612275769 0 -0.01084141397320775 0.045739048171496086 0 -0.012338598582620196 0.044707924829824844 0 -0.012124139767808758 0.045872145449385088 0 -0.014264888310288347 0.043742244508514987 0 -0.011530817637662519 0.04532419612275769 0 -0.012124139767808758 0.045872145449385088 0 -0.01084141397320775 0.045739048171496086 0 -0.011530817637662519 0.04532419612275769 0 -0.012338598582620196 0.044707924829824844 0 -0.012124139767808758 0.045872145449385088 0 -0.011667945349857788 0.045099133988615966 0 -0.013318077209740179 0.044822075216442422 0 -0.01254409254196885 0.046146562720002379 0 -0.012124139767808758 0.045872145449385088 0 -0.01084141397320775 0.045739048171496086 0 -0.010756973035544898 0.046602413292172656 0 -0.011866871934208885 0.045738646823144935 0 -0.007821061161255841 0.04147093986212138 0 -0.010171034514332756 0.045407178298236851 0 -0.01084141397320775 0.045739048171496086 0 -0.0099408644833217253 0.046067902055949253 0 -0.01084141397320775 0.045739048171496086 0 -0.0099408644833217253 0.046067902055949253 0 -0.010756973035544898 0.046602413292172656 0 -0.010119374890501725 0.046371600279855263 0 -0.0099408644833217253 0.046067902055949253 0 -0.010756973035544898 0.046602413292172656 0 -0.0099667827897916596 0.046614419259335231 0 -0.0099408644833217253 0.046067902055949253 0 -0.0091933248980244058 0.045646139317854426 0 -0.010119374890501725 0.046371600279855263 0 -0.0099667827897916596 0.046614419259335231 0 -0.0099408644833217253 0.046067902055949253 0 -0.0099667827897916596 0.046614419259335231 0 -0.0097657441083479467 0.046527778978159857 0 -0.0099976092499899187 0.046040341735440193 0 -0.0098204439605165186 0.046939003448425713 0 -0.0096052450381920642 0.044695061707788621 0 -0.0099667827897916596 0.046614419259335231 0 -0.0096238857328965512 0.046978082846863667 0 -0.0095343965004947261 0.047192517472843823 0 -0.0099667827897916596 0.046614419259335231 0 -0.0096238857328965512 0.046978082846863667 0 -0.0097003690460939259 0.04676747102094897 0 -0.0099667827897916596 0.046614419259335231 0 -0.0097003690460939259 0.04676747102094897 0 -0.0097657441083479467 0.046527778978159857 0 -0.0096238857328965512 0.046978082846863667 0 -0.0097003690460939259 0.04676747102094897 0 -0.0095519743702656285 0.046998260287654338 0 -0.0097003690460939259 0.04676747102094897 0 -0.0095519743702656285 0.046998260287654338 0 -0.009609873268291852 0.046810432638647932 0 -0.0095332259735519276 0.047183581358871976 0 -0.0095519743702656285 0.046998260287654338 0 -0.009609873268291852 0.046810432638647932 0 -0.0097003690460939259 0.04676747102094897 0 -0.009609873268291852 0.046810432638647932 0 -0.0097657441083479467 0.046527778978159857 0 -0.009609873268291852 0.046810432638647932 0 -0.0097657441083479467 0.046527778978159857 0 -0.0095681052607493808 0.046597615893074686 0 -0.0095618674297193781 0.047072167078280221 0 -0.0095681052607493808 0.046597615893074686 0 -0.0092865283890844735 0.046661005401410369 0 -0.009609873268291852 0.046810432638647932 0 -0.0095618674297193781 0.047072167078280221 0 -0.0095681052607493808 0.046597615893074686 0 -0.0095332259735519276 0.047183581358871976 0 -0.009609873268291852 0.046810432638647932 0 -0.0095618674297193781 0.047072167078280221 0 -0.0095332259735519276 0.047183581358871976 0 -0.0095618674297193781 0.047072167078280221 0 -0.0096318724840807352 0.047571244863302338 0 -0.0097657441083479467 0.046527778978159857 0 -0.0095681052607493808 0.046597615893074686 0 -0.0099976092499899187 0.046040341735440193 0 -0.0095681052607493808 0.046597615893074686 0 -0.0099976092499899187 0.046040341735440193 0 -0.0092865283890844735 0.046661005401410369 0 -0.0099976092499899187 0.046040341735440193 0 -0.0092865283890844735 0.046661005401410369 0 -0.0089929758678232979 0.045299586953544149 0 -0.0099662744153974879 0.04814978481466281 0 -0.0099318172103242761 0.047845624003713207 0 -0.0092865283890844735 0.046661005401410369 0 -0.0095006821721456813 0.048446978593259887 0 -0.0089929758678232979 0.045299586953544149 0 -0.0099056188257905312 0.048625667626653338 0 -0.0096318724840807352 0.047571244863302338 0 -0.0096579321238649436 0.047745778295110848 0 -0.0095618674297193781 0.047072167078280221 0 -0.0096318724840807352 0.047571244863302338 0 -0.0096579321238649436 0.047745778295110848 0 -0.0095618674297193781 0.047072167078280221 0 -0.0092865283890844735 0.046661005401410369 0 -0.0096579321238649436 0.047745778295110848 0 -0.0092865283890844735 0.046661005401410369 0 -0.0096579321238649436 0.047745778295110848 0 -0.0095006821721456813 0.048446978593259887 0 -0.0099056188257905312 0.048625667626653338 0 -0.0096579321238649436 0.047745778295110848 0 -0.0095006821721456813 0.048446978593259887 0 -0.010797866483900935 0.049094555034328621 0 -0.0096891415863438 0.050930974464347259 0 -0.011524074817950009 0.050338366464135961 0 -0.011385272721480308 0.04962749578368212 0 -0.0097861947722389011 0.050945726091854673 0 -0.0099056188257905312 0.048625667626653338 0 -0.0095006821721456813 0.048446978593259887 0 -0.0097861947722389011 0.050945726091854673 0 -0.0095006821721456813 0.048446978593259887 0 -0.0097227660552279774 0.050131576564479287 0 -0.0097861947722389011 0.050945726091854673 0 -0.0097227660552279774 0.050131576564479287 0 -0.0099973767082338662 0.051329977811941346 0 -0.0097861947722389011 0.050945726091854673 0 -0.010326263873393006 0.050369793091000488 0 -0.0097227660552279774 0.050131576564479287 0 -0.0099973767082338662 0.051329977811941346 0 -0.0095006821721456813 0.048446978593259887 0 -0.010326263873393006 0.050369793091000488 0 -0.0097227660552279774 0.050131576564479287 0 -0.010326263873393006 0.050369793091000488 0 -0.010706956987641514 0.050932317616038829 0 -0.0099973767082338662 0.051329977811941346 0 -0.0099318172103242761 0.047845624003713207 0 -0.011299838614536175 0.048571002763306469 0 -0.0091933248980244058 0.045646139317854426 0 -0.00957423303920143 0.042967685735958196 0 -0.010016790857638418 0.044393538952098376 0 -0.0099976092499899187 0.046040341735440193 0 -0.0089929758678232979 0.045299586953544149 0 -0.010046769692486929 0.043293474133409872 0 -0.0096052450381920642 0.044695061707788621 0 -0.011299838614536175 0.048571002763306469 0 -0.00957423303920143 0.042967685735958196 0 -0.010016790857638418 0.044393538952098376 0 -0.011701897021821671 0.042616081121889922 0 -0.010016790857638418 0.044393538952098376 0 -0.012001672771981001 0.043318620210868283 0 -0.011701897021821671 0.042616081121889922 0 -0.00957423303920143 0.042967685735958196 0 -0.011701897021821671 0.042616081121889922 0 -0.013375693268793981 0.039784730725332909 0 -0.01346742751697436 0.055683436221446454 0 -0.014577621606314175 0.05378603175369584 0 -0.015857951968037604 0.055404227696464754 0 -0.011299838614536175 0.048571002763306469 0 -0.014783336334528597 0.047715069660111242 0 -0.011299838614536175 0.048571002763306469 0 -0.012694745008663976 0.05363208094474807 0 -0.0099973767082338662 0.051329977811941346 0 -0.010887350440823861 0.051384239017366759 0 -0.0098848691767829747 0.051296662997773648 0 -0.010706956987641514 0.050932317616038829 0 -0.010848593889780402 0.051657186292913194 0 -0.0099973767082338662 0.051329977811941346 0 -0.010848593889780402 0.051657186292913194 0 -0.0099973767082338662 0.051329977811941346 0 -0.010887350440823861 0.051384239017366759 0 -0.010848593889780402 0.051657186292913194 0 -0.010887350440823861 0.051384239017366759 0 -0.012704765963565819 0.051047509121173042 0 -0.0099973767082338662 0.051329977811941346 0 -0.0092480090693340938 0.051739698833435967 0 -0.0098848691767829747 0.051296662997773648 0 -0.011524074817950009 0.050338366464135961 0 -0.0097861947722389011 0.050945726091854673 0 -0.0097678341266287608 0.052033095858737451 0 -0.0097861947722389011 0.050945726091854673 0 -0.0097678341266287608 0.052033095858737451 0 -0.0092480090693340938 0.051739698833435967 0 -0.0099973767082338662 0.051329977811941346 0 -0.0097861947722389011 0.050945726091854673 0 -0.0092480090693340938 0.051739698833435967 0 -0.0097678341266287608 0.052033095858737451 0 -0.0092480090693340938 0.051739698833435967 0 -0.0074956399457435366 0.051485716459077749 0 -0.0075952716021844306 0.051175530967376669 0 -0.007550980570135174 0.051251128550733396 0 -0.0092480090693340938 0.051739698833435967 0 -0.0074956399457435366 0.051485716459077749 0 -0.0098848691767829747 0.051296662997773648 0 -0.0074956399457435366 0.051485716459077749 0 -0.0081408588924298635 0.049999522121489726 0 -0.0098848691767829747 0.051296662997773648 0 -0.0074956399457435366 0.051485716459077749 0 -0.0081408588924298635 0.049999522121489726 0 -0.0066570235920928268 0.050618940928709714 0 -0.0052604807094673248 0.049999472122441248 0 -0.0081408588924298635 0.049999522121489726 0 -0.0066570235920928268 0.050618940928709714 0 -0.010887350440823861 0.051384239017366759 0 -0.011646604097772299 0.05078289064237583 0 -0.012704765963565819 0.051047509121173042 0 -0.010887350440823861 0.051384239017366759 0 -0.011646604097772299 0.05078289064237583 0 -0.0098848691767829747 0.051296662997773648 0 -0.0081408588924298635 0.049999522121489726 0 -0.0098848691767829747 0.051296662997773648 0 -0.011019894661454636 0.049999290362279035 0 -0.011646604097772299 0.05078289064237583 0 -0.0098848691767829747 0.051296662997773648 0 -0.011019894661454636 0.049999290362279035 0 -0.011646604097772299 0.05078289064237583 0 -0.011019894661454636 0.049999290362279035 0 -0.013899555917967262 0.049999743448056876 0 -0.013899555917967262 0.049999743448056876 0 -0.012704765963565819 0.051047509121173042 0 -0.014807220312836723 0.049998864936483554 0 -0.011646604097772299 0.05078289064237583 0 -0.013899555917967262 0.049999743448056876 0 -0.012704765963565819 0.051047509121173042 0 -0.014985240531740667 0.052308564543154412 0 -0.016477729489746955 0.051700206366789202 0 -0.017358989656710157 0.052749797192289401 0 -0.016477729489746955 0.051700206366789202 0 -0.014808457958621757 0.05000165970860361 0 -0.016364567081154961 0.050731032115521671 0 -0.014985240531740667 0.052308564543154412 0 -0.016477729489746955 0.051700206366789202 0 -0.014808457958621757 0.05000165970860361 0 -0.013926431150932984 0.051344326018346743 0 -0.014793716974138449 0.050067368284443102 0 -0.014808457958621757 0.05000165970860361 0 -0.016781147141457238 0.049999236852931062 0 -0.016364567081154961 0.050731032115521671 0 -0.016781147141457238 0.049999236852931062 0 -0.016364567081154961 0.050731032115521671 0 -0.018439152085049575 0.051463358150577621 0 -0.016781147141457238 0.049999236852931062 0 -0.018439152085049575 0.051463358150577621 0 -0.019661026833359789 0.049999933179411607 0 -0.016477729489746955 0.051700206366789202 0 -0.018439152085049575 0.051463358150577621 0 -0.017358989656710157 0.052749797192289401 0 -0.016477729489746955 0.051700206366789202 0 -0.016364567081154961 0.050731032115521671 0 -0.018439152085049575 0.051463358150577621 0 -0.018439152085049575 0.051463358150577621 0 -0.017358989656710157 0.052749797192289401 0 -0.019771487995535852 0.053059794270830886 0 -0.018439152085049575 0.051463358150577621 0 -0.019771487995535852 0.053059794270830886 0 -0.022360695322957376 0.051914418724584042 0 -0.019771487995535852 0.053059794270830886 0 -0.022270890469447382 0.054620025561178592 0 -0.018790529430879568 0.055124808348377553 0 -0.017358989656710157 0.052749797192289401 0 -0.019771487995535852 0.053059794270830886 0 -0.018790529430879568 0.055124808348377553 0 -0.017358989656710157 0.052749797192289401 0 -0.016212454899855254 0.053761182597678564 0 -0.018790529430879568 0.055124808348377553 0 -0.016212454899855254 0.053761182597678564 0 -0.015857951968037604 0.055404227696464754 0 -0.018790529430879568 0.055124808348377553 0 -0.014577621606314175 0.05378603175369584 0 -0.016212454899855254 0.053761182597678564 0 -0.015857951968037604 0.055404227696464754 0 -0.014577621606314175 0.05378603175369584 0 -0.014985240531740667 0.052308564543154412 0 -0.016212454899855254 0.053761182597678564 0 -0.012694745008663976 0.05363208094474807 0 -0.013926431150932984 0.051344326018346743 0 -0.014985240531740667 0.052308564543154412 0 -0.017358989656710157 0.052749797192289401 0 -0.016212454899855254 0.053761182597678564 0 -0.024367760305208562 0.051179727964408908 0 -0.02631620704424685 0.05279990360547919 0 -0.026161732950752147 0.051199045453696732 0 -0.024367760305208562 0.051179727964408908 0 -0.024047042124544882 0.052743081344508683 0 -0.02631620704424685 0.05279990360547919 0 -0.024367760305208562 0.051179727964408908 0 -0.026161732950752147 0.051199045453696732 0 -0.025421846177409863 0.050000017242385217 0 -0.024367760305208562 0.051179727964408908 0 -0.02254142938655802 0.049999556567489549 0 -0.025421846177409863 0.050000017242385217 0 -0.024367760305208562 0.051179727964408908 0 -0.02254142938655802 0.049999556567489549 0 -0.021519696796274929 0.05171073293008227 0 -0.024367760305208562 0.051179727964408908 0 -0.024047042124544882 0.052743081344508683 0 -0.021519696796274929 0.05171073293008227 0 -0.018439152085049575 0.051463358150577621 0 -0.021519696796274929 0.05171073293008227 0 -0.019661026833359789 0.049999933179411607 0 -0.018439152085049575 0.051463358150577621 0 -0.021519696796274929 0.05171073293008227 0 -0.02082695810155789 0.053773217383541815 0 -0.024047042124544882 0.052743081344508683 0 -0.021519696796274929 0.05171073293008227 0 -0.023131098640442875 0.053740056427365089 0 -0.02254142938655802 0.049999556567489549 0 -0.021519696796274929 0.05171073293008227 0 -0.019661026833359789 0.049999933179411607 0 -0.01834930125002587 0.050881262850064078 0 -0.022311340622290725 0.054622781123546855 0 -0.019771487995535852 0.053059794270830886 0 -0.022360695322957376 0.051914418724584042 0 -0.022270890469447382 0.054620025561178592 0 -0.022311340622290725 0.054622781123546855 0 -0.023866460901042056 0.045392042910193983 0 -0.022360695322957376 0.051914418724584042 0 -0.022270890469447382 0.054620025561178592 0 -0.026082593435099253 0.053406172729375048 0 -0.020999036337335433 0.044789019218564541 0 -0.023866460901042056 0.045392042910193983 0 -0.02082695810155789 0.053773217383541815 0 -0.023131098640442875 0.053740056427365089 0 -0.024087590291310527 0.05582370363411962 0 -0.021519696796274929 0.05171073293008227 0 -0.02082695810155789 0.053773217383541815 0 -0.023131098640442875 0.053740056427365089 0 -0.023131098640442875 0.053740056427365089 0 -0.025032250412259646 0.054039622981674924 0 -0.024087590291310527 0.05582370363411962 0 -0.024047042124544882 0.052743081344508683 0 -0.023131098640442875 0.053740056427365089 0 -0.025032250412259646 0.054039622981674924 0 -0.025032250412259646 0.054039622981674924 0 -0.024087590291310527 0.05582370363411962 0 -0.027174778322406973 0.054784521430991287 0 -0.023866460901042056 0.045392042910193983 0 -0.02527510473081292 0.045017672570364681 0 -0.021079991520595965 0.036040123227333166 0 -0.023980275220868492 0.035025468664515412 0 -0.023466620333015675 0.037021517431538156 0 -0.023980275220868492 0.035025468664515412 0 -0.023466620333015675 0.037021517431538156 0 -0.025937605045718418 0.035848108295225237 0 -0.024047042124544882 0.052743081344508683 0 -0.025032250412259646 0.054039622981674924 0 -0.02631620704424685 0.05279990360547919 0 -0.025032250412259646 0.054039622981674924 0 -0.027174778322406973 0.054784521430991287 0 -0.02631620704424685 0.05279990360547919 0 -0.025650607030227941 0.035482640415549611 0 -0.025059240323565636 0.034641025138652248 0 -0.026393562214204868 0.035279482138015392 0 -0.026295471741995698 0.035750312070999324 0 -0.027025076833184426 0.036143054989579912 0 -0.026393562214204868 0.035279482138015392 0 -0.026295471741995698 0.035750312070999324 0 -0.025650607030227941 0.035482640415549611 0 -0.026393562214204868 0.035279482138015392 0 -0.026033556204696922 0.036104409777327359 0 -0.025650607030227941 0.035482640415549611 0 -0.025039186658664284 0.036366235886568302 0 -0.026295471741995698 0.035750312070999324 0 -0.026033556204696922 0.036104409777327359 0 -0.027025076833184426 0.036143054989579912 0 -0.026295471741995698 0.035750312070999324 0 -0.026033556204696922 0.036104409777327359 0 -0.025650607030227941 0.035482640415549611 0 -0.024158413321132863 0.035507149294713311 0 -0.025460317688314162 0.035057464974860057 0 -0.024158413321132863 0.035507149294713311 0 -0.023961296048844508 0.031110344329911343 0 -0.025650607030227941 0.035482640415549611 0 -0.025059240323565636 0.034641025138652248 0 -0.024565447186430327 0.035763538075028772 0 -0.025059240323565636 0.034641025138652248 0 -0.023346594803149105 0.035568240194797526 0 -0.024565447186430327 0.035763538075028772 0 -0.024158413321132863 0.035507149294713311 0 -0.023895490159499638 0.035314544911592367 0 -0.023043407208713968 0.033821022420834165 0 -0.025110149664157585 0.034869379309834213 0 -0.023346594803149105 0.035568240194797526 0 -0.023866460901042056 0.045392042910193983 0 -0.024158413321132863 0.035507149294713311 0 -0.023346594803149105 0.035568240194797526 0 -0.024565447186430327 0.035763538075028772 0 -0.02343874438674411 0.036766063875907959 0 -0.024565447186430327 0.035763538075028772 0 -0.025039186658664284 0.036366235886568302 0 -0.02343874438674411 0.036766063875907959 0 -0.025650607030227941 0.035482640415549611 0 -0.024565447186430327 0.035763538075028772 0 -0.025039186658664284 0.036366235886568302 0 -0.026033556204696922 0.036104409777327359 0 -0.025039186658664284 0.036366235886568302 0 -0.025789613642587011 0.037002877157944085 0 -0.025039186658664284 0.036366235886568302 0 -0.024497933164277539 0.037613890527484622 0 -0.025789613642587011 0.037002877157944085 0 -0.025039186658664284 0.036366235886568302 0 -0.02343874438674411 0.036766063875907959 0 -0.024497933164277539 0.037613890527484622 0 -0.02343874438674411 0.036766063875907959 0 -0.021411244611623668 0.036446856254509448 0 -0.021349073031134404 0.038156677612184206 0 -0.02343874438674411 0.036766063875907959 0 -0.021349073031134404 0.038156677612184206 0 -0.023006941892356737 0.038069000833252639 0 -0.02343874438674411 0.036766063875907959 0 -0.023006941892356737 0.038069000833252639 0 -0.024497933164277539 0.037613890527484622 0 -0.023346594803149105 0.035568240194797526 0 -0.02343874438674411 0.036766063875907959 0 -0.021411244611623668 0.036446856254509448 0 -0.019239309544917323 0.035499216172396923 0 -0.023043407208713968 0.033821022420834165 0 -0.021411244611623668 0.036446856254509448 0 -0.023043407208713968 0.033821022420834165 0 -0.023346594803149105 0.035568240194797526 0 -0.021411244611623668 0.036446856254509448 0 -0.019239309544917323 0.035499216172396923 0 -0.021411244611623668 0.036446856254509448 0 -0.018814488137244029 0.038311526924617895 0 -0.021349073031134404 0.038156677612184206 0 -0.019964753231478373 0.039531532001911229 0 -0.018814488137244029 0.038311526924617895 0 -0.021411244611623668 0.036446856254509448 0 -0.021349073031134404 0.038156677612184206 0 -0.018814488137244029 0.038311526924617895 0 -0.021349073031134404 0.038156677612184206 0 -0.019964753231478373 0.039531532001911229 0 -0.021779978108020806 0.03938132120047224 0 -0.019964753231478373 0.039531532001911229 0 -0.020435995169660475 0.04090005694223374 0 -0.021779978108020806 0.03938132120047224 0 -0.020435995169660475 0.04090005694223374 0 -0.021978685042949624 0.041088063280981864 0 -0.021779978108020806 0.03938132120047224 0 -0.018041120613604817 0.022707518358129345 0 -0.018460365032447468 0.022520534143550628 0 -0.01664687403022486 0.021814379114346222 0 -0.020435995169660475 0.04090005694223374 0 -0.021978685042949624 0.041088063280981864 0 -0.019605861629532002 0.042307262596693346 0 -0.020523918147629421 0.031909482687854783 0 -0.017857853784234129 0.032300742969153778 0 -0.018041120613604817 0.022707518358129345 0 -0.01664687403022486 0.021814379114346222 0 -0.017708098079445692 0.022911255905478798 0 -0.018460365032447468 0.022520534143550628 0 -0.019127055395132951 0.023191653037313686 0 -0.019955235297035065 0.022862405581248239 0 -0.020523918147629421 0.031909482687854783 0 -0.020662997415979031 0.027747719793002366 0 -0.018460365032447468 0.022520534143550628 0 -0.018687414201480679 0.022997377979568936 0 -0.019127055395132951 0.023191653037313686 0 -0.018041120613604817 0.022707518358129345 0 -0.018460365032447468 0.022520534143550628 0 -0.018687414201480679 0.022997377979568936 0 -0.018041120613604817 0.022707518358129345 0 -0.018687414201480679 0.022997377979568936 0 -0.018519915040554322 0.023176024152808651 0 -0.018687414201480679 0.022997377979568936 0 -0.019127055395132951 0.023191653037313686 0 -0.019151425697276288 0.023409522799557644 0 -0.021978685042949624 0.041088063280981864 0 -0.023461271470238673 0.038923492929381937 0 -0.026055306297899671 0.038661383203728306 0 -0.021978685042949624 0.041088063280981864 0 -0.023461271470238673 0.038923492929381937 0 -0.021779978108020806 0.03938132120047224 0 -0.023461271470238673 0.038923492929381937 0 -0.021779978108020806 0.03938132120047224 0 -0.023006941892356737 0.038069000833252639 0 -0.021349073031134404 0.038156677612184206 0 -0.021779978108020806 0.03938132120047224 0 -0.023006941892356737 0.038069000833252639 0 -0.023461271470238673 0.038923492929381937 0 -0.023006941892356737 0.038069000833252639 0 -0.024497933164277539 0.037613890527484622 0 -0.025789613642587011 0.037002877157944085 0 -0.026055306297899671 0.038661383203728306 0 -0.027025076833184426 0.036143054989579912 0 -0.024497933164277539 0.037613890527484622 0 -0.025789613642587011 0.037002877157944085 0 -0.026055306297899671 0.038661383203728306 0 -0.020662997415979031 0.027747719793002366 0 -0.018174125142725518 0.025800897549862679 0 -0.023461271470238673 0.038923492929381937 0 -0.024497933164277539 0.037613890527484622 0 -0.026055306297899671 0.038661383203728306 0 -0.019765677768880108 0.023666120929553391 0 -0.020662997415979031 0.027747719793002366 0 -0.019127055395132951 0.023191653037313686 0 -0.018423274391018127 0.02416229312883467 0 -0.019374713287227702 0.02377220831160658 0 -0.019127055395132951 0.023191653037313686 0 -0.019374713287227702 0.02377220831160658 0 -0.019151425697276288 0.023409522799557644 0 -0.018423274391018127 0.02416229312883467 0 -0.019374713287227702 0.02377220831160658 0 -0.019063878758118599 0.024178987533653492 0 -0.018423274391018127 0.02416229312883467 0 -0.019063878758118599 0.024178987533653492 0 -0.018639674418146967 0.024762311638685766 0 -0.019374713287227702 0.02377220831160658 0 -0.019063878758118599 0.024178987533653492 0 -0.01969627206938358 0.024150145328239243 0 -0.019063878758118599 0.024178987533653492 0 -0.01969627206938358 0.024150145328239243 0 -0.018639674418146967 0.024762311638685766 0 -0.01969627206938358 0.024150145328239243 0 -0.01911427048393316 0.024452604364672836 0 -0.018639674418146967 0.024762311638685766 0 -0.018799394436694324 0.026428580489678458 0 -0.018639674418146967 0.024762311638685766 0 -0.018098817394042625 0.024579861589578311 0 -0.020662997415979031 0.027747719793002366 0 -0.022497845247700252 0.030704389446146382 0 -0.01911427048393316 0.024452604364672836 0 -0.018639674418146967 0.024762311638685766 0 -0.018098817394042625 0.024579861589578311 0 -0.026033556204696922 0.036104409777327359 0 -0.025789613642587011 0.037002877157944085 0 -0.027025076833184426 0.036143054989579912 0 -0.01911427048393316 0.024452604364672836 0 -0.018098817394042625 0.024579861589578311 0 -0.019252193756775081 0.024171303849199053 0 -0.015282778149418783 0.041463539198980333 0 -0.013375693268793981 0.039784730725332909 0 -0.016335742157064622 0.039686187657611414 0 -0.011701897021821671 0.042616081121889922 0 -0.013380109131961684 0.042402298977840265 0 -0.013375693268793981 0.039784730725332909 0 -0.015282778149418783 0.041463539198980333 0 -0.013380109131961684 0.042402298977840265 0 -0.013375693268793981 0.039784730725332909 0 -0.012001672771981001 0.043318620210868283 0 -0.011701897021821671 0.042616081121889922 0 -0.013380109131961684 0.042402298977840265 0 -0.014783336334528597 0.047715069660111242 0 -0.017467118950796921 0.046417537411634513 0 -0.013375693268793981 0.039784730725332909 0 -0.016091690339775668 0.037710221278409291 0 -0.016335742157064622 0.039686187657611414 0 -0.016091690339775668 0.037710221278409291 0 -0.018814488137244029 0.038311526924617895 0 -0.016335742157064622 0.039686187657611414 0 -0.020999036337335433 0.044789019218564541 0 -0.017467118950796921 0.046417537411634513 0 -0.019239309544917323 0.035499216172396923 0 -0.016091690339775668 0.037710221278409291 0 -0.018814488137244029 0.038311526924617895 0 -0.019964753231478373 0.039531532001911229 0 -0.018814488137244029 0.038311526924617895 0 -0.017754305727276373 0.041081680666199251 0 -0.018814488137244029 0.038311526924617895 0 -0.016335742157064622 0.039686187657611414 0 -0.017754305727276373 0.041081680666199251 0 -0.015282778149418783 0.041463539198980333 0 -0.016335742157064622 0.039686187657611414 0 -0.017754305727276373 0.041081680666199251 0 -0.015282778149418783 0.041463539198980333 0 -0.017754305727276373 0.041081680666199251 0 -0.016089353225476694 0.042425207860949374 0 -0.017754305727276373 0.041081680666199251 0 -0.016522461630989038 0.043906133766459902 0 -0.016089353225476694 0.042425207860949374 0 -0.017603149543841099 0.041831199529464527 0 -0.016235505145134058 0.042103947523024904 0 -0.020435995169660475 0.04090005694223374 0 -0.017754305727276373 0.041081680666199251 0 -0.019605861629532002 0.042307262596693346 0 -0.019964753231478373 0.039531532001911229 0 -0.020435995169660475 0.04090005694223374 0 -0.017754305727276373 0.041081680666199251 0 -0.01664687403022486 0.021814379114346222 0 -0.013533251186290935 0.022439837461052634 0 -0.016823237277722759 0.022715729286266365 0 -0.017857853784234129 0.032300742969153778 0 -0.01582549213281333 0.031155764344866454 0 -0.01664687403022486 0.021814379114346222 0 -0.016823237277722759 0.022715729286266365 0 -0.017708098079445692 0.022911255905478798 0 -0.017754305727276373 0.041081680666199251 0 -0.019605861629532002 0.042307262596693346 0 -0.017484212182350786 0.043616980470542868 0 -0.01582549213281333 0.031155764344866454 0 -0.014931392437981209 0.020590530819597917 0 -0.017754305727276373 0.041081680666199251 0 -0.017484212182350786 0.043616980470542868 0 -0.016184848225436803 0.043535270767625874 0 -0.01582549213281333 0.031155764344866454 0 -0.016235505145134058 0.042103947523024904 0 -0.023352234616675405 0.039616085936517872 0 -0.0091843151309679103 0.042787414848095659 0 -0.015385403074998522 0.036513965931282887 0 -0.01582549213281333 0.031155764344866454 0 -0.013354803645544084 0.031415165629020442 0 -0.014195475943555082 0.020999372388200582 0 -0.011684900296024918 0.021266710083602352 0 -0.013441389544781471 0.022216403251725553 0 -0.016747746584706402 0.043416105490125034 0 -0.014264888310288347 0.043742244508514987 0 -0.014752366681985986 0.04448083934691878 0 -0.016026015384033143 0.044897665072117537 0 -0.016747746584706402 0.043416105490125034 0 -0.014752366681985986 0.04448083934691878 0 -0.013354803645544084 0.031415165629020442 0 -0.016235505145134058 0.042103947523024904 0 -0.016522461630989038 0.043906133766459902 0 -0.014829300227629894 0.042790948992435962 0 -0.013006678968468452 0.043835490267210626 0 -0.016522461630989038 0.043906133766459902 0 -0.016089353225476694 0.042425207860949374 0 -0.014829300227629894 0.042790948992435962 0 -0.015282778149418783 0.041463539198980333 0 -0.013380109131961684 0.042402298977840265 0 -0.014829300227629894 0.042790948992435962 0 -0.015282778149418783 0.041463539198980333 0 -0.016089353225476694 0.042425207860949374 0 -0.014829300227629894 0.042790948992435962 0 -0.012001672771981001 0.043318620210868283 0 -0.013380109131961684 0.042402298977840265 0 -0.013006678968468452 0.043835490267210626 0 -0.013380109131961684 0.042402298977840265 0 -0.014829300227629894 0.042790948992435962 0 -0.013006678968468452 0.043835490267210626 0 -0.012338598582620196 0.044707924829824844 0 -0.014264888310288347 0.043742244508514987 0 -0.01308184361328609 0.04367205469457687 0 -0.016747746584706402 0.043416105490125034 0 -0.014264888310288347 0.043742244508514987 0 -0.01308184361328609 0.04367205469457687 0 -0.016235505145134058 0.042103947523024904 0 -0.013176979569457748 0.044048773357785724 0 -0.011667945349857788 0.045099133988615966 0 -0.014264888310288347 0.043742244508514987 0 -0.013318077209740179 0.044822075216442422 0 -0.016026015384033143 0.044897665072117537 0 -0.014752366681985986 0.04448083934691878 0 -0.01254409254196885 0.046146562720002379 0 -0.011866871934208885 0.045738646823144935 0 -0.014066127757504654 0.043930224525008721 0 -0.013354803645544084 0.031415165629020442 0 -0.01037706802281106 0.034061793689478849 0 -0.014264888310288347 0.043742244508514987 0 -0.014752366681985986 0.04448083934691878 0 -0.013318077209740179 0.044822075216442422 0 -0.014752366681985986 0.04448083934691878 0 -0.013318077209740179 0.044822075216442422 0 -0.01254409254196885 0.046146562720002379 0 -0.013354803645544084 0.031415165629020442 0 -0.0094628155139730424 0.024240507326964929 0 -0.011942050099705321 0.021840230425657917 0 -0.010240295406052652 0.025116853826012715 0 -0.0089086503587894224 0.022657124751180268 0 -0.011684900296024918 0.021266710083602352 0 -0.0089419887638579262 0.023981573326512809 0 -0.012564047943948626 0.023530817869104475 0 -0.008431796870852928 0.025216315016152974 0 -0.012197759121715531 0.023684821235686729 0 -0.0089419887638579262 0.023981573326512809 0 -0.0094541435042290005 0.026310762792333953 0 -0.012564047943948626 0.023530817869104475 0 -0.0084858844781256632 0.023469325104910281 0 -0.012564047943948626 0.023530817869104475 0 -0.012089593068084563 0.025041390824883814 0 -0.012564047943948626 0.023530817869104475 0 -0.015168715085265249 0.023033302083537509 0 -0.014799198782399032 0.024499939116972347 0 -0.012564047943948626 0.023530817869104475 0 -0.014799198782399032 0.024499939116972347 0 -0.012089593068084563 0.025041390824883814 0 -0.012564047943948626 0.023530817869104475 0 -0.013441389544781471 0.022216403251725553 0 -0.015168715085265249 0.023033302083537509 0 -0.011684900296024918 0.021266710083602352 0 -0.012564047943948626 0.023530817869104475 0 -0.013441389544781471 0.022216403251725553 0 -0.014195475943555082 0.020999372388200582 0 -0.015168715085265249 0.023033302083537509 0 -0.016823237277722759 0.022715729286266365 0 -0.014195475943555082 0.020999372388200582 0 -0.013441389544781471 0.022216403251725553 0 -0.015168715085265249 0.023033302083537509 0 -0.015168715085265249 0.023033302083537509 0 -0.016823237277722759 0.022715729286266365 0 -0.016951795656417024 0.023382906233146181 0 -0.016823237277722759 0.022715729286266365 0 -0.016951795656417024 0.023382906233146181 0 -0.018034386228346102 0.023206473686523933 0 -0.016951795656417024 0.023382906233146181 0 -0.01639198245176493 0.024036866389635911 0 -0.018218761137398141 0.023843973521413403 0 -0.015168715085265249 0.023033302083537509 0 -0.01639198245176493 0.024036866389635911 0 -0.014799198782399032 0.024499939116972347 0 -0.015168715085265249 0.023033302083537509 0 -0.016951795656417024 0.023382906233146181 0 -0.01639198245176493 0.024036866389635911 0 -0.014799198782399032 0.024499939116972347 0 -0.01710082324248903 0.024746640298428442 0 -0.014754926660088678 0.026566313335863102 0 -0.01639198245176493 0.024036866389635911 0 -0.014799198782399032 0.024499939116972347 0 -0.01710082324248903 0.024746640298428442 0 -0.01710082324248903 0.024746640298428442 0 -0.018218761137398141 0.023843973521413403 0 -0.018923075649101929 0.024192937917070716 0 -0.01639198245176493 0.024036866389635911 0 -0.01710082324248903 0.024746640298428442 0 -0.018218761137398141 0.023843973521413403 0 -0.01710082324248903 0.024746640298428442 0 -0.018923075649101929 0.024192937917070716 0 -0.018110941568500512 0.024534708975640921 0 -0.017023180787494169 0.022205343499209138 0 -0.017923351030562161 0.024495520639567895 0 -0.018110941568500512 0.024534708975640921 0 -0.01710082324248903 0.024746640298428442 0 -0.014754926660088678 0.026566313335863102 0 -0.018110941568500512 0.024534708975640921 0 -0.015683266054984886 0.024298193830488143 0 -0.017681692390538201 0.024513659961564665 0 -0.017023180787494169 0.022205343499209138 0 -0.015527867723048519 0.023164805056588238 0 -0.01307414165333565 0.019462585527185015 0 -0.017023180787494169 0.022205343499209138 0 -0.015527867723048519 0.023164805056588238 0 -0.016829951420270738 0.02437153774112261 0 -0.013104496045082728 0.0225140673232321 0 -0.01307414165333565 0.019462585527185015 0 -0.011039236361582935 0.021586278290225028 0 -0.015527867723048519 0.023164805056588238 0 -0.013104496045082728 0.0225140673232321 0 -0.01307414165333565 0.019462585527185015 0 -0.015527867723048519 0.023164805056588238 0 -0.013104496045082728 0.0225140673232321 0 -0.014309266419437743 0.023979300492399332 0 -0.0084858844781256632 0.023469325104910281 0 -0.0098280074511299855 0.027022714632767689 0 -0.012089593068084563 0.025041390824883814 0 -0.015683266054984886 0.024298193830488143 0 -0.011245887058393625 0.022900527441731006 0 -0.014799198782399032 0.024499939116972347 0 -0.014754926660088678 0.026566313335863102 0 -0.012089593068084563 0.025041390824883814 0 -0.014754926660088678 0.026566313335863102 0 -0.0098280074511299855 0.027022714632767689 0 -0.012089593068084563 0.025041390824883814 0 -0.020356972217931143 0.022724259954507581 0 -0.02066557571075683 0.023063570763909382 0 -0.021710689323496801 0.023145067116673277 0 -0.019374713287227702 0.02377220831160658 0 -0.01969627206938358 0.024150145328239243 0 -0.020492405706141976 0.024242689169343176 0 -0.020415667193606886 0.023493472085792371 0 -0.019511937748123431 0.023254109444830515 0 -0.019374713287227702 0.02377220831160658 0 -0.020492405706141976 0.024242689169343176 0 -0.019563167825070497 0.023887215545533486 0 -0.019374713287227702 0.02377220831160658 0 -0.019563167825070497 0.023887215545533486 0 -0.019151425697276288 0.023409522799557644 0 -0.019448739793189444 0.02260435193597744 0 -0.019207883866855447 0.023270194139508871 0 -0.02066557571075683 0.023063570763909382 0 -0.020356972217931143 0.022724259954507581 0 -0.019448739793189444 0.02260435193597744 0 -0.02066557571075683 0.023063570763909382 0 -0.019448739793189444 0.02260435193597744 0 -0.019207883866855447 0.023270194139508871 0 -0.018034386228346102 0.023206473686523933 0 -0.019563167825070497 0.023887215545533486 0 -0.019151425697276288 0.023409522799557644 0 -0.018519915040554322 0.023176024152808651 0 -0.019511937748123431 0.023254109444830515 0 -0.018195736173435999 0.023220263019884946 0 -0.019563167825070497 0.023887215545533486 0 -0.018519915040554322 0.023176024152808651 0 -0.018034386228346102 0.023206473686523933 0 -0.018687414201480679 0.022997377979568936 0 -0.019151425697276288 0.023409522799557644 0 -0.018519915040554322 0.023176024152808651 0 -0.018519915040554322 0.023176024152808651 0 -0.017708098079445692 0.022911255905478798 0 -0.018034386228346102 0.023206473686523933 0 -0.018041120613604817 0.022707518358129345 0 -0.018519915040554322 0.023176024152808651 0 -0.017708098079445692 0.022911255905478798 0 -0.016823237277722759 0.022715729286266365 0 -0.017708098079445692 0.022911255905478798 0 -0.018034386228346102 0.023206473686523933 0 -0.016951795656417024 0.023382906233146181 0 -0.018034386228346102 0.023206473686523933 0 -0.018218761137398141 0.023843973521413403 0 -0.019207883866855447 0.023270194139508871 0 -0.018034386228346102 0.023206473686523933 0 -0.018218761137398141 0.023843973521413403 0 -0.018218761137398141 0.023843973521413403 0 -0.018923075649101929 0.024192937917070716 0 -0.019843334812862781 0.023601515924411405 0 -0.018923075649101929 0.024192937917070716 0 -0.019843334812862781 0.023601515924411405 0 -0.020881106492444203 0.023698377571615678 0 -0.019207883866855447 0.023270194139508871 0 -0.018218761137398141 0.023843973521413403 0 -0.019843334812862781 0.023601515924411405 0 -0.019207883866855447 0.023270194139508871 0 -0.019843334812862781 0.023601515924411405 0 -0.02066557571075683 0.023063570763909382 0 -0.019843334812862781 0.023601515924411405 0 -0.02066557571075683 0.023063570763909382 0 -0.020892067361372956 0.023297444314808131 0 -0.019843334812862781 0.023601515924411405 0 -0.020892067361372956 0.023297444314808131 0 -0.020881106492444203 0.023698377571615678 0 -0.020892067361372956 0.023297444314808131 0 -0.021852008141507475 0.023043096756182154 0 -0.020881106492444203 0.023698377571615678 0 -0.021852008141507475 0.023043096756182154 0 -0.021907716877381991 0.022907740292201651 0 -0.022894527351439146 0.022416874511713057 0 -0.020892067361372956 0.023297444314808131 0 -0.021852008141507475 0.023043096756182154 0 -0.021907716877381991 0.022907740292201651 0 -0.02066557571075683 0.023063570763909382 0 -0.021907716877381991 0.022907740292201651 0 -0.021710689323496801 0.023145067116673277 0 -0.02066557571075683 0.023063570763909382 0 -0.020892067361372956 0.023297444314808131 0 -0.021907716877381991 0.022907740292201651 0 -0.022630949864020689 0.023125818782733096 0 -0.022037149554426688 0.023790934517359173 0 -0.023577594204951501 0.023598783726038932 0 -0.021852008141507475 0.023043096756182154 0 -0.022630949864020689 0.023125818782733096 0 -0.020881106492444203 0.023698377571615678 0 -0.021852008141507475 0.023043096756182154 0 -0.022630949864020689 0.023125818782733096 0 -0.022894527351439146 0.022416874511713057 0 -0.022630949864020689 0.023125818782733096 0 -0.022037149554426688 0.023790934517359173 0 -0.020881106492444203 0.023698377571615678 0 -0.022037149554426688 0.023790934517359173 0 -0.021163849879770456 0.024219913327342017 0 -0.020881106492444203 0.023698377571615678 0 -0.021163849879770456 0.024219913327342017 0 -0.020881106492444203 0.023698377571615678 0 -0.019680266193901452 0.024292018988372216 0 -0.018923075649101929 0.024192937917070716 0 -0.020881106492444203 0.023698377571615678 0 -0.019680266193901452 0.024292018988372216 0 -0.021163849879770456 0.024219913327342017 0 -0.019680266193901452 0.024292018988372216 0 -0.020215500015878098 0.024669108570049614 0 -0.021163849879770456 0.024219913327342017 0 -0.020215500015878098 0.024669108570049614 0 -0.021587485365236237 0.024652062204186417 0 -0.020215500015878098 0.024669108570049614 0 -0.021587485365236237 0.024652062204186417 0 -0.020733067976344704 0.025232127544563363 0 -0.021163849879770456 0.024219913327342017 0 -0.021587485365236237 0.024652062204186417 0 -0.022611086502871507 0.024282610490323264 0 -0.022037149554426688 0.023790934517359173 0 -0.021163849879770456 0.024219913327342017 0 -0.022611086502871507 0.024282610490323264 0 -0.021587485365236237 0.024652062204186417 0 -0.022611086502871507 0.024282610490323264 0 -0.0233251130038904 0.024886747503498192 0 -0.022611086502871507 0.024282610490323264 0 -0.023824767277959468 0.024491250608900523 0 -0.023577594204951501 0.023598783726038932 0 -0.022611086502871507 0.024282610490323264 0 -0.023824767277959468 0.024491250608900523 0 -0.0233251130038904 0.024886747503498192 0 -0.022037149554426688 0.023790934517359173 0 -0.022611086502871507 0.024282610490323264 0 -0.023577594204951501 0.023598783726038932 0 -0.017316821388808454 0.024796254091303434 0 -0.017334161301200253 0.024365603053461523 0 -0.017535113531134797 0.023721296367522196 0 -0.016731812774117394 0.024953671700734148 0 -0.017316821388808454 0.024796254091303434 0 -0.017052010147202527 0.024662817723072203 0 -0.016731812774117394 0.024953671700734148 0 -0.017052010147202527 0.024662817723072203 0 -0.016994265290825501 0.024667153279325258 0 -0.017316821388808454 0.024796254091303434 0 -0.017334161301200253 0.024365603053461523 0 -0.017052010147202527 0.024662817723072203 0 -0.017052010147202527 0.024662817723072203 0 -0.017240137006487376 0.024464912943080858 0 -0.016994265290825501 0.024667153279325258 0 -0.017334161301200253 0.024365603053461523 0 -0.017052010147202527 0.024662817723072203 0 -0.017240137006487376 0.024464912943080858 0 -0.0079466873067857539 0.018546056198963715 0 -0.007899426971937424 0.018459052468895714 0 -0.0077783994296778906 0.018668151070074246 0 -0.013533457692609208 0.022249991272226911 0 -0.012446371669271832 0.02109396445997995 0 -0.017316719900752828 0.024469358162940026 0 -0.016563080398531632 0.024776947085718117 0 -0.017946202793267991 0.024287896795808124 0 -0.0079466873067857539 0.018546056198963715 0 -0.007914262430068127 0.018352182933820686 0 -0.007899426971937424 0.018459052468895714 0 -0.017240137006487376 0.024464912943080858 0 -0.017316719900752828 0.024469358162940026 0 -0.016994265290825501 0.024667153279325258 0 -0.016731812774117394 0.024953671700734148 0 -0.016994265290825501 0.024667153279325258 0 -0.016563080398531632 0.024776947085718117 0 -0.017316719900752828 0.024469358162940026 0 -0.016994265290825501 0.024667153279325258 0 -0.016563080398531632 0.024776947085718117 0 -0.016142847790789189 0.024025754022767947 0 -0.013533457692609208 0.022249991272226911 0 -0.015479786408404366 0.025418916244180155 0 -0.015908284431504154 0.024792318982983331 0 -0.014309266419437743 0.023979300492399332 0 -0.016731812774117394 0.024953671700734148 0 -0.01604509942815114 0.025787734044109934 0 -0.015908284431504154 0.024792318982983331 0 -0.015479786408404366 0.025418916244180155 0 -0.014309266419437743 0.023979300492399332 0 -0.010272849784360723 0.024426564052913879 0 -0.013104496045082728 0.0225140673232321 0 -0.014309266419437743 0.023979300492399332 0 -0.010272849784360723 0.024426564052913879 0 -0.0079466873067857539 0.018546056198963715 0 -0.0077783994296778906 0.018668151070074246 0 -0.0075703277447350843 0.01871143719566019 0 -0.013533457692609208 0.022249991272226911 0 -0.0085597923083666969 0.021367986550390468 0 -0.013533457692609208 0.022249991272226911 0 -0.01392154173341925 0.023240668022823159 0 -0.015527867723048519 0.023164805056588238 0 -0.015908284431504154 0.024792318982983331 0 -0.014309266419437743 0.023979300492399332 0 -0.017023180787494169 0.022205343499209138 0 -0.016829951420270738 0.02437153774112261 0 -0.017923351030562161 0.024495520639567895 0 -0.015527867723048519 0.023164805056588238 0 -0.015908284431504154 0.024792318982983331 0 -0.016829951420270738 0.02437153774112261 0 -0.016731812774117394 0.024953671700734148 0 -0.015908284431504154 0.024792318982983331 0 -0.016829951420270738 0.02437153774112261 0 -0.016731812774117394 0.024953671700734148 0 -0.017316821388808454 0.024796254091303434 0 -0.016829951420270738 0.02437153774112261 0 -0.017316821388808454 0.024796254091303434 0 -0.016829951420270738 0.02437153774112261 0 -0.017923351030562161 0.024495520639567895 0 -0.017923351030562161 0.024495520639567895 0 -0.018110941568500512 0.024534708975640921 0 -0.018956311718276716 0.024570513265577638 0 -0.018923075649101929 0.024192937917070716 0 -0.019680266193901452 0.024292018988372216 0 -0.018110941568500512 0.024534708975640921 0 -0.019680266193901452 0.024292018988372216 0 -0.018110941568500512 0.024534708975640921 0 -0.018956311718276716 0.024570513265577638 0 -0.019680266193901452 0.024292018988372216 0 -0.020215500015878098 0.024669108570049614 0 -0.018956311718276716 0.024570513265577638 0 -0.017316821388808454 0.024796254091303434 0 -0.018956311718276716 0.024570513265577638 0 -0.019119361647353107 0.025066746761036651 0 -0.017316821388808454 0.024796254091303434 0 -0.017923351030562161 0.024495520639567895 0 -0.018956311718276716 0.024570513265577638 0 -0.017316821388808454 0.024796254091303434 0 -0.017300031615316114 0.023461281061187278 0 -0.017535113531134797 0.023721296367522196 0 -0.017450707534574027 0.024672226290401597 0 -0.01819153271565048 0.024245816299567916 0 -0.020215500015878098 0.024669108570049614 0 -0.018956311718276716 0.024570513265577638 0 -0.019119361647353107 0.025066746761036651 0 -0.020215500015878098 0.024669108570049614 0 -0.019119361647353107 0.025066746761036651 0 -0.020733067976344704 0.025232127544563363 0 -0.01819153271565048 0.024245816299567916 0 -0.019294561845581686 0.023578643600407193 0 -0.017300031615316114 0.023461281061187278 0 -0.017535113531134797 0.023721296367522196 0 -0.018179448268178619 0.022031638889508886 0 -0.017300031615316114 0.023461281061187278 0 -0.018179448268178619 0.022031638889508886 0 -0.017787525328273653 0.021905235474344885 0 -0.017535113531134797 0.023721296367522196 0 -0.017873823881378485 0.023247492361528309 0 -0.018179448268178619 0.022031638889508886 0 -0.017535113531134797 0.023721296367522196 0 -0.017503162564539109 0.024121382173473451 0 -0.017873823881378485 0.023247492361528309 0 -0.017334161301200253 0.024365603053461523 0 -0.017535113531134797 0.023721296367522196 0 -0.017503162564539109 0.024121382173473451 0 -0.017334161301200253 0.024365603053461523 0 -0.017240137006487376 0.024464912943080858 0 -0.017503162564539109 0.024121382173473451 0 -0.017503162564539109 0.024121382173473451 0 -0.017668366813492892 0.024093117856547469 0 -0.017873823881378485 0.023247492361528309 0 -0.017668366813492892 0.024093117856547469 0 -0.017873823881378485 0.023247492361528309 0 -0.017946202793267991 0.024287896795808124 0 -0.017316719900752828 0.024469358162940026 0 -0.017668366813492892 0.024093117856547469 0 -0.017946202793267991 0.024287896795808124 0 -0.017316719900752828 0.024469358162940026 0 -0.017503162564539109 0.024121382173473451 0 -0.017668366813492892 0.024093117856547469 0 -0.017240137006487376 0.024464912943080858 0 -0.017316719900752828 0.024469358162940026 0 -0.017503162564539109 0.024121382173473451 0 -0.015397237488163315 0.020494141002261834 0 -0.013605538402752236 0.021263230336488765 0 -0.014345991710721416 0.020991544405347787 0 -0.017323194191641494 0.022365857603941563 0 -0.012446371669271832 0.02109396445997995 0 -0.013007840730549806 0.021352385820349387 0 -0.013605538402752236 0.021263230336488765 0 -0.014345991710721416 0.020991544405347787 0 -0.0082657398663153036 0.01831532567253712 0 -0.0084917176303366693 0.018406971646934726 0 -0.0083762268136772806 0.017850045190157111 0 -0.010548713404619131 0.01967785993529415 0 -0.012446371669271832 0.02109396445997995 0 -0.0082826609665973914 0.018734527098076929 0 -0.0080951189984029854 0.018674881574205732 0 -0.0079121124484909326 0.018941883077904599 0 -0.0082826609665973914 0.018734527098076929 0 -0.0083085823765678864 0.018582052928476332 0 -0.0080951189984029854 0.018674881574205732 0 -0.0082657398663153036 0.01831532567253712 0 -0.0082832473497976514 0.018515423756063038 0 -0.0084917176303366693 0.018406971646934726 0 -0.0082826609665973914 0.018734527098076929 0 -0.0083085823765678864 0.018582052928476332 0 -0.0084917176303366693 0.018406971646934726 0 -0.0082832473497976514 0.018515423756063038 0 -0.0083085823765678864 0.018582052928476332 0 -0.0080951189984029854 0.018674881574205732 0 -0.0082832473497976514 0.018515423756063038 0 -0.0083085823765678864 0.018582052928476332 0 -0.0084917176303366693 0.018406971646934726 0 -0.0081308486220305447 0.018520495812817988 0 -0.0080951189984029854 0.018674881574205732 0 -0.0079176483196712263 0.018642266113792522 0 -0.0082657398663153036 0.01831532567253712 0 -0.0082832473497976514 0.018515423756063038 0 -0.0081308486220305447 0.018520495812817988 0 -0.0082657398663153036 0.01831532567253712 0 -0.0081308486220305447 0.018520495812817988 0 -0.0081411954160017803 0.018409728374794588 0 -0.0082832473497976514 0.018515423756063038 0 -0.0081308486220305447 0.018520495812817988 0 -0.0080951189984029854 0.018674881574205732 0 -0.0077806507330985169 0.018855458459009565 0 -0.0080951189984029854 0.018674881574205732 0 -0.0079176483196712263 0.018642266113792522 0 -0.0077806507330985169 0.018855458459009565 0 -0.0080951189984029854 0.018674881574205732 0 -0.0079121124484909326 0.018941883077904599 0 -0.0077806507330985169 0.018855458459009565 0 -0.0075175644681264127 0.018947079315823321 0 -0.0079176483196712263 0.018642266113792522 0 -0.0075175644681264127 0.018947079315823321 0 -0.0079176483196712263 0.018642266113792522 0 -0.0076695777307569067 0.018791898042718434 0 -0.0079176483196712263 0.018642266113792522 0 -0.0078698014389957088 0.018598972841063603 0 -0.0076695777307569067 0.018791898042718434 0 -0.0081308486220305447 0.018520495812817988 0 -0.0079176483196712263 0.018642266113792522 0 -0.0081411954160017803 0.018409728374794588 0 -0.0079176483196712263 0.018642266113792522 0 -0.0081411954160017803 0.018409728374794588 0 -0.0080615837300868302 0.01841715663939859 0 -0.0079176483196712263 0.018642266113792522 0 -0.0080615837300868302 0.01841715663939859 0 -0.0078698014389957088 0.018598972841063603 0 -0.0078698014389957088 0.018598972841063603 0 -0.0078541976570589683 0.018616810459478071 0 -0.007612064805344365 0.018816953895960362 0 -0.0078698014389957088 0.018598972841063603 0 -0.0076695777307569067 0.018791898042718434 0 -0.007612064805344365 0.018816953895960362 0 -0.0076695777307569067 0.018791898042718434 0 -0.007612064805344365 0.018816953895960362 0 -0.0072884145425824364 0.019029451007570156 0 -0.0075175644681264127 0.018947079315823321 0 -0.0076695777307569067 0.018791898042718434 0 -0.0072884145425824364 0.019029451007570156 0 -0.0082224851450615043 0.018175018651261608 0 -0.00816737059159337 0.018162523322748734 0 -0.0083762268136772806 0.017850045190157111 0 -0.0082657398663153036 0.01831532567253712 0 -0.0082224851450615043 0.018175018651261608 0 -0.0083762268136772806 0.017850045190157111 0 -0.0081411954160017803 0.018409728374794588 0 -0.0080615837300868302 0.01841715663939859 0 -0.0082224851450615043 0.018175018651261608 0 -0.0082657398663153036 0.01831532567253712 0 -0.0081411954160017803 0.018409728374794588 0 -0.0082224851450615043 0.018175018651261608 0 -0.0080615837300868302 0.01841715663939859 0 -0.0082224851450615043 0.018175018651261608 0 -0.0080658911215615026 0.018356197921836414 0 -0.0082224851450615043 0.018175018651261608 0 -0.00816737059159337 0.018162523322748734 0 -0.0080658911215615026 0.018356197921836414 0 -0.00816737059159337 0.018162523322748734 0 -0.0080658911215615026 0.018356197921836414 0 -0.008028828873271528 0.018343942488378888 0 -0.0078698014389957088 0.018598972841063603 0 -0.0080658911215615026 0.018356197921836414 0 -0.0078541976570589683 0.018616810459478071 0 -0.0080615837300868302 0.01841715663939859 0 -0.0078698014389957088 0.018598972841063603 0 -0.0080658911215615026 0.018356197921836414 0 -0.008028828873271528 0.018343942488378888 0 -0.0078951623924114651 0.018515781973319417 0 -0.0078541976570589683 0.018616810459478071 0 -0.0080658911215615026 0.018356197921836414 0 -0.008028828873271528 0.018343942488378888 0 -0.0078541976570589683 0.018616810459478071 0 -0.0079160584298423979 0.018421695309388145 0 -0.007914262430068127 0.018352182933820686 0 -0.007899426971937424 0.018459052468895714 0 -0.0079160584298423979 0.018421695309388145 0 -0.008028828873271528 0.018343942488378888 0 -0.0078951623924114651 0.018515781973319417 0 -0.0079160584298423979 0.018421695309388145 0 -0.008028828873271528 0.018343942488378888 0 -0.007914262430068127 0.018352182933820686 0 -0.00816737059159337 0.018162523322748734 0 -0.008028828873271528 0.018343942488378888 0 -0.0083762268136772806 0.017850045190157111 0 -0.010075372311885641 0.019176286243876475 0 -0.012446371669271832 0.02109396445997995 0 -0.0079160584298423979 0.018421695309388145 0 -0.007899426971937424 0.018459052468895714 0 -0.0078951623924114651 0.018515781973319417 0 -0.007899426971937424 0.018459052468895714 0 -0.0078053544580887133 0.018638328364411146 0 -0.0077783994296778906 0.018668151070074246 0 -0.007899426971937424 0.018459052468895714 0 -0.0078951623924114651 0.018515781973319417 0 -0.0078053544580887133 0.018638328364411146 0 -0.0078053544580887133 0.018638328364411146 0 -0.0077783994296778906 0.018668151070074246 0 -0.0075580061749755305 0.018849456142912318 0 -0.0078053544580887133 0.018638328364411146 0 -0.0075580061749755305 0.018849456142912318 0 -0.0078541976570589683 0.018616810459478071 0 -0.0078951623924114651 0.018515781973319417 0 -0.0078053544580887133 0.018638328364411146 0 -0.0078541976570589683 0.018616810459478071 0 -0.0075580061749755305 0.018849456142912318 0 -0.0078541976570589683 0.018616810459478071 0 -0.007612064805344365 0.018816953895960362 0 -0.007612064805344365 0.018816953895960362 0 -0.0072884145425824364 0.019029451007570156 0 -0.007037046704019845 0.019101917154952287 0 -0.0075580061749755305 0.018849456142912318 0 -0.007612064805344365 0.018816953895960362 0 -0.007037046704019845 0.019101917154952287 0 -0.0075580061749755305 0.018849456142912318 0 -0.007037046704019845 0.019101917154952287 0 -0.0075703277447350843 0.01871143719566019 0 -0.007037046704019845 0.019101917154952287 0 -0.0075703277447350843 0.01871143719566019 0 -0.0064133111247708227 0.019033344129213713 0 -0.0077783994296778906 0.018668151070074246 0 -0.0075580061749755305 0.018849456142912318 0 -0.0075703277447350843 0.01871143719566019 0 -0.0054251497979318627 0.019747706269177663 0 -0.0061104638422912645 0.019450114374473651 0 -0.0058029900210215838 0.019661820300773639 0 -0.0054251497979318627 0.019747706269177663 0 -0.0058029900210215838 0.019661820300773639 0 -0.0050885033717869487 0.01995760271882718 0 -0.0054251497979318627 0.019747706269177663 0 -0.0050885033717869487 0.01995760271882718 0 -0.0049131290390660642 0.020031167650251643 0 -0.0054251497979318627 0.019747706269177663 0 -0.0061104638422912645 0.019450114374473651 0 -0.0052787139510643176 0.019736925214588905 0 -0.007037046704019845 0.019101917154952287 0 -0.0061104638422912645 0.019450114374473651 0 -0.0064133111247708227 0.019033344129213713 0 -0.0061104638422912645 0.019450114374473651 0 -0.0066230865484376714 0.019331473721982319 0 -0.0058029900210215838 0.019661820300773639 0 -0.0072884145425824364 0.019029451007570156 0 -0.007037046704019845 0.019101917154952287 0 -0.0066230865484376714 0.019331473721982319 0 -0.007037046704019845 0.019101917154952287 0 -0.0061104638422912645 0.019450114374473651 0 -0.0066230865484376714 0.019331473721982319 0 -0.0072884145425824364 0.019029451007570156 0 -0.0066230865484376714 0.019331473721982319 0 -0.0070741401022657146 0.01920798393601136 0 -0.0066230865484376714 0.019331473721982319 0 -0.0064096385245018895 0.019516794665599354 0 -0.0070741401022657146 0.01920798393601136 0 -0.0058029900210215838 0.019661820300773639 0 -0.0064096385245018895 0.019516794665599354 0 -0.0053133468886524069 0.019941502044387566 0 -0.0066230865484376714 0.019331473721982319 0 -0.0058029900210215838 0.019661820300773639 0 -0.0064096385245018895 0.019516794665599354 0 -0.0064096385245018895 0.019516794665599354 0 -0.006871536892947055 0.01945123739297875 0 -0.0059633999258783118 0.01983514242509915 0 -0.0064096385245018895 0.019516794665599354 0 -0.006871536892947055 0.01945123739297875 0 -0.0070741401022657146 0.01920798393601136 0 -0.0075175644681264127 0.018947079315823321 0 -0.0072884145425824364 0.019029451007570156 0 -0.0070741401022657146 0.01920798393601136 0 -0.006871536892947055 0.01945123739297875 0 -0.0070741401022657146 0.01920798393601136 0 -0.00745098455747111 0.01911400528832323 0 -0.0077806507330985169 0.018855458459009565 0 -0.0075175644681264127 0.018947079315823321 0 -0.00745098455747111 0.01911400528832323 0 -0.0075175644681264127 0.018947079315823321 0 -0.0070741401022657146 0.01920798393601136 0 -0.00745098455747111 0.01911400528832323 0 -0.0077806507330985169 0.018855458459009565 0 -0.00745098455747111 0.01911400528832323 0 -0.0079121124484909326 0.018941883077904599 0 -0.00745098455747111 0.01911400528832323 0 -0.0074820785881936367 0.019317453320946455 0 -0.0079121124484909326 0.018941883077904599 0 -0.006871536892947055 0.01945123739297875 0 -0.00745098455747111 0.01911400528832323 0 -0.0074820785881936367 0.019317453320946455 0 -0.0074820785881936367 0.019317453320946455 0 -0.0079121124484909326 0.018941883077904599 0 -0.0083092828009993878 0.018970112998530145 0 -0.0082826609665973914 0.018734527098076929 0 -0.0079121124484909326 0.018941883077904599 0 -0.0083092828009993878 0.018970112998530145 0 -0.006871536892947055 0.01945123739297875 0 -0.0066913954463832387 0.019791136799072639 0 -0.0059633999258783118 0.01983514242509915 0 -0.0074820785881936367 0.019317453320946455 0 -0.0066913954463832387 0.019791136799072639 0 -0.0076271810636982067 0.019557903035884741 0 -0.006871536892947055 0.01945123739297875 0 -0.0074820785881936367 0.019317453320946455 0 -0.0066913954463832387 0.019791136799072639 0 -0.0066913954463832387 0.019791136799072639 0 -0.0055372582074701459 0.020233850367818419 0 -0.0059633999258783118 0.01983514242509915 0 -0.0066913954463832387 0.019791136799072639 0 -0.0055372582074701459 0.020233850367818419 0 -0.0061134174996531395 0.020436530111963606 0 -0.0055372582074701459 0.020233850367818419 0 -0.0050553509611698851 0.020650078936617484 0 -0.004469279599048118 0.020593669036911434 0 -0.0055372582074701459 0.020233850367818419 0 -0.0050553509611698851 0.020650078936617484 0 -0.0061134174996531395 0.020436530111963606 0 -0.0055372582074701459 0.020233850367818419 0 -0.0046637323394682958 0.020277059619046561 0 -0.004469279599048118 0.020593669036911434 0 -0.0055372582074701459 0.020233850367818419 0 -0.0046637323394682958 0.020277059619046561 0 -0.0059633999258783118 0.01983514242509915 0 -0.0046637323394682958 0.020277059619046561 0 -0.0059633999258783118 0.01983514242509915 0 -0.0053133468886524069 0.019941502044387566 0 -0.0064096385245018895 0.019516794665599354 0 -0.0059633999258783118 0.01983514242509915 0 -0.0053133468886524069 0.019941502044387566 0 -0.0022476165359726782 0.021349964889654946 0 -0.0039839401816146253 0.020992243070561061 0 -0.0033142422932804297 0.020842252750197587 0 -0.0039839401816146253 0.020992243070561061 0 -0.004469279599048118 0.020593669036911434 0 -0.0033142422932804297 0.020842252750197587 0 -0.0050553509611698851 0.020650078936617484 0 -0.0039839401816146253 0.020992243070561061 0 -0.004469279599048118 0.020593669036911434 0 -0.0046637323394682958 0.020277059619046561 0 -0.004469279599048118 0.020593669036911434 0 -0.0033142422932804297 0.020842252750197587 0 -0.0022476165359726782 0.021349964889654946 0 -0.0015116658844901705 0.021231451036101037 0 -0.0033142422932804297 0.020842252750197587 0 -0.0015116658844901705 0.021231451036101037 0 -0.0034144465102335978 0.020566479388240484 0 -0.0023852745769300282 0.020668664223092732 0 -0.0015116658844901705 0.021231451036101037 0 -0.0033142422932804297 0.020842252750197587 0 -0.0034144465102335978 0.020566479388240484 0 -0.0046637323394682958 0.020277059619046561 0 -0.0033142422932804297 0.020842252750197587 0 -0.0034144465102335978 0.020566479388240484 0 -0.0034144465102335978 0.020566479388240484 0 -0.004327526078413118 0.020282453019034745 0 -0.0030579526298199003 0.020778647002625866 0 -0.0034144465102335978 0.020566479388240484 0 -0.0023852745769300282 0.020668664223092732 0 -0.0030579526298199003 0.020778647002625866 0 -0.0058029900210215838 0.019661820300773639 0 -0.0053133468886524069 0.019941502044387566 0 -0.0050885033717869487 0.01995760271882718 0 -0.0046637323394682958 0.020277059619046561 0 -0.0053133468886524069 0.019941502044387566 0 -0.004327526078413118 0.020282453019034745 0 -0.0046637323394682958 0.020277059619046561 0 -0.0034144465102335978 0.020566479388240484 0 -0.004327526078413118 0.020282453019034745 0 -0.004327526078413118 0.020282453019034745 0 -0.0050885033717869487 0.01995760271882718 0 -0.0045937005302088135 0.020282551359537722 0 -0.0053133468886524069 0.019941502044387566 0 -0.004327526078413118 0.020282453019034745 0 -0.0050885033717869487 0.01995760271882718 0 -0.0050885033717869487 0.01995760271882718 0 -0.0045937005302088135 0.020282551359537722 0 -0.0049131290390660642 0.020031167650251643 0 -0.0045937005302088135 0.020282551359537722 0 -0.0038579911355454814 0.020658572502763629 0 -0.0046143643815629827 0.020523156479339996 0 -0.0045937005302088135 0.020282551359537722 0 -0.0046143643815629827 0.020523156479339996 0 -0.0049131290390660642 0.020031167650251643 0 -0.0046143643815629827 0.020523156479339996 0 -0.0049131290390660642 0.020031167650251643 0 -0.0046259482304417216 0.020372011040975576 0 -0.004327526078413118 0.020282453019034745 0 -0.0038579911355454814 0.020658572502763629 0 -0.0030579526298199003 0.020778647002625866 0 -0.004327526078413118 0.020282453019034745 0 -0.0045937005302088135 0.020282551359537722 0 -0.0038579911355454814 0.020658572502763629 0 -0.0038579911355454814 0.020658572502763629 0 -0.0048490483971016822 0.02143287090436995 0 -0.0061883156565432085 0.022412182168892236 0 -0.0038579911355454814 0.020658572502763629 0 -0.0026166232057278304 0.022128187607543578 0 -0.00093920761552255562 0.022871434557418906 0 -0.0038456520621734207 0.021143191243645602 0 -0.0034731957217932017 0.022562849783035997 0 -0.0038579911355454814 0.020658572502763629 0 -0.0048490483971016822 0.02143287090436995 0 -0.0046143643815629827 0.020523156479339996 0 -0.0048490483971016822 0.02143287090436995 0 -0.0046143643815629827 0.020523156479339996 0 -0.0043920654944086812 0.020761492576416594 0 -0.0046143643815629827 0.020523156479339996 0 -0.0046259482304417216 0.020372011040975576 0 -0.0043920654944086812 0.020761492576416594 0 -0.0034732154248696863 0.022749670223440047 0 -0.0030579526298199003 0.020778647002625866 0 -0.0030655812423509474 0.022453219273768851 0 -0.0034239178541209847 0.021424328208744819 0 -0.002684411489111008 0.020870012244945509 0 -0.0021486216895291684 0.020428956073440193 0 -0.0023852745769300282 0.020668664223092732 0 -0.0030579526298199003 0.020778647002625866 0 -0.0030579526298199003 0.020778647002625866 0 -0.0026166232057278304 0.022128187607543578 0 -0.0030655812423509474 0.022453219273768851 0 -0.0038579911355454814 0.020658572502763629 0 -0.0030579526298199003 0.020778647002625866 0 -0.0026166232057278304 0.022128187607543578 0 -0.0026166232057278304 0.022128187607543578 0 -0.0029448150978756767 0.023349365717605729 0 -0.0030655812423509474 0.022453219273768851 0 -0.0026166232057278304 0.022128187607543578 0 -0.0029448150978756767 0.023349365717605729 0 -0.002481778299466685 0.023684020351290799 0 -0.0032341921955962405 0.023327061627730371 0 -0.0029448150978756767 0.023349365717605729 0 -0.0030655812423509474 0.022453219273768851 0 -0.0032265787675192312 0.025049834210209006 0 -0.0030385379977858579 0.025122255210443954 0 -0.0029568381740234608 0.024336237855558607 0 -0.0030385379977858579 0.025122255210443954 0 -0.0029568381740234608 0.024336237855558607 0 -0.0026427927165946193 0.024877749439100032 0 -0.0032183268446442496 0.024231498606622163 0 -0.0029448150978756767 0.023349365717605729 0 -0.0029568381740234608 0.024336237855558607 0 -0.0029448150978756767 0.023349365717605729 0 -0.0029568381740234608 0.024336237855558607 0 -0.002481778299466685 0.023684020351290799 0 -0.002481778299466685 0.023684020351290799 0 -0.0026427927165946193 0.024877749439100032 0 -0.0019249169278141005 0.024501195287997227 0 -0.0029568381740234608 0.024336237855558607 0 -0.002481778299466685 0.023684020351290799 0 -0.0026427927165946193 0.024877749439100032 0 -0.002481778299466685 0.023684020351290799 0 -0.0019249169278141005 0.024501195287997227 0 -0.0017729722082284328 0.023459471759174448 0 -0.0026166232057278304 0.022128187607543578 0 -0.002481778299466685 0.023684020351290799 0 -0.0017729722082284328 0.023459471759174448 0 -0.0026166232057278304 0.022128187607543578 0 -0.0017729722082284328 0.023459471759174448 0 -0.00093920761552255562 0.022871434557418906 0 -0.0017729722082284328 0.023459471759174448 0 -0.00080340575755594949 0.024464000943401433 0 -0.00093920761552255562 0.022871434557418906 0 -0.0019249169278141005 0.024501195287997227 0 -0.0017729722082284328 0.023459471759174448 0 -0.00080340575755594949 0.024464000943401433 0 0.0010750923634381486 0.026857391758950196 0 -0.00080340575755594949 0.024464000943401433 0 -0.00014213324716826946 0.026026572691190332 0 -0.00080340575755594949 0.024464000943401433 0 -0.00014213324716826946 0.026026572691190332 0 -0.0014740049624672755 0.02559343430582672 0 -0.0012088446671386708 0.02710828483012832 0 -0.00014213324716826946 0.026026572691190332 0 -0.0014740049624672755 0.02559343430582672 0 -0.0035313646954027249 0.027605243970290148 0 -0.0017297921906128998 0.027477158936795275 0 0.00085582921472807799 0.027005739118512055 0 5.1213134913503301e-05 0.027553496286859599 0 -0.00014213324716826946 0.026026572691190332 0 5.1213134913503301e-05 0.027553496286859599 0 -0.0012088446671386708 0.02710828483012832 0 -0.00014213324716826946 0.026026572691190332 0 -0.0014740049624672755 0.02559343430582672 0 -0.0022859927151583255 0.025418715040764626 0 -0.0024695993931034615 0.026400844426048526 0 -0.0012088446671386708 0.02710828483012832 0 -0.0014740049624672755 0.02559343430582672 0 -0.0024695993931034615 0.026400844426048526 0 -0.0019249169278141005 0.024501195287997227 0 -0.00080340575755594949 0.024464000943401433 0 -0.0014740049624672755 0.02559343430582672 0 -0.0019249169278141005 0.024501195287997227 0 -0.0014740049624672755 0.02559343430582672 0 -0.0022859927151583255 0.025418715040764626 0 -0.0032407866695086515 0.025823295192536146 0 -0.0036334371188675163 0.027152491076106827 0 -0.0031284950663460517 0.026491754892917281 0 -0.0026427927165946193 0.024877749439100032 0 -0.0019249169278141005 0.024501195287997227 0 -0.0022859927151583255 0.025418715040764626 0 -0.0026427927165946193 0.024877749439100032 0 -0.0022859927151583255 0.025418715040764626 0 -0.0028749412456539544 0.025673328303859422 0 -0.0024695993931034615 0.026400844426048526 0 -0.0031284950663460517 0.026491754892917281 0 -0.0028749412456539544 0.025673328303859422 0 -0.0022859927151583255 0.025418715040764626 0 -0.0024695993931034615 0.026400844426048526 0 -0.0028749412456539544 0.025673328303859422 0 -0.0030641713242933778 0.027195677206602275 0 -0.0024695993931034615 0.026400844426048526 0 -0.0031284950663460517 0.026491754892917281 0 -0.0032407866695086515 0.025823295192536146 0 -0.0031284950663460517 0.026491754892917281 0 -0.0028749412456539544 0.025673328303859422 0 -0.0032407866695086515 0.025823295192536146 0 -0.0030385379977858579 0.025122255210443954 0 -0.0028749412456539544 0.025673328303859422 0 -0.0030385379977858579 0.025122255210443954 0 -0.0026427927165946193 0.024877749439100032 0 -0.0028749412456539544 0.025673328303859422 0 -0.0048490483971016822 0.02143287090436995 0 -0.0052429069623273717 0.023102474730911322 0 -0.0051429933160779557 0.022886123999153223 0 -0.0048490483971016822 0.02143287090436995 0 -0.0052429069623273717 0.023102474730911322 0 -0.0061883156565432085 0.022412182168892236 0 -0.0048490483971016822 0.02143287090436995 0 -0.0051429933160779557 0.022886123999153223 0 -0.0052943836564964255 0.022622282818614604 0 -0.0047679092243106255 0.021479083705407846 0 -0.0053481044938158652 0.02104683352696202 0 -0.0048490483971016822 0.02143287090436995 0 -0.0039023261299834079 0.020531524155803563 0 -0.0043920654944086812 0.020761492576416594 0 -0.0052429069623273717 0.023102474730911322 0 -0.0061883156565432085 0.022412182168892236 0 -0.0058764230010948599 0.024094140174901905 0 -0.0070322918258829692 0.025693592858377402 0 -0.0061883156565432085 0.022412182168892236 0 -0.0058764230010948599 0.024094140174901905 0 0.0010750923634381486 0.026857391758950196 0 -0.00080340575755594949 0.024464000943401433 0 -0.00093920761552255562 0.022871434557418906 0 -0.0035313646954027249 0.027605243970290148 0 -0.0034731957217932017 0.022562849783035997 0 -0.0070322918258829692 0.025693592858377402 0 -0.0058764230010948599 0.024094140174901905 0 -0.0060723914278780098 0.025009691605261716 0 -0.0058764230010948599 0.024094140174901905 0 -0.0060723914278780098 0.025009691605261716 0 -0.0052090694590211104 0.024400671867604175 0 -0.0052429069623273717 0.023102474730911322 0 -0.0058764230010948599 0.024094140174901905 0 -0.0052090694590211104 0.024400671867604175 0 -0.0052429069623273717 0.023102474730911322 0 -0.0052090694590211104 0.024400671867604175 0 -0.0051678597061130382 0.023205345209918415 0 -0.0052429069623273717 0.023102474730911322 0 -0.0051429933160779557 0.022886123999153223 0 -0.0051678597061130382 0.023205345209918415 0 -0.0052804179167487229 0.024883946829779513 0 -0.0050067097530547833 0.024075528822889519 0 -0.0051678597061130382 0.023205345209918415 0 -0.0049130269647855414 0.024493954571620197 0 -0.0051155212599204181 0.023645150341760627 0 -0.0084285014043293978 0.036582533323442919 0 -0.0044658231805082748 0.027997187017896503 0 -0.0050067097530547833 0.024075528822889519 0 -0.0051678597061130382 0.023205345209918415 0 -0.0057506124056675026 0.02222199033511154 0 -0.0099667827897916596 0.046614419259335231 0 -0.0095343965004947261 0.047192517472843823 0 -0.010293554015113169 0.046235076487093192 0 -0.0095343965004947261 0.047192517472843823 0 -0.010497298619054343 0.046157912224340153 0 -0.010293554015113169 0.046235076487093192 0 -0.0051678597061130382 0.023205345209918415 0 -0.0052943836564964255 0.022622282818614604 0 -0.0057506124056675026 0.02222199033511154 0 -0.0039023261299834079 0.020531524155803563 0 -0.0041741080859827411 0.019285931301643574 0 -0.0045388646657798003 0.020440488061438503 0 -0.0051429933160779557 0.022886123999153223 0 -0.0051678597061130382 0.023205345209918415 0 -0.0052943836564964255 0.022622282818614604 0 -0.0053481044938158652 0.02104683352696202 0 -0.0044658231805082748 0.027997187017896503 0 -0.0039023261299834079 0.020531524155803563 0 -0.0045388646657798003 0.020440488061438503 0 -0.0043602492268495019 0.020575410717369381 0 -0.0059207361376190371 0.019838369331810279 0 -0.0041741080859827411 0.019285931301643574 0 -0.0045388646657798003 0.020440488061438503 0 -0.010119374890501725 0.046371600279855263 0 -0.010293554015113169 0.046235076487093192 0 -0.010756973035544898 0.046602413292172656 0 -0.010497298619054343 0.046157912224340153 0 -0.010293554015113169 0.046235076487093192 0 -0.010497946555003393 0.045042968821673017 0 -0.011128275319139472 0.045921400772436463 0 -0.007821061161255841 0.04147093986212138 0 -0.0044658231805082748 0.027997187017896503 0 -0.007821061161255841 0.04147093986212138 0 -0.010119374890501725 0.046371600279855263 0 -0.0099667827897916596 0.046614419259335231 0 -0.010293554015113169 0.046235076487093192 0 -0.0021294044337924049 0.023675436149701426 0 -0.0065367076296752036 0.025414341405570601 0 -0.0059084243290796132 0.031040543703839692 0 -0.0021294044337924049 0.023675436149701426 0 -0.0089086503587894224 0.022657124751180268 0 -0.0065367076296752036 0.025414341405570601 0 -0.011667945349857788 0.045099133988615966 0 -0.0087221050859277935 0.046700620957600657 0 -0.01254409254196885 0.046146562720002379 0 -0.007821061161255841 0.04147093986212138 0 -0.01037706802281106 0.034061793689478849 0 -0.010240295406052652 0.025116853826012715 0 -0.0089086503587894224 0.022657124751180268 0 -0.0065367076296752036 0.025414341405570601 0 -0.010240295406052652 0.025116853826012715 0 -0.0065367076296752036 0.025414341405570601 0 -0.0059084243290796132 0.031040543703839692 0 -0.0089419887638579262 0.023981573326512809 0 -0.0094541435042290005 0.026310762792333953 0 -0.0043719467177030192 0.029061915816741748 0 -0.0084858844781256632 0.023469325104910281 0 -0.0098280074511299855 0.027022714632767689 0 -0.0031307088588567191 0.02529683155994682 0 -0.0094628155139730424 0.024240507326964929 0 -0.0051873015900293059 0.024066386884295771 0 -0.008431796870852928 0.025216315016152974 0 -0.0051873015900293059 0.024066386884295771 0 -0.0044658231805082748 0.027997187017896503 0 -0.0051873015900293059 0.024066386884295771 0 -0.0059207361376190371 0.019838369331810279 0 -0.008022135700390327 0.019233957406827987 0 -0.0055984072270396723 0.020648316642344483 0 0.0044265729946172351 0.028077159391807448 0 -0.0021294044337924049 0.023675436149701426 0 -0.0059084243290796132 0.031040543703839692 0 -0.0059207361376190371 0.019838369331810279 0 -0.0041741080859827411 0.019285931301643574 0 -0.008022135700390327 0.019233957406827987 0 -0.0075425844804613536 0.019288476909154643 0 -0.00670087408357472 0.020384153872073409 0 -0.0050346645213578374 0.019599032938658927 0 -0.0077215593639867923 0.017790430342338692 0 -0.0075425844804613536 0.019288476909154643 0 -0.0050346645213578374 0.019599032938658927 0 -0.0051873015900293059 0.024066386884295771 0 -0.0061619382349640877 0.019473392992555204 0 -0.00670087408357472 0.020384153872073409 0 -0.0058904717571093565 0.021938227618220309 0 -0.0050346645213578374 0.019599032938658927 0 -0.0077215593639867923 0.017790430342338692 0 -0.0079716892681844648 0.018567082677330614 0 -0.0075425844804613536 0.019288476909154643 0 -0.0075425844804613536 0.019288476909154643 0 -0.00670087408357472 0.020384153872073409 0 -0.008479855961437275 0.021239558161509638 0 -0.01307414165333565 0.019462585527185015 0 -0.0077215593639867923 0.017790430342338692 0 -0.008764710842212687 0.01879359308309789 0 -0.011245887058393625 0.022900527441731006 0 -0.0051873015900293059 0.024066386884295771 0 -0.01307414165333565 0.019462585527185015 0 -0.008764710842212687 0.01879359308309789 0 -0.0097435788961593231 0.020156088419222569 0 -0.0075425844804613536 0.019288476909154643 0 -0.008764710842212687 0.01879359308309789 0 -0.0097435788961593231 0.020156088419222569 0 -0.0077215593639867923 0.017790430342338692 0 -0.008764710842212687 0.01879359308309789 0 -0.0080410380654321895 0.018208806114903879 0 -0.0077215593639867923 0.017790430342338692 0 -0.0079716892681844648 0.018567082677330614 0 -0.0080410380654321895 0.018208806114903879 0 -0.0079716892681844648 0.018567082677330614 0 -0.008764710842212687 0.01879359308309789 0 -0.0080410380654321895 0.018208806114903879 0 -0.0079716892681844648 0.018567082677330614 0 -0.0075425844804613536 0.019288476909154643 0 -0.008764710842212687 0.01879359308309789 0 -0.0075425844804613536 0.019288476909154643 0 -0.0097435788961593231 0.020156088419222569 0 -0.008479855961437275 0.021239558161509638 0 -0.01307414165333565 0.019462585527185015 0 -0.0097435788961593231 0.020156088419222569 0 -0.011039236361582935 0.021586278290225028 0 -0.010272849784360723 0.024426564052913879 0 -0.011039236361582935 0.021586278290225028 0 -0.008479855961437275 0.021239558161509638 0 -0.0097435788961593231 0.020156088419222569 0 -0.011039236361582935 0.021586278290225028 0 -0.008479855961437275 0.021239558161509638 0 -0.013104496045082728 0.0225140673232321 0 -0.010272849784360723 0.024426564052913879 0 -0.011039236361582935 0.021586278290225028 0 -0.0085597923083666969 0.021367986550390468 0 -0.0063419950775034555 0.020618830468881542 0 -0.010272849784360723 0.024426564052913879 0 -0.008479855961437275 0.021239558161509638 0 -0.0058904717571093565 0.021938227618220309 0 -0.00670087408357472 0.020384153872073409 0 -0.008479855961437275 0.021239558161509638 0 -0.0058904717571093565 0.021938227618220309 0 -0.0063419950775034555 0.020618830468881542 0 -0.0048177790273884243 0.020230409088317542 0 -0.0064133111247708227 0.019033344129213713 0 -0.0052787139510643176 0.019736925214588905 0 -0.0045773638898623991 0.020231225775552159 0 -0.0061104638422912645 0.019450114374473651 0 -0.0064133111247708227 0.019033344129213713 0 -0.0052787139510643176 0.019736925214588905 0 -0.0054251497979318627 0.019747706269177663 0 -0.0052787139510643176 0.019736925214588905 0 -0.0049131290390660642 0.020031167650251643 0 -0.0049131290390660642 0.020031167650251643 0 -0.0047529310499802527 0.020141483761216775 0 -0.0046259482304417216 0.020372011040975576 0 -0.0052787139510643176 0.019736925214588905 0 -0.0047529310499802527 0.020141483761216775 0 -0.0045773638898623991 0.020231225775552159 0 -0.0052787139510643176 0.019736925214588905 0 -0.0049131290390660642 0.020031167650251643 0 -0.0047529310499802527 0.020141483761216775 0 -0.0045773638898623991 0.020231225775552159 0 -0.0044367222718558466 0.020429314691297561 0 -0.0050346645213578374 0.019599032938658927 0 -0.0047529310499802527 0.020141483761216775 0 -0.0045773638898623991 0.020231225775552159 0 -0.0044367222718558466 0.020429314691297561 0 -0.0046259482304417216 0.020372011040975576 0 -0.0044367222718558466 0.020429314691297561 0 -0.0043920654944086812 0.020761492576416594 0 -0.0047529310499802527 0.020141483761216775 0 -0.0046259482304417216 0.020372011040975576 0 -0.0044367222718558466 0.020429314691297561 0 -0.0039023261299834079 0.020531524155803563 0 -0.0043920654944086812 0.020761492576416594 0 -0.0043602492268495019 0.020575410717369381 0 -0.0044367222718558466 0.020429314691297561 0 -0.0043920654944086812 0.020761492576416594 0 -0.0043602492268495019 0.020575410717369381 0 -0.0044367222718558466 0.020429314691297561 0 -0.0045388646657798003 0.020440488061438503 0 -0.0043602492268495019 0.020575410717369381 0 -0.0059207361376190371 0.019838369331810279 0 -0.0045388646657798003 0.020440488061438503 0 -0.0055984072270396723 0.020648316642344483 0 -0.0044367222718558466 0.020429314691297561 0 -0.0045388646657798003 0.020440488061438503 0 -0.0055984072270396723 0.020648316642344483 0 -0.0042533049661313731 0.020528282683669765 0 -0.0061619382349640877 0.019473392992555204 0 -0.0058904717571093565 0.021938227618220309 0 -0.0045773638898623991 0.020231225775552159 0 -0.0050346645213578374 0.019599032938658927 0 -0.050712756780484647 0.039226023187311061 0 -0.05156108315000834 0.040248798811119375 0 -0.050331874757452016 0.041162206286562399 0 -0.049999378658913324 0.040287402698768814 0 -0.049999311479440596 0.038028895403456935 0 -0.050712756780484647 0.039226023187311061 0 -0.049999378658913324 0.040287402698768814 0 -0.050712756780484647 0.039226023187311061 0 -0.050331874757452016 0.041162206286562399 0 -0.049999311479440596 0.038028895403456935 0 -0.050712756780484647 0.039226023187311061 0 -0.05090231280320423 0.037159188795593344 0 -0.050712756780484647 0.039226023187311061 0 -0.051673498392911445 0.038129709443044384 0 -0.05090231280320423 0.037159188795593344 0 -0.050712756780484647 0.039226023187311061 0 -0.051673498392911445 0.038129709443044384 0 -0.05156108315000834 0.040248798811119375 0 -0.052617091000120193 0.039290149732646232 0 -0.05156108315000834 0.040248798811119375 0 -0.052818611066640028 0.039911440926038357 0 -0.051673498392911445 0.038129709443044384 0 -0.052617091000120193 0.039290149732646232 0 -0.05156108315000834 0.040248798811119375 0 -0.051649136425582366 0.03814691290862212 0 -0.052529239727876681 0.038396001363603431 0 -0.051783325921686586 0.040649442147603861 0 -0.05231394987493064 0.040708017955752608 0 -0.052818611066640028 0.039911440926038357 0 -0.051783325921686586 0.040649442147603861 0 -0.052293457967173808 0.041534288715691321 0 -0.05231394987493064 0.040708017955752608 0 -0.051709827046343582 0.040463940329593565 0 -0.052771514589724261 0.039912254598705656 0 -0.051709827046343582 0.040463940329593565 0 -0.050499266258796957 0.041479073366342357 0 -0.051783325921686586 0.040649442147603861 0 -0.051101974287099429 0.042320906335977043 0 -0.050648766621532004 0.041733999781243071 0 -0.051783325921686586 0.040649442147603861 0 -0.051101974287099429 0.042320906335977043 0 -0.052293457967173808 0.041534288715691321 0 -0.051101974287099429 0.042320906335977043 0 -0.050541124207655316 0.043473374137176141 0 -0.0520977892370093 0.042651665444297014 0 -0.051101974287099429 0.042320906335977043 0 -0.050541124207655316 0.043473374137176141 0 -0.049787983287411547 0.044053341381416075 0 -0.051101974287099429 0.042320906335977043 0 -0.050648766621532004 0.041733999781243071 0 -0.049787983287411547 0.044053341381416075 0 -0.050648766621532004 0.041733999781243071 0 -0.050000232120306298 0.042546784895877286 0 -0.049787983287411547 0.044053341381416075 0 -0.050499266258796957 0.041479073366342357 0 -0.049999882052478385 0.042544941569500158 0 -0.049999378658913324 0.040287402698768814 0 -0.050331874757452016 0.041162206286562399 0 -0.049998467439524887 0.042544066936061255 0 -0.050000232120306298 0.042546784895877286 0 -0.049997871615220922 0.044877166500485739 0 -0.049787983287411547 0.044053341381416075 0 -0.049997871615220922 0.044877166500485739 0 -0.049787983287411547 0.044053341381416075 0 -0.048837012469047265 0.045790379470543922 0 -0.049467985702577419 0.047041616890894297 0 -0.049999776560140319 0.047207720726957302 0 -0.049997871615220922 0.044877166500485739 0 -0.048837012469047265 0.045790379470543922 0 -0.049999677319086042 0.047204525123382211 0 -0.049998375890033003 0.049994929020932194 0 -0.04984145642343616 0.049203009008220437 0 -0.044415315050034258 0.050002569834845974 0 -0.050711470247291245 0.047980465703539601 0 -0.049997875078847391 0.047215675166308695 0 -0.04984145642343616 0.049203009008220437 0 -0.049471415818490107 0.049185573347565362 0 -0.048017065149005604 0.049431188785056507 0 -0.050711470247291245 0.047980465703539601 0 -0.04984145642343616 0.049203009008220437 0 -0.047577410483106944 0.047928019610638591 0 -0.049997875078847391 0.047215675166308695 0 -0.049998375890033003 0.049994929020932194 0 -0.04984145642343616 0.049203009008220437 0 -0.04984145642343616 0.049203009008220437 0 -0.044415315050034258 0.050002569834845974 0 -0.048010377605331542 0.050688699443682983 0 -0.044402374529840305 0.050002285579157799 0 -0.044873401405229343 0.049801227825935664 0 -0.044415315050034258 0.050002569834845974 0 -0.048010377605331542 0.050688699443682983 0 -0.046583211348907819 0.052571390009077318 0 -0.050711470247291245 0.047980465703539601 0 -0.047577410483106944 0.047928019610638591 0 -0.047945015938245579 0.048210972414227372 0 -0.047577410483106944 0.047928019610638591 0 -0.047945015938245579 0.048210972414227372 0 -0.045839971294818767 0.047833500461625829 0 -0.048017065149005604 0.049431188785056507 0 -0.044873401405229343 0.049801227825935664 0 -0.050633479825698595 0.046501701575711818 0 -0.044345089789868966 0.042791346727895314 0 -0.047945015938245579 0.048210972414227372 0 -0.049976471197160026 0.04860240929802942 0 -0.04594050398621579 0.048853492135538731 0 -0.050711470247291245 0.047980465703539601 0 -0.047945015938245579 0.048210972414227372 0 -0.049976471197160026 0.04860240929802942 0 -0.049467985702577419 0.047041616890894297 0 -0.050633479825698595 0.046501701575711818 0 -0.049787983287411547 0.044053341381416075 0 -0.048837012469047265 0.045790379470543922 0 -0.049277480371576893 0.045105603154771856 0 -0.050541124207655316 0.043473374137176141 0 -0.049787983287411547 0.044053341381416075 0 -0.049277480371576893 0.045105603154771856 0 -0.050541124207655316 0.043473374137176141 0 -0.049277480371576893 0.045105603154771856 0 -0.051208608241539569 0.043605205384348165 0 -0.049691973783073148 0.043795655428200637 0 -0.051208608241539569 0.043605205384348165 0 -0.051401388315482251 0.044686491875032465 0 -0.050633479825698595 0.046501701575711818 0 -0.050869814109247152 0.043777666330424278 0 -0.051208608241539569 0.043605205384348165 0 -0.052679720323085905 0.043431636825971065 0 -0.051401388315482251 0.044686491875032465 0 -0.051208608241539569 0.043605205384348165 0 -0.052679720323085905 0.043431636825971065 0 -0.0520977892370093 0.042651665444297014 0 -0.032950707631086248 0.034583785796588579 0 -0.033635210969479155 0.034992456721281005 0 -0.033998202321344394 0.034061767723265399 0 -0.042931018858733516 0.037775243547718183 0 -0.044345089789868966 0.042791346727895314 0 -0.033505995479456346 0.033246141419457607 0 -0.032950707631086248 0.034583785796588579 0 -0.033998202321344394 0.034061767723265399 0 -0.044873401405229343 0.049801227825935664 0 -0.037158543876320879 0.046280898440943678 0 -0.043390868220731314 0.050948993560621755 0 -0.041471163303621099 0.051994459890110326 0 -0.042396527184440855 0.050748449448795988 0 -0.042438944917978165 0.047987350265266258 0 -0.043600398406995124 0.04572509867109352 0 -0.039555369418445743 0.046339946652662063 0 -0.047945015938245579 0.048210972414227372 0 -0.04594050398621579 0.048853492135538731 0 -0.045839971294818767 0.047833500461625829 0 -0.044345089789868966 0.042791346727895314 0 -0.044873401405229343 0.049801227825935664 0 -0.044345089789868966 0.042791346727895314 0 -0.037158543876320879 0.046280898440943678 0 -0.041471163303621099 0.051994459890110326 0 -0.040953184837025855 0.051142256804647034 0 -0.042396527184440855 0.050748449448795988 0 -0.040953184837025855 0.051142256804647034 0 -0.041800241553585089 0.050000029081897032 0 -0.039873227244275652 0.050720097413512945 0 -0.040953184837025855 0.051142256804647034 0 -0.041800241553585089 0.050000029081897032 0 -0.042396527184440855 0.050748449448795988 0 -0.044402640777957823 0.049997146310361409 0 -0.043390868220731314 0.050948993560621755 0 -0.042396527184440855 0.050748449448795988 0 -0.044402640777957823 0.049997146310361409 0 -0.041800241553585089 0.050000029081897032 0 -0.042396527184440855 0.050748449448795988 0 -0.038133926366472469 0.05080970376393297 0 -0.039197344501580272 0.04999966863940794 0 -0.039873227244275652 0.050720097413512945 0 -0.038133926366472469 0.05080970376393297 0 -0.039197344501580272 0.04999966863940794 0 -0.036594531426818358 0.05000010895780943 0 -0.037980722546645161 0.050728437557277926 0 -0.03867917754302843 0.052291119879054965 0 -0.041800241553585089 0.050000029081897032 0 -0.039197344501580272 0.04999966863940794 0 -0.039873227244275652 0.050720097413512945 0 -0.038133926366472469 0.05080970376393297 0 -0.039873227244275652 0.050720097413512945 0 -0.039691242932534981 0.051444448102381121 0 -0.040953184837025855 0.051142256804647034 0 -0.039873227244275652 0.050720097413512945 0 -0.039748340695649018 0.051457575085639244 0 -0.039418451591091891 0.050872981150200905 0 -0.03867917754302843 0.052291119879054965 0 -0.037158543876320879 0.046280898440943678 0 -0.035824160946173231 0.040396425936699502 0 -0.036006165636892587 0.050918874008442312 0 -0.037100038503653246 0.051639711947619724 0 -0.037297308000251994 0.05076551495768683 0 -0.037158543876320879 0.046280898440943678 0 -0.03867917754302843 0.052291119879054965 0 -0.041471163303621099 0.051994459890110326 0 -0.040953184837025855 0.051142256804647034 0 -0.039748340695649018 0.051457575085639244 0 -0.038770166859043088 0.051179396455495331 0 -0.038574043353365034 0.051903492588949406 0 -0.03826168545808388 0.051495537865256201 0 -0.03867917754302843 0.052291119879054965 0 -0.035824160946173231 0.040396425936699502 0 -0.038574043353365034 0.051903492588949406 0 -0.037935483397623947 0.051881270037201353 0 -0.037206531700282854 0.052063994789784407 0 -0.03826168545808388 0.051495537865256201 0 -0.037778740549170325 0.051455620382033593 0 -0.037935483397623947 0.051881270037201353 0 -0.038574043353365034 0.051903492588949406 0 -0.03826168545808388 0.051495537865256201 0 -0.037935483397623947 0.051881270037201353 0 -0.03785839416300972 0.050699975150894139 0 -0.038770166859043088 0.051179396455495331 0 -0.03826168545808388 0.051495537865256201 0 -0.03785839416300972 0.050699975150894139 0 -0.03826168545808388 0.051495537865256201 0 -0.037778740549170325 0.051455620382033593 0 -0.037778740549170325 0.051455620382033593 0 -0.037935483397623947 0.051881270037201353 0 -0.0372280915128348 0.051449346655308648 0 -0.03785839416300972 0.050699975150894139 0 -0.037778740549170325 0.051455620382033593 0 -0.0372280915128348 0.051449346655308648 0 -0.034708744165291086 0.030380145751768044 0 -0.03394469033252695 0.030874204758387123 0 -0.033707599500351793 0.03038659091320494 0 -0.034708744165291086 0.030380145751768044 0 -0.034483067312378872 0.031301976730582888 0 -0.03394469033252695 0.030874204758387123 0 -0.035824160946173231 0.040396425936699502 0 -0.034681740714942635 0.03041098277122355 0 -0.035824160946173231 0.040396425936699502 0 -0.035620715492041793 0.041337690120793046 0 -0.033635210969479155 0.034992456721281005 0 -0.034666644684325662 0.034802886715445062 0 -0.033998202321344394 0.034061767723265399 0 -0.034666644684325662 0.034802886715445062 0 -0.033998202321344394 0.034061767723265399 0 -0.034874199931492149 0.033115779910407789 0 -0.033505995479456346 0.033246141419457607 0 -0.033998202321344394 0.034061767723265399 0 -0.034874199931492149 0.033115779910407789 0 -0.034483067312378872 0.031301976730582888 0 -0.033964787851239103 0.031255278717186974 0 -0.03394469033252695 0.030874204758387123 0 -0.034874199931492149 0.033115779910407789 0 -0.034723745051801626 0.031794059032467237 0 -0.034066171599601403 0.031958387463559237 0 -0.034681740714942635 0.03041098277122355 0 -0.034650769901772904 0.032629009496374553 0 -0.034483067312378872 0.031301976730582888 0 -0.034277954091196716 0.031653540607582756 0 -0.033964787851239103 0.031255278717186974 0 -0.034483067312378872 0.031301976730582888 0 -0.034723745051801626 0.031794059032467237 0 -0.034277954091196716 0.031653540607582756 0 -0.034723745051801626 0.031794059032467237 0 -0.034066171599601403 0.031958387463559237 0 -0.034582334617131776 0.03125190404342678 0 -0.043841310776468863 0.037069591101559933 0 -0.043987725460554426 0.035913985588118071 0 -0.033505995479456346 0.033246141419457607 0 -0.034874199931492149 0.033115779910407789 0 -0.034066171599601403 0.031958387463559237 0 -0.052679720323085905 0.043431636825971065 0 -0.053569764057749936 0.042003001978218733 0 -0.0520977892370093 0.042651665444297014 0 -0.042931018858733516 0.037775243547718183 0 -0.043841310776468863 0.037069591101559933 0 -0.050541124207655316 0.043473374137176141 0 -0.051208608241539569 0.043605205384348165 0 -0.0520977892370093 0.042651665444297014 0 -0.051101974287099429 0.042320906335977043 0 -0.0520977892370093 0.042651665444297014 0 -0.052293457967173808 0.041534288715691321 0 -0.053569764057749936 0.042003001978218733 0 -0.0520977892370093 0.042651665444297014 0 -0.052293457967173808 0.041534288715691321 0 -0.053569764057749936 0.042003001978218733 0 -0.052293457967173808 0.041534288715691321 0 -0.053128542511642882 0.040789584482809997 0 -0.053128542511642882 0.040789584482809997 0 -0.053329810622946859 0.039831683834951503 0 -0.054077830655377322 0.040845454835555565 0 -0.053128542511642882 0.040789584482809997 0 -0.05231394987493064 0.040708017955752608 0 -0.052818611066640028 0.039911440926038357 0 -0.052293457967173808 0.041534288715691321 0 -0.053128542511642882 0.040789584482809997 0 -0.05231394987493064 0.040708017955752608 0 -0.052529239727876681 0.038396001363603431 0 -0.053637324904574964 0.037981171654934573 0 -0.052617091000120193 0.039290149732646232 0 -0.052818611066640028 0.039911440926038357 0 -0.053329810622946859 0.039831683834951503 0 -0.053128542511642882 0.040789584482809997 0 -0.052818611066640028 0.039911440926038357 0 -0.053329810622946859 0.039831683834951503 0 -0.053169138803122441 0.038467489181171328 0 -0.04462944307641932 0.038019730976906495 0 -0.046841717485092499 0.033656122196602661 0 -0.050800720550283819 0.033731847309406315 0 -0.047481850857827433 0.033710497473003392 0 -0.049131843830374819 0.034714450584721772 0 -0.053637324904574964 0.037981171654934573 0 -0.043987725460554426 0.035913985588118071 0 -0.053637324904574964 0.037981171654934573 0 -0.04263171283042657 0.033359762894337661 0 -0.034849442478374362 0.029312415043215179 0 -0.035142282985627257 0.029259715332256468 0 -0.035236511004780383 0.029780265004477925 0 -0.034859574111159621 0.02912343378426805 0 -0.035635456628179157 0.028961152014496977 0 -0.035142282985627257 0.029259715332256468 0 -0.04263171283042657 0.033359762894337661 0 -0.040838420132678577 0.033017196345159365 0 -0.035635456628179157 0.028961152014496977 0 -0.035142282985627257 0.029259715332256468 0 -0.035688135030078359 0.02936658123553031 0 -0.035236511004780383 0.029780265004477925 0 -0.034851166328754797 0.030449458727738549 0 -0.035747958980609978 0.030036460406135307 0 -0.034849442478374362 0.029312415043215179 0 -0.035236511004780383 0.029780265004477925 0 -0.034851166328754797 0.030449458727738549 0 -0.035142282985627257 0.029259715332256468 0 -0.035236511004780383 0.029780265004477925 0 -0.035688135030078359 0.02936658123553031 0 -0.04263171283042657 0.033359762894337661 0 -0.043987725460554426 0.035913985588118071 0 -0.034849442478374362 0.029312415043215179 0 -0.034851166328754797 0.030449458727738549 0 -0.034000643112005131 0.030874120398819472 0 -0.034851166328754797 0.030449458727738549 0 -0.034582334617131776 0.03125190404342678 0 -0.034000643112005131 0.030874120398819472 0 -0.034851166328754797 0.030449458727738549 0 -0.034868961254685395 0.031085699161552061 0 -0.035747958980609978 0.030036460406135307 0 -0.034851166328754797 0.030449458727738549 0 -0.034868961254685395 0.031085699161552061 0 -0.034582334617131776 0.03125190404342678 0 -0.034723745051801626 0.031794059032467237 0 -0.034868961254685395 0.031085699161552061 0 -0.034582334617131776 0.03125190404342678 0 -0.034723745051801626 0.031794059032467237 0 -0.034868961254685395 0.031085699161552061 0 -0.035009634313213495 0.03133851244556015 0 -0.035678236891640847 0.030643424993393256 0 -0.043987725460554426 0.035913985588118071 0 -0.034066171599601403 0.031958387463559237 0 -0.034582334617131776 0.03125190404342678 0 -0.034436764706958112 0.031008517629405652 0 -0.053569764057749936 0.042003001978218733 0 -0.053128542511642882 0.040789584482809997 0 -0.054077830655377322 0.040845454835555565 0 -0.036952219117508948 0.0284188281559585 0 -0.036672824529295031 0.028959443077756237 0 -0.036850418604784579 0.028643384595205407 0 -0.036940888683251474 0.028540535265041342 0 -0.036850418604784579 0.028643384595205407 0 -0.036638733021833354 0.028383896758622802 0 -0.036952219117508948 0.0284188281559585 0 -0.036850418604784579 0.028643384595205407 0 -0.036638733021833354 0.028383896758622802 0 -0.034219421118752612 0.032423967343869202 0 -0.035009634313213495 0.03133851244556015 0 -0.035747958980609978 0.030036460406135307 0 -0.036952219117508948 0.0284188281559585 0 -0.035747958980609978 0.030036460406135307 0 -0.036672824529295031 0.028959443077756237 0 -0.034219421118752612 0.032423967343869202 0 -0.035009634313213495 0.03133851244556015 0 -0.034633154022919145 0.031794189791202174 0 -0.035215065102871611 0.030196038942036697 0 -0.03557519199699205 0.030006280826528457 0 -0.034868961254685395 0.031085699161552061 0 -0.035009634313213495 0.03133851244556015 0 -0.035747958980609978 0.030036460406135307 0 -0.035747958980609978 0.030036460406135307 0 -0.036472645356507349 0.029046492904897022 0 -0.036672824529295031 0.028959443077756237 0 -0.035747958980609978 0.030036460406135307 0 -0.036033564988977806 0.02931835611219959 0 -0.036472645356507349 0.029046492904897022 0 -0.035236511004780383 0.029780265004477925 0 -0.035747958980609978 0.030036460406135307 0 -0.035688135030078359 0.02936658123553031 0 -0.035747958980609978 0.030036460406135307 0 -0.035688135030078359 0.02936658123553031 0 -0.036033564988977806 0.02931835611219959 0 -0.035688135030078359 0.02936658123553031 0 -0.036033564988977806 0.02931835611219959 0 -0.036198737140963222 0.028932174918987166 0 -0.035635456628179157 0.028961152014496977 0 -0.035688135030078359 0.02936658123553031 0 -0.036198737140963222 0.028932174918987166 0 -0.036033564988977806 0.02931835611219959 0 -0.036198737140963222 0.028932174918987166 0 -0.036472645356507349 0.029046492904897022 0 -0.036472645356507349 0.029046492904897022 0 -0.036773450894058382 0.028696564177372885 0 -0.036775696961427871 0.028828284091683257 0 -0.036198737140963222 0.028932174918987166 0 -0.036472645356507349 0.029046492904897022 0 -0.036775696961427871 0.028828284091683257 0 -0.036773450894058382 0.028696564177372885 0 -0.037081913030992168 0.028057068875067752 0 -0.036775696961427871 0.028828284091683257 0 -0.037081913030992168 0.028057068875067752 0 -0.037439910515886035 0.026411029555840369 0 -0.037381969227233768 0.025163614510907883 0 -0.037613963763869322 0.027971636215953961 0 -0.036703531273092026 0.026737885369463508 0 -0.036472645356507349 0.029046492904897022 0 -0.036773450894058382 0.028696564177372885 0 -0.036672824529295031 0.028959443077756237 0 -0.036672824529295031 0.028959443077756237 0 -0.036850418604784579 0.028643384595205407 0 -0.036847250291094098 0.028589719605978534 0 -0.036773450894058382 0.028696564177372885 0 -0.036672824529295031 0.028959443077756237 0 -0.036847250291094098 0.028589719605978534 0 -0.036773450894058382 0.028696564177372885 0 -0.036847250291094098 0.028589719605978534 0 -0.037081913030992168 0.028057068875067752 0 -0.036940888683251474 0.028540535265041342 0 -0.036850418604784579 0.028643384595205407 0 -0.036847250291094098 0.028589719605978534 0 -0.036940888683251474 0.028540535265041342 0 -0.036847250291094098 0.028589719605978534 0 -0.037081913030992168 0.028057068875067752 0 -0.036940888683251474 0.028540535265041342 0 -0.037081913030992168 0.028057068875067752 0 -0.037082390962604753 0.028474089891819369 0 -0.037081913030992168 0.028057068875067752 0 -0.037082390962604753 0.028474089891819369 0 -0.037439910515886035 0.026411029555840369 0 -0.024792369334513568 0.02330321542652981 0 -0.025415416066871938 0.023104842701811026 0 -0.025387527509163451 0.023553472293388264 0 -0.024792369334513568 0.02330321542652981 0 -0.024611366755260759 0.023546743264010399 0 -0.025387527509163451 0.023553472293388264 0 -0.024792369334513568 0.02330321542652981 0 -0.025415416066871938 0.023104842701811026 0 -0.024299445692646728 0.023079056380995944 0 -0.036940888683251474 0.028540535265041342 0 -0.037082390962604753 0.028474089891819369 0 -0.036638733021833354 0.028383896758622802 0 -0.024792369334513568 0.02330321542652981 0 -0.024193269096308923 0.023318608427269884 0 -0.024611366755260759 0.023546743264010399 0 -0.02356467655131712 0.023498678866535939 0 -0.024193269096308923 0.023318608427269884 0 -0.024611366755260759 0.023546743264010399 0 -0.024193269096308923 0.023318608427269884 0 -0.023600978040285589 0.023219280635105255 0 -0.024299445692646728 0.023079056380995944 0 -0.024792369334513568 0.02330321542652981 0 -0.024193269096308923 0.023318608427269884 0 -0.024299445692646728 0.023079056380995944 0 -0.02356467655131712 0.023498678866535939 0 -0.024193269096308923 0.023318608427269884 0 -0.023600978040285589 0.023219280635105255 0 -0.024299445692646728 0.023079056380995944 0 -0.023577051033747298 0.022981170887290334 0 -0.023764458586594758 0.022707586413445925 0 -0.023600978040285589 0.023219280635105255 0 -0.023577051033747298 0.022981170887290334 0 -0.02305012536563928 0.023097035471959657 0 -0.023600978040285589 0.023219280635105255 0 -0.024299445692646728 0.023079056380995944 0 -0.023577051033747298 0.022981170887290334 0 -0.023577051033747298 0.022981170887290334 0 -0.023073810943913878 0.022856645915302471 0 -0.023764458586594758 0.022707586413445925 0 -0.023577051033747298 0.022981170887290334 0 -0.023073810943913878 0.022856645915302471 0 -0.02305012536563928 0.023097035471959657 0 -0.037082390962604753 0.028474089891819369 0 -0.036638733021833354 0.028383896758622802 0 -0.035377055172865886 0.028005922128742856 0 -0.036638733021833354 0.028383896758622802 0 -0.036215903003679349 0.028053161556984934 0 -0.035377055172865886 0.028005922128742856 0 -0.025415416066871938 0.023104842701811026 0 -0.024299445692646728 0.023079056380995944 0 -0.023764458586594758 0.022707586413445925 0 -0.030996299436399966 0.025670704460810073 0 -0.02956433656695483 0.024812100662015491 0 -0.036952219117508948 0.0284188281559585 0 -0.036638733021833354 0.028383896758622802 0 -0.036215903003679349 0.028053161556984934 0 -0.034219421118752612 0.032423967343869202 0 -0.031660099521468858 0.032938585983415154 0 -0.032664418617914956 0.032404083041733499 0 -0.036952219117508948 0.0284188281559585 0 -0.036215903003679349 0.028053161556984934 0 -0.035771193460642871 0.027093919259688591 0 -0.035215065102871611 0.030196038942036697 0 -0.034363988622801718 0.030436748417047788 0 -0.036215903003679349 0.028053161556984934 0 -0.035771193460642871 0.027093919259688591 0 -0.035377055172865886 0.028005922128742856 0 -0.031660099521468858 0.032938585983415154 0 -0.032664418617914956 0.032404083041733499 0 -0.031422706459161481 0.03221199480151217 0 -0.023764458586594758 0.022707586413445925 0 -0.022455037918282364 0.0220611100950572 0 -0.022643120677301551 0.022654663919763968 0 -0.023073810943913878 0.022856645915302471 0 -0.023764458586594758 0.022707586413445925 0 -0.022643120677301551 0.022654663919763968 0 -0.035771193460642871 0.027093919259688591 0 -0.035377055172865886 0.028005922128742856 0 -0.033380864166107332 0.025580304275435263 0 -0.02956433656695483 0.024812100662015491 0 -0.027757125064616372 0.026719949196088989 0 -0.031660099521468858 0.032938585983415154 0 -0.031422706459161481 0.03221199480151217 0 -0.02878528162241344 0.032265648930050572 0 -0.034363988622801718 0.030436748417047788 0 -0.027757125064616372 0.026719949196088989 0 -0.030975700218776832 0.031558281720815123 0 -0.029461230462862861 0.031285713554440195 0 -0.02878528162241344 0.032265648930050572 0 -0.031422706459161481 0.03221199480151217 0 -0.030975700218776832 0.031558281720815123 0 -0.02878528162241344 0.032265648930050572 0 -0.032664418617914956 0.032404083041733499 0 -0.032409859347713448 0.031917531189387845 0 -0.031422706459161481 0.03221199480151217 0 -0.032409859347713448 0.031917531189387845 0 -0.031422706459161481 0.03221199480151217 0 -0.030975700218776832 0.031558281720815123 0 -0.032409859347713448 0.031917531189387845 0 -0.030975700218776832 0.031558281720815123 0 -0.031979151040330306 0.031181887599193853 0 -0.032409859347713448 0.031917531189387845 0 -0.033411771510706977 0.031524352386969753 0 -0.031979151040330306 0.031181887599193853 0 -0.033411771510706977 0.031524352386969753 0 -0.033429329423331967 0.032082572277147961 0 -0.034124294943382448 0.031921167917977451 0 -0.032664418617914956 0.032404083041733499 0 -0.032409859347713448 0.031917531189387845 0 -0.033429329423331967 0.032082572277147961 0 -0.032409859347713448 0.031917531189387845 0 -0.033411771510706977 0.031524352386969753 0 -0.033429329423331967 0.032082572277147961 0 -0.034219421118752612 0.032423967343869202 0 -0.032664418617914956 0.032404083041733499 0 -0.033429329423331967 0.032082572277147961 0 -0.034219421118752612 0.032423967343869202 0 -0.033429329423331967 0.032082572277147961 0 -0.034124294943382448 0.031921167917977451 0 -0.034219421118752612 0.032423967343869202 0 -0.034633154022919145 0.031794189791202174 0 -0.034124294943382448 0.031921167917977451 0 -0.034723745051801626 0.031794059032467237 0 -0.035009634313213495 0.03133851244556015 0 -0.034633154022919145 0.031794189791202174 0 -0.034633154022919145 0.031794189791202174 0 -0.034124294943382448 0.031921167917977451 0 -0.034277954091196716 0.031653540607582756 0 -0.034723745051801626 0.031794059032467237 0 -0.034633154022919145 0.031794189791202174 0 -0.034277954091196716 0.031653540607582756 0 -0.033411771510706977 0.031524352386969753 0 -0.034124294943382448 0.031921167917977451 0 -0.034277954091196716 0.031653540607582756 0 -0.033411771510706977 0.031524352386969753 0 -0.034277954091196716 0.031653540607582756 0 -0.033964787851239103 0.031255278717186974 0 -0.033411771510706977 0.031524352386969753 0 -0.033964787851239103 0.031255278717186974 0 -0.033430848322398427 0.030990593563902678 0 -0.033964787851239103 0.031255278717186974 0 -0.033430848322398427 0.030990593563902678 0 -0.03394469033252695 0.030874204758387123 0 -0.033411771510706977 0.031524352386969753 0 -0.032727812036183392 0.030898979960020671 0 -0.031979151040330306 0.031181887599193853 0 -0.033411771510706977 0.031524352386969753 0 -0.033430848322398427 0.030990593563902678 0 -0.032727812036183392 0.030898979960020671 0 -0.033430848322398427 0.030990593563902678 0 -0.032727812036183392 0.030898979960020671 0 -0.033382881645311356 0.030755162653647736 0 -0.035620715492041793 0.041337690120793046 0 -0.033900224561665228 0.041883894182500533 0 -0.032727812036183392 0.030898979960020671 0 -0.033382881645311356 0.030755162653647736 0 -0.031319226951749039 0.030192955671992025 0 -0.033382881645311356 0.030755162653647736 0 -0.032278752642681222 0.031261683825223506 0 -0.03180410653636262 0.032367572560831823 0 -0.033382881645311356 0.030755162653647736 0 -0.033707599500351793 0.03038659091320494 0 -0.032278752642681222 0.031261683825223506 0 -0.037206531700282854 0.052063994789784407 0 -0.036455754023660768 0.051853024266955795 0 -0.035505619159390156 0.052469059983041959 0 -0.033183450399205214 0.030818302069177569 0 -0.031469858358074983 0.031312262787923359 0 -0.036455754023660768 0.051853024266955795 0 -0.035913180211818413 0.051735929860704223 0 -0.035505619159390156 0.052469059983041959 0 -0.035522899598344197 0.051826843154526285 0 -0.035913180211818413 0.051735929860704223 0 -0.035505619159390156 0.052469059983041959 0 -0.03394469033252695 0.030874204758387123 0 -0.033382881645311356 0.030755162653647736 0 -0.033707599500351793 0.03038659091320494 0 -0.033430848322398427 0.030990593563902678 0 -0.03394469033252695 0.030874204758387123 0 -0.033382881645311356 0.030755162653647736 0 -0.037786349570932055 0.05186026130007762 0 -0.036182982005422457 0.051458648478242983 0 -0.037935483397623947 0.051881270037201353 0 -0.0372280915128348 0.051449346655308648 0 -0.036050337098046725 0.051839682101402322 0 -0.037935483397623947 0.051881270037201353 0 -0.037206531700282854 0.052063994789784407 0 -0.036344350053596763 0.051052271679345937 0 -0.0372280915128348 0.051449346655308648 0 -0.036050337098046725 0.051839682101402322 0 -0.036551074384771412 0.051217991741715006 0 -0.036050337098046725 0.051839682101402322 0 -0.036054480668378283 0.051333853245070081 0 -0.036551074384771412 0.051217991741715006 0 -0.037206531700282854 0.052063994789784407 0 -0.036455754023660768 0.051853024266955795 0 -0.036361319360361181 0.051528059122010667 0 -0.037206531700282854 0.052063994789784407 0 -0.036361319360361181 0.051528059122010667 0 -0.036344350053596763 0.051052271679345937 0 -0.036344350053596763 0.051052271679345937 0 -0.035978635638305514 0.051267647433842226 0 -0.033739270001011561 0.050622025515982182 0 -0.036182982005422457 0.051458648478242983 0 -0.033609364902457479 0.050918236933480091 0 -0.036455754023660768 0.051853024266955795 0 -0.036361319360361181 0.051528059122010667 0 -0.035913180211818413 0.051735929860704223 0 -0.036361319360361181 0.051528059122010667 0 -0.035913180211818413 0.051735929860704223 0 -0.035978635638305514 0.051267647433842226 0 -0.035522899598344197 0.051826843154526285 0 -0.035913180211818413 0.051735929860704223 0 -0.035607000260839378 0.051521714789408972 0 -0.035913180211818413 0.051735929860704223 0 -0.035607000260839378 0.051521714789408972 0 -0.035978635638305514 0.051267647433842226 0 -0.035607000260839378 0.051521714789408972 0 -0.035102406713393895 0.051224894529737837 0 -0.035239206900922262 0.051580019054188256 0 -0.035522899598344197 0.051826843154526285 0 -0.035607000260839378 0.051521714789408972 0 -0.035239206900922262 0.051580019054188256 0 -0.035607000260839378 0.051521714789408972 0 -0.035978635638305514 0.051267647433842226 0 -0.035102406713393895 0.051224894529737837 0 -0.036361319360361181 0.051528059122010667 0 -0.036344350053596763 0.051052271679345937 0 -0.035978635638305514 0.051267647433842226 0 -0.036050337098046725 0.051839682101402322 0 -0.036054480668378283 0.051333853245070081 0 -0.035694145122557447 0.051281309446794994 0 -0.036050337098046725 0.051839682101402322 0 -0.035694145122557447 0.051281309446794994 0 -0.034865498426470951 0.051099184719737296 0 -0.035772467051979402 0.050833020254981105 0 -0.036594848454340446 0.049999922548307263 0 -0.033830497736580131 0.050000118151498178 0 -0.035694145122557447 0.051281309446794994 0 -0.035772467051979402 0.050833020254981105 0 -0.034865498426470951 0.051099184719737296 0 -0.036054480668378283 0.051333853245070081 0 -0.035694145122557447 0.051281309446794994 0 -0.035772467051979402 0.050833020254981105 0 -0.036050337098046725 0.051839682101402322 0 -0.034865498426470951 0.051099184719737296 0 -0.033508358854793155 0.051240723119456447 0 -0.035772467051979402 0.050833020254981105 0 -0.034865498426470951 0.051099184719737296 0 -0.033830497736580131 0.050000118151498178 0 -0.035772467051979402 0.050833020254981105 0 -0.036594848454340446 0.049999922548307263 0 -0.036551074384771412 0.051217991741715006 0 -0.03785839416300972 0.050699975150894139 0 -0.0372280915128348 0.051449346655308648 0 -0.036551074384771412 0.051217991741715006 0 -0.03785839416300972 0.050699975150894139 0 -0.036594848454340446 0.049999922548307263 0 -0.036551074384771412 0.051217991741715006 0 -0.037980722546645161 0.050728437557277926 0 -0.036594939105200015 0.050000211775994188 0 -0.036054480668378283 0.051333853245070081 0 -0.035772467051979402 0.050833020254981105 0 -0.036551074384771412 0.051217991741715006 0 -0.033609364902457479 0.050918236933480091 0 -0.031074915327104241 0.050238546293538557 0 -0.033508358854793155 0.051240723119456447 0 -0.031065734620599115 0.05000002402795025 0 -0.030868159308724039 0.050216605963674069 0 -0.032201867772275114 0.050681493689317902 0 -0.033495359279915572 0.05107368712126803 0 -0.030773400256437187 0.05079446261816601 0 -0.032201867772275114 0.050681493689317902 0 -0.033739270001011561 0.050622025515982182 0 -0.030868159308724039 0.050216605963674069 0 -0.033830497736580131 0.050000118151498178 0 -0.033508358854793155 0.051240723119456447 0 -0.031065734620599115 0.05000002402795025 0 -0.032171902938153293 0.050461444197065289 0 -0.033701257478641077 0.050428697801281189 0 -0.031032824427164013 0.049980159962215422 0 -0.033587296965774206 0.050769451125131815 0 -0.030931776790923085 0.050388809698281294 0 -0.032201867772275114 0.050681493689317902 0 -0.033739270001011561 0.050622025515982182 0 -0.033495359279915572 0.05107368712126803 0 -0.032171902938153293 0.050461444197065289 0 -0.033701257478641077 0.050428697801281189 0 -0.033005835437529378 0.050636430606174176 0 -0.032171902938153293 0.050461444197065289 0 -0.033005835437529378 0.050636430606174176 0 -0.032681330426831162 0.050817077542089091 0 -0.034865498426470951 0.051099184719737296 0 -0.033830497736580131 0.050000118151498178 0 -0.033508358854793155 0.051240723119456447 0 -0.033701257478641077 0.050428697801281189 0 -0.034369595195628995 0.051148818464781809 0 -0.035102406713393895 0.051224894529737837 0 -0.033701257478641077 0.050428697801281189 0 -0.033918786041115589 0.050941737472073673 0 -0.03353888970033312 0.050972251175467748 0 -0.033701257478641077 0.050428697801281189 0 -0.034369595195628995 0.051148818464781809 0 -0.033918786041115589 0.050941737472073673 0 -0.035784419701987577 0.051250171313865188 0 -0.033587296965774206 0.050769451125131815 0 -0.035978635638305514 0.051267647433842226 0 -0.033739270001011561 0.050622025515982182 0 -0.033495359279915572 0.05107368712126803 0 -0.035978635638305514 0.051267647433842226 0 -0.033701257478641077 0.050428697801281189 0 -0.035102406713393895 0.051224894529737837 0 -0.034369595195628995 0.051148818464781809 0 -0.034014451151196522 0.051336866240335143 0 -0.033918786041115589 0.050941737472073673 0 -0.034014451151196522 0.051336866240335143 0 -0.033918786041115589 0.050941737472073673 0 -0.03353888970033312 0.050972251175467748 0 -0.034369595195628995 0.051148818464781809 0 -0.035102406713393895 0.051224894529737837 0 -0.034867295870288945 0.051422555129499663 0 -0.035239206900922262 0.051580019054188256 0 -0.034867295870288945 0.051422555129499663 0 -0.035083854036162904 0.051894261320176299 0 -0.035102406713393895 0.051224894529737837 0 -0.035239206900922262 0.051580019054188256 0 -0.034867295870288945 0.051422555129499663 0 -0.034369595195628995 0.051148818464781809 0 -0.034867295870288945 0.051422555129499663 0 -0.034508903706234696 0.05176793762674288 0 -0.034867295870288945 0.051422555129499663 0 -0.035083854036162904 0.051894261320176299 0 -0.034508903706234696 0.05176793762674288 0 -0.035083854036162904 0.051894261320176299 0 -0.034508903706234696 0.05176793762674288 0 -0.034861991350346344 0.052142502858523773 0 -0.035522899598344197 0.051826843154526285 0 -0.035239206900922262 0.051580019054188256 0 -0.035083854036162904 0.051894261320176299 0 -0.034014451151196522 0.051336866240335143 0 -0.033931913754588969 0.051968760477718236 0 -0.033509533446920821 0.051522033608053346 0 -0.034014451151196522 0.051336866240335143 0 -0.034508903706234696 0.05176793762674288 0 -0.033931913754588969 0.051968760477718236 0 -0.034369595195628995 0.051148818464781809 0 -0.034014451151196522 0.051336866240335143 0 -0.034508903706234696 0.05176793762674288 0 -0.034508903706234696 0.05176793762674288 0 -0.033931913754588969 0.051968760477718236 0 -0.034329599695783385 0.052418703255795521 0 -0.033931913754588969 0.051968760477718236 0 -0.03336772703352877 0.052006288585126501 0 -0.033574542716972654 0.052417585779425291 0 -0.033931913754588969 0.051968760477718236 0 -0.03336772703352877 0.052006288585126501 0 -0.033509533446920821 0.051522033608053346 0 -0.03336772703352877 0.052006288585126501 0 -0.033509533446920821 0.051522033608053346 0 -0.032845123968718574 0.051706190198072891 0 -0.033509533446920821 0.051522033608053346 0 -0.033058444274312766 0.051124212272217688 0 -0.032845123968718574 0.051706190198072891 0 -0.033509533446920821 0.051522033608053346 0 -0.033058444274312766 0.051124212272217688 0 -0.03353888970033312 0.050972251175467748 0 -0.034014451151196522 0.051336866240335143 0 -0.033509533446920821 0.051522033608053346 0 -0.03353888970033312 0.050972251175467748 0 -0.033058444274312766 0.051124212272217688 0 -0.033005835437529378 0.050636430606174176 0 -0.032681330426831162 0.050817077542089091 0 -0.033058444274312766 0.051124212272217688 0 -0.033005835437529378 0.050636430606174176 0 -0.03353888970033312 0.050972251175467748 0 -0.033701257478641077 0.050428697801281189 0 -0.033005835437529378 0.050636430606174176 0 -0.03353888970033312 0.050972251175467748 0 -0.032171902938153293 0.050461444197065289 0 -0.032488745837099868 0.051046742030304092 0 -0.031823454262358053 0.051062971756812667 0 -0.032171902938153293 0.050461444197065289 0 -0.032681330426831162 0.050817077542089091 0 -0.032488745837099868 0.051046742030304092 0 -0.033058444274312766 0.051124212272217688 0 -0.032681330426831162 0.050817077542089091 0 -0.032488745837099868 0.051046742030304092 0 -0.032488745837099868 0.051046742030304092 0 -0.032185338045888814 0.051578042760678275 0 -0.032845123968718574 0.051706190198072891 0 -0.033058444274312766 0.051124212272217688 0 -0.032488745837099868 0.051046742030304092 0 -0.032845123968718574 0.051706190198072891 0 -0.032488745837099868 0.051046742030304092 0 -0.032185338045888814 0.051578042760678275 0 -0.031823454262358053 0.051062971756812667 0 -0.032185338045888814 0.051578042760678275 0 -0.032845123968718574 0.051706190198072891 0 -0.032241023596251001 0.052221057312907923 0 -0.032845123968718574 0.051706190198072891 0 -0.032967304636542266 0.052407586612862447 0 -0.032241023596251001 0.052221057312907923 0 -0.03336772703352877 0.052006288585126501 0 -0.032845123968718574 0.051706190198072891 0 -0.032967304636542266 0.052407586612862447 0 -0.032967304636542266 0.052407586612862447 0 -0.033262215733461234 0.053206956877870693 0 -0.032225575219065022 0.052926943933871554 0 -0.029911221571586811 0.032474241029774718 0 -0.03180410653636262 0.032367572560831823 0 -0.029746904978715336 0.033262522050811143 0 -0.032967304636542266 0.052407586612862447 0 -0.032225575219065022 0.052926943933871554 0 -0.032241023596251001 0.052221057312907923 0 -0.033574542716972654 0.052417585779425291 0 -0.033262215733461234 0.053206956877870693 0 -0.034329599695783385 0.052418703255795521 0 -0.03336772703352877 0.052006288585126501 0 -0.032967304636542266 0.052407586612862447 0 -0.033574542716972654 0.052417585779425291 0 -0.032967304636542266 0.052407586612862447 0 -0.033574542716972654 0.052417585779425291 0 -0.033262215733461234 0.053206956877870693 0 -0.033262215733461234 0.053206956877870693 0 -0.035505619159390156 0.052469059983041959 0 -0.034329599695783385 0.052418703255795521 0 -0.029911221571586811 0.032474241029774718 0 -0.032278752642681222 0.031261683825223506 0 -0.03180410653636262 0.032367572560831823 0 -0.031456407780810068 0.042735078149122162 0 -0.033900224561665228 0.041883894182500533 0 -0.035505619159390156 0.052469059983041959 0 -0.034861991350346344 0.052142502858523773 0 -0.034329599695783385 0.052418703255795521 0 -0.035522899598344197 0.051826843154526285 0 -0.035083854036162904 0.051894261320176299 0 -0.035505619159390156 0.052469059983041959 0 -0.035083854036162904 0.051894261320176299 0 -0.035505619159390156 0.052469059983041959 0 -0.034861991350346344 0.052142502858523773 0 -0.034508903706234696 0.05176793762674288 0 -0.034861991350346344 0.052142502858523773 0 -0.034329599695783385 0.052418703255795521 0 -0.033931913754588969 0.051968760477718236 0 -0.033574542716972654 0.052417585779425291 0 -0.034329599695783385 0.052418703255795521 0 -0.032727812036183392 0.030898979960020671 0 -0.031319226951749039 0.030192955671992025 0 -0.031979151040330306 0.031181887599193853 0 -0.031319226951749039 0.030192955671992025 0 -0.031979151040330306 0.031181887599193853 0 -0.030475668241296525 0.030958608674655712 0 -0.030975700218776832 0.031558281720815123 0 -0.031979151040330306 0.031181887599193853 0 -0.030475668241296525 0.030958608674655712 0 -0.03180410653636262 0.032367572560831823 0 -0.029746904978715336 0.033262522050811143 0 -0.029211259657127394 0.033869832097730306 0 -0.031469858358074983 0.031312262787923359 0 -0.028831777434176985 0.032203716053633882 0 -0.031319226951749039 0.030192955671992025 0 -0.030475668241296525 0.030958608674655712 0 -0.028459421907728055 0.030498301594148805 0 -0.030475668241296525 0.030958608674655712 0 -0.029461230462862861 0.031285713554440195 0 -0.028459421907728055 0.030498301594148805 0 -0.029068735664697708 0.032691051852526187 0 -0.028831777434176985 0.032203716053633882 0 -0.030975700218776832 0.031558281720815123 0 -0.030475668241296525 0.030958608674655712 0 -0.029461230462862861 0.031285713554440195 0 -0.028522573900016595 0.034330856626800743 0 -0.02932184074811317 0.033854608397845994 0 -0.027607383676129658 0.033752847992065946 0 -0.028524778181122805 0.031332071970122687 0 -0.027348411985377061 0.031210840938515654 0 -0.02878528162241344 0.032265648930050572 0 -0.029746904978715336 0.033262522050811143 0 -0.02932184074811317 0.033854608397845994 0 -0.027607383676129658 0.033752847992065946 0 -0.029461230462862861 0.031285713554440195 0 -0.028524778181122805 0.031332071970122687 0 -0.028459421907728055 0.030498301594148805 0 -0.028524778181122805 0.031332071970122687 0 -0.027348411985377061 0.031210840938515654 0 -0.028459421907728055 0.030498301594148805 0 -0.026917351799440502 0.030857490596375076 0 -0.028831777434176985 0.032203716053633882 0 -0.028105654934741323 0.03258452922319683 0 -0.027602634138569289 0.032156775550335151 0 -0.029189530094184488 0.031314249130866466 0 -0.024471076763365383 0.028092420312805906 0 -0.026917351799440502 0.030857490596375076 0 -0.028242376158133107 0.03246914413446364 0 -0.028266520306603756 0.032156414948683723 0 -0.028206236894687858 0.032065523461407973 0 -0.026917351799440502 0.030857490596375076 0 -0.027781724190162053 0.032701648760183756 0 -0.027781724190162053 0.032701648760183756 0 -0.03000572859815125 0.044825514907833243 0 -0.027781724190162053 0.032701648760183756 0 -0.028831777434176985 0.032203716053633882 0 -0.028792038758323566 0.033956751879089732 0 -0.028253316466742801 0.033506940712910487 0 -0.027507933157038884 0.034851689454464367 0 -0.027781724190162053 0.032701648760183756 0 -0.027528035580480489 0.033901163943613595 0 -0.028242376158133107 0.03246914413446364 0 -0.028206236894687858 0.032065523461407973 0 -0.027247933889865305 0.032953524000311485 0 -0.03000572859815125 0.044825514907833243 0 -0.027935759793510252 0.043995463093003201 0 -0.03000572859815125 0.044825514907833243 0 -0.029632105944004981 0.053644507622951504 0 -0.030663903485797128 0.053873964916791438 0 -0.030479489081471002 0.052879516001144412 0 -0.028647323360141086 0.052170646463415911 0 -0.031456407780810068 0.042735078149122162 0 -0.03000572859815125 0.044825514907833243 0 -0.033262215733461234 0.053206956877870693 0 -0.030663903485797128 0.053873964916791438 0 -0.032225575219065022 0.052926943933871554 0 -0.030663903485797128 0.053873964916791438 0 -0.031533382459805762 0.052807054444367174 0 -0.032225575219065022 0.052926943933871554 0 -0.029911221571586811 0.032474241029774718 0 -0.029746904978715336 0.033262522050811143 0 -0.027607383676129658 0.033752847992065946 0 -0.030663903485797128 0.053873964916791438 0 -0.030479489081471002 0.052879516001144412 0 -0.031533382459805762 0.052807054444367174 0 -0.030479489081471002 0.052879516001144412 0 -0.031533382459805762 0.052807054444367174 0 -0.030551087058900247 0.052261871249531272 0 -0.031533382459805762 0.052807054444367174 0 -0.032225575219065022 0.052926943933871554 0 -0.032241023596251001 0.052221057312907923 0 -0.031533382459805762 0.052807054444367174 0 -0.032241023596251001 0.052221057312907923 0 -0.031440622875579638 0.051778014943182134 0 -0.032185338045888814 0.051578042760678275 0 -0.032241023596251001 0.052221057312907923 0 -0.031440622875579638 0.051778014943182134 0 -0.032185338045888814 0.051578042760678275 0 -0.031440622875579638 0.051778014943182134 0 -0.031823454262358053 0.051062971756812667 0 -0.031440622875579638 0.051778014943182134 0 -0.03113136693197046 0.051057648978493311 0 -0.031823454262358053 0.051062971756812667 0 -0.03113136693197046 0.051057648978493311 0 -0.031823454262358053 0.051062971756812667 0 -0.03138116233836593 0.050657668850960264 0 -0.031440622875579638 0.051778014943182134 0 -0.03113136693197046 0.051057648978493311 0 -0.030352001132040701 0.05142666473714104 0 -0.03113136693197046 0.051057648978493311 0 -0.030352001132040701 0.05142666473714104 0 -0.030732264688654188 0.050712331263721586 0 -0.031440622875579638 0.051778014943182134 0 -0.030352001132040701 0.05142666473714104 0 -0.030551087058900247 0.052261871249531272 0 -0.031533382459805762 0.052807054444367174 0 -0.031440622875579638 0.051778014943182134 0 -0.030551087058900247 0.052261871249531272 0 -0.030352001132040701 0.05142666473714104 0 -0.030551087058900247 0.052261871249531272 0 -0.028647323360141086 0.052170646463415911 0 -0.030479489081471002 0.052879516001144412 0 -0.030551087058900247 0.052261871249531272 0 -0.028647323360141086 0.052170646463415911 0 -0.030352001132040701 0.05142666473714104 0 -0.029646837987026223 0.050643346747921196 0 -0.028647323360141086 0.052170646463415911 0 -0.028301129251712531 0.050000051572434291 0 -0.030931776790923085 0.050388809698281294 0 -0.028301573182840607 0.049998485400129161 0 -0.029646837987026223 0.050643346747921196 0 -0.028647323360141086 0.052170646463415911 0 -0.028301573182840607 0.049998485400129161 0 -0.029646837987026223 0.050643346747921196 0 -0.031032824427164013 0.049980159962215422 0 -0.028300643686993331 0.050000142992038449 0 -0.031065734620599115 0.05000002402795025 0 -0.030868159308724039 0.050216605963674069 0 -0.028300643686993331 0.050000142992038449 0 -0.030868159308724039 0.050216605963674069 0 -0.030773400256437187 0.05079446261816601 0 -0.032201867772275114 0.050681493689317902 0 -0.030868159308724039 0.050216605963674069 0 -0.030773400256437187 0.05079446261816601 0 -0.032171902938153293 0.050461444197065289 0 -0.031032824427164013 0.049980159962215422 0 -0.03138116233836593 0.050657668850960264 0 -0.031032824427164013 0.049980159962215422 0 -0.03138116233836593 0.050657668850960264 0 -0.030732264688654188 0.050712331263721586 0 -0.032171902938153293 0.050461444197065289 0 -0.031823454262358053 0.051062971756812667 0 -0.03138116233836593 0.050657668850960264 0 -0.03113136693197046 0.051057648978493311 0 -0.03138116233836593 0.050657668850960264 0 -0.030732264688654188 0.050712331263721586 0 -0.029646837987026223 0.050643346747921196 0 -0.031032824427164013 0.049980159962215422 0 -0.030732264688654188 0.050712331263721586 0 -0.030352001132040701 0.05142666473714104 0 -0.029646837987026223 0.050643346747921196 0 -0.030732264688654188 0.050712331263721586 0 -0.026161732950752147 0.051199045453696732 0 -0.026778564144777181 0.050328536527014349 0 -0.027621754679359723 0.05193170898169009 0 -0.026161732950752147 0.051199045453696732 0 -0.025421846177409863 0.050000017242385217 0 -0.026778564144777181 0.050328536527014349 0 -0.026725620161736213 0.049732374787314362 0 -0.029632105944004981 0.053644507622951504 0 -0.028301573182840607 0.049998485400129161 0 -0.025421846177409863 0.050000017242385217 0 -0.026778564144777181 0.050328536527014349 0 -0.028301573182840607 0.049998485400129161 0 -0.026778564144777181 0.050328536527014349 0 -0.028647323360141086 0.052170646463415911 0 -0.026778564144777181 0.050328536527014349 0 -0.029421500054591571 0.051646410884375681 0 -0.027621754679359723 0.05193170898169009 0 -0.02631620704424685 0.05279990360547919 0 -0.026161732950752147 0.051199045453696732 0 -0.027621754679359723 0.05193170898169009 0 -0.027174778322406973 0.054784521430991287 0 -0.02631620704424685 0.05279990360547919 0 -0.029385926944068674 0.054008395071825373 0 -0.02631620704424685 0.05279990360547919 0 -0.027621754679359723 0.05193170898169009 0 -0.029385926944068674 0.054008395071825373 0 -0.031458670559826131 0.053335833964420098 0 -0.029421500054591571 0.051646410884375681 0 -0.029385926944068674 0.054008395071825373 0 -0.029421500054591571 0.051646410884375681 0 -0.027621754679359723 0.05193170898169009 0 -0.029385926944068674 0.054008395071825373 0 -0.028253316466742801 0.033506940712910487 0 -0.026390127552569618 0.034298856921795746 0 -0.027507933157038884 0.034851689454464367 0 -0.026390127552569618 0.034298856921795746 0 -0.027507933157038884 0.034851689454464367 0 -0.025937605045718418 0.035848108295225237 0 -0.027528035580480489 0.033901163943613595 0 -0.025460317688314162 0.035057464974860057 0 -0.02527510473081292 0.045017672570364681 0 -0.027935759793510252 0.043995463093003201 0 -0.023980275220868492 0.035025468664515412 0 -0.026390127552569618 0.034298856921795746 0 -0.025937605045718418 0.035848108295225237 0 -0.025375141303907601 0.034061588384917442 0 -0.026799566673276307 0.036008902022694945 0 -0.027847243383284759 0.033964819974541469 0 -0.02330168708042336 0.035549260365195394 0 -0.025375141303907601 0.034061588384917442 0 -0.026799566673276307 0.036008902022694945 0 -0.022497845247700252 0.030704389446146382 0 -0.023961296048844508 0.031110344329911343 0 -0.023961296048844508 0.031110344329911343 0 -0.020204613176200027 0.027148432139769228 0 -0.019369788460447668 0.02338879110639239 0 -0.019459260562683673 0.023740017722926072 0 -0.019513700602831086 0.023813608514916561 0 -0.019369788460447668 0.02338879110639239 0 -0.019252193756775081 0.024171303849199053 0 -0.019513700602831086 0.023813608514916561 0 -0.023961296048844508 0.031110344329911343 0 -0.023790168287194401 0.028227498470223079 0 -0.018994974455962162 0.023843035593729408 0 -0.019459260562683673 0.023740017722926072 0 -0.019836953213668861 0.022874707640995827 0 -0.020234997338142546 0.023427254654714659 0 -0.019836953213668861 0.022874707640995827 0 -0.021072054611090477 0.023176875132440402 0 -0.019459260562683673 0.023740017722926072 0 -0.020234997338142546 0.023427254654714659 0 -0.019836953213668861 0.022874707640995827 0 -0.020234997338142546 0.023427254654714659 0 -0.021072054611090477 0.023176875132440402 0 -0.020825497827918898 0.023533151706025584 0 -0.019459260562683673 0.023740017722926072 0 -0.020234997338142546 0.023427254654714659 0 -0.020153737493889014 0.023673410330860477 0 -0.027247933889865305 0.032953524000311485 0 -0.025375141303907601 0.034061588384917442 0 -0.027847243383284759 0.033964819974541469 0 -0.028242376158133107 0.03246914413446364 0 -0.027247933889865305 0.032953524000311485 0 -0.027847243383284759 0.033964819974541469 0 -0.021370998900810696 0.021675805453784534 0 -0.019836953213668861 0.022874707640995827 0 -0.021624621510757839 0.022614020961995968 0 -0.024471076763365383 0.028092420312805906 0 -0.023790168287194401 0.028227498470223079 0 -0.022455037918282364 0.0220611100950572 0 -0.021624621510757839 0.022614020961995968 0 -0.022643120677301551 0.022654663919763968 0 -0.021370998900810696 0.021675805453784534 0 -0.022455037918282364 0.0220611100950572 0 -0.021624621510757839 0.022614020961995968 0 -0.026917351799440502 0.030857490596375076 0 -0.027757125064616372 0.026719949196088989 0 -0.029461230462862861 0.031285713554440195 0 -0.028524778181122805 0.031332071970122687 0 -0.02878528162241344 0.032265648930050572 0 -0.025753135711790474 0.028735184829915397 0 -0.025848915117788539 0.028672914472964498 0 -0.02603506011185654 0.028884655479118154 0 -0.024471076763365383 0.028092420312805906 0 -0.027757125064616372 0.026719949196088989 0 -0.021624621510757839 0.022614020961995968 0 -0.022643120677301551 0.022654663919763968 0 -0.022201314646098043 0.023003225892440048 0 -0.023073810943913878 0.022856645915302471 0 -0.022643120677301551 0.022654663919763968 0 -0.022201314646098043 0.023003225892440048 0 -0.019836953213668861 0.022874707640995827 0 -0.021624621510757839 0.022614020961995968 0 -0.021072054611090477 0.023176875132440402 0 -0.021624621510757839 0.022614020961995968 0 -0.022201314646098043 0.023003225892440048 0 -0.021072054611090477 0.023176875132440402 0 -0.022201314646098043 0.023003225892440048 0 -0.021072054611090477 0.023176875132440402 0 -0.021659743034027245 0.023339767558398488 0 -0.021659743034027245 0.023339767558398488 0 -0.021471035779798461 0.023565337366943374 0 -0.020825497827918898 0.023533151706025584 0 -0.021072054611090477 0.023176875132440402 0 -0.021659743034027245 0.023339767558398488 0 -0.020825497827918898 0.023533151706025584 0 -0.021659743034027245 0.023339767558398488 0 -0.022326525123481 0.023308595036852953 0 -0.022078478436381214 0.023540689050650845 0 -0.021659743034027245 0.023339767558398488 0 -0.021471035779798461 0.023565337366943374 0 -0.022078478436381214 0.023540689050650845 0 -0.021471035779798461 0.023565337366943374 0 -0.021375898714933637 0.023754609437289537 0 -0.020986320877371175 0.023691541372551445 0 -0.021471035779798461 0.023565337366943374 0 -0.020825497827918898 0.023533151706025584 0 -0.020986320877371175 0.023691541372551445 0 -0.023073810943913878 0.022856645915302471 0 -0.022201314646098043 0.023003225892440048 0 -0.02305012536563928 0.023097035471959657 0 -0.022201314646098043 0.023003225892440048 0 -0.022326525123481 0.023308595036852953 0 -0.02305012536563928 0.023097035471959657 0 -0.022201314646098043 0.023003225892440048 0 -0.021659743034027245 0.023339767558398488 0 -0.022326525123481 0.023308595036852953 0 -0.022326525123481 0.023308595036852953 0 -0.022822719371630315 0.023403180808415785 0 -0.022078478436381214 0.023540689050650845 0 -0.022326525123481 0.023308595036852953 0 -0.02305012536563928 0.023097035471959657 0 -0.022822719371630315 0.023403180808415785 0 -0.023600978040285589 0.023219280635105255 0 -0.02305012536563928 0.023097035471959657 0 -0.022822719371630315 0.023403180808415785 0 -0.02356467655131712 0.023498678866535939 0 -0.022822719371630315 0.023403180808415785 0 -0.022378329192951893 0.023692981176641731 0 -0.02356467655131712 0.023498678866535939 0 -0.022378329192951893 0.023692981176641731 0 -0.023359480961893539 0.023790783262798612 0 -0.02356467655131712 0.023498678866535939 0 -0.023600978040285589 0.023219280635105255 0 -0.022822719371630315 0.023403180808415785 0 -0.022822719371630315 0.023403180808415785 0 -0.022078478436381214 0.023540689050650845 0 -0.022378329192951893 0.023692981176641731 0 -0.022378329192951893 0.023692981176641731 0 -0.021375898714933637 0.023754609437289537 0 -0.021458718674117177 0.023741481914500175 0 -0.021471035779798461 0.023565337366943374 0 -0.022078478436381214 0.023540689050650845 0 -0.021375898714933637 0.023754609437289537 0 -0.022078478436381214 0.023540689050650845 0 -0.022378329192951893 0.023692981176641731 0 -0.021375898714933637 0.023754609437289537 0 -0.020670389299783567 0.023880568073633108 0 -0.019950683687840413 0.024117110351243851 0 -0.021458718674117177 0.023741481914500175 0 -0.021375898714933637 0.023754609437289537 0 -0.020670389299783567 0.023880568073633108 0 -0.021458718674117177 0.023741481914500175 0 -0.021375898714933637 0.023754609437289537 0 -0.020670389299783567 0.023880568073633108 0 -0.020986320877371175 0.023691541372551445 0 -0.01969627206938358 0.024150145328239243 0 -0.019950683687840413 0.024117110351243851 0 -0.021458718674117177 0.023741481914500175 0 -0.01969627206938358 0.024150145328239243 0 -0.01911427048393316 0.024452604364672836 0 -0.019950683687840413 0.024117110351243851 0 -0.018098817394042625 0.024579861589578311 0 -0.019369788460447668 0.02338879110639239 0 -0.019252193756775081 0.024171303849199053 0 -0.019950683687840413 0.024117110351243851 0 -0.019252193756775081 0.024171303849199053 0 -0.019853210789261427 0.023893195619791162 0 -0.020670389299783567 0.023880568073633108 0 -0.019950683687840413 0.024117110351243851 0 -0.019853210789261427 0.023893195619791162 0 -0.01911427048393316 0.024452604364672836 0 -0.019950683687840413 0.024117110351243851 0 -0.019252193756775081 0.024171303849199053 0 -0.019459260562683673 0.023740017722926072 0 -0.019853210789261427 0.023893195619791162 0 -0.019513700602831086 0.023813608514916561 0 -0.019252193756775081 0.024171303849199053 0 -0.019853210789261427 0.023893195619791162 0 -0.019513700602831086 0.023813608514916561 0 -0.019459260562683673 0.023740017722926072 0 -0.019853210789261427 0.023893195619791162 0 -0.020153737493889014 0.023673410330860477 0 -0.019853210789261427 0.023893195619791162 0 -0.020153737493889014 0.023673410330860477 0 -0.020434799658515752 0.023756215660138996 0 -0.020234997338142546 0.023427254654714659 0 -0.020153737493889014 0.023673410330860477 0 -0.020825497827918898 0.023533151706025584 0 -0.020153737493889014 0.023673410330860477 0 -0.020825497827918898 0.023533151706025584 0 -0.020434799658515752 0.023756215660138996 0 -0.020825497827918898 0.023533151706025584 0 -0.020986320877371175 0.023691541372551445 0 -0.020434799658515752 0.023756215660138996 0 -0.020670389299783567 0.023880568073633108 0 -0.020986320877371175 0.023691541372551445 0 -0.020434799658515752 0.023756215660138996 0 -0.020670389299783567 0.023880568073633108 0 -0.019853210789261427 0.023893195619791162 0 -0.020434799658515752 0.023756215660138996 0 -0.022291834706958537 0.023635850735799348 0 -0.021710689323496801 0.023145067116673277 0 -0.022717112100963083 0.022753069143276138 0 -0.022291834706958537 0.023635850735799348 0 -0.021710689323496801 0.023145067116673277 0 -0.021458718674117177 0.023741481914500175 0 -0.020415667193606886 0.023493472085792371 0 -0.021303444387899703 0.023691046125255081 0 -0.01969627206938358 0.024150145328239243 0 -0.020492405706141976 0.024242689169343176 0 -0.021458718674117177 0.023741481914500175 0 -0.020356972217931143 0.022724259954507581 0 -0.021710689323496801 0.023145067116673277 0 -0.021458718674117177 0.023741481914500175 0 -0.022378329192951893 0.023692981176641731 0 -0.021458718674117177 0.023741481914500175 0 -0.022949172277894579 0.023878543097464122 0 -0.022378329192951893 0.023692981176641731 0 -0.023359480961893539 0.023790783262798612 0 -0.022949172277894579 0.023878543097464122 0 -0.023359480961893539 0.023790783262798612 0 -0.02389731082866443 0.024064588422843241 0 -0.024160410291548206 0.023814253549721207 0 -0.023359480961893539 0.023790783262798612 0 -0.02389731082866443 0.024064588422843241 0 -0.022949172277894579 0.023878543097464122 0 -0.02389731082866443 0.024064588422843241 0 -0.022949172277894579 0.023878543097464122 0 -0.024481568484913771 0.02491136933560318 0 -0.022291834706958537 0.023635850735799348 0 -0.022949172277894579 0.023878543097464122 0 -0.023700801661680381 0.025198270898677155 0 -0.022291834706958537 0.023635850735799348 0 -0.021458718674117177 0.023741481914500175 0 -0.022949172277894579 0.023878543097464122 0 -0.02483176616022293 0.022588463323202367 0 -0.023003744846744379 0.022689015542039337 0 -0.022291834706958537 0.023635850735799348 0 -0.023700801661680381 0.025198270898677155 0 -0.022717112100963083 0.022753069143276138 0 -0.023700801661680381 0.025198270898677155 0 -0.025984283174591435 0.026617184808919756 0 -0.024481568484913771 0.02491136933560318 0 -0.022949172277894579 0.023878543097464122 0 -0.023700801661680381 0.025198270898677155 0 -0.024481568484913771 0.02491136933560318 0 -0.02483176616022293 0.022588463323202367 0 -0.026007846926620875 0.022205243661653849 0 -0.02504905960795873 0.019698167882895509 0 -0.025415123703896078 0.021202714044279203 0 -0.027044434633651606 0.020012939303087462 0 -0.02504905960795873 0.019698167882895509 0 -0.027044434633651606 0.020012939303087462 0 -0.028012310052208358 0.018343979575703943 0 -0.02504905960795873 0.019698167882895509 0 -0.023770983282109137 0.021634092511585913 0 -0.022717112100963083 0.022753069143276138 0 -0.02504905960795873 0.019698167882895509 0 -0.023770983282109137 0.021634092511585913 0 -0.025415123703896078 0.021202714044279203 0 -0.023770983282109137 0.021634092511585913 0 -0.022717112100963083 0.022753069143276138 0 -0.022894527351439146 0.022416874511713057 0 -0.021907716877381991 0.022907740292201651 0 -0.021710689323496801 0.023145067116673277 0 -0.022717112100963083 0.022753069143276138 0 -0.021907716877381991 0.022907740292201651 0 -0.022717112100963083 0.022753069143276138 0 -0.022894527351439146 0.022416874511713057 0 -0.022630949864020689 0.023125818782733096 0 -0.022894527351439146 0.022416874511713057 0 -0.02386017373308285 0.02241619383442673 0 -0.023770983282109137 0.021634092511585913 0 -0.02386017373308285 0.02241619383442673 0 -0.025415123703896078 0.021202714044279203 0 -0.023770983282109137 0.021634092511585913 0 -0.022894527351439146 0.022416874511713057 0 -0.02386017373308285 0.02241619383442673 0 -0.02386017373308285 0.02241619383442673 0 -0.024840090752448689 0.022939284253561756 0 -0.026142822241354207 0.022052342984716953 0 -0.02386017373308285 0.02241619383442673 0 -0.023577594204951501 0.023598783726038932 0 -0.024840090752448689 0.022939284253561756 0 -0.022630949864020689 0.023125818782733096 0 -0.02386017373308285 0.02241619383442673 0 -0.023577594204951501 0.023598783726038932 0 -0.023577594204951501 0.023598783726038932 0 -0.024840090752448689 0.022939284253561756 0 -0.024890232023016212 0.023897746905510844 0 -0.024840090752448689 0.022939284253561756 0 -0.024890232023016212 0.023897746905510844 0 -0.026585676628019726 0.023221977895222803 0 -0.024890232023016212 0.023897746905510844 0 -0.026585676628019726 0.023221977895222803 0 -0.026208958034005029 0.024422232800493562 0 -0.024890232023016212 0.023897746905510844 0 -0.024949187562828049 0.024858745881604763 0 -0.026208958034005029 0.024422232800493562 0 -0.023824767277959468 0.024491250608900523 0 -0.024890232023016212 0.023897746905510844 0 -0.024949187562828049 0.024858745881604763 0 -0.023824767277959468 0.024491250608900523 0 -0.023577594204951501 0.023598783726038932 0 -0.024890232023016212 0.023897746905510844 0 -0.02877110317533129 0.024116732681812161 0 -0.02862464981726922 0.022270606744457841 0 -0.031857437215982436 0.022980150889850129 0 -0.02877110317533129 0.024116732681812161 0 -0.026585676628019726 0.023221977895222803 0 -0.02862464981726922 0.022270606744457841 0 -0.02877110317533129 0.024116732681812161 0 -0.026585676628019726 0.023221977895222803 0 -0.026208958034005029 0.024422232800493562 0 -0.024840090752448689 0.022939284253561756 0 -0.026585676628019726 0.023221977895222803 0 -0.026142822241354207 0.022052342984716953 0 -0.026585676628019726 0.023221977895222803 0 -0.02862464981726922 0.022270606744457841 0 -0.026142822241354207 0.022052342984716953 0 -0.02862464981726922 0.022270606744457841 0 -0.028174949592177208 0.020930747467217584 0 -0.026142822241354207 0.022052342984716953 0 -0.02386017373308285 0.02241619383442673 0 -0.026142822241354207 0.022052342984716953 0 -0.025415123703896078 0.021202714044279203 0 -0.028174949592177208 0.020930747467217584 0 -0.026142822241354207 0.022052342984716953 0 -0.025415123703896078 0.021202714044279203 0 -0.028174949592177208 0.020930747467217584 0 -0.025415123703896078 0.021202714044279203 0 -0.027044434633651606 0.020012939303087462 0 -0.027044434633651606 0.020012939303087462 0 -0.029274879135969451 0.01962877105756405 0 -0.028012310052208358 0.018343979575703943 0 -0.028174949592177208 0.020930747467217584 0 -0.027044434633651606 0.020012939303087462 0 -0.029274879135969451 0.01962877105756405 0 -0.029274879135969451 0.01962877105756405 0 -0.031253221990883887 0.019400838371751876 0 -0.030468015718404174 0.017898897992907486 0 -0.035562508525697124 0.021964863875836391 0 -0.03565668429340451 0.019235693696932229 0 -0.029274879135969451 0.01962877105756405 0 -0.030556844841106511 0.021139623102468041 0 -0.031253221990883887 0.019400838371751876 0 -0.030556844841106511 0.021139623102468041 0 -0.032819508240664069 0.020863957347114045 0 -0.031253221990883887 0.019400838371751876 0 -0.028174949592177208 0.020930747467217584 0 -0.029274879135969451 0.01962877105756405 0 -0.030556844841106511 0.021139623102468041 0 -0.02862464981726922 0.022270606744457841 0 -0.028174949592177208 0.020930747467217584 0 -0.030556844841106511 0.021139623102468041 0 -0.02862464981726922 0.022270606744457841 0 -0.030556844841106511 0.021139623102468041 0 -0.031857437215982436 0.022980150889850129 0 -0.030556844841106511 0.021139623102468041 0 -0.032819508240664069 0.020863957347114045 0 -0.031857437215982436 0.022980150889850129 0 -0.035562508525697124 0.021964863875836391 0 -0.03566343142557743 0.023709846648062152 0 -0.032819508240664069 0.020863957347114045 0 -0.035834781400339133 0.023661875027573408 0 -0.031857437215982436 0.022980150889850129 0 -0.04083625520308716 0.021961716610765524 0 -0.042382789469754684 0.021297340169691498 0 -0.044078842038168115 0.022410425886058148 0 -0.04083625520308716 0.021961716610765524 0 -0.044078842038168115 0.022410425886058148 0 -0.040930085368058797 0.023864471105600388 0 -0.035834781400339133 0.023661875027573408 0 -0.04083625520308716 0.021961716610765524 0 -0.040930085368058797 0.023864471105600388 0 -0.038435948535889226 0.021946386832192539 0 -0.035834781400339133 0.023661875027573408 0 -0.04083625520308716 0.021961716610765524 0 -0.038435948535889226 0.021946386832192539 0 -0.04083625520308716 0.021961716610765524 0 -0.040266928386285171 0.021293771899253962 0 -0.04083625520308716 0.021961716610765524 0 -0.042382789469754684 0.021297340169691498 0 -0.040266928386285171 0.021293771899253962 0 -0.042382789469754684 0.021297340169691498 0 -0.041128846867342535 0.020619979436059331 0 -0.042566550878859036 0.020636803538834132 0 -0.042382789469754684 0.021297340169691498 0 -0.041128846867342535 0.020619979436059331 0 -0.040266928386285171 0.021293771899253962 0 -0.041128846867342535 0.020619979436059331 0 -0.040266928386285171 0.021293771899253962 0 -0.039693032269401907 0.021027282742261379 0 -0.038435948535889226 0.021946386832192539 0 -0.040266928386285171 0.021293771899253962 0 -0.039693032269401907 0.021027282742261379 0 -0.03565668429340451 0.019235693696932229 0 -0.034093085322013952 0.024061069534205507 0 -0.041128846867342535 0.020619979436059331 0 -0.039693032269401907 0.021027282742261379 0 -0.040042984307224576 0.019743997862838526 0 -0.042137238453963222 0.025791266051067095 0 -0.034093085322013952 0.024061069534205507 0 -0.041128846867342535 0.020619979436059331 0 -0.042035048272033422 0.019650319013977451 0 -0.042566550878859036 0.020636803538834132 0 -0.041128846867342535 0.020619979436059331 0 -0.042035048272033422 0.019650319013977451 0 -0.040042984307224576 0.019743997862838526 0 -0.040945635155444776 0.03181032316179927 0 -0.0393996561642617 0.028651026614690909 0 -0.041865502542496637 0.02836914639483043 0 -0.040945635155444776 0.03181032316179927 0 -0.0393996561642617 0.028651026614690909 0 -0.036963420423371765 0.030942270276414646 0 -0.0393996561642617 0.028651026614690909 0 -0.039931139372094589 0.026671856292295591 0 -0.038273595563834646 0.026757502948535926 0 -0.0393996561642617 0.028651026614690909 0 -0.037514984145909203 0.02788008853860623 0 -0.038273595563834646 0.026757502948535926 0 -0.0393996561642617 0.028651026614690909 0 -0.039931139372094589 0.026671856292295591 0 -0.041865502542496637 0.02836914639483043 0 -0.027592647081871324 0.025244795358395196 0 -0.026189837988940888 0.025176056661744835 0 -0.026567565579156981 0.024451375837647348 0 -0.0393996561642617 0.028651026614690909 0 -0.037514984145909203 0.02788008853860623 0 -0.036963420423371765 0.030942270276414646 0 -0.027592647081871324 0.025244795358395196 0 -0.028186767246041872 0.027205037717096835 0 -0.026189837988940888 0.025176056661744835 0 -0.032120726088800074 0.027753192099426893 0 -0.034093085322013952 0.024061069534205507 0 -0.028186767246041872 0.027205037717096835 0 -0.025984283174591435 0.026617184808919756 0 -0.026189837988940888 0.025176056661744835 0 -0.029274879135969451 0.01962877105756405 0 -0.030468015718404174 0.017898897992907486 0 -0.028012310052208358 0.018343979575703943 0 -0.034093085322013952 0.024061069534205507 0 -0.026007846926620875 0.022205243661653849 0 -0.025984283174591435 0.026617184808919756 0 -0.024481568484913771 0.02491136933560318 0 -0.026189837988940888 0.025176056661744835 0 -0.026189837988940888 0.025176056661744835 0 -0.025722505077369312 0.024260788009619047 0 -0.024831759498078174 0.024316937880301544 0 -0.026189837988940888 0.025176056661744835 0 -0.025722505077369312 0.024260788009619047 0 -0.026567565579156981 0.024451375837647348 0 -0.025722505077369312 0.024260788009619047 0 -0.024831759498078174 0.024316937880301544 0 -0.025004841830088206 0.023873976084204909 0 -0.026029699948483788 0.024088023944456975 0 -0.026176724568531096 0.02381307863975889 0 -0.026567565579156981 0.024451375837647348 0 -0.025722505077369312 0.024260788009619047 0 -0.026029699948483788 0.024088023944456975 0 -0.026567565579156981 0.024451375837647348 0 -0.024481568484913771 0.02491136933560318 0 -0.026189837988940888 0.025176056661744835 0 -0.024831759498078174 0.024316937880301544 0 -0.02389731082866443 0.024064588422843241 0 -0.024481568484913771 0.02491136933560318 0 -0.024831759498078174 0.024316937880301544 0 -0.02389731082866443 0.024064588422843241 0 -0.024831759498078174 0.024316937880301544 0 -0.024160410291548206 0.023814253549721207 0 -0.024831759498078174 0.024316937880301544 0 -0.024160410291548206 0.023814253549721207 0 -0.025004841830088206 0.023873976084204909 0 -0.024160410291548206 0.023814253549721207 0 -0.024611366755260759 0.023546743264010399 0 -0.025004841830088206 0.023873976084204909 0 -0.02356467655131712 0.023498678866535939 0 -0.023359480961893539 0.023790783262798612 0 -0.024160410291548206 0.023814253549721207 0 -0.02356467655131712 0.023498678866535939 0 -0.024160410291548206 0.023814253549721207 0 -0.024611366755260759 0.023546743264010399 0 -0.025415416066871938 0.023104842701811026 0 -0.025387527509163451 0.023553472293388264 0 -0.026176724568531096 0.02381307863975889 0 -0.025722505077369312 0.024260788009619047 0 -0.026029699948483788 0.024088023944456975 0 -0.0256753624270727 0.023843882005094446 0 -0.0256753624270727 0.023843882005094446 0 -0.025387527509163451 0.023553472293388264 0 -0.026176724568531096 0.02381307863975889 0 -0.026029699948483788 0.024088023944456975 0 -0.0256753624270727 0.023843882005094446 0 -0.026176724568531096 0.02381307863975889 0 -0.0256753624270727 0.023843882005094446 0 -0.025004841830088206 0.023873976084204909 0 -0.025166750451156714 0.023701848895223442 0 -0.025722505077369312 0.024260788009619047 0 -0.0256753624270727 0.023843882005094446 0 -0.025004841830088206 0.023873976084204909 0 -0.024611366755260759 0.023546743264010399 0 -0.025004841830088206 0.023873976084204909 0 -0.025166750451156714 0.023701848895223442 0 -0.0256753624270727 0.023843882005094446 0 -0.025166750451156714 0.023701848895223442 0 -0.025387527509163451 0.023553472293388264 0 -0.024611366755260759 0.023546743264010399 0 -0.025166750451156714 0.023701848895223442 0 -0.025387527509163451 0.023553472293388264 0 -0.030996299436399966 0.025670704460810073 0 -0.034292883426968852 0.024089681987016602 0 -0.025415416066871938 0.023104842701811026 0 -0.026176724568531096 0.02381307863975889 0 -0.027166823685458669 0.023804888685615345 0 -0.037082390962604753 0.028474089891819369 0 -0.037439910515886035 0.026411029555840369 0 -0.037986060440856929 0.024179456447034016 0 -0.037439910515886035 0.026411029555840369 0 -0.037986060440856929 0.024179456447034016 0 -0.037731864607854285 0.024704646236469355 0 -0.037691896088849333 0.025112040718092751 0 -0.037731864607854285 0.024704646236469355 0 -0.037932759329448118 0.024999789192122288 0 -0.034292883426968852 0.024089681987016602 0 -0.034602789560343239 0.024140981484761091 0 -0.037691896088849333 0.025112040718092751 0 -0.037932759329448118 0.024999789192122288 0 -0.037989642520512026 0.025436081663654145 0 -0.037731864607854285 0.024704646236469355 0 -0.037509579905244998 0.02546053157374838 0 -0.037682867807783314 0.025044043008820561 0 -0.037439910515886035 0.026411029555840369 0 -0.037731864607854285 0.024704646236469355 0 -0.037509579905244998 0.02546053157374838 0 -0.037439910515886035 0.026411029555840369 0 -0.037509579905244998 0.02546053157374838 0 -0.037381969227233768 0.025163614510907883 0 -0.037509579905244998 0.02546053157374838 0 -0.037381969227233768 0.025163614510907883 0 -0.037682867807783314 0.025044043008820561 0 -0.036198737140963222 0.028932174918987166 0 -0.036775696961427871 0.028828284091683257 0 -0.03622598824093793 0.028211278295264777 0 -0.036703531273092026 0.026737885369463508 0 -0.040777960080197448 0.029402372346813265 0 -0.037381969227233768 0.025163614510907883 0 -0.037682867807783314 0.025044043008820561 0 -0.038286096674859584 0.024725977453015274 0 -0.037381969227233768 0.025163614510907883 0 -0.038286096674859584 0.024725977453015274 0 -0.039651895266699273 0.023693177864573773 0 -0.035635456628179157 0.028961152014496977 0 -0.036198737140963222 0.028932174918987166 0 -0.03622598824093793 0.028211278295264777 0 -0.039126304425646651 0.024591618282772235 0 -0.038286096674859584 0.024725977453015274 0 -0.039651895266699273 0.023693177864573773 0 -0.039126304425646651 0.024591618282772235 0 -0.039787178935308636 0.024470925927295214 0 -0.039651895266699273 0.023693177864573773 0 -0.039126304425646651 0.024591618282772235 0 -0.038286096674859584 0.024725977453015274 0 -0.038566301297956684 0.02483682676055108 0 -0.039126304425646651 0.024591618282772235 0 -0.038566301297956684 0.02483682676055108 0 -0.039477963842272451 0.025272672180641251 0 -0.039126304425646651 0.024591618282772235 0 -0.039787178935308636 0.024470925927295214 0 -0.039477963842272451 0.025272672180641251 0 -0.037731864607854285 0.024704646236469355 0 -0.037682867807783314 0.025044043008820561 0 -0.03793408374854728 0.024833097477110114 0 -0.037682867807783314 0.025044043008820561 0 -0.03793408374854728 0.024833097477110114 0 -0.038286096674859584 0.024725977453015274 0 -0.03793408374854728 0.024833097477110114 0 -0.038286096674859584 0.024725977453015274 0 -0.038254852801487653 0.024848254947631394 0 -0.038286096674859584 0.024725977453015274 0 -0.038254852801487653 0.024848254947631394 0 -0.038566301297956684 0.02483682676055108 0 -0.038254852801487653 0.024848254947631394 0 -0.038566301297956684 0.02483682676055108 0 -0.038213637323543992 0.025032665864732906 0 -0.038566301297956684 0.02483682676055108 0 -0.038213637323543992 0.025032665864732906 0 -0.038709582164926565 0.025597565299285835 0 -0.03793408374854728 0.024833097477110114 0 -0.038254852801487653 0.024848254947631394 0 -0.038213637323543992 0.025032665864732906 0 -0.03793408374854728 0.024833097477110114 0 -0.038213637323543992 0.025032665864732906 0 -0.037932759329448118 0.024999789192122288 0 -0.037731864607854285 0.024704646236469355 0 -0.03793408374854728 0.024833097477110114 0 -0.037932759329448118 0.024999789192122288 0 -0.038213637323543992 0.025032665864732906 0 -0.037932759329448118 0.024999789192122288 0 -0.037989642520512026 0.025436081663654145 0 -0.038213637323543992 0.025032665864732906 0 -0.037989642520512026 0.025436081663654145 0 -0.038709582164926565 0.025597565299285835 0 -0.037989642520512026 0.025436081663654145 0 -0.038709582164926565 0.025597565299285835 0 -0.038273595563834646 0.026757502948535926 0 -0.039477963842272451 0.025272672180641251 0 -0.039931139372094589 0.026671856292295591 0 -0.041014477035210439 0.025550779419306203 0 -0.039787178935308636 0.024470925927295214 0 -0.039477963842272451 0.025272672180641251 0 -0.041014477035210439 0.025550779419306203 0 -0.038709582164926565 0.025597565299285835 0 -0.039477963842272451 0.025272672180641251 0 -0.039931139372094589 0.026671856292295591 0 -0.038566301297956684 0.02483682676055108 0 -0.038709582164926565 0.025597565299285835 0 -0.039477963842272451 0.025272672180641251 0 -0.038709582164926565 0.025597565299285835 0 -0.039931139372094589 0.026671856292295591 0 -0.038273595563834646 0.026757502948535926 0 -0.032120726088800074 0.027753192099426893 0 -0.034292883426968852 0.024089681987016602 0 -0.027592647081871324 0.025244795358395196 0 -0.027166823685458669 0.023804888685615345 0 -0.026567565579156981 0.024451375837647348 0 -0.037514984145909203 0.02788008853860623 0 -0.037694083284534004 0.025110563474344462 0 -0.038273595563834646 0.026757502948535926 0 -0.026176724568531096 0.02381307863975889 0 -0.027166823685458669 0.023804888685615345 0 -0.026567565579156981 0.024451375837647348 0 -0.037694083284534004 0.025110563474344462 0 -0.037989642520512026 0.025436081663654145 0 -0.038273595563834646 0.026757502948535926 0 -0.034292883426968852 0.024089681987016602 0 -0.035183002596487184 0.024913234874886499 0 -0.044696258460586835 0.024957438353790516 0 -0.04866511458970485 0.026689739341808631 0 -0.044976542027983513 0.027443321975275312 0 -0.044696258460586835 0.024957438353790516 0 -0.041014477035210439 0.025550779419306203 0 -0.044976542027983513 0.027443321975275312 0 -0.044696258460586835 0.024957438353790516 0 -0.041014477035210439 0.025550779419306203 0 -0.040124800950577681 0.023933345708502352 0 -0.039931139372094589 0.026671856292295591 0 -0.041014477035210439 0.025550779419306203 0 -0.041865502542496637 0.02836914639483043 0 -0.04752551411376249 0.030656059785760411 0 -0.040777960080197448 0.029402372346813265 0 -0.047481850857827433 0.033710497473003392 0 -0.046640504274979538 0.035324752313279077 0 -0.049131843830374819 0.034714450584721772 0 -0.039787178935308636 0.024470925927295214 0 -0.041014477035210439 0.025550779419306203 0 -0.040124800950577681 0.023933345708502352 0 -0.041175276877588922 0.027616636630748238 0 -0.040777960080197448 0.029402372346813265 0 -0.04263171283042657 0.033359762894337661 0 -0.040777960080197448 0.029402372346813265 0 -0.034859574111159621 0.02912343378426805 0 -0.035635456628179157 0.028961152014496977 0 -0.03622598824093793 0.028211278295264777 0 -0.049331648670623639 0.036015080665465729 0 -0.046640504274979538 0.035324752313279077 0 -0.049131843830374819 0.034714450584721772 0 -0.049331648670623639 0.036015080665465729 0 -0.049131843830374819 0.034714450584721772 0 -0.051032585088459134 0.035267857888248752 0 -0.050800720550283819 0.033731847309406315 0 -0.051032585088459134 0.035267857888248752 0 -0.052137239456994187 0.034941279784751166 0 -0.050800720550283819 0.033731847309406315 0 -0.049131843830374819 0.034714450584721772 0 -0.051032585088459134 0.035267857888248752 0 -0.051032585088459134 0.035267857888248752 0 -0.052137239456994187 0.034941279784751166 0 -0.052264592261038079 0.03571062104970818 0 -0.052719211944631195 0.037381462665452746 0 -0.053460801256436437 0.03738329085571785 0 -0.053076227409320199 0.036944759809679699 0 -0.053637324904574964 0.037981171654934573 0 -0.052160629199691902 0.035506441497608607 0 -0.052137239456994187 0.034941279784751166 0 -0.052264592261038079 0.03571062104970818 0 -0.052604963338305014 0.035833864427127049 0 -0.051032585088459134 0.035267857888248752 0 -0.052264592261038079 0.03571062104970818 0 -0.051676013286736593 0.036162776544403911 0 -0.049331648670623639 0.036015080665465729 0 -0.051032585088459134 0.035267857888248752 0 -0.051676013286736593 0.036162776544403911 0 -0.04752551411376249 0.030656059785760411 0 -0.049965562996320725 0.031347221029382991 0 -0.04866511458970485 0.026689739341808631 0 -0.046871041353983726 0.029260084645347885 0 -0.044976542027983513 0.027443321975275312 0 -0.04866511458970485 0.026689739341808631 0 -0.049393446339169873 0.028999038463849491 0 -0.046871041353983726 0.029260084645347885 0 -0.04866511458970485 0.026689739341808631 0 -0.049393446339169873 0.028999038463849491 0 -0.051126094504018303 0.028483066364254996 0 -0.049965562996320725 0.031347221029382991 0 -0.051815402038672374 0.031784031479049853 0 -0.052264592261038079 0.03571062104970818 0 -0.051676013286736593 0.036162776544403911 0 -0.052734175016747459 0.035174321760842939 0 -0.050567401341491708 0.029776337157749473 0 -0.049393446339169873 0.028999038463849491 0 -0.048881957416162337 0.030540578962911773 0 -0.050567401341491708 0.029776337157749473 0 -0.049393446339169873 0.028999038463849491 0 -0.051126094504018303 0.028483066364254996 0 -0.046871041353983726 0.029260084645347885 0 -0.048881957416162337 0.030540578962911773 0 -0.046942712701521762 0.03259650379739322 0 -0.049393446339169873 0.028999038463849491 0 -0.046871041353983726 0.029260084645347885 0 -0.048881957416162337 0.030540578962911773 0 -0.046871041353983726 0.029260084645347885 0 -0.044127073534460423 0.029963490778511057 0 -0.045284133277938649 0.031950134076295086 0 -0.046629992756812552 0.031240804263431936 0 -0.045776108445978805 0.027222214021197271 0 -0.044127073534460423 0.029963490778511057 0 -0.044976542027983513 0.027443321975275312 0 -0.041865502542496637 0.02836914639483043 0 -0.046871041353983726 0.029260084645347885 0 -0.044127073534460423 0.029963490778511057 0 -0.044976542027983513 0.027443321975275312 0 -0.041014477035210439 0.025550779419306203 0 -0.044976542027983513 0.027443321975275312 0 -0.041865502542496637 0.02836914639483043 0 -0.040945635155444776 0.03181032316179927 0 -0.044127073534460423 0.029963490778511057 0 -0.041865502542496637 0.02836914639483043 0 -0.042137238453963222 0.025791266051067095 0 -0.045776108445978805 0.027222214021197271 0 -0.042035048272033422 0.019650319013977451 0 -0.043805754522917767 0.020028026813632666 0 -0.042566550878859036 0.020636803538834132 0 -0.040945635155444776 0.03181032316179927 0 -0.044127073534460423 0.029963490778511057 0 -0.045284133277938649 0.031950134076295086 0 -0.048756017334864253 0.026839822808551964 0 -0.049111251675302586 0.028155789777140814 0 -0.049571308111273651 0.027640050932290796 0 -0.049111251675302586 0.028155789777140814 0 -0.0504312371331299 0.02823442853921268 0 -0.049571308111273651 0.027640050932290796 0 -0.045776108445978805 0.027222214021197271 0 -0.046714594632106969 0.023082604823176187 0 -0.042382789469754684 0.021297340169691498 0 -0.042566550878859036 0.020636803538834132 0 -0.043399865183819865 0.021402617878163579 0 -0.043805754522917767 0.020028026813632666 0 -0.042566550878859036 0.020636803538834132 0 -0.043399865183819865 0.021402617878163579 0 -0.04158429095461539 0.021458385340109097 0 -0.046714594632106969 0.023082604823176187 0 -0.042382789469754684 0.021297340169691498 0 -0.043344791056334563 0.020903838034675267 0 -0.044078842038168115 0.022410425886058148 0 -0.046714594632106969 0.023082604823176187 0 -0.045730137446033658 0.023136627435558565 0 -0.046714594632106969 0.023082604823176187 0 -0.050677196248692512 0.026098318272209195 0 -0.048370301924083717 0.022862925011571916 0 -0.049853775677742698 0.023528686431189015 0 -0.050035399406896552 0.023187466451617109 0 -0.047681029022927077 0.023814625908760097 0 -0.049853775677742698 0.023528686431189015 0 -0.049350432847975932 0.023839023572748117 0 -0.048370301924083717 0.022862925011571916 0 -0.047681029022927077 0.023814625908760097 0 -0.049853775677742698 0.023528686431189015 0 -0.050480361939695656 0.023597312177667903 0 -0.050804501532323444 0.024011126337933508 0 -0.050881447974479244 0.023693522163308403 0 -0.050480361939695656 0.023597312177667903 0 -0.05051415942948749 0.023075816893243936 0 -0.050881447974479244 0.023693522163308403 0 -0.050480361939695656 0.023597312177667903 0 -0.05051415942948749 0.023075816893243936 0 -0.049853775677742698 0.023528686431189015 0 -0.050480361939695656 0.023597312177667903 0 -0.049853775677742698 0.023528686431189015 0 -0.050035399406896552 0.023187466451617109 0 -0.050480361939695656 0.023597312177667903 0 -0.050035399406896552 0.023187466451617109 0 -0.050804501532323444 0.024011126337933508 0 -0.050035399406896552 0.023187466451617109 0 -0.050804501532323444 0.024011126337933508 0 -0.051223952064374773 0.024620370878189451 0 -0.0504312371331299 0.02823442853921268 0 -0.051014287817346154 0.028138894513050204 0 -0.051844650820316869 0.028817223706809225 0 -0.051014287817346154 0.028138894513050204 0 -0.05005317426206056 0.027247298314278478 0 -0.051492398567597658 0.02808368538326236 0 -0.0504312371331299 0.02823442853921268 0 -0.051014287817346154 0.028138894513050204 0 -0.05005317426206056 0.027247298314278478 0 -0.050677196248692512 0.026098318272209195 0 -0.05128789467223311 0.026716370828718208 0 -0.050042065051003164 0.029712550984979023 0 -0.0509254285884779 0.029236562369442647 0 -0.0504312371331299 0.02823442853921268 0 -0.049571308111273651 0.027640050932290796 0 -0.05005317426206056 0.027247298314278478 0 -0.048756017334864253 0.026839822808551964 0 -0.049571308111273651 0.027640050932290796 0 -0.05005317426206056 0.027247298314278478 0 -0.048881957416162337 0.030540578962911773 0 -0.046942712701521762 0.03259650379739322 0 -0.049343938225453562 0.031781687599974004 0 -0.045776108445978805 0.027222214021197271 0 -0.050042065051003164 0.029712550984979023 0 -0.049343938225453562 0.031781687599974004 0 -0.050345725240004746 0.030602639624632166 0 -0.050895178363966155 0.030557345477548865 0 -0.050567401341491708 0.029776337157749473 0 -0.048881957416162337 0.030540578962911773 0 -0.050345725240004746 0.030602639624632166 0 -0.048881957416162337 0.030540578962911773 0 -0.049343938225453562 0.031781687599974004 0 -0.050345725240004746 0.030602639624632166 0 -0.050345725240004746 0.030602639624632166 0 -0.051433949028938435 0.029754237273943281 0 -0.050895178363966155 0.030557345477548865 0 -0.050567401341491708 0.029776337157749473 0 -0.050345725240004746 0.030602639624632166 0 -0.051433949028938435 0.029754237273943281 0 -0.050567401341491708 0.029776337157749473 0 -0.051433949028938435 0.029754237273943281 0 -0.051329864372137594 0.029463029260954669 0 -0.051433949028938435 0.029754237273943281 0 -0.051561395472170889 0.029364545565937761 0 -0.051329864372137594 0.029463029260954669 0 -0.051433949028938435 0.029754237273943281 0 -0.051556287272310923 0.029281019970121874 0 -0.051561395472170889 0.029364545565937761 0 -0.051556287272310923 0.029281019970121874 0 -0.051561395472170889 0.029364545565937761 0 -0.051489319272263308 0.028941338531393315 0 -0.051704081408716504 0.028852124913123785 0 -0.051844650820316869 0.028817223706809225 0 -0.051228406307620718 0.028010020588024511 0 -0.05128789467223311 0.026716370828718208 0 -0.051079931574702864 0.027853000430844932 0 -0.051223952064374773 0.024620370878189451 0 -0.05128982262197427 0.025671899807926508 0 -0.051228406307620718 0.028010020588024511 0 -0.051556287272310923 0.029281019970121874 0 -0.051704081408716504 0.028852124913123785 0 -0.051489319272263308 0.028941338531393315 0 -0.051433949028938435 0.029754237273943281 0 -0.051556287272310923 0.029281019970121874 0 -0.051704081408716504 0.028852124913123785 0 -0.051433949028938435 0.029754237273943281 0 -0.051704081408716504 0.028852124913123785 0 -0.050895178363966155 0.030557345477548865 0 -0.051014287817346154 0.028138894513050204 0 -0.051492398567597658 0.02808368538326236 0 -0.051844650820316869 0.028817223706809225 0 -0.051704081408716504 0.028852124913123785 0 -0.051492398567597658 0.02808368538326236 0 -0.051844650820316869 0.028817223706809225 0 -0.051529455094153111 0.02896912550959467 0 -0.0509254285884779 0.029236562369442647 0 -0.050804501532323444 0.024011126337933508 0 -0.051223952064374773 0.024620370878189451 0 -0.051159038562421946 0.024594078092447697 0 -0.051223952064374773 0.024620370878189451 0 -0.051159038562421946 0.024594078092447697 0 -0.05128982262197427 0.025671899807926508 0 -0.05128982262197427 0.025671899807926508 0 -0.051171784678226639 0.025152195077278811 0 -0.051106282573851823 0.026230886011830188 0 -0.051159038562421946 0.024594078092447697 0 -0.05128982262197427 0.025671899807926508 0 -0.051171784678226639 0.025152195077278811 0 -0.051159038562421946 0.024594078092447697 0 -0.051171784678226639 0.025152195077278811 0 -0.050978222768535003 0.023512050539599774 0 -0.051171784678226639 0.025152195077278811 0 -0.050993006239331888 0.02510521312999632 0 -0.050978222768535003 0.023512050539599774 0 -0.051159038562421946 0.024594078092447697 0 -0.050881447974479244 0.023693522163308403 0 -0.050978222768535003 0.023512050539599774 0 -0.050804501532323444 0.024011126337933508 0 -0.051159038562421946 0.024594078092447697 0 -0.050881447974479244 0.023693522163308403 0 -0.049999484325534339 0.025799586881771454 0 -0.05068057766971746 0.026135164315777865 0 -0.050867151329612337 0.024484856082560326 0 -0.050993006239331888 0.02510521312999632 0 -0.05068057766971746 0.026135164315777865 0 -0.050867151329612337 0.024484856082560326 0 -0.050993006239331888 0.02510521312999632 0 -0.050867151329612337 0.024484856082560326 0 -0.050978222768535003 0.023512050539599774 0 -0.050993006239331888 0.02510521312999632 0 -0.051106282573851823 0.026230886011830188 0 -0.05068057766971746 0.026135164315777865 0 -0.051171784678226639 0.025152195077278811 0 -0.050993006239331888 0.02510521312999632 0 -0.051106282573851823 0.026230886011830188 0 -0.05128982262197427 0.025671899807926508 0 -0.051106282573851823 0.026230886011830188 0 -0.051228406307620718 0.028010020588024511 0 -0.051106282573851823 0.026230886011830188 0 -0.050738473922522537 0.027320174219328031 0 -0.051228406307620718 0.028010020588024511 0 -0.051106282573851823 0.026230886011830188 0 -0.050738473922522537 0.027320174219328031 0 -0.05068057766971746 0.026135164315777865 0 -0.049999484325534339 0.025799586881771454 0 -0.05068057766971746 0.026135164315777865 0 -0.049999387097681529 0.028162467351313728 0 -0.050738473922522537 0.027320174219328031 0 -0.05068057766971746 0.026135164315777865 0 -0.049999387097681529 0.028162467351313728 0 -0.049999387097681529 0.028162467351313728 0 -0.050720487552694558 0.028427464389491626 0 -0.050461798005584625 0.02939853611214039 0 -0.049999387097681529 0.028162467351313728 0 -0.050461798005584625 0.02939853611214039 0 -0.049999476988452828 0.030524718457230995 0 -0.050738473922522537 0.027320174219328031 0 -0.049999387097681529 0.028162467351313728 0 -0.050720487552694558 0.028427464389491626 0 -0.050720487552694558 0.028427464389491626 0 -0.050461798005584625 0.02939853611214039 0 -0.050824163016416748 0.029340363350297549 0 -0.051704081408716504 0.028852124913123785 0 -0.051228406307620718 0.028010020588024511 0 -0.051489319272263308 0.028941338531393315 0 -0.050738473922522537 0.027320174219328031 0 -0.050720487552694558 0.028427464389491626 0 -0.051228406307620718 0.028010020588024511 0 -0.050720487552694558 0.028427464389491626 0 -0.051228406307620718 0.028010020588024511 0 -0.051231739787070928 0.028722311453207864 0 -0.050720487552694558 0.028427464389491626 0 -0.051231739787070928 0.028722311453207864 0 -0.050824163016416748 0.029340363350297549 0 -0.051231739787070928 0.028722311453207864 0 -0.051489319272263308 0.028941338531393315 0 -0.051403186372385327 0.029047167974822263 0 -0.051228406307620718 0.028010020588024511 0 -0.051231739787070928 0.028722311453207864 0 -0.051489319272263308 0.028941338531393315 0 -0.051364515287603538 0.028638676006081824 0 -0.050773041804684081 0.030804783022756622 0 -0.051561395472170889 0.029364545565937761 0 -0.051362027715790411 0.029248280592447298 0 -0.051643387382729146 0.029399433744475206 0 -0.051231739787070928 0.028722311453207864 0 -0.051362027715790411 0.029248280592447298 0 -0.051072095052490378 0.029424525861607626 0 -0.051561395472170889 0.029364545565937761 0 -0.051489319272263308 0.028941338531393315 0 -0.051403186372385327 0.029047167974822263 0 -0.051561395472170889 0.029364545565937761 0 -0.051403186372385327 0.029047167974822263 0 -0.051362027715790411 0.029248280592447298 0 -0.051231739787070928 0.028722311453207864 0 -0.051403186372385327 0.029047167974822263 0 -0.051362027715790411 0.029248280592447298 0 -0.051231739787070928 0.028722311453207864 0 -0.050824163016416748 0.029340363350297549 0 -0.050872129152442568 0.030739376446629184 0 -0.050461798005584625 0.02939853611214039 0 -0.050872129152442568 0.030739376446629184 0 -0.049999476988452828 0.030524718457230995 0 -0.050461798005584625 0.02939853611214039 0 -0.050824163016416748 0.029340363350297549 0 -0.050872129152442568 0.030739376446629184 0 -0.050773041804684081 0.030804783022756622 0 -0.050000240487403237 0.030526175390869416 0 -0.050952003374281914 0.031598105713907455 0 -0.050000095479633501 0.033512625116537006 0 -0.051164587795613135 0.033708670416737495 0 -0.050779711352993966 0.03151255573179388 0 -0.049999787217429661 0.030527026974744503 0 -0.0499991989449384 0.033513081881381045 0 -0.050773041804684081 0.030804783022756622 0 -0.049999872532337224 0.03351273441449211 0 -0.050000095479633501 0.033512625116537006 0 -0.051164587795613135 0.033708670416737495 0 -0.051206230976380288 0.03530865755398039 0 -0.051164587795613135 0.033708670416737495 0 -0.052133472444809224 0.035013921765782954 0 -0.051206230976380288 0.03530865755398039 0 -0.051164587795613135 0.033708670416737495 0 -0.052092827153644293 0.033441462912417556 0 -0.052133472444809224 0.035013921765782954 0 -0.051362027715790411 0.029248280592447298 0 -0.051072095052490378 0.029424525861607626 0 -0.051643387382729146 0.029399433744475206 0 -0.050952003374281914 0.031598105713907455 0 -0.051164587795613135 0.033708670416737495 0 -0.052092827153644293 0.033441462912417556 0 -0.050773041804684081 0.030804783022756622 0 -0.051800357529643556 0.031332134385290707 0 -0.051643387382729146 0.029399433744475206 0 -0.051329864372137594 0.029463029260954669 0 -0.051126094504018303 0.028483066364254996 0 -0.051561395472170889 0.029364545565937761 0 -0.051643387382729146 0.029399433744475206 0 -0.051329864372137594 0.029463029260954669 0 -0.051800357529643556 0.031332134385290707 0 -0.051815402038672374 0.031784031479049853 0 -0.050567401341491708 0.029776337157749473 0 -0.051329864372137594 0.029463029260954669 0 -0.051126094504018303 0.028483066364254996 0 -0.052734175016747459 0.035174321760842939 0 -0.052133472444809224 0.035013921765782954 0 -0.052604963338305014 0.035833864427127049 0 -0.052092827153644293 0.033441462912417556 0 -0.052734175016747459 0.035174321760842939 0 -0.052133472444809224 0.035013921765782954 0 -0.052133472444809224 0.035013921765782954 0 -0.051880363548694436 0.036396159925126167 0 -0.051206230976380288 0.03530865755398039 0 -0.052133472444809224 0.035013921765782954 0 -0.052604963338305014 0.035833864427127049 0 -0.051880363548694436 0.036396159925126167 0 -0.052264592261038079 0.03571062104970818 0 -0.052734175016747459 0.035174321760842939 0 -0.052604963338305014 0.035833864427127049 0 -0.052160629199691902 0.035506441497608607 0 -0.052711974016304911 0.035954704182080237 0 -0.052719211944631195 0.037381462665452746 0 -0.053076227409320199 0.036944759809679699 0 -0.052472810711662869 0.036934749132502505 0 -0.053076227409320199 0.036944759809679699 0 -0.052604963338305014 0.035833864427127049 0 -0.052472810711662869 0.036934749132502505 0 -0.051673498392911445 0.038129709443044384 0 -0.052719211944631195 0.037381462665452746 0 -0.052472810711662869 0.036934749132502505 0 -0.052604963338305014 0.035833864427127049 0 -0.052472810711662869 0.036934749132502505 0 -0.051880363548694436 0.036396159925126167 0 -0.051673498392911445 0.038129709443044384 0 -0.052472810711662869 0.036934749132502505 0 -0.051880363548694436 0.036396159925126167 0 -0.051673498392911445 0.038129709443044384 0 -0.051880363548694436 0.036396159925126167 0 -0.05090231280320423 0.037159188795593344 0 -0.049999311479440596 0.038028895403456935 0 -0.05090231280320423 0.037159188795593344 0 -0.049999368901942676 0.035770788946573949 0 -0.05090231280320423 0.037159188795593344 0 -0.049999368901942676 0.035770788946573949 0 -0.051206230976380288 0.03530865755398039 0 -0.050000095479633501 0.033512625116537006 0 -0.049999368901942676 0.035770788946573949 0 -0.051206230976380288 0.03530865755398039 0 -0.051880363548694436 0.036396159925126167 0 -0.05090231280320423 0.037159188795593344 0 -0.051206230976380288 0.03530865755398039 0 -0.051035175408097634 0.015480578697135173 0 -0.051232199058205918 0.016898911018813093 0 -0.050840553754250527 0.017096626862232744 0 -0.051035175408097634 0.015480578697135173 0 -0.049999241802258516 0.015220036426584148 0 -0.050840553754250527 0.017096626862232744 0 -0.051035175408097634 0.015480578697135173 0 -0.049999241802258516 0.015220036426584148 0 -0.050721868205918556 0.013664680790893391 0 -0.049999241802258516 0.015220036426584148 0 -0.050721868205918556 0.013664680790893391 0 -0.049999208475957235 0.012291915569656831 0 -0.051035175408097634 0.015480578697135173 0 -0.051235612551872069 0.016094280475995905 0 -0.051628392121589872 0.013581789555971809 0 -0.051035175408097634 0.015480578697135173 0 -0.050721868205918556 0.013664680790893391 0 -0.051628392121589872 0.013581789555971809 0 -0.051255542483593743 0.015701233036297474 0 -0.050786227522244938 0.014002462416522154 0 -0.051235612551872069 0.016094280475995905 0 -0.051195328969414949 0.015822674132569436 0 -0.050011150272270481 0.014488826755918987 0 -0.051235612551872069 0.016094280475995905 0 -0.051195328969414949 0.015822674132569436 0 -0.051482731770252546 0.016964243913759076 0 -0.051195328969414949 0.015822674132569436 0 -0.050762927150173838 0.018994960408128606 0 -0.051483890880564979 0.017476688930186248 0 -0.051091597309502496 0.016169742179985885 0 -0.051810883180882332 0.018589339486670339 0 -0.051195328969414949 0.015822674132569436 0 -0.051483890880564979 0.017476688930186248 0 -0.051441521334636885 0.015845397309099882 0 -0.051195328969414949 0.015822674132569436 0 -0.051196765173592639 0.015092278979999266 0 -0.051441521334636885 0.015845397309099882 0 -0.051195328969414949 0.015822674132569436 0 -0.051482731770252546 0.016964243913759076 0 -0.052471991911916739 0.017860459147863914 0 -0.051482731770252546 0.016964243913759076 0 -0.051569058519313683 0.018215610928831415 0 -0.052471991911916739 0.017860459147863914 0 -0.051035175408097634 0.015480578697135173 0 -0.051235612551872069 0.016094280475995905 0 -0.051232199058205918 0.016898911018813093 0 -0.051235612551872069 0.016094280475995905 0 -0.051482731770252546 0.016964243913759076 0 -0.051232199058205918 0.016898911018813093 0 -0.051482731770252546 0.016964243913759076 0 -0.051232199058205918 0.016898911018813093 0 -0.051569058519313683 0.018215610928831415 0 -0.051232199058205918 0.016898911018813093 0 -0.05123157605836285 0.018901342886792981 0 -0.050840553754250527 0.017096626862232744 0 -0.051232199058205918 0.016898911018813093 0 -0.051569058519313683 0.018215610928831415 0 -0.05123157605836285 0.018901342886792981 0 -0.051569058519313683 0.018215610928831415 0 -0.05157409240251213 0.019291757316763664 0 -0.05123157605836285 0.018901342886792981 0 -0.051569058519313683 0.018215610928831415 0 -0.051932138120323684 0.019331181601862809 0 -0.052471991911916739 0.017860459147863914 0 -0.051569058519313683 0.018215610928831415 0 -0.05157409240251213 0.019291757316763664 0 -0.051932138120323684 0.019331181601862809 0 -0.05157409240251213 0.019291757316763664 0 -0.05123157605836285 0.018901342886792981 0 -0.051396392296995601 0.020029129169884401 0 -0.05123157605836285 0.018901342886792981 0 -0.050840553754250527 0.017096626862232744 0 -0.05060237912287787 0.019412272992304528 0 -0.049999241802258516 0.015220036426584148 0 -0.050840553754250527 0.017096626862232744 0 -0.049999259746839227 0.018148228480608389 0 -0.050840553754250527 0.017096626862232744 0 -0.049999259746839227 0.018148228480608389 0 -0.05060237912287787 0.019412272992304528 0 -0.049999259746839227 0.018148228480608389 0 -0.05060237912287787 0.019412272992304528 0 -0.049998766376196435 0.021073397486436621 0 -0.05123157605836285 0.018901342886792981 0 -0.05060237912287787 0.019412272992304528 0 -0.050791614179272318 0.020371056778714432 0 -0.05060237912287787 0.019412272992304528 0 -0.050791614179272318 0.020371056778714432 0 -0.050386254892596342 0.020924067397129976 0 -0.050791614179272318 0.020371056778714432 0 -0.050386254892596342 0.020924067397129976 0 -0.050838605299584803 0.021372201419307058 0 -0.050386254892596342 0.020924067397129976 0 -0.049998766376196435 0.021073397486436621 0 -0.050163391429833053 0.021742640284876585 0 -0.05060237912287787 0.019412272992304528 0 -0.050386254892596342 0.020924067397129976 0 -0.049998766376196435 0.021073397486436621 0 -0.049999971499591699 0.021075960245075225 0 -0.051185301036627967 0.02319417701816047 0 -0.049999636694339704 0.023438229544540484 0 -0.049999975811146541 0.021075545089726335 0 -0.05065953133930081 0.022469322614199035 0 -0.050386254892596342 0.020924067397129976 0 -0.050163391429833053 0.021742640284876585 0 -0.050838605299584803 0.021372201419307058 0 -0.05065953133930081 0.022469322614199035 0 -0.051039660445544408 0.023423105871594501 0 -0.051185301036627967 0.02319417701816047 0 -0.050867151329612337 0.024484856082560326 0 -0.050978222768535003 0.023512050539599774 0 -0.049999484325534339 0.025799586881771454 0 -0.050867151329612337 0.024484856082560326 0 -0.049999636694339704 0.023438229544540484 0 -0.051185301036627967 0.02319417701816047 0 -0.050867151329612337 0.024484856082560326 0 -0.049999636694339704 0.023438229544540484 0 -0.050881447974479244 0.023693522163308403 0 -0.050978222768535003 0.023512050539599774 0 -0.050949611204260885 0.022269629689867346 0 -0.050163391429833053 0.021742640284876585 0 -0.050978222768535003 0.023512050539599774 0 -0.050838605299584803 0.021372201419307058 0 -0.050978222768535003 0.023512050539599774 0 -0.050838605299584803 0.021372201419307058 0 -0.050949611204260885 0.022269629689867346 0 -0.050838605299584803 0.021372201419307058 0 -0.050949611204260885 0.022269629689867346 0 -0.051140724258343644 0.020784139695311035 0 -0.050838605299584803 0.021372201419307058 0 -0.051140724258343644 0.020784139695311035 0 -0.051127884783551021 0.020311833476928245 0 -0.050791614179272318 0.020371056778714432 0 -0.050838605299584803 0.021372201419307058 0 -0.051127884783551021 0.020311833476928245 0 -0.05123157605836285 0.018901342886792981 0 -0.050791614179272318 0.020371056778714432 0 -0.051127884783551021 0.020311833476928245 0 -0.05123157605836285 0.018901342886792981 0 -0.051127884783551021 0.020311833476928245 0 -0.051396392296995601 0.020029129169884401 0 -0.051140724258343644 0.020784139695311035 0 -0.051127884783551021 0.020311833476928245 0 -0.051396392296995601 0.020029129169884401 0 -0.051140724258343644 0.020784139695311035 0 -0.051396392296995601 0.020029129169884401 0 -0.051196618567794061 0.020503597872230508 0 -0.051396392296995601 0.020029129169884401 0 -0.051196618567794061 0.020503597872230508 0 -0.051479374282476106 0.020265841152751294 0 -0.051196618567794061 0.020503597872230508 0 -0.050735478905873516 0.020676026437813511 0 -0.051479374282476106 0.020265841152751294 0 -0.051196618567794061 0.020503597872230508 0 -0.050735478905873516 0.020676026437813511 0 -0.050760084341409134 0.020708280155570708 0 -0.050760084341409134 0.020708280155570708 0 -0.050580314299912124 0.021944827874645596 0 -0.049332012220926223 0.020036274515400635 0 -0.050735478905873516 0.020676026437813511 0 -0.050760084341409134 0.020708280155570708 0 -0.049332012220926223 0.020036274515400635 0 -0.051140724258343644 0.020784139695311035 0 -0.051196618567794061 0.020503597872230508 0 -0.050760084341409134 0.020708280155570708 0 -0.050949611204260885 0.022269629689867346 0 -0.051140724258343644 0.020784139695311035 0 -0.050760084341409134 0.020708280155570708 0 -0.050949611204260885 0.022269629689867346 0 -0.050760084341409134 0.020708280155570708 0 -0.050580314299912124 0.021944827874645596 0 -0.049853775677742698 0.023528686431189015 0 -0.050580314299912124 0.021944827874645596 0 -0.049350432847975932 0.023839023572748117 0 -0.05051415942948749 0.023075816893243936 0 -0.049853775677742698 0.023528686431189015 0 -0.050580314299912124 0.021944827874645596 0 -0.05051415942948749 0.023075816893243936 0 -0.050881447974479244 0.023693522163308403 0 -0.050949611204260885 0.022269629689867346 0 -0.05051415942948749 0.023075816893243936 0 -0.050949611204260885 0.022269629689867346 0 -0.050580314299912124 0.021944827874645596 0 -0.047681029022927077 0.023814625908760097 0 -0.048744839004806473 0.02567301410567149 0 -0.044992176468380572 0.026648974236317537 0 -0.045730137446033658 0.023136627435558565 0 -0.044925179146940074 0.026665628545111862 0 -0.047681029022927077 0.023814625908760097 0 -0.049350432847975932 0.023839023572748117 0 -0.048744839004806473 0.02567301410567149 0 -0.050580314299912124 0.021944827874645596 0 -0.049350432847975932 0.023839023572748117 0 -0.048744839004806473 0.02567301410567149 0 -0.050580314299912124 0.021944827874645596 0 -0.047540184473450611 0.01784643262096423 0 -0.049332012220926223 0.020036274515400635 0 -0.050095269712843227 0.021933333639377637 0 -0.04778162404812742 0.021784133751311965 0 -0.04778162404812742 0.021784133751311965 0 -0.041993785388675799 0.02178731529039752 0 -0.047540184473450611 0.01784643262096423 0 -0.045662373389827142 0.01896739424051452 0 -0.041168486377341565 0.015619750240448543 0 -0.045662373389827142 0.01896739424051452 0 -0.049332012220926223 0.020036274515400635 0 -0.046933265320346793 0.020775260646677746 0 -0.047540184473450611 0.01784643262096423 0 -0.045662373389827142 0.01896739424051452 0 -0.049332012220926223 0.020036274515400635 0 -0.049332012220926223 0.020036274515400635 0 -0.046933265320346793 0.020775260646677746 0 -0.049104941868859803 0.021429329739788096 0 -0.050735478905873516 0.020676026437813511 0 -0.049332012220926223 0.020036274515400635 0 -0.049104941868859803 0.021429329739788096 0 -0.046933265320346793 0.020775260646677746 0 -0.048072145305622545 0.022330237451937983 0 -0.043035684664921983 0.02091115787007718 0 -0.046933265320346793 0.020775260646677746 0 -0.048072145305622545 0.022330237451937983 0 -0.049104941868859803 0.021429329739788096 0 -0.048072145305622545 0.022330237451937983 0 -0.049165574239911962 0.021574266099523499 0 -0.04854495789627955 0.022542631864987128 0 -0.048072145305622545 0.022330237451937983 0 -0.049165574239911962 0.021574266099523499 0 -0.049089853144252828 0.021062737907772539 0 -0.049165574239911962 0.021574266099523499 0 -0.049578130658588487 0.021718474385981533 0 -0.04854495789627955 0.022542631864987128 0 -0.049165574239911962 0.021574266099523499 0 -0.049089853144252828 0.021062737907772539 0 -0.049566278389696093 0.019965241565338174 0 -0.049089853144252828 0.021062737907772539 0 -0.049104941868859803 0.021429329739788096 0 -0.048543416692543057 0.020335704395217098 0 -0.048834438779162159 0.020977293037507838 0 -0.050904545629395739 0.020513726048097529 0 -0.048072145305622545 0.022330237451937983 0 -0.049089853144252828 0.021062737907772539 0 -0.049104941868859803 0.021429329739788096 0 -0.050735478905873516 0.020676026437813511 0 -0.051479374282476106 0.020265841152751294 0 -0.051610276098141152 0.020032839935916515 0 -0.050735478905873516 0.020676026437813511 0 -0.049104941868859803 0.021429329739788096 0 -0.051610276098141152 0.020032839935916515 0 -0.051747542024732238 0.020007032387411281 0 -0.050904545629395739 0.020513726048097529 0 -0.05157409240251213 0.019291757316763664 0 -0.051396392296995601 0.020029129169884401 0 -0.051479374282476106 0.020265841152751294 0 -0.05157409240251213 0.019291757316763664 0 -0.051479374282476106 0.020265841152751294 0 -0.051932138120323684 0.019331181601862809 0 -0.051479374282476106 0.020265841152751294 0 -0.051932138120323684 0.019331181601862809 0 -0.052309660790067665 0.020362248926438557 0 -0.050904545629395739 0.020513726048097529 0 -0.051810883180882332 0.018589339486670339 0 -0.051932138120323684 0.019331181601862809 0 -0.052309660790067665 0.020362248926438557 0 -0.052471991911916739 0.017860459147863914 0 -0.049089853144252828 0.021062737907772539 0 -0.048543416692543057 0.020335704395217098 0 -0.04890598101669321 0.018260581483306924 0 -0.051292629794934659 0.021940634698580177 0 -0.051868028830891172 0.019293156547037116 0 -0.053130117486097563 0.019939979900951414 0 -0.050904545629395739 0.020513726048097529 0 -0.050871239525739798 0.019188694376083823 0 -0.051292629794934659 0.021940634698580177 0 -0.051868028830891172 0.019293156547037116 0 -0.050762927150173838 0.018994960408128606 0 -0.051868028830891172 0.019293156547037116 0 -0.050762927150173838 0.018994960408128606 0 -0.051483890880564979 0.017476688930186248 0 -0.051483890880564979 0.017476688930186248 0 -0.052724281662725289 0.017923040120369795 0 -0.052177936280087336 0.016193689902671855 0 -0.051483890880564979 0.017476688930186248 0 -0.052177936280087336 0.016193689902671855 0 -0.051441521334636885 0.015845397309099882 0 -0.051868028830891172 0.019293156547037116 0 -0.051483890880564979 0.017476688930186248 0 -0.052724281662725289 0.017923040120369795 0 -0.051868028830891172 0.019293156547037116 0 -0.052724281662725289 0.017923040120369795 0 -0.053130117486097563 0.019939979900951414 0 -0.050057330108512765 0.01809467831098029 0 -0.04890598101669321 0.018260581483306924 0 -0.050613769854717834 0.015010407415306397 0 -0.050057330108512765 0.01809467831098029 0 -0.050984011775052129 0.017524568385384909 0 -0.050613769854717834 0.015010407415306397 0 -0.050871239525739798 0.019188694376083823 0 -0.053038252614502152 0.016208234532959019 0 -0.052724281662725289 0.017923040120369795 0 -0.053130117486097563 0.019939979900951414 0 -0.054773246904611814 0.017279208620786381 0 -0.052657175180127115 0.013640074074752791 0 -0.051246811101579005 0.013689634688017044 0 -0.052756920615878763 0.01496276616432685 0 -0.051248808621225446 0.015159842022660082 0 -0.049736935842050738 0.019517890770498859 0 -0.052657175180127115 0.013640074074752791 0 -0.051052676225141473 0.012081992755141498 0 -0.051246811101579005 0.013689634688017044 0 -0.050984011775052129 0.017524568385384909 0 -0.050426969836965624 0.019198085304125118 0 -0.050831563190932967 0.01951017576399449 0 -0.050057330108512765 0.01809467831098029 0 -0.050984011775052129 0.017524568385384909 0 -0.050426969836965624 0.019198085304125118 0 -0.050057330108512765 0.01809467831098029 0 -0.050426969836965624 0.019198085304125118 0 -0.049566278389696093 0.019965241565338174 0 -0.050426969836965624 0.019198085304125118 0 -0.049960071187402796 0.020604411083121645 0 -0.049566278389696093 0.019965241565338174 0 -0.050426969836965624 0.019198085304125118 0 -0.050631353032394542 0.020328594883249826 0 -0.049960071187402796 0.020604411083121645 0 -0.050298379115990978 0.019542790368096422 0 -0.049736935842050738 0.019517890770498859 0 -0.049165574239911962 0.021574266099523499 0 -0.049578130658588487 0.021718474385981533 0 -0.049960071187402796 0.020604411083121645 0 -0.050631353032394542 0.020328594883249826 0 -0.049578130658588487 0.021718474385981533 0 -0.049960071187402796 0.020604411083121645 0 -0.049165574239911962 0.021574266099523499 0 -0.049960071187402796 0.020604411083121645 0 -0.049566278389696093 0.019965241565338174 0 -0.049089853144252828 0.021062737907772539 0 -0.049566278389696093 0.019965241565338174 0 -0.04890598101669321 0.018260581483306924 0 -0.050057330108512765 0.01809467831098029 0 -0.049566278389696093 0.019965241565338174 0 -0.04890598101669321 0.018260581483306924 0 -0.040039139002266161 0.024957350949661405 0 -0.036035514015487199 0.025969305230690406 0 -0.038057580084194215 0.024053116240574379 0 -0.040039139002266161 0.024957350949661405 0 -0.038057580084194215 0.024053116240574379 0 -0.039981729195466109 0.023795285229253265 0 -0.03857172154972914 0.012582021878622666 0 -0.03659136307457949 0.01281514001947525 0 -0.035315276734070082 0.011389057461552337 0 -0.043118430585709223 0.017506760439341327 0 -0.034871843626287556 0.017867531003768658 0 -0.038874836268145911 0.012119378422839579 0 -0.03857172154972914 0.012582021878622666 0 -0.036093997048264347 0.011876863858265838 0 -0.038390600674945853 0.010765172113654263 0 -0.034871843626287556 0.017867531003768658 0 -0.043118430585709223 0.017506760439341327 0 -0.044429006726427106 0.023954460502446557 0 -0.049736935842050738 0.019517890770498859 0 -0.044429006726427106 0.023954460502446557 0 -0.050631353032394542 0.020328594883249826 0 -0.049578130658588487 0.021718474385981533 0 -0.049545661821620603 0.022922473176854939 0 -0.049736935842050738 0.019517890770498859 0 -0.043118430585709223 0.017506760439341327 0 -0.046816083001656336 0.023144113143772373 0 -0.047736871897605018 0.023927661268534059 0 -0.047209901597940487 0.025011999133887082 0 -0.049181818182378836 0.011773861300193041 0 -0.051246811101579005 0.013689634688017044 0 -0.050367205912308359 0.015730117624498909 0 -0.043118430585709223 0.017506760439341327 0 -0.045845383342646151 0.012087756872397883 0 -0.038874836268145911 0.012119378422839579 0 -0.03857172154972914 0.012582021878622666 0 -0.038905600476579955 0.015112580929503714 0 -0.03857172154972914 0.012582021878622666 0 -0.037954805178345499 0.013867696603901431 0 -0.038905600476579955 0.015112580929503714 0 -0.051052676225141473 0.012081992755141498 0 -0.049181818182378836 0.011773861300193041 0 -0.051246811101579005 0.013689634688017044 0 -0.037568680849996136 0.01323771017925986 0 -0.03659136307457949 0.01281514001947525 0 -0.03669648580823294 0.014680250099307247 0 -0.03857172154972914 0.012582021878622666 0 -0.037568680849996136 0.01323771017925986 0 -0.03659136307457949 0.01281514001947525 0 -0.03857172154972914 0.012582021878622666 0 -0.037954805178345499 0.013867696603901431 0 -0.037568680849996136 0.01323771017925986 0 -0.037954805178345499 0.013867696603901431 0 -0.037568680849996136 0.01323771017925986 0 -0.03669648580823294 0.014680250099307247 0 -0.03659136307457949 0.01281514001947525 0 -0.035290658071806716 0.013080629996838447 0 -0.03669648580823294 0.014680250099307247 0 -0.035290658071806716 0.013080629996838447 0 -0.034332395728391314 0.014117359829415081 0 -0.03669648580823294 0.014680250099307247 0 -0.03499919202649427 0.011933704725805601 0 -0.036563990113158473 0.011563968458127981 0 -0.03499919202649427 0.011933704725805601 0 -0.032449309661936834 0.012971543967149498 0 -0.034267980463197678 0.012038776497552185 0 -0.032489933073921416 0.012870048644682414 0 -0.033434773170537703 0.012760573967804018 0 -0.03394986645148651 0.013036525734920056 0 -0.032263226589980688 0.012707044978807864 0 -0.032489933073921416 0.012870048644682414 0 -0.034332395728391314 0.014117359829415081 0 -0.033930782329631717 0.0124929209437879 0 -0.032263226589980688 0.012707044978807864 0 -0.03499919202649427 0.011933704725805601 0 -0.032631835738168739 0.01260565816139823 0 -0.035290658071806716 0.013080629996838447 0 -0.034332395728391314 0.014117359829415081 0 -0.033930782329631717 0.0124929209437879 0 -0.034871843626287556 0.017867531003768658 0 -0.031583041942235816 0.016588282688130705 0 -0.033930782329631717 0.0124929209437879 0 -0.035315276734070082 0.011389057461552337 0 -0.032561094498940089 0.011123535908903673 0 -0.032784954125276961 0.012216329838733711 0 -0.033930782329631717 0.0124929209437879 0 -0.032263226589980688 0.012707044978807864 0 -0.032784954125276961 0.012216329838733711 0 -0.033930782329631717 0.0124929209437879 0 -0.032561094498940089 0.011123535908903673 0 -0.03659136307457949 0.01281514001947525 0 -0.035290658071806716 0.013080629996838447 0 -0.035315276734070082 0.011389057461552337 0 -0.035290658071806716 0.013080629996838447 0 -0.033930782329631717 0.0124929209437879 0 -0.035315276734070082 0.011389057461552337 0 -0.034822465494436912 0.02428887362267728 0 -0.035676627538611297 0.022370288579761852 0 -0.038057580084194215 0.024053116240574379 0 -0.036035514015487199 0.025969305230690406 0 -0.034822465494436912 0.02428887362267728 0 -0.038057580084194215 0.024053116240574379 0 -0.034871843626287556 0.017867531003768658 0 -0.031920412489313439 0.024098538693968833 0 -0.03388440764314813 0.022714531688459796 0 -0.031126471014169165 0.021737938448538621 0 -0.030682539300930539 0.022173412471392279 0 -0.036035514015487199 0.025969305230690406 0 -0.034822465494436912 0.02428887362267728 0 -0.032100774539345449 0.025512853746690128 0 -0.034822465494436912 0.02428887362267728 0 -0.032100774539345449 0.025512853746690128 0 -0.03209888956857096 0.023130780188470347 0 -0.03209888956857096 0.023130780188470347 0 -0.035676627538611297 0.022370288579761852 0 -0.03220217920201366 0.020979390434845892 0 -0.034822465494436912 0.02428887362267728 0 -0.03209888956857096 0.023130780188470347 0 -0.035676627538611297 0.022370288579761852 0 -0.03209888956857096 0.023130780188470347 0 -0.03220217920201366 0.020979390434845892 0 -0.029597074964746568 0.02165351927532274 0 -0.035676627538611297 0.022370288579761852 0 -0.038560981063950353 0.022555455562180134 0 -0.038992485324141721 0.0212496584933651 0 -0.035676627538611297 0.022370288579761852 0 -0.038560981063950353 0.022555455562180134 0 -0.038057580084194215 0.024053116240574379 0 -0.038560981063950353 0.022555455562180134 0 -0.04070652563192044 0.022350404948895255 0 -0.038992485324141721 0.0212496584933651 0 -0.038560981063950353 0.022555455562180134 0 -0.039526501959896057 0.023345766043152704 0 -0.04070652563192044 0.022350404948895255 0 -0.039526501959896057 0.023345766043152704 0 -0.038057580084194215 0.024053116240574379 0 -0.039981729195466109 0.023795285229253265 0 -0.038560981063950353 0.022555455562180134 0 -0.039526501959896057 0.023345766043152704 0 -0.038057580084194215 0.024053116240574379 0 -0.039526501959896057 0.023345766043152704 0 -0.040602213361634949 0.023300730921328273 0 -0.04070652563192044 0.022350404948895255 0 -0.044429006726427106 0.023954460502446557 0 -0.043826884899103247 0.022054668442525745 0 -0.049545661821620603 0.022922473176854939 0 -0.04854495789627955 0.022542631864987128 0 -0.04670675618972038 0.022915295567469917 0 -0.049578130658588487 0.021718474385981533 0 -0.049545661821620603 0.022922473176854939 0 -0.04854495789627955 0.022542631864987128 0 -0.040344677717609939 0.022273573098444112 0 -0.044429006726427106 0.023954460502446557 0 -0.04070652563192044 0.022350404948895255 0 -0.043035684664921983 0.02091115787007718 0 -0.038992485324141721 0.0212496584933651 0 -0.048072145305622545 0.022330237451937983 0 -0.04854495789627955 0.022542631864987128 0 -0.04670675618972038 0.022915295567469917 0 -0.043826884899103247 0.022054668442525745 0 -0.043232630242640444 0.020747158171324852 0 -0.048072145305622545 0.022330237451937983 0 -0.04670675618972038 0.022915295567469917 0 -0.043035684664921983 0.02091115787007718 0 -0.045662373389827142 0.01896739424051452 0 -0.046933265320346793 0.020775260646677746 0 -0.043035684664921983 0.02091115787007718 0 -0.038992485324141721 0.0212496584933651 0 -0.038847129735642659 0.01843959603097783 0 -0.035383538331180714 0.01953378185513904 0 -0.043035684664921983 0.02091115787007718 0 -0.038992485324141721 0.0212496584933651 0 -0.038847129735642659 0.01843959603097783 0 -0.038847129735642659 0.01843959603097783 0 -0.042199457130604065 0.018577007536836949 0 -0.041168486377341565 0.015619750240448543 0 -0.043035684664921983 0.02091115787007718 0 -0.038847129735642659 0.01843959603097783 0 -0.042199457130604065 0.018577007536836949 0 -0.045662373389827142 0.01896739424051452 0 -0.043035684664921983 0.02091115787007718 0 -0.042199457130604065 0.018577007536836949 0 -0.045662373389827142 0.01896739424051452 0 -0.042199457130604065 0.018577007536836949 0 -0.041168486377341565 0.015619750240448543 0 -0.048744839004806473 0.02567301410567149 0 -0.044992176468380572 0.026648974236317537 0 -0.043044305993882981 0.027806700646187402 0 -0.044992176468380572 0.026648974236317537 0 -0.043044305993882981 0.027806700646187402 0 -0.042646655183758791 0.025226034296813447 0 -0.043044305993882981 0.027806700646187402 0 -0.038916275634970361 0.026181848074291265 0 -0.036523889805806189 0.028906898565862826 0 -0.043044305993882981 0.027806700646187402 0 -0.038916275634970361 0.026181848074291265 0 -0.042646655183758791 0.025226034296813447 0 -0.038847129735642659 0.01843959603097783 0 -0.041168486377341565 0.015619750240448543 0 -0.034511990158549659 0.015835948125347877 0 -0.041993785388675799 0.02178731529039752 0 -0.035565588618159782 0.022356305378585944 0 -0.035834781400339133 0.023661875027573408 0 -0.040930085368058797 0.023864471105600388 0 -0.038916275634970361 0.026181848074291265 0 -0.040930085368058797 0.023864471105600388 0 -0.038916275634970361 0.026181848074291265 0 -0.042646655183758791 0.025226034296813447 0 -0.044078842038168115 0.022410425886058148 0 -0.040930085368058797 0.023864471105600388 0 -0.042646655183758791 0.025226034296813447 0 -0.044078842038168115 0.022410425886058148 0 -0.044992176468380572 0.026648974236317537 0 -0.042646655183758791 0.025226034296813447 0 -0.02877110317533129 0.024116732681812161 0 -0.031857437215982436 0.022980150889850129 0 -0.031420209794534706 0.025287377917503337 0 -0.031857437215982436 0.022980150889850129 0 -0.031420209794534706 0.025287377917503337 0 -0.034812576173320807 0.025983875384279303 0 -0.031420209794534706 0.025287377917503337 0 -0.034812576173320807 0.025983875384279303 0 -0.032613820493173566 0.026962494001099672 0 -0.031420209794534706 0.025287377917503337 0 -0.032613820493173566 0.026962494001099672 0 -0.029948394019780725 0.02635118126218422 0 -0.035834781400339133 0.023661875027573408 0 -0.031857437215982436 0.022980150889850129 0 -0.034812576173320807 0.025983875384279303 0 -0.035834781400339133 0.023661875027573408 0 -0.038916275634970361 0.026181848074291265 0 -0.034812576173320807 0.025983875384279303 0 -0.038916275634970361 0.026181848074291265 0 -0.034812576173320807 0.025983875384279303 0 -0.036523889805806189 0.028906898565862826 0 -0.034812576173320807 0.025983875384279303 0 -0.036523889805806189 0.028906898565862826 0 -0.032613820493173566 0.026962494001099672 0 -0.035565588618159782 0.022356305378585944 0 -0.03025147639837282 0.02298379944130045 0 -0.036523889805806189 0.028906898565862826 0 -0.032613820493173566 0.026962494001099672 0 -0.030884833418340838 0.028436441500129195 0 -0.034511990158549659 0.015835948125347877 0 -0.031808725000729836 0.018832611649410799 0 -0.029195741295041107 0.017462234292894091 0 -0.038847129735642659 0.01843959603097783 0 -0.034511990158549659 0.015835948125347877 0 -0.035383538331180714 0.01953378185513904 0 -0.034511990158549659 0.015835948125347877 0 -0.031808725000729836 0.018832611649410799 0 -0.035383538331180714 0.01953378185513904 0 -0.035676627538611297 0.022370288579761852 0 -0.035383538331180714 0.01953378185513904 0 -0.03220217920201366 0.020979390434845892 0 -0.035676627538611297 0.022370288579761852 0 -0.038992485324141721 0.0212496584933651 0 -0.035383538331180714 0.01953378185513904 0 -0.031808725000729836 0.018832611649410799 0 -0.035383538331180714 0.01953378185513904 0 -0.03220217920201366 0.020979390434845892 0 -0.031808725000729836 0.018832611649410799 0 -0.03220217920201366 0.020979390434845892 0 -0.029972160233492501 0.020190602184657593 0 -0.03220217920201366 0.020979390434845892 0 -0.029972160233492501 0.020190602184657593 0 -0.029597074964746568 0.02165351927532274 0 -0.029972160233492501 0.020190602184657593 0 -0.027690299306475818 0.020486475429426103 0 -0.028864981098244282 0.01907262035532745 0 -0.029972160233492501 0.020190602184657593 0 -0.027690299306475818 0.020486475429426103 0 -0.029597074964746568 0.02165351927532274 0 -0.025875017144870043 0.020625753137119892 0 -0.027690299306475818 0.020486475429426103 0 -0.024706918722461405 0.019671778145945572 0 -0.027690299306475818 0.020486475429426103 0 -0.028864981098244282 0.01907262035532745 0 -0.024706918722461405 0.019671778145945572 0 -0.025875017144870043 0.020625753137119892 0 -0.027690299306475818 0.020486475429426103 0 -0.027386287314533925 0.02168475439499926 0 -0.03025147639837282 0.02298379944130045 0 -0.026811080384158033 0.02394375316242053 0 -0.028864981098244282 0.01907262035532745 0 -0.026055952171610448 0.0209790249279719 0 -0.026042517556538407 0.023036421114253493 0 -0.028559818571845794 0.019365849553648735 0 -0.025304597890548352 0.021255517463874947 0 -0.031808725000729836 0.018832611649410799 0 -0.029972160233492501 0.020190602184657593 0 -0.028864981098244282 0.01907262035532745 0 -0.028864981098244282 0.01907262035532745 0 -0.029195741295041107 0.017462234292894091 0 -0.026055952171610448 0.0209790249279719 0 -0.031808725000729836 0.018832611649410799 0 -0.028864981098244282 0.01907262035532745 0 -0.029195741295041107 0.017462234292894091 0 -0.032613820493173566 0.026962494001099672 0 -0.030884833418340838 0.028436441500129195 0 -0.029948394019780725 0.02635118126218422 0 -0.030884833418340838 0.028436441500129195 0 -0.029948394019780725 0.02635118126218422 0 -0.028267067692503881 0.026493546481417513 0 -0.030884833418340838 0.028436441500129195 0 -0.028267067692503881 0.026493546481417513 0 -0.026985478458802798 0.02701812052951201 0 -0.028267067692503881 0.026493546481417513 0 -0.026397678121087325 0.025580539229351079 0 -0.026985478458802798 0.02701812052951201 0 -0.028267067692503881 0.026493546481417513 0 -0.027780682983982036 0.025318696825386525 0 -0.026397678121087325 0.025580539229351079 0 -0.029948394019780725 0.02635118126218422 0 -0.028267067692503881 0.026493546481417513 0 -0.027780682983982036 0.025318696825386525 0 -0.027780682983982036 0.025318696825386525 0 -0.026208958034005029 0.024422232800493562 0 -0.026397678121087325 0.025580539229351079 0 -0.02877110317533129 0.024116732681812161 0 -0.027780682983982036 0.025318696825386525 0 -0.026208958034005029 0.024422232800493562 0 -0.02877110317533129 0.024116732681812161 0 -0.031420209794534706 0.025287377917503337 0 -0.029948394019780725 0.02635118126218422 0 -0.02877110317533129 0.024116732681812161 0 -0.029948394019780725 0.02635118126218422 0 -0.027780682983982036 0.025318696825386525 0 -0.023824767277959468 0.024491250608900523 0 -0.024949187562828049 0.024858745881604763 0 -0.024480417163429611 0.025093743919974109 0 -0.024949187562828049 0.024858745881604763 0 -0.026208958034005029 0.024422232800493562 0 -0.026397678121087325 0.025580539229351079 0 -0.024949187562828049 0.024858745881604763 0 -0.026397678121087325 0.025580539229351079 0 -0.025365663218935658 0.025444716799339229 0 -0.026397678121087325 0.025580539229351079 0 -0.025365663218935658 0.025444716799339229 0 -0.026985478458802798 0.02701812052951201 0 -0.024949187562828049 0.024858745881604763 0 -0.025365663218935658 0.025444716799339229 0 -0.024480417163429611 0.025093743919974109 0 -0.025365663218935658 0.025444716799339229 0 -0.025052527422869886 0.024616760523745777 0 -0.024480417163429611 0.025093743919974109 0 -0.025365663218935658 0.025444716799339229 0 -0.025052527422869886 0.024616760523745777 0 -0.026985478458802798 0.02701812052951201 0 -0.025386163492583696 0.024502206265970508 0 -0.026811080384158033 0.02394375316242053 0 -0.025052527422869886 0.024616760523745777 0 -0.026055952171610448 0.0209790249279719 0 -0.026042517556538407 0.023036421114253493 0 -0.024706918722461405 0.019671778145945572 0 -0.02463300806491317 0.02013075940918806 0 -0.023305082246732653 0.018933178118749425 0 -0.025875017144870043 0.020625753137119892 0 -0.024706918722461405 0.019671778145945572 0 -0.02463300806491317 0.02013075940918806 0 -0.025304597890548352 0.021255517463874947 0 -0.024561033784384456 0.021749871904770315 0 -0.025052527422869886 0.024616760523745777 0 -0.026042517556538407 0.023036421114253493 0 -0.025674911591957426 0.024246044873278718 0 -0.023305082246732653 0.018933178118749425 0 -0.024600612417280149 0.020217680392583755 0 -0.024420274739642388 0.020135631493208326 0 -0.023305082246732653 0.018933178118749425 0 -0.024600612417280149 0.020217680392583755 0 -0.023647688928777534 0.017371838633552461 0 -0.025672124745637456 0.016240843352443683 0 -0.024125350311958796 0.017416848970569006 0 -0.02463300806491317 0.02013075940918806 0 -0.023305082246732653 0.018933178118749425 0 -0.024420274739642388 0.020135631493208326 0 -0.026381967317445611 0.012935668470966093 0 -0.025007662093725139 0.015014547358739203 0 -0.025254442214706713 0.015772876015430305 0 -0.026381967317445611 0.012935668470966093 0 -0.025007662093725139 0.015014547358739203 0 -0.023647688928777534 0.017371838633552461 0 -0.025918040784700655 0.012455153708471009 0 -0.025661449936440282 0.013852652296088211 0 -0.024466877851518826 0.014957220245208997 0 -0.025672124745637456 0.016240843352443683 0 -0.025106628739576021 0.014602629673064098 0 -0.026274185555890901 0.013238048043124869 0 -0.025918040784700655 0.012455153708471009 0 -0.025661449936440282 0.013852652296088211 0 -0.027674879069279852 0.012702485821757722 0 -0.025918040784700655 0.012455153708471009 0 -0.029757439365185274 0.011335139852447775 0 -0.023811777641298493 0.020808562844941418 0 -0.025242003096920356 0.019415750203562693 0 -0.02732456219052631 0.02153461281810215 0 -0.025672124745637456 0.016240843352443683 0 -0.028468627513275637 0.016532905271127895 0 -0.027674879069279852 0.012702485821757722 0 -0.026274185555890901 0.013238048043124869 0 -0.025918040784700655 0.012455153708471009 0 -0.024853271140210059 0.020847364643663491 0 -0.024873548043731486 0.020977512524911545 0 -0.024600612417280149 0.020217680392583755 0 -0.024564535131870228 0.020122114618545003 0 -0.024420274739642388 0.020135631493208326 0 -0.025672124745637456 0.016240843352443683 0 -0.024853271140210059 0.020847364643663491 0 -0.024853271140210059 0.020847364643663491 0 -0.024605631554607616 0.020567093680953406 0 -0.02463300806491317 0.02013075940918806 0 -0.024420274739642388 0.020135631493208326 0 -0.024784983804373818 0.020654565313859639 0 -0.025875017144870043 0.020625753137119892 0 -0.02463300806491317 0.02013075940918806 0 -0.025287307793124752 0.021388486905303497 0 -0.024961476080286354 0.021302211699131754 0 -0.024420274739642388 0.020135631493208326 0 -0.024784983804373818 0.020654565313859639 0 -0.024961476080286354 0.021302211699131754 0 -0.025287307793124752 0.021388486905303497 0 -0.024784983804373818 0.020654565313859639 0 -0.02463300806491317 0.02013075940918806 0 -0.025287307793124752 0.021388486905303497 0 -0.024784983804373818 0.020654565313859639 0 -0.024681785285740301 0.02196436323611627 0 -0.025287307793124752 0.021388486905303497 0 -0.028182680630338984 0.024128045255308608 0 -0.025287307793124752 0.021388486905303497 0 -0.027386287314533925 0.02168475439499926 0 -0.028182680630338984 0.024128045255308608 0 -0.024853271140210059 0.020847364643663491 0 -0.028195689132070479 0.022269925339567325 0 -0.025875017144870043 0.020625753137119892 0 -0.025287307793124752 0.021388486905303497 0 -0.027386287314533925 0.02168475439499926 0 -0.03209888956857096 0.023130780188470347 0 -0.029597074964746568 0.02165351927532274 0 -0.028182680630338984 0.024128045255308608 0 -0.027690299306475818 0.020486475429426103 0 -0.027386287314533925 0.02168475439499926 0 -0.029597074964746568 0.02165351927532274 0 -0.027386287314533925 0.02168475439499926 0 -0.029597074964746568 0.02165351927532274 0 -0.028182680630338984 0.024128045255308608 0 -0.030682539300930539 0.022173412471392279 0 -0.028256563582069422 0.02062460658127278 0 -0.02732456219052631 0.02153461281810215 0 -0.031126471014169165 0.021737938448538621 0 -0.030682539300930539 0.022173412471392279 0 -0.028256563582069422 0.02062460658127278 0 -0.031583041942235816 0.016588282688130705 0 -0.028468627513275637 0.016532905271127895 0 -0.031920412489313439 0.024098538693968833 0 -0.028195689132070479 0.022269925339567325 0 -0.032100774539345449 0.025512853746690128 0 -0.03209888956857096 0.023130780188470347 0 -0.028182680630338984 0.024128045255308608 0 -0.032561094498940089 0.011123535908903673 0 -0.029757439365185274 0.011335139852447775 0 -0.030815524061784241 0.012410903651825419 0 -0.025242003096920356 0.019415750203562693 0 -0.028256563582069422 0.02062460658127278 0 -0.02732456219052631 0.02153461281810215 0 -0.027674879069279852 0.012702485821757722 0 -0.029757439365185274 0.011335139852447775 0 -0.028925788484546206 0.013106199053611406 0 -0.029757439365185274 0.011335139852447775 0 -0.028925788484546206 0.013106199053611406 0 -0.030815524061784241 0.012410903651825419 0 -0.028925788484546206 0.013106199053611406 0 -0.030815524061784241 0.012410903651825419 0 -0.029896675104237332 0.013285571387030879 0 -0.030815524061784241 0.012410903651825419 0 -0.029896675104237332 0.013285571387030879 0 -0.030915369707833752 0.01299692950886773 0 -0.028925788484546206 0.013106199053611406 0 -0.029074862906283739 0.0136232751109483 0 -0.029896675104237332 0.013285571387030879 0 -0.032784954125276961 0.012216329838733711 0 -0.032561094498940089 0.011123535908903673 0 -0.03208464671898717 0.012222848843451201 0 -0.032561094498940089 0.011123535908903673 0 -0.030815524061784241 0.012410903651825419 0 -0.03208464671898717 0.012222848843451201 0 -0.030815524061784241 0.012410903651825419 0 -0.031585723851031956 0.012700716877439103 0 -0.030915369707833752 0.01299692950886773 0 -0.030815524061784241 0.012410903651825419 0 -0.031585723851031956 0.012700716877439103 0 -0.03208464671898717 0.012222848843451201 0 -0.031585723851031956 0.012700716877439103 0 -0.03208464671898717 0.012222848843451201 0 -0.032263226589980688 0.012707044978807864 0 -0.032784954125276961 0.012216329838733711 0 -0.03208464671898717 0.012222848843451201 0 -0.032263226589980688 0.012707044978807864 0 -0.031585723851031956 0.012700716877439103 0 -0.032263226589980688 0.012707044978807864 0 -0.031961107848105644 0.012902892310064822 0 -0.032263226589980688 0.012707044978807864 0 -0.032489933073921416 0.012870048644682414 0 -0.031961107848105644 0.012902892310064822 0 -0.032489933073921416 0.012870048644682414 0 -0.031961107848105644 0.012902892310064822 0 -0.031983019414029749 0.013107201621540179 0 -0.031961107848105644 0.012902892310064822 0 -0.031417650527739822 0.013068381138785187 0 -0.031983019414029749 0.013107201621540179 0 -0.031417650527739822 0.013068381138785187 0 -0.031299865501685765 0.013328469753211858 0 -0.031983019414029749 0.013107201621540179 0 -0.031585723851031956 0.012700716877439103 0 -0.031961107848105644 0.012902892310064822 0 -0.031417650527739822 0.013068381138785187 0 -0.031585723851031956 0.012700716877439103 0 -0.031417650527739822 0.013068381138785187 0 -0.030915369707833752 0.01299692950886773 0 -0.031417650527739822 0.013068381138785187 0 -0.031299865501685765 0.013328469753211858 0 -0.030616491539276203 0.013372398605302245 0 -0.031621452742789012 0.0134382318676202 0 -0.031983019414029749 0.013107201621540179 0 -0.032498363444131005 0.013117875992054447 0 -0.031299865501685765 0.013328469753211858 0 -0.031621452742789012 0.0134382318676202 0 -0.031983019414029749 0.013107201621540179 0 -0.031299865501685765 0.013328469753211858 0 -0.031621452742789012 0.0134382318676202 0 -0.030872018153370873 0.013644555945483096 0 -0.032489933073921416 0.012870048644682414 0 -0.031983019414029749 0.013107201621540179 0 -0.032498363444131005 0.013117875992054447 0 -0.032489933073921416 0.012870048644682414 0 -0.032498363444131005 0.013117875992054447 0 -0.033434773170537703 0.012760573967804018 0 -0.029896675104237332 0.013285571387030879 0 -0.030616491539276203 0.013372398605302245 0 -0.029668435381976849 0.013763169588275668 0 -0.029074862906283739 0.0136232751109483 0 -0.029896675104237332 0.013285571387030879 0 -0.029668435381976849 0.013763169588275668 0 -0.029896675104237332 0.013285571387030879 0 -0.030915369707833752 0.01299692950886773 0 -0.030616491539276203 0.013372398605302245 0 -0.031417650527739822 0.013068381138785187 0 -0.030915369707833752 0.01299692950886773 0 -0.030616491539276203 0.013372398605302245 0 -0.031299865501685765 0.013328469753211858 0 -0.030616491539276203 0.013372398605302245 0 -0.030872018153370873 0.013644555945483096 0 -0.030616491539276203 0.013372398605302245 0 -0.030314381270692064 0.013687972624366903 0 -0.030872018153370873 0.013644555945483096 0 -0.030314381270692064 0.013687972624366903 0 -0.030872018153370873 0.013644555945483096 0 -0.030092012802450201 0.014015298894252692 0 -0.030314381270692064 0.013687972624366903 0 -0.029668435381976849 0.013763169588275668 0 -0.030092012802450201 0.014015298894252692 0 -0.029668435381976849 0.013763169588275668 0 -0.029353597115402311 0.014093993002771546 0 -0.030092012802450201 0.014015298894252692 0 -0.030616491539276203 0.013372398605302245 0 -0.030314381270692064 0.013687972624366903 0 -0.029668435381976849 0.013763169588275668 0 -0.029668435381976849 0.013763169588275668 0 -0.028720586492018686 0.014093979151582847 0 -0.029353597115402311 0.014093993002771546 0 -0.028720586492018686 0.014093979151582847 0 -0.029353597115402311 0.014093993002771546 0 -0.02893745376351535 0.014483496220117516 0 -0.028720586492018686 0.014093979151582847 0 -0.027883526359293389 0.014365024407682444 0 -0.02893745376351535 0.014483496220117516 0 -0.029074862906283739 0.0136232751109483 0 -0.028720586492018686 0.014093979151582847 0 -0.028180572024064321 0.013770417437105123 0 -0.028720586492018686 0.014093979151582847 0 -0.027883526359293389 0.014365024407682444 0 -0.028180572024064321 0.013770417437105123 0 -0.029074862906283739 0.0136232751109483 0 -0.029668435381976849 0.013763169588275668 0 -0.028720586492018686 0.014093979151582847 0 -0.027284222930202287 0.014250632630935694 0 -0.027883526359293389 0.014365024407682444 0 -0.028180572024064321 0.013770417437105123 0 -0.027284222930202287 0.014250632630935694 0 -0.027883526359293389 0.014365024407682444 0 -0.027111612610507017 0.014677072075393014 0 -0.027883526359293389 0.014365024407682444 0 -0.02783138260308992 0.014702798094891445 0 -0.02893745376351535 0.014483496220117516 0 -0.027883526359293389 0.014365024407682444 0 -0.02783138260308992 0.014702798094891445 0 -0.027111612610507017 0.014677072075393014 0 -0.02783138260308992 0.014702798094891445 0 -0.027111612610507017 0.014677072075393014 0 -0.027003286171431849 0.015071721611737662 0 -0.027111612610507017 0.014677072075393014 0 -0.026234720794707064 0.014991821630655253 0 -0.027003286171431849 0.015071721611737662 0 -0.026234720794707064 0.014991821630655253 0 -0.027003286171431849 0.015071721611737662 0 -0.025776777757187876 0.015532808419188613 0 -0.026234720794707064 0.014991821630655253 0 -0.025867970446801586 0.014870449857088242 0 -0.025195253474622023 0.0152956183328237 0 -0.025867970446801586 0.014870449857088242 0 -0.025361993678294781 0.01484894053406473 0 -0.025195253474622023 0.0152956183328237 0 -0.026234720794707064 0.014991821630655253 0 -0.025867970446801586 0.014870449857088242 0 -0.026505589992809993 0.014593609805205267 0 -0.025867970446801586 0.014870449857088242 0 -0.026505589992809993 0.014593609805205267 0 -0.025915346552174506 0.014545264018420503 0 -0.027111612610507017 0.014677072075393014 0 -0.026234720794707064 0.014991821630655253 0 -0.026505589992809993 0.014593609805205267 0 -0.027284222930202287 0.014250632630935694 0 -0.027111612610507017 0.014677072075393014 0 -0.026505589992809993 0.014593609805205267 0 -0.027284222930202287 0.014250632630935694 0 -0.026505589992809993 0.014593609805205267 0 -0.026638956075353493 0.014210287078766679 0 -0.026505589992809993 0.014593609805205267 0 -0.026638956075353493 0.014210287078766679 0 -0.025915346552174506 0.014545264018420503 0 -0.026638956075353493 0.014210287078766679 0 -0.025915346552174506 0.014545264018420503 0 -0.026070644961265019 0.014112526659556625 0 -0.026638956075353493 0.014210287078766679 0 -0.026070644961265019 0.014112526659556625 0 -0.026728220210694983 0.013784549439212604 0 -0.025361993678294781 0.01484894053406473 0 -0.025425647445859387 0.014499882878683383 0 -0.024466877851518826 0.014957220245208997 0 -0.025867970446801586 0.014870449857088242 0 -0.025361993678294781 0.01484894053406473 0 -0.025915346552174506 0.014545264018420503 0 -0.025361993678294781 0.01484894053406473 0 -0.025915346552174506 0.014545264018420503 0 -0.025425647445859387 0.014499882878683383 0 -0.025915346552174506 0.014545264018420503 0 -0.025425647445859387 0.014499882878683383 0 -0.026070644961265019 0.014112526659556625 0 -0.025425647445859387 0.014499882878683383 0 -0.025661449936440282 0.013852652296088211 0 -0.024466877851518826 0.014957220245208997 0 -0.025425647445859387 0.014499882878683383 0 -0.026070644961265019 0.014112526659556625 0 -0.025661449936440282 0.013852652296088211 0 -0.026274185555890901 0.013238048043124869 0 -0.02615233551916327 0.013741325751178165 0 -0.026728220210694983 0.013784549439212604 0 -0.026070644961265019 0.014112526659556625 0 -0.02615233551916327 0.013741325751178165 0 -0.026728220210694983 0.013784549439212604 0 -0.026070644961265019 0.014112526659556625 0 -0.025661449936440282 0.013852652296088211 0 -0.02615233551916327 0.013741325751178165 0 -0.026274185555890901 0.013238048043124869 0 -0.025661449936440282 0.013852652296088211 0 -0.02615233551916327 0.013741325751178165 0 -0.026274185555890901 0.013238048043124869 0 -0.026728220210694983 0.013784549439212604 0 -0.02770429055147678 0.013365804622966347 0 -0.027674879069279852 0.012702485821757722 0 -0.026274185555890901 0.013238048043124869 0 -0.02770429055147678 0.013365804622966347 0 -0.027674879069279852 0.012702485821757722 0 -0.028925788484546206 0.013106199053611406 0 -0.02770429055147678 0.013365804622966347 0 -0.028925788484546206 0.013106199053611406 0 -0.029074862906283739 0.0136232751109483 0 -0.028180572024064321 0.013770417437105123 0 -0.028925788484546206 0.013106199053611406 0 -0.02770429055147678 0.013365804622966347 0 -0.028180572024064321 0.013770417437105123 0 -0.026728220210694983 0.013784549439212604 0 -0.02770429055147678 0.013365804622966347 0 -0.027319711378878318 0.013889926843619773 0 -0.027284222930202287 0.014250632630935694 0 -0.028180572024064321 0.013770417437105123 0 -0.027319711378878318 0.013889926843619773 0 -0.02770429055147678 0.013365804622966347 0 -0.028180572024064321 0.013770417437105123 0 -0.027319711378878318 0.013889926843619773 0 -0.027284222930202287 0.014250632630935694 0 -0.026638956075353493 0.014210287078766679 0 -0.027319711378878318 0.013889926843619773 0 -0.026638956075353493 0.014210287078766679 0 -0.026728220210694983 0.013784549439212604 0 -0.027319711378878318 0.013889926843619773 0 -0.028931683319816773 0.015065653480826729 0 -0.030731594373828029 0.014888761968914416 0 -0.029680113594095472 0.015497859770529856 0 -0.028931683319816773 0.015065653480826729 0 -0.03029642646403374 0.014412555372965749 0 -0.030731594373828029 0.014888761968914416 0 -0.028931683319816773 0.015065653480826729 0 -0.027773673566194708 0.015777285501764347 0 -0.027087792654626013 0.015402981641067555 0 -0.028931683319816773 0.015065653480826729 0 -0.027773673566194708 0.015777285501764347 0 -0.029680113594095472 0.015497859770529856 0 -0.028931683319816773 0.015065653480826729 0 -0.027087792654626013 0.015402981641067555 0 -0.02801347639156377 0.014935770260260904 0 -0.027087792654626013 0.015402981641067555 0 -0.027003286171431849 0.015071721611737662 0 -0.025776777757187876 0.015532808419188613 0 -0.027087792654626013 0.015402981641067555 0 -0.027003286171431849 0.015071721611737662 0 -0.02801347639156377 0.014935770260260904 0 -0.02783138260308992 0.014702798094891445 0 -0.027003286171431849 0.015071721611737662 0 -0.02801347639156377 0.014935770260260904 0 -0.02783138260308992 0.014702798094891445 0 -0.02801347639156377 0.014935770260260904 0 -0.02893745376351535 0.014483496220117516 0 -0.028931683319816773 0.015065653480826729 0 -0.02801347639156377 0.014935770260260904 0 -0.02893745376351535 0.014483496220117516 0 -0.028931683319816773 0.015065653480826729 0 -0.02893745376351535 0.014483496220117516 0 -0.03029642646403374 0.014412555372965749 0 -0.029353597115402311 0.014093993002771546 0 -0.02893745376351535 0.014483496220117516 0 -0.030092012802450201 0.014015298894252692 0 -0.02893745376351535 0.014483496220117516 0 -0.030092012802450201 0.014015298894252692 0 -0.03029642646403374 0.014412555372965749 0 -0.030092012802450201 0.014015298894252692 0 -0.030942223579401386 0.013894231498142052 0 -0.03029642646403374 0.014412555372965749 0 -0.030942223579401386 0.013894231498142052 0 -0.031381243046246468 0.014030010748246887 0 -0.031973819889861879 0.013607802069957755 0 -0.030872018153370873 0.013644555945483096 0 -0.030092012802450201 0.014015298894252692 0 -0.030942223579401386 0.013894231498142052 0 -0.031621452742789012 0.0134382318676202 0 -0.030872018153370873 0.013644555945483096 0 -0.030942223579401386 0.013894231498142052 0 -0.031381243046246468 0.014030010748246887 0 -0.03029642646403374 0.014412555372965749 0 -0.031708386818204426 0.014364655569866248 0 -0.030942223579401386 0.013894231498142052 0 -0.031381243046246468 0.014030010748246887 0 -0.03029642646403374 0.014412555372965749 0 -0.032498363444131005 0.013117875992054447 0 -0.032852917010689986 0.013276958003992556 0 -0.033434773170537703 0.012760573967804018 0 -0.032498363444131005 0.013117875992054447 0 -0.032852917010689986 0.013276958003992556 0 -0.031973819889861879 0.013607802069957755 0 -0.031621452742789012 0.0134382318676202 0 -0.030942223579401386 0.013894231498142052 0 -0.031973819889861879 0.013607802069957755 0 -0.031621452742789012 0.0134382318676202 0 -0.032498363444131005 0.013117875992054447 0 -0.031973819889861879 0.013607802069957755 0 -0.031381243046246468 0.014030010748246887 0 -0.031973819889861879 0.013607802069957755 0 -0.032547821342685024 0.013871061989887459 0 -0.032852917010689986 0.013276958003992556 0 -0.031973819889861879 0.013607802069957755 0 -0.032547821342685024 0.013871061989887459 0 -0.032852917010689986 0.013276958003992556 0 -0.032547821342685024 0.013871061989887459 0 -0.033382835573936835 0.013435438506169163 0 -0.032547821342685024 0.013871061989887459 0 -0.032991965687883353 0.014283943977543246 0 -0.033791684818725506 0.013682198262887649 0 -0.032547821342685024 0.013871061989887459 0 -0.033791684818725506 0.013682198262887649 0 -0.033382835573936835 0.013435438506169163 0 -0.031381243046246468 0.014030010748246887 0 -0.032547821342685024 0.013871061989887459 0 -0.031708386818204426 0.014364655569866248 0 -0.032547821342685024 0.013871061989887459 0 -0.032991965687883353 0.014283943977543246 0 -0.031708386818204426 0.014364655569866248 0 -0.032991965687883353 0.014283943977543246 0 -0.031708386818204426 0.014364655569866248 0 -0.032373913273381183 0.014821391181469154 0 -0.032991965687883353 0.014283943977543246 0 -0.033927223175519612 0.01404989355128654 0 -0.033791684818725506 0.013682198262887649 0 -0.03029642646403374 0.014412555372965749 0 -0.031708386818204426 0.014364655569866248 0 -0.030731594373828029 0.014888761968914416 0 -0.031708386818204426 0.014364655569866248 0 -0.030731594373828029 0.014888761968914416 0 -0.032373913273381183 0.014821391181469154 0 -0.030731594373828029 0.014888761968914416 0 -0.032373913273381183 0.014821391181469154 0 -0.031604326068265985 0.015550147276950302 0 -0.032373913273381183 0.014821391181469154 0 -0.031604326068265985 0.015550147276950302 0 -0.033415068724976515 0.01520189586095474 0 -0.032991965687883353 0.014283943977543246 0 -0.034137271340145867 0.014460994946741971 0 -0.033927223175519612 0.01404989355128654 0 -0.032991965687883353 0.014283943977543246 0 -0.032373913273381183 0.014821391181469154 0 -0.034137271340145867 0.014460994946741971 0 -0.032373913273381183 0.014821391181469154 0 -0.034137271340145867 0.014460994946741971 0 -0.033415068724976515 0.01520189586095474 0 -0.034137271340145867 0.014460994946741971 0 -0.033415068724976515 0.01520189586095474 0 -0.034652876450499935 0.015442414652576253 0 -0.033415068724976515 0.01520189586095474 0 -0.033474440467004291 0.015971551485495651 0 -0.034652876450499935 0.015442414652576253 0 -0.033474440467004291 0.015971551485495651 0 -0.034652876450499935 0.015442414652576253 0 -0.033967162088582442 0.016845067249858847 0 -0.031604326068265985 0.015550147276950302 0 -0.033415068724976515 0.01520189586095474 0 -0.033474440467004291 0.015971551485495651 0 -0.031604326068265985 0.015550147276950302 0 -0.033474440467004291 0.015971551485495651 0 -0.032038144667827576 0.016389727103883974 0 -0.031604326068265985 0.015550147276950302 0 -0.032038144667827576 0.016389727103883974 0 -0.02968347659211934 0.016255064100701315 0 -0.032038144667827576 0.016389727103883974 0 -0.02968347659211934 0.016255064100701315 0 -0.03067509241910614 0.017181990137329774 0 -0.031604326068265985 0.015550147276950302 0 -0.029680113594095472 0.015497859770529856 0 -0.02968347659211934 0.016255064100701315 0 -0.030731594373828029 0.014888761968914416 0 -0.031604326068265985 0.015550147276950302 0 -0.029680113594095472 0.015497859770529856 0 -0.027773673566194708 0.015777285501764347 0 -0.029680113594095472 0.015497859770529856 0 -0.02968347659211934 0.016255064100701315 0 -0.027773673566194708 0.015777285501764347 0 -0.02968347659211934 0.016255064100701315 0 -0.027330244522426318 0.016477051412602122 0 -0.02968347659211934 0.016255064100701315 0 -0.027330244522426318 0.016477051412602122 0 -0.028633340845513857 0.016991921784439073 0 -0.02968347659211934 0.016255064100701315 0 -0.03067509241910614 0.017181990137329774 0 -0.028633340845513857 0.016991921784439073 0 -0.03067509241910614 0.017181990137329774 0 -0.028288639348566791 0.018508434381506875 0 -0.028633340845513857 0.016991921784439073 0 -0.03067509241910614 0.017181990137329774 0 -0.033502368057216889 0.019040581237832161 0 -0.032526614412519146 0.017317326595988693 0 -0.032038144667827576 0.016389727103883974 0 -0.03067509241910614 0.017181990137329774 0 -0.032526614412519146 0.017317326595988693 0 -0.033883063845730012 0.022474436125118808 0 -0.030165793844624169 0.0028025124151959094 0 -0.029797724612521836 0.0030836750460626608 0 -0.030165793844624169 0.0028025124151959094 0 -0.03067509241910614 0.017181990137329774 0 -0.03202667018986368 0.018913570674000766 0 -0.035080599714170012 0.017081281606340683 0 -0.03067509241910614 0.017181990137329774 0 -0.03202667018986368 0.018913570674000766 0 -0.028288639348566791 0.018508434381506875 0 -0.033452806521461778 0.015846612219071514 0 -0.030342541141250096 0.014821084303642797 0 -0.031434543761640302 0.016553475272203782 0 -0.029797724612521836 0.0030836750460626608 0 -0.030530390887086003 0.018698989624165243 0 -0.02536408339473634 -0.01278310109385228 0 -0.026055430668329098 -0.013753235624478617 0 -0.024354894440613586 -0.013113858882440228 0 -0.029797724612521836 0.0030836750460626608 0 -0.02783600157858318 0.0017598663184576564 0 -0.02536408339473634 -0.01278310109385228 0 -0.024697150251202817 -0.0116373633337182 0 -0.024354894440613586 -0.013113858882440228 0 -0.02536408339473634 -0.01278310109385228 0 -0.026212498170250648 -0.012445703033384384 0 -0.024697150251202817 -0.0116373633337182 0 -0.02536408339473634 -0.01278310109385228 0 -0.026212498170250648 -0.012445703033384384 0 -0.026055430668329098 -0.013753235624478617 0 -0.029797724612521836 0.0030836750460626608 0 -0.023719449326336621 -0.014425154164721793 0 -0.026055430668329098 -0.013753235624478617 0 -0.027348552216385248 -0.012280561011902912 0 -0.027436257473223483 -0.012582647258620763 0 -0.026212498170250648 -0.012445703033384384 0 -0.026055430668329098 -0.013753235624478617 0 -0.027348552216385248 -0.012280561011902912 0 -0.025026534684005779 -0.011755765236867036 0 -0.027436257473223483 -0.012582647258620763 0 -0.027119678141253378 -0.013498412998168468 0 -0.027348552216385248 -0.012280561011902912 0 -0.028856418253619835 -0.011860019296486451 0 -0.027436257473223483 -0.012582647258620763 0 -0.027348552216385248 -0.012280561011902912 0 -0.027330160950585391 -0.011831071513139012 0 -0.028856418253619835 -0.011860019296486451 0 -0.026212498170250648 -0.012445703033384384 0 -0.027348552216385248 -0.012280561011902912 0 -0.027330160950585391 -0.011831071513139012 0 -0.027330160950585391 -0.011831071513139012 0 -0.028856418253619835 -0.011860019296486451 0 -0.028958143817884471 -0.011348536791049149 0 -0.024683929708440185 -0.012462555032942449 0 -0.026190777375416602 -0.010280763684837225 0 -0.026212498170250648 -0.012445703033384384 0 -0.027330160950585391 -0.011831071513139012 0 -0.024697150251202817 -0.0116373633337182 0 -0.027330160950585391 -0.011831071513139012 0 -0.026169892632089468 -0.011848342475752159 0 -0.0251930749999437 -0.0127409370141896 0 -0.027330160950585391 -0.011831071513139012 0 -0.026169892632089468 -0.011848342475752159 0 -0.02689928584616209 -0.011071344959451028 0 -0.026169892632089468 -0.011848342475752159 0 -0.024606196767115479 -0.012268390082308265 0 -0.02689928584616209 -0.011071344959451028 0 -0.027585481629185039 -0.011434573779649978 0 -0.023327019859019648 -0.013426116498450647 0 -0.026169892632089468 -0.011848342475752159 0 -0.0251930749999437 -0.0127409370141896 0 -0.024606196767115479 -0.012268390082308265 0 -0.030569893586941968 -0.011706839789636598 0 -0.028874183305625946 -0.01236859325067341 0 -0.030094901736480575 -0.012854626047514856 0 -0.028856418253619835 -0.011860019296486451 0 -0.028874183305625946 -0.01236859325067341 0 -0.027436257473223483 -0.012582647258620763 0 -0.030569893586941968 -0.011706839789636598 0 -0.028856418253619835 -0.011860019296486451 0 -0.028874183305625946 -0.01236859325067341 0 -0.028874183305625946 -0.01236859325067341 0 -0.027436257473223483 -0.012582647258620763 0 -0.027119678141253378 -0.013498412998168468 0 -0.028874183305625946 -0.01236859325067341 0 -0.030094901736480575 -0.012854626047514856 0 -0.027119678141253378 -0.013498412998168468 0 -0.027737211465091036 -0.014540258559228456 0 -0.030165793844624169 0.0028025124151959094 0 -0.031965021587957949 0.0024141234364356326 0 -0.030165793844624169 0.0028025124151959094 0 -0.035839169113446312 0.017432873822223322 0 -0.033502368057216889 0.019040581237832161 0 -0.033967162088582442 0.016845067249858847 0 -0.028596826044143309 -0.010994578187254337 0 -0.028530325708023038 -0.012942563371462401 0 -0.02583355811087238 -0.011901424208111255 0 -0.033502368057216889 0.019040581237832161 0 -0.032526614412519146 0.017317326595988693 0 -0.033967162088582442 0.016845067249858847 0 -0.033474440467004291 0.015971551485495651 0 -0.032038144667827576 0.016389727103883974 0 -0.033967162088582442 0.016845067249858847 0 -0.032038144667827576 0.016389727103883974 0 -0.032526614412519146 0.017317326595988693 0 -0.033967162088582442 0.016845067249858847 0 -0.035839169113446312 0.017432873822223322 0 -0.033967162088582442 0.016845067249858847 0 -0.036037461411078102 0.015812918982716532 0 -0.034652876450499935 0.015442414652576253 0 -0.033967162088582442 0.016845067249858847 0 -0.036037461411078102 0.015812918982716532 0 -0.035839169113446312 0.017432873822223322 0 -0.036037461411078102 0.015812918982716532 0 -0.03805958739110106 0.015660932022824151 0 -0.036037461411078102 0.015812918982716532 0 -0.03805958739110106 0.015660932022824151 0 -0.037196472385299946 0.014595568666477803 0 -0.03805958739110106 0.015660932022824151 0 -0.038060178496287678 0.014285254603482355 0 -0.037196472385299946 0.014595568666477803 0 -0.030816107333515017 -0.013539483858512731 0 -0.03116280595402229 -0.012093522043416637 0 -0.032702610126348855 -0.012283023796019824 0 -0.028530325708023038 -0.012942563371462401 0 -0.030816107333515017 -0.013539483858512731 0 -0.03116280595402229 -0.012093522043416637 0 -0.031965021587957949 0.0024141234364356326 0 -0.034574497389950602 0.00072872379752203411 0 -0.028530325708023038 -0.012942563371462401 0 -0.030335567531361032 -0.011410645211464648 0 -0.03116280595402229 -0.012093522043416637 0 -0.028596826044143309 -0.010994578187254337 0 -0.028530325708023038 -0.012942563371462401 0 -0.030335567531361032 -0.011410645211464648 0 -0.03116280595402229 -0.012093522043416637 0 -0.032899302981805774 -0.011407758305095633 0 -0.032702610126348855 -0.012283023796019824 0 -0.03116280595402229 -0.012093522043416637 0 -0.031664240478144472 -0.011375076966704761 0 -0.032899302981805774 -0.011407758305095633 0 -0.030335567531361032 -0.011410645211464648 0 -0.03116280595402229 -0.012093522043416637 0 -0.031664240478144472 -0.011375076966704761 0 -0.031664240478144472 -0.011375076966704761 0 -0.032618024252922956 -0.011080772300870647 0 -0.032899302981805774 -0.011407758305095633 0 -0.031664240478144472 -0.011375076966704761 0 -0.032618024252922956 -0.011080772300870647 0 -0.031504003459927016 -0.011305796296737005 0 -0.028596826044143309 -0.010994578187254337 0 -0.030335567531361032 -0.011410645211464648 0 -0.031504003459927016 -0.011305796296737005 0 -0.027737211465091036 -0.014540258559228456 0 -0.031974675520143096 -0.010433685666456685 0 -0.030569893586941968 -0.011706839789636598 0 -0.030094901736480575 -0.012854626047514856 0 -0.031504003459927016 -0.011305796296737005 0 -0.030335567531361032 -0.011410645211464648 0 -0.031664240478144472 -0.011375076966704761 0 -0.031504003459927016 -0.011305796296737005 0 -0.035216335285830999 -0.011184813038218328 0 -0.034330197349207087 -0.011043327153034325 0 -0.035687775870084371 -0.010918580981804314 0 -0.035216335285830999 -0.011184813038218328 0 -0.035687775870084371 -0.010918580981804314 0 -0.035036188543203874 -0.011243535163633422 0 -0.035216335285830999 -0.011184813038218328 0 -0.035036188543203874 -0.011243535163633422 0 -0.035290606973274345 -0.011474361121874076 0 -0.035216335285830999 -0.011184813038218328 0 -0.034330197349207087 -0.011043327153034325 0 -0.03497062637424353 -0.01115338003251256 0 -0.034330197349207087 -0.011043327153034325 0 -0.032899302981805774 -0.011407758305095633 0 -0.035687775870084371 -0.010918580981804314 0 -0.032618024252922956 -0.011080772300870647 0 -0.034330197349207087 -0.011043327153034325 0 -0.034620888867775243 -0.011006839840950805 0 -0.032618024252922956 -0.011080772300870647 0 -0.034330197349207087 -0.011043327153034325 0 -0.032899302981805774 -0.011407758305095633 0 -0.032702610126348855 -0.012283023796019824 0 -0.035687775870084371 -0.010918580981804314 0 -0.033931405537101757 -0.012780649675312603 0 -0.032899302981805774 -0.011407758305095633 0 -0.032702610126348855 -0.012283023796019824 0 -0.035687775870084371 -0.010918580981804314 0 -0.035687775870084371 -0.010918580981804314 0 -0.039237284123031346 -0.0060441267318496602 0 -0.034895059285875711 -0.0085637454748949647 0 -0.035687775870084371 -0.010918580981804314 0 -0.034895059285875711 -0.0085637454748949647 0 -0.035036188543203874 -0.011243535163633422 0 -0.035970928200351755 -0.0099507119838496572 0 -0.036636228261968717 -0.010280657237854155 0 -0.036636228261968717 -0.010280657237854155 0 -0.035579447558551386 0.0024442397622990108 0 -0.039237284123031346 -0.0060441267318496602 0 -0.037395180599128976 -0.0012381157018848067 0 -0.042288350676375215 0.0035155435125886715 0 -0.039237284123031346 -0.0060441267318496602 0 -0.037395180599128976 -0.0012381157018848067 0 -0.034895059285875711 -0.0085637454748949647 0 -0.030816107333515017 -0.013539483858512731 0 -0.033931405537101757 -0.012780649675312603 0 -0.032958032493959288 -0.013884186199512509 0 -0.030816107333515017 -0.013539483858512731 0 -0.032702610126348855 -0.012283023796019824 0 -0.033931405537101757 -0.012780649675312603 0 -0.03805958739110106 0.015660932022824151 0 -0.038636512480491665 0.014002119771875982 0 -0.03956950119251388 0.01363590359677035 0 -0.034574497389950602 0.00072872379752203411 0 -0.035579447558551386 0.0024442397622990108 0 -0.038636512480491665 0.014002119771875982 0 -0.03956950119251388 0.01363590359677035 0 -0.038810486912894696 0.013212047109754583 0 -0.03805958739110106 0.015660932022824151 0 -0.038636512480491665 0.014002119771875982 0 -0.038060178496287678 0.014285254603482355 0 -0.038636512480491665 0.014002119771875982 0 -0.038060178496287678 0.014285254603482355 0 -0.038276137487744888 0.013732341351912817 0 -0.037695113824404165 0.004173227154822128 0 -0.041523939621785036 0.02251015610450598 0 -0.03251102906870583 0.0017619137981992889 0 -0.037395180599128976 -0.0012381157018848067 0 -0.042288350676375215 0.0035155435125886715 0 -0.037695113824404165 0.004173227154822128 0 -0.037395180599128976 -0.0012381157018848067 0 -0.037695113824404165 0.004173227154822128 0 -0.03251102906870583 0.0017619137981992889 0 -0.03956950119251388 0.01363590359677035 0 -0.038810486912894696 0.013212047109754583 0 -0.038371937497426005 0.012267999700339208 0 -0.042288350676375215 0.0035155435125886715 0 -0.037695113824404165 0.004173227154822128 0 -0.041523939621785036 0.02251015610450598 0 -0.035579447558551386 0.0024442397622990108 0 -0.04477443378050245 0.015706017799981396 0 -0.04477443378050245 0.015706017799981396 0 -0.04392377360171168 0.0046645099373341129 0 -0.055013639053353741 0.010077733231672605 0 -0.053753234463593723 0.0086108146617698035 0 -0.053668719613354121 0.0065919202365333851 0 -0.038810486912894696 0.013212047109754583 0 -0.038421814804874638 0.012762679707128872 0 -0.038371937497426005 0.012267999700339208 0 -0.038421814804874638 0.012762679707128872 0 -0.038371937497426005 0.012267999700339208 0 -0.038161202196889746 0.012607310135317483 0 -0.055013639053353741 0.010077733231672605 0 -0.054260288860903005 0.010115054523344547 0 -0.053753234463593723 0.0086108146617698035 0 -0.054260288860903005 0.010115054523344547 0 -0.053517581068337344 0.0099561457112498485 0 -0.053753234463593723 0.0086108146617698035 0 -0.055013639053353741 0.010077733231672605 0 -0.054260288860903005 0.010115054523344547 0 -0.053844617137478491 0.01100591118621503 0 -0.053844617137478491 0.01100591118621503 0 -0.054145996730855413 0.013961325990652158 0 -0.052473527147562607 0.010778041706825172 0 -0.04477443378050245 0.015706017799981396 0 -0.046778747420645958 0.011000792885685801 0 -0.038371937497426005 0.012267999700339208 0 -0.03790825085653849 0.012277364478379531 0 -0.037758637172282929 0.011606859424401567 0 -0.055013639053353741 0.010077733231672605 0 -0.053844617137478491 0.01100591118621503 0 -0.054145996730855413 0.013961325990652158 0 -0.054260288860903005 0.010115054523344547 0 -0.053844617137478491 0.01100591118621503 0 -0.053517581068337344 0.0099561457112498485 0 -0.038371937497426005 0.012267999700339208 0 -0.03790825085653849 0.012277364478379531 0 -0.038161202196889746 0.012607310135317483 0 -0.037119011118573367 0.012649419117220921 0 -0.037646659994186801 0.012546108275874147 0 -0.037398964899722817 0.013052991392136667 0 -0.037119011118573367 0.012649419117220921 0 -0.037398964899722817 0.013052991392136667 0 -0.036581573555621257 0.013241942372201798 0 -0.037119011118573367 0.012649419117220921 0 -0.037646659994186801 0.012546108275874147 0 -0.037458285848579492 0.01226562441828428 0 -0.03790825085653849 0.012277364478379531 0 -0.037646659994186801 0.012546108275874147 0 -0.037458285848579492 0.01226562441828428 0 -0.03790825085653849 0.012277364478379531 0 -0.037824746265884862 0.012687568707891072 0 -0.038161202196889746 0.012607310135317483 0 -0.037646659994186801 0.012546108275874147 0 -0.037824746265884862 0.012687568707891072 0 -0.037398964899722817 0.013052991392136667 0 -0.03790825085653849 0.012277364478379531 0 -0.037646659994186801 0.012546108275874147 0 -0.037824746265884862 0.012687568707891072 0 -0.037824746265884862 0.012687568707891072 0 -0.037398964899722817 0.013052991392136667 0 -0.037954482747231087 0.012972906993552382 0 -0.037824746265884862 0.012687568707891072 0 -0.038161202196889746 0.012607310135317483 0 -0.037954482747231087 0.012972906993552382 0 -0.037398964899722817 0.013052991392136667 0 -0.037742020351689325 0.01364265095021292 0 -0.037954482747231087 0.012972906993552382 0 -0.037398964899722817 0.013052991392136667 0 -0.037742020351689325 0.01364265095021292 0 -0.036733698442357798 0.013850325414495707 0 -0.037742020351689325 0.01364265095021292 0 -0.037954482747231087 0.012972906993552382 0 -0.038252237130256321 0.013185709721389055 0 -0.038421814804874638 0.012762679707128872 0 -0.038161202196889746 0.012607310135317483 0 -0.038196203797151253 0.012852378451343023 0 -0.038161202196889746 0.012607310135317483 0 -0.038196203797151253 0.012852378451343023 0 -0.037954482747231087 0.012972906993552382 0 -0.038196203797151253 0.012852378451343023 0 -0.037954482747231087 0.012972906993552382 0 -0.038252237130256321 0.013185709721389055 0 -0.038421814804874638 0.012762679707128872 0 -0.038252237130256321 0.013185709721389055 0 -0.038510843459776192 0.013109950825929919 0 -0.038421814804874638 0.012762679707128872 0 -0.038196203797151253 0.012852378451343023 0 -0.038252237130256321 0.013185709721389055 0 -0.038810486912894696 0.013212047109754583 0 -0.038421814804874638 0.012762679707128872 0 -0.038510843459776192 0.013109950825929919 0 -0.038252237130256321 0.013185709721389055 0 -0.038510843459776192 0.013109950825929919 0 -0.038600506473354612 0.013426685505014033 0 -0.038252237130256321 0.013185709721389055 0 -0.038600506473354612 0.013426685505014033 0 -0.038276137487744888 0.013732341351912817 0 -0.038636512480491665 0.014002119771875982 0 -0.038600506473354612 0.013426685505014033 0 -0.038276137487744888 0.013732341351912817 0 -0.038636512480491665 0.014002119771875982 0 -0.038810486912894696 0.013212047109754583 0 -0.038600506473354612 0.013426685505014033 0 -0.038810486912894696 0.013212047109754583 0 -0.038510843459776192 0.013109950825929919 0 -0.038600506473354612 0.013426685505014033 0 -0.037742020351689325 0.01364265095021292 0 -0.038252237130256321 0.013185709721389055 0 -0.038276137487744888 0.013732341351912817 0 -0.038060178496287678 0.014285254603482355 0 -0.037742020351689325 0.01364265095021292 0 -0.038276137487744888 0.013732341351912817 0 -0.038060178496287678 0.014285254603482355 0 -0.037742020351689325 0.01364265095021292 0 -0.037196472385299946 0.014595568666477803 0 -0.037196472385299946 0.014595568666477803 0 -0.036733698442357798 0.013850325414495707 0 -0.036183344923927489 0.014698740538172481 0 -0.036733698442357798 0.013850325414495707 0 -0.036183344923927489 0.014698740538172481 0 -0.035992962808534902 0.014154140959861233 0 -0.037742020351689325 0.01364265095021292 0 -0.037196472385299946 0.014595568666477803 0 -0.036733698442357798 0.013850325414495707 0 -0.034137271340145867 0.014460994946741971 0 -0.034652876450499935 0.015442414652576253 0 -0.035274415396940005 0.01448051055794344 0 -0.034652876450499935 0.015442414652576253 0 -0.036183344923927489 0.014698740538172481 0 -0.035274415396940005 0.01448051055794344 0 -0.036037461411078102 0.015812918982716532 0 -0.037196472385299946 0.014595568666477803 0 -0.036183344923927489 0.014698740538172481 0 -0.034652876450499935 0.015442414652576253 0 -0.036037461411078102 0.015812918982716532 0 -0.036183344923927489 0.014698740538172481 0 -0.036183344923927489 0.014698740538172481 0 -0.035274415396940005 0.01448051055794344 0 -0.035992962808534902 0.014154140959861233 0 -0.034137271340145867 0.014460994946741971 0 -0.035274415396940005 0.01448051055794344 0 -0.035095352344232 0.014073896444463985 0 -0.035274415396940005 0.01448051055794344 0 -0.035095352344232 0.014073896444463985 0 -0.035992962808534902 0.014154140959861233 0 -0.035095352344232 0.014073896444463985 0 -0.035992962808534902 0.014154140959861233 0 -0.035825450606207211 0.013759464426913984 0 -0.034768160804571957 0.013780218702112169 0 -0.035825450606207211 0.013759464426913984 0 -0.035694642606733419 0.013295600724613091 0 -0.034768160804571957 0.013780218702112169 0 -0.035095352344232 0.014073896444463985 0 -0.035825450606207211 0.013759464426913984 0 -0.034137271340145867 0.014460994946741971 0 -0.034768160804571957 0.013780218702112169 0 -0.033927223175519612 0.01404989355128654 0 -0.034137271340145867 0.014460994946741971 0 -0.034768160804571957 0.013780218702112169 0 -0.035095352344232 0.014073896444463985 0 -0.037398964899722817 0.013052991392136667 0 -0.036733698442357798 0.013850325414495707 0 -0.036581573555621257 0.013241942372201798 0 -0.036733698442357798 0.013850325414495707 0 -0.035825450606207211 0.013759464426913984 0 -0.036581573555621257 0.013241942372201798 0 -0.036733698442357798 0.013850325414495707 0 -0.035992962808534902 0.014154140959861233 0 -0.035825450606207211 0.013759464426913984 0 -0.035825450606207211 0.013759464426913984 0 -0.036581573555621257 0.013241942372201798 0 -0.035694642606733419 0.013295600724613091 0 -0.036581573555621257 0.013241942372201798 0 -0.03640150227588352 0.01283811199644838 0 -0.035694642606733419 0.013295600724613091 0 -0.037119011118573367 0.012649419117220921 0 -0.036581573555621257 0.013241942372201798 0 -0.03640150227588352 0.01283811199644838 0 -0.03640150227588352 0.01283811199644838 0 -0.035694642606733419 0.013295600724613091 0 -0.035785917101195004 0.012798392972060705 0 -0.03640150227588352 0.01283811199644838 0 -0.035785917101195004 0.012798392972060705 0 -0.036854364656277026 0.01232745474702049 0 -0.035694642606733419 0.013295600724613091 0 -0.035785917101195004 0.012798392972060705 0 -0.03482846031904191 0.013313172828271743 0 -0.035785917101195004 0.012798392972060705 0 -0.036395682611453192 0.012034798672191311 0 -0.036854364656277026 0.01232745474702049 0 -0.034768160804571957 0.013780218702112169 0 -0.033927223175519612 0.01404989355128654 0 -0.033791684818725506 0.013682198262887649 0 -0.034768160804571957 0.013780218702112169 0 -0.03482846031904191 0.013313172828271743 0 -0.033791684818725506 0.013682198262887649 0 -0.034768160804571957 0.013780218702112169 0 -0.035694642606733419 0.013295600724613091 0 -0.03482846031904191 0.013313172828271743 0 -0.03482846031904191 0.013313172828271743 0 -0.033791684818725506 0.013682198262887649 0 -0.034327014263373437 0.012919195109016466 0 -0.035785917101195004 0.012798392972060705 0 -0.03482846031904191 0.013313172828271743 0 -0.034327014263373437 0.012919195109016466 0 -0.033791684818725506 0.013682198262887649 0 -0.033382835573936835 0.013435438506169163 0 -0.034327014263373437 0.012919195109016466 0 -0.032852917010689986 0.013276958003992556 0 -0.033382835573936835 0.013435438506169163 0 -0.034327014263373437 0.012919195109016466 0 -0.034267980463197678 0.012038776497552185 0 -0.034327014263373437 0.012919195109016466 0 -0.033434773170537703 0.012760573967804018 0 -0.032852917010689986 0.013276958003992556 0 -0.034327014263373437 0.012919195109016466 0 -0.033434773170537703 0.012760573967804018 0 -0.035785917101195004 0.012798392972060705 0 -0.034327014263373437 0.012919195109016466 0 -0.036395682611453192 0.012034798672191311 0 -0.03499919202649427 0.011933704725805601 0 -0.03622837326446042 0.010371614365482722 0 -0.034267980463197678 0.012038776497552185 0 -0.034327014263373437 0.012919195109016466 0 -0.036395682611453192 0.012034798672191311 0 -0.03619986489247027 0.0084248152176736556 0 -0.038454914675800478 0.0089786864356809961 0 -0.038467320339693585 0.0097488654255051179 0 -0.038467320339693585 0.0097488654255051179 0 -0.040722770935878866 0.0095789419104620674 0 -0.04073516501939508 0.011112551128031889 0 -0.038454914675800478 0.0089786864356809961 0 -0.038467320339693585 0.0097488654255051179 0 -0.040722770935878866 0.0095789419104620674 0 -0.036563990113158473 0.011563968458127981 0 -0.045845383342646151 0.012087756872397883 0 -0.03622837326446042 0.010371614365482722 0 -0.046778747420645958 0.011000792885685801 0 -0.037954805178345499 0.013867696603901431 0 -0.03669648580823294 0.014680250099307247 0 -0.038905600476579955 0.015112580929503714 0 -0.052633544250890105 0.0098838195178229133 0 -0.053269803650454257 0.011112650094418608 0 -0.05452312331645523 0.010538061283236708 0 -0.045845383342646151 0.012087756872397883 0 -0.05490641482105596 0.013654292424221781 0 -0.051246811101579005 0.013689634688017044 0 -0.050367205912308359 0.015730117624498909 0 -0.052756920615878763 0.01496276616432685 0 -0.045845383342646151 0.012087756872397883 0 -0.046778747420645958 0.011000792885685801 0 -0.046778747420645958 0.011000792885685801 0 -0.05509899174331865 0.011550405416220027 0 -0.03790825085653849 0.012277364478379531 0 -0.037758637172282929 0.011606859424401567 0 -0.037458285848579492 0.01226562441828428 0 -0.037758637172282929 0.011606859424401567 0 -0.037458285848579492 0.01226562441828428 0 -0.036854364656277026 0.01232745474702049 0 -0.036395682611453192 0.012034798672191311 0 -0.037758637172282929 0.011606859424401567 0 -0.036854364656277026 0.01232745474702049 0 -0.037119011118573367 0.012649419117220921 0 -0.03640150227588352 0.01283811199644838 0 -0.036854364656277026 0.01232745474702049 0 -0.037119011118573367 0.012649419117220921 0 -0.037458285848579492 0.01226562441828428 0 -0.036854364656277026 0.01232745474702049 0 -0.05452312331645523 0.010538061283236708 0 -0.054744771509407916 0.010966499949390028 0 -0.054955054396185289 0.010804699908794358 0 -0.053132637418723802 0.016184713063460417 0 -0.053546465827043144 0.01610923224000339 0 -0.054728914550446046 0.016547892316330685 0 -0.05490641482105596 0.013654292424221781 0 -0.054315377826802722 0.013605294368779922 0 -0.054744771509407916 0.010966499949390028 0 -0.054433925262040925 0.011071806430013655 0 -0.054955054396185289 0.010804699908794358 0 -0.05452312331645523 0.010538061283236708 0 -0.054955054396185289 0.010804699908794358 0 -0.054998143818703452 0.011197809549141988 0 -0.053269803650454257 0.011112650094418608 0 -0.05452312331645523 0.010538061283236708 0 -0.054998143818703452 0.011197809549141988 0 -0.053132637418723802 0.016184713063460417 0 -0.052756920615878763 0.01496276616432685 0 -0.053546465827043144 0.01610923224000339 0 -0.050367205912308359 0.015730117624498909 0 -0.053132637418723802 0.016184713063460417 0 -0.052756920615878763 0.01496276616432685 0 -0.052756920615878763 0.01496276616432685 0 -0.053814748410503127 0.01500790805128008 0 -0.053546465827043144 0.01610923224000339 0 -0.052657175180127115 0.013640074074752791 0 -0.052756920615878763 0.01496276616432685 0 -0.053814748410503127 0.01500790805128008 0 -0.051248808621225446 0.015159842022660082 0 -0.053038252614502152 0.016208234532959019 0 -0.053817985924145995 0.015521528640593711 0 -0.053546465827043144 0.01610923224000339 0 -0.054728914550446046 0.016547892316330685 0 -0.054773246904611814 0.017279208620786381 0 -0.053352380488763083 0.016290947176531505 0 -0.05409204493133575 0.014535860766006894 0 -0.053038252614502152 0.016208234532959019 0 -0.053465833974065215 0.015766684206390644 0 -0.053038252614502152 0.016208234532959019 0 -0.054315377826802722 0.013605294368779922 0 -0.052724281662725289 0.017923040120369795 0 -0.054773246904611814 0.017279208620786381 0 -0.053352380488763083 0.016290947176531505 0 -0.052724281662725289 0.017923040120369795 0 -0.053352380488763083 0.016290947176531505 0 -0.052177936280087336 0.016193689902671855 0 -0.053352380488763083 0.016290947176531505 0 -0.052949887832390054 0.015144822731151135 0 -0.052177936280087336 0.016193689902671855 0 -0.053352380488763083 0.016290947176531505 0 -0.052949887832390054 0.015144822731151135 0 -0.05409204493133575 0.014535860766006894 0 -0.052177936280087336 0.016193689902671855 0 -0.051813746054963895 0.01506335110323077 0 -0.051441521334636885 0.015845397309099882 0 -0.052177936280087336 0.016193689902671855 0 -0.052308034552503324 0.015052414877578376 0 -0.051813746054963895 0.01506335110323077 0 -0.052949887832390054 0.015144822731151135 0 -0.052177936280087336 0.016193689902671855 0 -0.052308034552503324 0.015052414877578376 0 -0.052949887832390054 0.015144822731151135 0 -0.052308034552503324 0.015052414877578376 0 -0.052800166780867117 0.014131860023488551 0 -0.052308034552503324 0.015052414877578376 0 -0.051813746054963895 0.01506335110323077 0 -0.051954888812360094 0.013882778121268556 0 -0.051813746054963895 0.01506335110323077 0 -0.051954888812360094 0.013882778121268556 0 -0.051340345295750447 0.014321379387901526 0 -0.052580827506493844 0.012033991278870251 0 -0.053445927762221832 0.011435419574621339 0 -0.051073284657703277 0.012078367995503964 0 -0.051954888812360094 0.013882778121268556 0 -0.052580827506493844 0.012033991278870251 0 -0.051453330550645382 0.013066608970423912 0 -0.051954888812360094 0.013882778121268556 0 -0.052800166780867117 0.014131860023488551 0 -0.052580827506493844 0.012033991278870251 0 -0.052308034552503324 0.015052414877578376 0 -0.051954888812360094 0.013882778121268556 0 -0.052800166780867117 0.014131860023488551 0 -0.052500959008241664 0.011918023059527732 0 -0.054315377826802722 0.013605294368779922 0 -0.052949887832390054 0.015144822731151135 0 -0.052800166780867117 0.014131860023488551 0 -0.05409204493133575 0.014535860766006894 0 -0.052800166780867117 0.014131860023488551 0 -0.052580827506493844 0.012033991278870251 0 -0.05409204493133575 0.014535860766006894 0 -0.052580827506493844 0.012033991278870251 0 -0.054978412044943012 0.011331115649175801 0 -0.053445927762221832 0.011435419574621339 0 -0.054978412044943012 0.011331115649175801 0 -0.053445927762221832 0.011435419574621339 0 -0.054433925262040925 0.011071806430013655 0 -0.054315377826802722 0.013605294368779922 0 -0.053877145611432829 0.011688092066972083 0 -0.054169903512876795 0.0098099328978237046 0 -0.054995565117535297 0.0093999279007282652 0 -0.054955054396185289 0.010804699908794358 0 -0.054433925262040925 0.011071806430013655 0 -0.054169903512876795 0.0098099328978237046 0 -0.054955054396185289 0.010804699908794358 0 -0.053445927762221832 0.011435419574621339 0 -0.054433925262040925 0.011071806430013655 0 -0.054169903512876795 0.0098099328978237046 0 -0.053445927762221832 0.011435419574621339 0 -0.054169903512876795 0.0098099328978237046 0 -0.052718503367884952 0.0088641294731590832 0 -0.053478506045446558 0.011409811870909689 0 -0.051431058296318048 0.010540393895688012 0 -0.053445927762221832 0.011435419574621339 0 -0.052718503367884952 0.0088641294731590832 0 -0.051480361294878846 0.0090969972078198125 0 -0.052718503367884952 0.0088641294731590832 0 -0.053461591068489522 0.0070772856927789332 0 -0.051735952620218205 0.0071988309271357942 0 -0.054169903512876795 0.0098099328978237046 0 -0.052718503367884952 0.0088641294731590832 0 -0.053461591068489522 0.0070772856927789332 0 -0.054169903512876795 0.0098099328978237046 0 -0.054995565117535297 0.0093999279007282652 0 -0.053461591068489522 0.0070772856927789332 0 -0.051861577511939594 0.0083441904877403269 0 -0.052284092351072488 0.0060950146828053081 0 -0.05145899908759511 0.0065043942084118764 0 -0.053128269610743351 0.0087516715497132965 0 -0.052526505132918892 0.0068478734064621001 0 -0.051861577511939594 0.0083441904877403269 0 -0.052670189928679036 0.0076556914237600427 0 -0.052284092351072488 0.0060950146828053081 0 -0.051861577511939594 0.0083441904877403269 0 -0.052670189928679036 0.0076556914237600427 0 -0.052870033645050572 0.0089669961110923815 0 -0.053128269610743351 0.0087516715497132965 0 -0.05509899174331865 0.011550405416220027 0 -0.054995565117535297 0.0093999279007282652 0 -0.054955054396185289 0.010804699908794358 0 -0.054998143818703452 0.011197809549141988 0 -0.051861577511939594 0.0083441904877403269 0 -0.052473527147562607 0.010778041706825172 0 -0.052870033645050572 0.0089669961110923815 0 -0.053844617137478491 0.01100591118621503 0 -0.052473527147562607 0.010778041706825172 0 -0.053517581068337344 0.0099561457112498485 0 -0.052473527147562607 0.010778041706825172 0 -0.053517581068337344 0.0099561457112498485 0 -0.052870033645050572 0.0089669961110923815 0 -0.053517581068337344 0.0099561457112498485 0 -0.052870033645050572 0.0089669961110923815 0 -0.053753234463593723 0.0086108146617698035 0 -0.052670189928679036 0.0076556914237600427 0 -0.052870033645050572 0.0089669961110923815 0 -0.053753234463593723 0.0086108146617698035 0 -0.052670189928679036 0.0076556914237600427 0 -0.053753234463593723 0.0086108146617698035 0 -0.053668719613354121 0.0065919202365333851 0 -0.052670189928679036 0.0076556914237600427 0 -0.053668719613354121 0.0065919202365333851 0 -0.052284092351072488 0.0060950146828053081 0 -0.052284092351072488 0.0060950146828053081 0 -0.05305013762640326 0.0047148077091888445 0 -0.052291737909847001 0.0046066184428107462 0 -0.053668719613354121 0.0065919202365333851 0 -0.052284092351072488 0.0060950146828053081 0 -0.05305013762640326 0.0047148077091888445 0 -0.037395180599128976 -0.0012381157018848067 0 -0.03251102906870583 0.0017619137981992889 0 -0.034895059285875711 -0.0085637454748949647 0 -0.03251102906870583 0.0017619137981992889 0 -0.034895059285875711 -0.0085637454748949647 0 -0.032105077239395104 -0.0088107845858480683 0 -0.04392377360171168 0.0046645099373341129 0 -0.042550227447755377 -0.0017818963472015061 0 -0.034895059285875711 -0.0085637454748949647 0 -0.032105077239395104 -0.0088107845858480683 0 -0.03400972525904801 -0.011208529937669128 0 -0.034895059285875711 -0.0085637454748949647 0 -0.03400972525904801 -0.011208529937669128 0 -0.035036188543203874 -0.011243535163633422 0 -0.042550227447755377 -0.0017818963472015061 0 -0.043860017438316828 -0.0050594748251993555 0 -0.05305013762640326 0.0047148077091888445 0 -0.052700499963954088 0.0031199207265514544 0 -0.052291737909847001 0.0046066184428107462 0 -0.032105077239395104 -0.0088107845858480683 0 -0.03400972525904801 -0.011208529937669128 0 -0.034599758550639098 -0.012327071618960309 0 -0.03400972525904801 -0.011208529937669128 0 -0.034599758550639098 -0.012327071618960309 0 -0.035090037904252316 -0.012199041659547901 0 -0.03400972525904801 -0.011208529937669128 0 -0.035036188543203874 -0.011243535163633422 0 -0.035090037904252316 -0.012199041659547901 0 -0.048734245503726646 6.0549454595131015e-05 0 -0.049400232261110684 -0.00032192687710057012 0 -0.049280092243302834 0.00097980856596165252 0 -0.048734245503726646 6.0549454595131015e-05 0 -0.049280092243302834 0.00097980856596165252 0 -0.048905362660608985 0.00056302574531708928 0 -0.043860017438316828 -0.0050594748251993555 0 -0.051491725075704375 0.0028024076283565142 0 -0.049400232261110684 -0.00032192687710057012 0 -0.050903095860522544 0.0001257078253767003 0 -0.049280092243302834 0.00097980856596165252 0 -0.052700499963954088 0.0031199207265514544 0 -0.052291737909847001 0.0046066184428107462 0 -0.051829374535136329 0.0040176944509612888 0 -0.051829374535136329 0.0040176944509612888 0 -0.05176278262049 0.005082447525943082 0 -0.051552260084140315 0.0044133746503259635 0 -0.051491725075704375 0.0028024076283565142 0 -0.050386167671750484 0.0032287929828599326 0 -0.052291737909847001 0.0046066184428107462 0 -0.051829374535136329 0.0040176944509612888 0 -0.05176278262049 0.005082447525943082 0 -0.052284092351072488 0.0060950146828053081 0 -0.052291737909847001 0.0046066184428107462 0 -0.05176278262049 0.005082447525943082 0 -0.052284092351072488 0.0060950146828053081 0 -0.05176278262049 0.005082447525943082 0 -0.05145899908759511 0.0065043942084118764 0 -0.05176278262049 0.005082447525943082 0 -0.05145899908759511 0.0065043942084118764 0 -0.05161784643327734 0.0052049789171324757 0 -0.052526505132918892 0.0068478734064621001 0 -0.05161100765168318 0.0053990497713008144 0 -0.053461591068489522 0.0070772856927789332 0 -0.05161784643327734 0.0052049789171324757 0 -0.051735952620218205 0.0071988309271357942 0 -0.05161784643327734 0.0052049789171324757 0 -0.050988636237591894 0.0058954490641753123 0 -0.051735952620218205 0.0071988309271357942 0 -0.050988636237591894 0.0058954490641753123 0 -0.050659759937590705 0.0040407493667136817 0 -0.05041909578022679 0.0059489768224692792 0 -0.05161784643327734 0.0052049789171324757 0 -0.050988636237591894 0.0058954490641753123 0 -0.050659759937590705 0.0040407493667136817 0 -0.050659759937590705 0.0040407493667136817 0 -0.04963998730431303 0.0017594246577682792 0 -0.049713702732753363 0.0013741415166581411 0 -0.050448675695045408 0.0039577585083171961 0 -0.050386167671750484 0.0032287929828599326 0 -0.05176278262049 0.005082447525943082 0 -0.05161784643327734 0.0052049789171324757 0 -0.051552260084140315 0.0044133746503259635 0 -0.05161784643327734 0.0052049789171324757 0 -0.050659759937590705 0.0040407493667136817 0 -0.051552260084140315 0.0044133746503259635 0 -0.04963998730431303 0.0017594246577682792 0 -0.049713702732753363 0.0013741415166581411 0 -0.048905362660608985 0.00056302574531708928 0 -0.049280092243302834 0.00097980856596165252 0 -0.04963998730431303 0.0017594246577682792 0 -0.048905362660608985 0.00056302574531708928 0 -0.050659759937590705 0.0040407493667136817 0 -0.049713702732753363 0.0013741415166581411 0 -0.050009789782771895 0.0014051749498501024 0 -0.049713702732753363 0.0013741415166581411 0 -0.049120362729056635 7.985025098075059e-05 0 -0.050009789782771895 0.0014051749498501024 0 -0.049713702732753363 0.0013741415166581411 0 -0.049120362729056635 7.985025098075059e-05 0 -0.048905362660608985 0.00056302574531708928 0 -0.049120362729056635 7.985025098075059e-05 0 -0.048905362660608985 0.00056302574531708928 0 -0.048045964838416062 -0.0006517304935184532 0 -0.048905362660608985 0.00056302574531708928 0 -0.048094013561768421 -0.00046835334781063036 0 -0.048045964838416062 -0.0006517304935184532 0 -0.048734245503726646 6.0549454595131015e-05 0 -0.048905362660608985 0.00056302574531708928 0 -0.048094013561768421 -0.00046835334781063036 0 -0.049999566843552001 0.00048510358713338154 0 -0.050084191152270363 -0.00031865567415076862 0 -0.049998890157251931 0.0004868806560343271 0 -0.050252167977927288 0.0015332916753973474 0 -0.050776628103017911 2.9440450614334067e-05 0 -0.050009789782771895 0.0014051749498501024 0 -0.050252167977927288 0.0015332916753973474 0 -0.050776628103017911 2.9440450614334067e-05 0 -0.049120362729056635 7.985025098075059e-05 0 -0.050009789782771895 0.0014051749498501024 0 -0.050776628103017911 2.9440450614334067e-05 0 -0.050009789782771895 0.0014051749498501024 0 -0.050252167977927288 0.0015332916753973474 0 -0.0501737628754629 0.0034676401481797529 0 -0.04999904323324969 0.0028874032842213107 0 -0.050252167977927288 0.0015332916753973474 0 -0.0501737628754629 0.0034676401481797529 0 -0.049998890157251931 0.0004868806560343271 0 -0.04999904323324969 0.0028874032842213107 0 -0.050252167977927288 0.0015332916753973474 0 -0.04999904323324969 0.0028874032842213107 0 -0.0501737628754629 0.0034676401481797529 0 -0.049998847109947522 0.0052919993547289523 0 -0.050659759937590705 0.0040407493667136817 0 -0.050009789782771895 0.0014051749498501024 0 -0.0501737628754629 0.0034676401481797529 0 -0.050659759937590705 0.0040407493667136817 0 -0.0501737628754629 0.0034676401481797529 0 -0.05041909578022679 0.0059489768224692792 0 -0.0501737628754629 0.0034676401481797529 0 -0.05041909578022679 0.0059489768224692792 0 -0.049998847109947522 0.0052919993547289523 0 -0.05041909578022679 0.0059489768224692792 0 -0.049998847109947522 0.0052919993547289523 0 -0.049999130997417401 0.0076918514492193991 0 -0.050000575057354155 0.0076965306432649422 0 -0.050103035828159774 0.010406772190364339 0 -0.049997285805663524 0.0093638229969718375 0 -0.050000575057354155 0.0076965306432649422 0 -0.050103035828159774 0.010406772190364339 0 -0.050475796703473561 0.010468424300547745 0 -0.049999553395617867 0.0076947687349827147 0 -0.050333466306719837 0.0090424939500163126 0 -0.050103035828159774 0.010406772190364339 0 -0.050475796703473561 0.010468424300547745 0 -0.05049764181114548 0.012270138081177938 0 -0.05041909578022679 0.0059489768224692792 0 -0.050429440926721282 0.0076403962933979481 0 -0.050929563251773384 0.0071279413497452506 0 -0.05041909578022679 0.0059489768224692792 0 -0.049999130997417401 0.0076918514492193991 0 -0.050429440926721282 0.0076403962933979481 0 -0.050988636237591894 0.0058954490641753123 0 -0.05041909578022679 0.0059489768224692792 0 -0.050929563251773384 0.0071279413497452506 0 -0.050988636237591894 0.0058954490641753123 0 -0.050929563251773384 0.0071279413497452506 0 -0.051735952620218205 0.0071988309271357942 0 -0.050929563251773384 0.0071279413497452506 0 -0.051735952620218205 0.0071988309271357942 0 -0.051480361294878846 0.0090969972078198125 0 -0.052718503367884952 0.0088641294731590832 0 -0.051735952620218205 0.0071988309271357942 0 -0.051480361294878846 0.0090969972078198125 0 -0.050429440926721282 0.0076403962933979481 0 -0.050929563251773384 0.0071279413497452506 0 -0.051480361294878846 0.0090969972078198125 0 -0.050475796703473561 0.010468424300547745 0 -0.051073284657703277 0.012078367995503964 0 -0.05049764181114548 0.012270138081177938 0 -0.050333466306719837 0.0090424939500163126 0 -0.051431058296318048 0.010540393895688012 0 -0.05049764181114548 0.012270138081177938 0 -0.051021843530203212 0.013126908514736383 0 -0.050844743743578669 0.014272504190522898 0 -0.051073284657703277 0.012078367995503964 0 -0.05049764181114548 0.012270138081177938 0 -0.051021843530203212 0.013126908514736383 0 -0.052580827506493844 0.012033991278870251 0 -0.051073284657703277 0.012078367995503964 0 -0.051453330550645382 0.013066608970423912 0 -0.051073284657703277 0.012078367995503964 0 -0.051021843530203212 0.013126908514736383 0 -0.051453330550645382 0.013066608970423912 0 -0.051021843530203212 0.013126908514736383 0 -0.051453330550645382 0.013066608970423912 0 -0.051340345295750447 0.014321379387901526 0 -0.051954888812360094 0.013882778121268556 0 -0.051453330550645382 0.013066608970423912 0 -0.051340345295750447 0.014321379387901526 0 -0.051021843530203212 0.013126908514736383 0 -0.051340345295750447 0.014321379387901526 0 -0.050844743743578669 0.014272504190522898 0 -0.051340345295750447 0.014321379387901526 0 -0.051196765173592639 0.015092278979999266 0 -0.050844743743578669 0.014272504190522898 0 -0.051195328969414949 0.015822674132569436 0 -0.051196765173592639 0.015092278979999266 0 -0.050844743743578669 0.014272504190522898 0 -0.051340345295750447 0.014321379387901526 0 -0.051196765173592639 0.015092278979999266 0 -0.051441521334636885 0.015845397309099882 0 -0.051813746054963895 0.01506335110323077 0 -0.051340345295750447 0.014321379387901526 0 -0.051441521334636885 0.015845397309099882 0 -0.05049764181114548 0.012270138081177938 0 -0.050844743743578669 0.014272504190522898 0 -0.050011150272270481 0.014488826755918987 0 -0.051195328969414949 0.015822674132569436 0 -0.050844743743578669 0.014272504190522898 0 -0.050011150272270481 0.014488826755918987 0 -0.05049764181114548 0.012270138081177938 0 -0.050011150272270481 0.014488826755918987 0 -0.0495542299241295 0.012157467454156905 0 -0.050721868205918556 0.013664680790893391 0 -0.051628392121589872 0.013581789555971809 0 -0.051040199053715665 0.011243146234061566 0 -0.050786227522244938 0.014002462416522154 0 -0.050373670717611715 0.011752375770981498 0 -0.050721868205918556 0.013664680790893391 0 -0.049999208475957235 0.012291915569656831 0 -0.051040199053715665 0.011243146234061566 0 -0.050103035828159774 0.010406772190364339 0 -0.049997285805663524 0.0093638229969718375 0 -0.0495542299241295 0.012157467454156905 0 -0.050000130767485759 0.0093622904748915242 0 -0.049999208475957235 0.012291915569656831 0 -0.051040199053715665 0.011243146234061566 0 -0.050000043712789231 0.0093632526885896999 0 -0.050373670717611715 0.011752375770981498 0 -0.050103035828159774 0.010406772190364339 0 -0.05049764181114548 0.012270138081177938 0 -0.0495542299241295 0.012157467454156905 0 -0.0099284219029604059 0.02151393449148031 0 -0.0099587266723894577 0.021463930328730424 0 -0.010249661885956959 0.021562400671027465 0 -0.0099284219029604059 0.02151393449148031 0 -0.010249661885956959 0.021562400671027465 0 -0.0099150372345889921 0.021496524081539965 0 -0.0099284219029604059 0.02151393449148031 0 -0.0091776125830067921 0.021362465446363908 0 -0.0099150372345889921 0.021496524081539965 0 -0.0099284219029604059 0.02151393449148031 0 -0.0091776125830067921 0.021362465446363908 0 -0.0094903162365489145 0.021444912613358041 0 -0.0091776125830067921 0.021362465446363908 0 -0.0094903162365489145 0.021444912613358041 0 -0.0088360682339836613 0.021426345982248799 0 -0.0094903162365489145 0.021444912613358041 0 -0.0088360682339836613 0.021426345982248799 0 -0.0094683307487481352 0.021314455226715059 0 -0.0099284219029604059 0.02151393449148031 0 -0.0094903162365489145 0.021444912613358041 0 -0.0099587266723894577 0.021463930328730424 0 -0.0094903162365489145 0.021444912613358041 0 -0.0099587266723894577 0.021463930328730424 0 -0.0094683307487481352 0.021314455226715059 0 -0.01267346206538345 0.02113048193920802 0 -0.013558198217101533 0.021093583262291975 0 -0.012777221739541751 0.020770139633857709 0 -0.013558198217101533 0.021093583262291975 0 -0.014656487990009645 0.02070871058759392 0 -0.01394420193236744 0.020249473150297126 0 -0.013558198217101533 0.021093583262291975 0 -0.014656487990009645 0.02070871058759392 0 -0.014308429751855424 0.021369518568588985 0 -0.013558198217101533 0.021093583262291975 0 -0.014308429751855424 0.021369518568588985 0 -0.013763193813960482 0.021738865799441499 0 -0.014656487990009645 0.02070871058759392 0 -0.014308429751855424 0.021369518568588985 0 -0.015235298935313458 0.021049606042098545 0 -0.014308429751855424 0.021369518568588985 0 -0.013763193813960482 0.021738865799441499 0 -0.014447260026318924 0.021842755423498981 0 -0.014308429751855424 0.021369518568588985 0 -0.014447260026318924 0.021842755423498981 0 -0.015018257161103081 0.021661715404797485 0 -0.014308429751855424 0.021369518568588985 0 -0.015235298935313458 0.021049606042098545 0 -0.015018257161103081 0.021661715404797485 0 -0.011404267242775223 0.021538147742510304 0 -0.011184504237519061 0.020393190328901304 0 -0.01267346206538345 0.02113048193920802 0 -0.013558198217101533 0.021093583262291975 0 -0.013409812104462057 0.021811357322489879 0 -0.013558198217101533 0.021093583262291975 0 -0.013763193813960482 0.021738865799441499 0 -0.013409812104462057 0.021811357322489879 0 -0.013258277131648902 0.020795314125803689 0 -0.011184504237519061 0.020393190328901304 0 -0.0093318288062301767 0.015617535440574854 0 -0.0093723851777803169 0.015614492677300824 0 -0.009490286274516143 0.015559744837702859 0 -0.011702395553887045 0.018302053596077526 0 -0.010817687558759724 0.015122524904479556 0 -0.0093723851777803169 0.015614492677300824 0 -0.0095271420608058818 0.015294381425666543 0 -0.009490286274516143 0.015559744837702859 0 -0.011184504237519061 0.020393190328901304 0 -0.011702395553887045 0.018302053596077526 0 -0.0093318288062301767 0.015617535440574854 0 -0.0093475545133219779 0.015587951608280739 0 -0.0093839236308636814 0.015655925116163084 0 -0.010098942955020432 0.017021933752948911 0 -0.011702395553887045 0.018302053596077526 0 -0.013763193813960482 0.021738865799441499 0 -0.013283913262725926 0.021796033338527154 0 -0.013370950883040045 0.022076207118230797 0 -0.012443721939710167 0.016970362830380729 0 -0.012491595746553551 0.01698218469893949 0 -0.012460659153726749 0.016988010184378375 0 -0.014447260026318924 0.021842755423498981 0 -0.014689455380371159 0.022775622010846208 0 -0.015018257161103081 0.021661715404797485 0 -0.011702395553887045 0.018302053596077526 0 -0.013176434027194033 0.018090324115977909 0 -0.013763193813960482 0.021738865799441499 0 -0.013370950883040045 0.022076207118230797 0 -0.014689455380371159 0.022775622010846208 0 -0.013763193813960482 0.021738865799441499 0 -0.014447260026318924 0.021842755423498981 0 -0.014689455380371159 0.022775622010846208 0 -0.013176434027194033 0.018090324115977909 0 -0.010817687558759724 0.015122524904479556 0 -0.010987611327449333 0.014962019405746166 0 -0.011962993059324942 0.014516263768794103 0 -0.010894173914327388 0.013852548552822676 0 -0.0095271420608058818 0.015294381425666543 0 -0.0098517913289182524 0.015086393806959328 0 -0.009490286274516143 0.015559744837702859 0 -0.010817687558759724 0.015122524904479556 0 -0.0095947900278931745 0.01494077194776113 0 -0.0098517913289182524 0.015086393806959328 0 -0.0094837255917117839 0.015633396804806448 0 -0.0099452256288425391 0.014783241068247542 0 -0.0098517913289182524 0.015086393806959328 0 -0.009490286274516143 0.015559744837702859 0 -0.0094837255917117839 0.015633396804806448 0 -0.0093318288062301767 0.015617535440574854 0 -0.0093475545133219779 0.015587951608280739 0 -0.0090506437484961025 0.015773170172569479 0 -0.0093318288062301767 0.015617535440574854 0 -0.009490286274516143 0.015559744837702859 0 -0.0090506437484961025 0.015773170172569479 0 -0.009490286274516143 0.015559744837702859 0 -0.0090506437484961025 0.015773170172569479 0 -0.0094837255917117839 0.015633396804806448 0 -0.011184504237519061 0.020393190328901304 0 -0.009243542099874354 0.01846894141032315 0 -0.0091776125830067921 0.021362465446363908 0 -0.0099150372345889921 0.021496524081539965 0 -0.0093274118739537521 0.020844829965889451 0 -0.0090506437484961025 0.015773170172569479 0 -0.0094837255917117839 0.015633396804806448 0 -0.0092200484681928558 0.016074447457640299 0 -0.009243542099874354 0.01846894141032315 0 -0.0092685841538968396 0.018836208209444955 0 -0.0090506437484961025 0.015773170172569479 0 -0.0092200484681928558 0.016074447457640299 0 -0.0087278754010972799 0.016876153176473754 0 -0.0094837255917117839 0.015633396804806448 0 -0.0092200484681928558 0.016074447457640299 0 -0.0097764279933133837 0.015603412710681051 0 -0.0094837255917117839 0.015633396804806448 0 -0.0099452256288425391 0.014783241068247542 0 -0.0097764279933133837 0.015603412710681051 0 -0.0092200484681928558 0.016074447457640299 0 -0.0087278754010972799 0.016876153176473754 0 -0.0097764279933133837 0.015603412710681051 0 -0.0098508555489723176 0.016353950015578638 0 -0.0087278754010972799 0.016876153176473754 0 -0.0097764279933133837 0.015603412710681051 0 -0.0098508555489723176 0.016353950015578638 0 -0.0087278754010972799 0.016876153176473754 0 -0.0094873855949488793 0.018838393523066103 0 -0.0093274118739537521 0.020844829965889451 0 -0.0094873855949488793 0.018838393523066103 0 -0.0086403482258349002 0.020601762504034782 0 -0.0092685841538968396 0.018836208209444955 0 -0.0096404886184892225 0.018803612316892777 0 -0.0081952109897570728 0.020103291610573438 0 -0.009260073468448083 0.017497934127671051 0 -0.0080149290413630715 0.019167239582298021 0 -0.0064666973739707654 0.020709703928583467 0 -0.0072846770114347479 0.018089686175035397 0 -0.0098508555489723176 0.016353950015578638 0 -0.0094873855949488793 0.018838393523066103 0 -0.011246838711333628 0.016865996097698809 0 -0.0094873855949488793 0.018838393523066103 0 -0.0100432593718578 0.01960541927588633 0 -0.011246838711333628 0.016865996097698809 0 -0.0094873855949488793 0.018838393523066103 0 -0.0100432593718578 0.01960541927588633 0 -0.0088223893351639503 0.020645287728196265 0 -0.0094873855949488793 0.018838393523066103 0 -0.0088223893351639503 0.020645287728196265 0 -0.0086403482258349002 0.020601762504034782 0 -0.0078430076062264552 0.021586935420750058 0 -0.0088223893351639503 0.020645287728196265 0 -0.0078714070006345883 0.021414921807237322 0 -0.0078430076062264552 0.021586935420750058 0 -0.0100432593718578 0.01960541927588633 0 -0.0088223893351639503 0.020645287728196265 0 -0.0063596990841309044 0.021466337497423296 0 -0.0081952109897570728 0.020103291610573438 0 -0.0088223893351639503 0.020645287728196265 0 -0.0081499206470409431 0.021190900441965987 0 -0.0086403482258349002 0.020601762504034782 0 -0.0081499206470409431 0.021190900441965987 0 -0.0086403482258349002 0.020601762504034782 0 -0.0079092041974873593 0.021405634362197206 0 -0.0088223893351639503 0.020645287728196265 0 -0.0081499206470409431 0.021190900441965987 0 -0.0078714070006345883 0.021414921807237322 0 -0.0081499206470409431 0.021190900441965987 0 -0.0073754958322903462 0.02166439935975905 0 -0.0079092041974873593 0.021405634362197206 0 -0.0073754958322903462 0.02166439935975905 0 -0.0079092041974873593 0.021405634362197206 0 -0.0072684516714719869 0.021654460113259753 0 -0.0073754958322903462 0.02166439935975905 0 -0.0069770871964344805 0.021780689347581882 0 -0.0072684516714719869 0.021654460113259753 0 -0.0073754958322903462 0.02166439935975905 0 -0.0069149755480299854 0.021851720826672593 0 -0.0069770871964344805 0.021780689347581882 0 -0.0081499206470409431 0.021190900441965987 0 -0.0073754958322903462 0.02166439935975905 0 -0.0078714070006345883 0.021414921807237322 0 -0.0078430076062264552 0.021586935420750058 0 -0.0061558032050414062 0.022176704389383243 0 -0.0066482327304733402 0.022005621403484887 0 -0.0073754958322903462 0.02166439935975905 0 -0.0078714070006345883 0.021414921807237322 0 -0.0071427043007702053 0.021808452979910953 0 -0.0073754958322903462 0.02166439935975905 0 -0.0071427043007702053 0.021808452979910953 0 -0.0069149755480299854 0.021851720826672593 0 -0.0078430076062264552 0.021586935420750058 0 -0.0071427043007702053 0.021808452979910953 0 -0.0066482327304733402 0.022005621403484887 0 -0.0078430076062264552 0.021586935420750058 0 -0.0078714070006345883 0.021414921807237322 0 -0.0071427043007702053 0.021808452979910953 0 -0.0091776125830067921 0.021362465446363908 0 -0.0086150138757233232 0.021088097345855036 0 -0.0082816878722535934 0.021402887844822586 0 -0.0091776125830067921 0.021362465446363908 0 -0.0093274118739537521 0.020844829965889451 0 -0.0086150138757233232 0.021088097345855036 0 -0.0093274118739537521 0.020844829965889451 0 -0.0086150138757233232 0.021088097345855036 0 -0.0086403482258349002 0.020601762504034782 0 -0.0086150138757233232 0.021088097345855036 0 -0.0086403482258349002 0.020601762504034782 0 -0.0079092041974873593 0.021405634362197206 0 -0.0079092041974873593 0.021405634362197206 0 -0.0082816878722535934 0.021402887844822586 0 -0.0076233193245044996 0.021516754482644163 0 -0.0086150138757233232 0.021088097345855036 0 -0.0079092041974873593 0.021405634362197206 0 -0.0082816878722535934 0.021402887844822586 0 -0.0079092041974873593 0.021405634362197206 0 -0.0076233193245044996 0.021516754482644163 0 -0.0072684516714719869 0.021654460113259753 0 -0.0082816878722535934 0.021402887844822586 0 -0.0080064130189677878 0.021369608150590847 0 -0.0076233193245044996 0.021516754482644163 0 -0.0091776125830067921 0.021362465446363908 0 -0.0088360682339836613 0.021426345982248799 0 -0.0082816878722535934 0.021402887844822586 0 -0.0088360682339836613 0.021426345982248799 0 -0.0082816878722535934 0.021402887844822586 0 -0.0080064130189677878 0.021369608150590847 0 -0.0088360682339836613 0.021426345982248799 0 -0.0080064130189677878 0.021369608150590847 0 -0.008563030234218302 0.021134650570270676 0 -0.0080064130189677878 0.021369608150590847 0 -0.0077222819923198349 0.021064094072522344 0 -0.008563030234218302 0.021134650570270676 0 -0.0080064130189677878 0.021369608150590847 0 -0.0072633992130974791 0.02141758121330032 0 -0.0077222819923198349 0.021064094072522344 0 -0.0080064130189677878 0.021369608150590847 0 -0.0076233193245044996 0.021516754482644163 0 -0.0072633992130974791 0.02141758121330032 0 -0.0071654430413602551 0.021603040638963362 0 -0.0076233193245044996 0.021516754482644163 0 -0.0072684516714719869 0.021654460113259753 0 -0.0071654430413602551 0.021603040638963362 0 -0.0076233193245044996 0.021516754482644163 0 -0.0072633992130974791 0.02141758121330032 0 -0.0071654430413602551 0.021603040638963362 0 -0.0072633992130974791 0.02141758121330032 0 -0.0067026848812759858 0.021620571104212893 0 -0.0072633992130974791 0.02141758121330032 0 -0.006957940910863959 0.021124783616740857 0 -0.0077222819923198349 0.021064094072522344 0 -0.0072633992130974791 0.02141758121330032 0 -0.0067348489250492584 0.021412695740283681 0 -0.006957940910863959 0.021124783616740857 0 -0.0072633992130974791 0.02141758121330032 0 -0.0067348489250492584 0.021412695740283681 0 -0.0067026848812759858 0.021620571104212893 0 -0.0067348489250492584 0.021412695740283681 0 -0.0062385891476233581 0.021317934740112253 0 -0.006957940910863959 0.021124783616740857 0 -0.006957940910863959 0.021124783616740857 0 -0.0075103187552559639 0.020688341761777918 0 -0.0077222819923198349 0.021064094072522344 0 -0.0075103187552559639 0.020688341761777918 0 -0.0077222819923198349 0.021064094072522344 0 -0.0082156900208308591 0.02055026729007094 0 -0.0077222819923198349 0.021064094072522344 0 -0.0082156900208308591 0.02055026729007094 0 -0.008563030234218302 0.021134650570270676 0 -0.0055253174668060626 0.022122883428132716 0 -0.0059134749493574591 0.022188826601028402 0 -0.0051180170417717986 0.022226130538884434 0 -0.0054958454675291101 0.022328779306605085 0 -0.0059134749493574591 0.022188826601028402 0 -0.0051180170417717986 0.022226130538884434 0 -0.0059134749493574591 0.022188826601028402 0 -0.006496304335223353 0.022011454310993012 0 -0.0059057473121345407 0.022036619552711571 0 -0.0055253174668060626 0.022122883428132716 0 -0.0059134749493574591 0.022188826601028402 0 -0.0059057473121345407 0.022036619552711571 0 -0.0059134749493574591 0.022188826601028402 0 -0.0066482327304733402 0.022005621403484887 0 -0.006496304335223353 0.022011454310993012 0 -0.0061558032050414062 0.022176704389383243 0 -0.0059134749493574591 0.022188826601028402 0 -0.0066482327304733402 0.022005621403484887 0 -0.0071427043007702053 0.021808452979910953 0 -0.0066482327304733402 0.022005621403484887 0 -0.006496304335223353 0.022011454310993012 0 -0.0071427043007702053 0.021808452979910953 0 -0.006496304335223353 0.022011454310993012 0 -0.0069149755480299854 0.021851720826672593 0 -0.006496304335223353 0.022011454310993012 0 -0.00657651031087638 0.021913216335504606 0 -0.0059057473121345407 0.022036619552711571 0 -0.006496304335223353 0.022011454310993012 0 -0.0069149755480299854 0.021851720826672593 0 -0.00657651031087638 0.021913216335504606 0 -0.00657651031087638 0.021913216335504606 0 -0.0059057473121345407 0.022036619552711571 0 -0.006000245502492103 0.021844348069397022 0 -0.0067588564030704569 0.021764206508307127 0 -0.0067026848812759858 0.021620571104212893 0 -0.006000245502492103 0.021844348069397022 0 -0.00657651031087638 0.021913216335504606 0 -0.0067588564030704569 0.021764206508307127 0 -0.006000245502492103 0.021844348069397022 0 -0.00657651031087638 0.021913216335504606 0 -0.0067588564030704569 0.021764206508307127 0 -0.0069770871964344805 0.021780689347581882 0 -0.0069149755480299854 0.021851720826672593 0 -0.00657651031087638 0.021913216335504606 0 -0.0069770871964344805 0.021780689347581882 0 -0.0067588564030704569 0.021764206508307127 0 -0.0069770871964344805 0.021780689347581882 0 -0.0072684516714719869 0.021654460113259753 0 -0.0071654430413602551 0.021603040638963362 0 -0.0067588564030704569 0.021764206508307127 0 -0.0072684516714719869 0.021654460113259753 0 -0.0071654430413602551 0.021603040638963362 0 -0.0067588564030704569 0.021764206508307127 0 -0.0067026848812759858 0.021620571104212893 0 -0.0067348489250492584 0.021412695740283681 0 -0.0067026848812759858 0.021620571104212893 0 -0.00618435697587362 0.021583522134349907 0 -0.0067026848812759858 0.021620571104212893 0 -0.00618435697587362 0.021583522134349907 0 -0.006000245502492103 0.021844348069397022 0 -0.0067348489250492584 0.021412695740283681 0 -0.0062385891476233581 0.021317934740112253 0 -0.00618435697587362 0.021583522134349907 0 -0.0062385891476233581 0.021317934740112253 0 -0.00618435697587362 0.021583522134349907 0 -0.0053310566089957868 0.021532996370785141 0 -0.00618435697587362 0.021583522134349907 0 -0.006000245502492103 0.021844348069397022 0 -0.0053310566089957868 0.021532996370785141 0 -0.0051931411652968457 0.021980358716255866 0 -0.0051180170417717986 0.022226130538884434 0 -0.003486554041521899 0.021580871654694144 0 -0.0051931411652968457 0.021980358716255866 0 -0.003486554041521899 0.021580871654694144 0 -0.0053310566089957868 0.021532996370785141 0 -0.0059057473121345407 0.022036619552711571 0 -0.006000245502492103 0.021844348069397022 0 -0.0051931411652968457 0.021980358716255866 0 -0.006000245502492103 0.021844348069397022 0 -0.0051931411652968457 0.021980358716255866 0 -0.0053310566089957868 0.021532996370785141 0 -0.0055253174668060626 0.022122883428132716 0 -0.0059057473121345407 0.022036619552711571 0 -0.0051931411652968457 0.021980358716255866 0 -0.0055253174668060626 0.022122883428132716 0 -0.0051931411652968457 0.021980358716255866 0 -0.0051180170417717986 0.022226130538884434 0 -0.0022476165359726782 0.021349964889654946 0 -0.0039839401816146253 0.020992243070561061 0 -0.003486554041521899 0.021580871654694144 0 -0.003486554041521899 0.021580871654694144 0 -0.0053310566089957868 0.021532996370785141 0 -0.0051346161171017066 0.021004083795500377 0 -0.0053310566089957868 0.021532996370785141 0 -0.0051346161171017066 0.021004083795500377 0 -0.0060834993988071618 0.020929931626339153 0 -0.0062385891476233581 0.021317934740112253 0 -0.0053310566089957868 0.021532996370785141 0 -0.0060834993988071618 0.020929931626339153 0 -0.0050553509611698851 0.020650078936617484 0 -0.0039839401816146253 0.020992243070561061 0 -0.0051346161171017066 0.021004083795500377 0 -0.0039839401816146253 0.020992243070561061 0 -0.003486554041521899 0.021580871654694144 0 -0.0051346161171017066 0.021004083795500377 0 -0.0069137165907089855 0.020540129808707144 0 -0.0070732984704247794 0.020036907544687954 0 -0.007778779046313607 0.0200833597484485 0 -0.0075103187552559639 0.020688341761777918 0 -0.007778779046313607 0.0200833597484485 0 -0.0082156900208308591 0.02055026729007094 0 -0.0075103187552559639 0.020688341761777918 0 -0.0069137165907089855 0.020540129808707144 0 -0.007778779046313607 0.0200833597484485 0 -0.006957940910863959 0.021124783616740857 0 -0.0075103187552559639 0.020688341761777918 0 -0.0069137165907089855 0.020540129808707144 0 -0.006957940910863959 0.021124783616740857 0 -0.0069137165907089855 0.020540129808707144 0 -0.0060834993988071618 0.020929931626339153 0 -0.0062385891476233581 0.021317934740112253 0 -0.006957940910863959 0.021124783616740857 0 -0.0060834993988071618 0.020929931626339153 0 -0.0069137165907089855 0.020540129808707144 0 -0.0060834993988071618 0.020929931626339153 0 -0.0061134174996531395 0.020436530111963606 0 -0.0050553509611698851 0.020650078936617484 0 -0.0051346161171017066 0.021004083795500377 0 -0.0061134174996531395 0.020436530111963606 0 -0.0051346161171017066 0.021004083795500377 0 -0.0060834993988071618 0.020929931626339153 0 -0.0061134174996531395 0.020436530111963606 0 -0.0066913954463832387 0.019791136799072639 0 -0.0061134174996531395 0.020436530111963606 0 -0.0070732984704247794 0.020036907544687954 0 -0.0069137165907089855 0.020540129808707144 0 -0.0061134174996531395 0.020436530111963606 0 -0.0070732984704247794 0.020036907544687954 0 -0.0070732984704247794 0.020036907544687954 0 -0.0076271810636982067 0.019557903035884741 0 -0.007778779046313607 0.0200833597484485 0 -0.0066913954463832387 0.019791136799072639 0 -0.0070732984704247794 0.020036907544687954 0 -0.0076271810636982067 0.019557903035884741 0 -0.0076271810636982067 0.019557903035884741 0 -0.0083197908246635255 0.019463715114395343 0 -0.007778779046313607 0.0200833597484485 0 -0.0083092828009993878 0.018970112998530145 0 -0.0090309869149811355 0.018932283465880478 0 -0.0083197908246635255 0.019463715114395343 0 -0.0076271810636982067 0.019557903035884741 0 -0.0083092828009993878 0.018970112998530145 0 -0.0083197908246635255 0.019463715114395343 0 -0.0074820785881936367 0.019317453320946455 0 -0.0076271810636982067 0.019557903035884741 0 -0.0083092828009993878 0.018970112998530145 0 -0.0090309869149811355 0.018932283465880478 0 -0.0083197908246635255 0.019463715114395343 0 -0.0086351429376499891 0.020043802354260107 0 -0.0083197908246635255 0.019463715114395343 0 -0.007778779046313607 0.0200833597484485 0 -0.0086351429376499891 0.020043802354260107 0 -0.007778779046313607 0.0200833597484485 0 -0.0086351429376499891 0.020043802354260107 0 -0.0082156900208308591 0.02055026729007094 0 -0.0086351429376499891 0.020043802354260107 0 -0.0082156900208308591 0.02055026729007094 0 -0.0087489433239054913 0.020762723540596304 0 -0.0082156900208308591 0.02055026729007094 0 -0.0087489433239054913 0.020762723540596304 0 -0.008563030234218302 0.021134650570270676 0 -0.0086351429376499891 0.020043802354260107 0 -0.0087489433239054913 0.020762723540596304 0 -0.0095826790691912467 0.020757035062699481 0 -0.0087489433239054913 0.020762723540596304 0 -0.0095826790691912467 0.020757035062699481 0 -0.0090882111607364438 0.021031472196265631 0 -0.010358281614673913 0.020037490287283081 0 -0.0095651415806205353 0.02083650357487753 0 -0.0090309869149811355 0.018932283465880478 0 -0.0086351429376499891 0.020043802354260107 0 -0.0095826790691912467 0.020757035062699481 0 -0.011844738380694388 0.020768912983323118 0 -0.0095826790691912467 0.020757035062699481 0 -0.010701680738360461 0.020792658058556096 0 -0.01267346206538345 0.02113048193920802 0 -0.010701680738360461 0.020792658058556096 0 -0.012777221739541751 0.020770139633857709 0 -0.0095826790691912467 0.020757035062699481 0 -0.010701680738360461 0.020792658058556096 0 -0.0094683307487481352 0.021314455226715059 0 -0.0099587266723894577 0.021463930328730424 0 -0.010701680738360461 0.020792658058556096 0 -0.0094683307487481352 0.021314455226715059 0 -0.011404267242775223 0.021538147742510304 0 -0.010698832640933419 0.02052701326156774 0 -0.0088360682339836613 0.021426345982248799 0 -0.0094683307487481352 0.021314455226715059 0 -0.008563030234218302 0.021134650570270676 0 -0.0087489433239054913 0.020762723540596304 0 -0.008563030234218302 0.021134650570270676 0 -0.0090882111607364438 0.021031472196265631 0 -0.0095826790691912467 0.020757035062699481 0 -0.0094683307487481352 0.021314455226715059 0 -0.0090882111607364438 0.021031472196265631 0 -0.0094683307487481352 0.021314455226715059 0 -0.008563030234218302 0.021134650570270676 0 -0.0090882111607364438 0.021031472196265631 0 -0.013558198217101533 0.021093583262291975 0 -0.01394420193236744 0.020249473150297126 0 -0.012777221739541751 0.020770139633857709 0 -0.01394420193236744 0.020249473150297126 0 -0.012777221739541751 0.020770139633857709 0 -0.012679167579519561 0.020383333347478352 0 -0.011844738380694388 0.020768912983323118 0 -0.010701680738360461 0.020792658058556096 0 -0.012679167579519561 0.020383333347478352 0 -0.010701680738360461 0.020792658058556096 0 -0.012777221739541751 0.020770139633857709 0 -0.012679167579519561 0.020383333347478352 0 -0.01394420193236744 0.020249473150297126 0 -0.012679167579519561 0.020383333347478352 0 -0.013494344622382793 0.019846709944578506 0 -0.012679167579519561 0.020383333347478352 0 -0.012822851453240183 0.020525509818433842 0 -0.013494344622382793 0.019846709944578506 0 -0.012822851453240183 0.020525509818433842 0 -0.012966639082580726 0.021242045720700754 0 -0.013494344622382793 0.019846709944578506 0 -0.011844738380694388 0.020768912983323118 0 -0.012679167579519561 0.020383333347478352 0 -0.012822851453240183 0.020525509818433842 0 -0.010548713404619131 0.01967785993529415 0 -0.010358281614673913 0.020037490287283081 0 -0.0084917176303366693 0.018406971646934726 0 -0.0083092828009993878 0.018970112998530145 0 -0.0090309869149811355 0.018932283465880478 0 -0.0082826609665973914 0.018734527098076929 0 -0.0084917176303366693 0.018406971646934726 0 -0.0083092828009993878 0.018970112998530145 0 -0.013007840730549806 0.021352385820349387 0 -0.011844738380694388 0.020768912983323118 0 -0.012966639082580726 0.021242045720700754 0 -0.011844738380694388 0.020768912983323118 0 -0.012822851453240183 0.020525509818433842 0 -0.012966639082580726 0.021242045720700754 0 -0.013007840730549806 0.021352385820349387 0 -0.012966639082580726 0.021242045720700754 0 -0.014345991710721416 0.020991544405347787 0 -0.012966639082580726 0.021242045720700754 0 -0.014345991710721416 0.020991544405347787 0 -0.015424907608543106 0.021455971048396305 0 -0.013148529406325634 0.021086071379451579 0 -0.014455025340761129 0.020646119848889099 0 -0.015397237488163315 0.020494141002261834 0 -0.014345991710721416 0.020991544405347787 0 -0.015910305358362006 0.020885160773030161 0 -0.014345991710721416 0.020991544405347787 0 -0.015910305358362006 0.020885160773030161 0 -0.015424907608543106 0.021455971048396305 0 -0.015910305358362006 0.020885160773030161 0 -0.015424907608543106 0.021455971048396305 0 -0.016954588667003001 0.020940058473942168 0 -0.016954588667003001 0.020940058473942168 0 -0.017343054177687268 0.020477056872854889 0 -0.018205952240094154 0.020641114845719719 0 -0.015397237488163315 0.020494141002261834 0 -0.015910305358362006 0.020885160773030161 0 -0.017343054177687268 0.020477056872854889 0 -0.015910305358362006 0.020885160773030161 0 -0.016954588667003001 0.020940058473942168 0 -0.017343054177687268 0.020477056872854889 0 -0.017323194191641494 0.022365857603941563 0 -0.017614177329079449 0.021117493818572329 0 -0.018179448268178619 0.022031638889508886 0 -0.017787525328273653 0.021905235474344885 0 -0.018619766765883953 0.020541650803899813 0 -0.017787525328273653 0.021905235474344885 0 -0.018619766765883953 0.020541650803899813 0 -0.018813284632595306 0.020290983379817613 0 -0.017343054177687268 0.020477056872854889 0 -0.018619766765883953 0.020541650803899813 0 -0.018205952240094154 0.020641114845719719 0 -0.017614177329079449 0.021117493818572329 0 -0.018497291053855405 0.020724031352365436 0 -0.018205952240094154 0.020641114845719719 0 -0.019130769176182099 0.020070433245071313 0 -0.018741513901846456 0.020254206571914801 0 -0.018619766765883953 0.020541650803899813 0 -0.018205952240094154 0.020641114845719719 0 -0.019130769176182099 0.020070433245071313 0 -0.018619766765883953 0.020541650803899813 0 -0.019130769176182099 0.020070433245071313 0 -0.019354715239641041 0.019923536064158084 0 -0.018619766765883953 0.020541650803899813 0 -0.018813284632595306 0.020290983379817613 0 -0.019354715239641041 0.019923536064158084 0 -0.019130769176182099 0.020070433245071313 0 -0.019354715239641041 0.019923536064158084 0 -0.019958781137867289 0.019550196389719263 0 -0.019130769176182099 0.020070433245071313 0 -0.019554058139309875 0.019773367205655267 0 -0.019958781137867289 0.019550196389719263 0 -0.019554058139309875 0.019773367205655267 0 -0.019958781137867289 0.019550196389719263 0 -0.02019463837957557 0.01945275530029297 0 -0.019554058139309875 0.019773367205655267 0 -0.018741513901846456 0.020254206571914801 0 -0.019135709460308799 0.019832815930595542 0 -0.018741513901846456 0.020254206571914801 0 -0.017643792094926513 0.020978973142113097 0 -0.019135709460308799 0.019832815930595542 0 -0.019130769176182099 0.020070433245071313 0 -0.019554058139309875 0.019773367205655267 0 -0.018741513901846456 0.020254206571914801 0 -0.015727239140046055 0.019366088654599992 0 -0.017911383057335951 0.020354256464771341 0 -0.019135709460308799 0.019832815930595542 0 -0.016744527593187224 0.020162463799832903 0 -0.018844996734565658 0.020019365764088599 0 -0.015727239140046055 0.019366088654599992 0 -0.015519666830897045 0.020190364514110524 0 -0.017911383057335951 0.020354256464771341 0 -0.01394420193236744 0.020249473150297126 0 -0.015727239140046055 0.019366088654599992 0 -0.015519666830897045 0.020190364514110524 0 -0.014656487990009645 0.02070871058759392 0 -0.01394420193236744 0.020249473150297126 0 -0.015519666830897045 0.020190364514110524 0 -0.014455025340761129 0.020646119848889099 0 -0.016744527593187224 0.020162463799832903 0 -0.01394420193236744 0.020249473150297126 0 -0.013494344622382793 0.019846709944578506 0 -0.015727239140046055 0.019366088654599992 0 -0.015424907608543106 0.021455971048396305 0 -0.016954588667003001 0.020940058473942168 0 -0.017643792094926513 0.020978973142113097 0 -0.018205952240094154 0.020641114845719719 0 -0.018741513901846456 0.020254206571914801 0 -0.017643792094926513 0.020978973142113097 0 -0.016954588667003001 0.020940058473942168 0 -0.018205952240094154 0.020641114845719719 0 -0.017643792094926513 0.020978973142113097 0 -0.025052527422869886 0.024616760523745777 0 -0.024480417163429611 0.025093743919974109 0 -0.024589452258057184 0.024951963288957511 0 -0.024480417163429611 0.025093743919974109 0 -0.0233251130038904 0.024886747503498192 0 -0.024589452258057184 0.024951963288957511 0 -0.023824767277959468 0.024491250608900523 0 -0.024480417163429611 0.025093743919974109 0 -0.0233251130038904 0.024886747503498192 0 -0.0233251130038904 0.024886747503498192 0 -0.023729331059685596 0.025085934408919468 0 -0.024589452258057184 0.024951963288957511 0 -0.023729331059685596 0.025085934408919468 0 -0.022403176790107667 0.025041038226045462 0 -0.022452185103826641 0.025337379993162591 0 -0.0233251130038904 0.024886747503498192 0 -0.023729331059685596 0.025085934408919468 0 -0.022403176790107667 0.025041038226045462 0 -0.021587485365236237 0.024652062204186417 0 -0.0233251130038904 0.024886747503498192 0 -0.022403176790107667 0.025041038226045462 0 -0.019294561845581686 0.023578643600407193 0 -0.020627370681403343 0.022761809126470179 0 -0.020733067976344704 0.025232127544563363 0 -0.022403176790107667 0.025041038226045462 0 -0.022452185103826641 0.025337379993162591 0 -0.021587485365236237 0.024652062204186417 0 -0.020733067976344704 0.025232127544563363 0 -0.022403176790107667 0.025041038226045462 0 -0.018813284632595306 0.020290983379817613 0 -0.019354715239641041 0.019923536064158084 0 -0.020289833119031073 0.019331810771957645 0 -0.020627370681403343 0.022761809126470179 0 -0.022340965253665666 0.02249467182385988 0 -0.019958781137867289 0.019550196389719263 0 -0.02064329268731474 0.019068403711639793 0 -0.020289833119031073 0.019331810771957645 0 -0.019354715239641041 0.019923536064158084 0 -0.019958781137867289 0.019550196389719263 0 -0.020289833119031073 0.019331810771957645 0 -0.02064329268731474 0.019068403711639793 0 -0.020289833119031073 0.019331810771957645 0 -0.021101792127809174 0.018699258453763523 0 -0.022340965253665666 0.02249467182385988 0 -0.024006373019226718 0.019579038181312774 0 -0.023729331059685596 0.025085934408919468 0 -0.022452185103826641 0.025337379993162591 0 -0.024264291975437936 0.025067591335731769 0 -0.023729331059685596 0.025085934408919468 0 -0.02509518071308376 0.024761386698068728 0 -0.024589452258057184 0.024951963288957511 0 -0.023729331059685596 0.025085934408919468 0 -0.024264291975437936 0.025067591335731769 0 -0.02509518071308376 0.024761386698068728 0 -0.024264291975437936 0.025067591335731769 0 -0.02509518071308376 0.024761386698068728 0 -0.02611654533638632 0.024221396838772224 0 -0.025674911591957426 0.024246044873278718 0 -0.02509518071308376 0.024761386698068728 0 -0.02611654533638632 0.024221396838772224 0 -0.025052527422869886 0.024616760523745777 0 -0.025674911591957426 0.024246044873278718 0 -0.02509518071308376 0.024761386698068728 0 -0.025052527422869886 0.024616760523745777 0 -0.02509518071308376 0.024761386698068728 0 -0.024589452258057184 0.024951963288957511 0 -0.025007662093725139 0.015014547358739203 0 -0.024548338115785679 0.015690702392602104 0 -0.024320608821569945 0.01602634598030336 0 -0.024717972415006853 0.015668281576856565 0 -0.025007662093725139 0.015014547358739203 0 -0.025254442214706713 0.015772876015430305 0 -0.024717972415006853 0.015668281576856565 0 -0.025007662093725139 0.015014547358739203 0 -0.024548338115785679 0.015690702392602104 0 -0.024548338115785679 0.015690702392602104 0 -0.024320608821569945 0.01602634598030336 0 -0.024434814529171001 0.015959866583639532 0 -0.024717972415006853 0.015668281576856565 0 -0.024548338115785679 0.015690702392602104 0 -0.024434814529171001 0.015959866583639532 0 -0.024320608821569945 0.01602634598030336 0 -0.023647688928777534 0.017371838633552461 0 -0.024434814529171001 0.015959866583639532 0 -0.025007662093725139 0.015014547358739203 0 -0.024320608821569945 0.01602634598030336 0 -0.023647688928777534 0.017371838633552461 0 -0.024561033784384456 0.021749871904770315 0 -0.024006373019226718 0.019579038181312774 0 -0.023305082246732653 0.018933178118749425 0 -0.023647688928777534 0.017371838633552461 0 -0.023661296629437122 0.017379120306519447 0 -0.023647688928777534 0.017371838633552461 0 -0.023661296629437122 0.017379120306519447 0 -0.024434814529171001 0.015959866583639532 0 -0.021720080950400528 0.018202161458624126 0 -0.021706158467873417 0.018147277128761741 0 -0.021434243687612702 0.018419477828770986 0 -0.024006373019226718 0.019579038181312774 0 -0.022996978410110915 0.01950501684412586 0 -0.021675621183670609 0.018090137633491425 0 -0.021706158467873417 0.018147277128761741 0 -0.022174695663024612 0.017637783038424937 0 -0.021675621183670609 0.018090137633491425 0 -0.022174695663024612 0.017637783038424937 0 -0.022889553400965785 0.016904980127240815 0 -0.024006373019226718 0.019579038181312774 0 -0.023476740050957217 0.0162228279693706 0 -0.022174695663024612 0.017637783038424937 0 -0.022889553400965785 0.016904980127240815 0 -0.022642896089194009 0.017252455219870115 0 -0.022889553400965785 0.016904980127240815 0 -0.022642896089194009 0.017252455219870115 0 -0.023375031049499881 0.016693734878316678 0 -0.022174695663024612 0.017637783038424937 0 -0.022642896089194009 0.017252455219870115 0 -0.0221556968782732 0.017711865467688648 0 -0.022642896089194009 0.017252455219870115 0 -0.0221556968782732 0.017711865467688648 0 -0.022446057434991867 0.017490576301019353 0 -0.0221556968782732 0.017711865467688648 0 -0.021933738555222099 0.017972667475982709 0 -0.022446057434991867 0.017490576301019353 0 -0.021933738555222099 0.017972667475982709 0 -0.021862836030457904 0.018088396289139046 0 -0.022446057434991867 0.017490576301019353 0 -0.0221556968782732 0.017711865467688648 0 -0.021933738555222099 0.017972667475982709 0 -0.021789769451399217 0.018087171814401379 0 -0.021933738555222099 0.017972667475982709 0 -0.021789769451399217 0.018087171814401379 0 -0.021514937160458623 0.018370378785468433 0 -0.021789769451399217 0.018087171814401379 0 -0.021514937160458623 0.018370378785468433 0 -0.021586045574234027 0.018275788938281471 0 -0.021789769451399217 0.018087171814401379 0 -0.021865147232814582 0.017987686880886852 0 -0.021586045574234027 0.018275788938281471 0 -0.0221556968782732 0.017711865467688648 0 -0.021789769451399217 0.018087171814401379 0 -0.021865147232814582 0.017987686880886852 0 -0.022174695663024612 0.017637783038424937 0 -0.0221556968782732 0.017711865467688648 0 -0.021865147232814582 0.017987686880886852 0 -0.021706158467873417 0.018147277128761741 0 -0.022174695663024612 0.017637783038424937 0 -0.021865147232814582 0.017987686880886852 0 -0.020289833119031073 0.019331810771957645 0 -0.021720080950400528 0.018202161458624126 0 -0.021101792127809174 0.018699258453763523 0 -0.021706158467873417 0.018147277128761741 0 -0.021865147232814582 0.017987686880886852 0 -0.021434243687612702 0.018419477828770986 0 -0.021865147232814582 0.017987686880886852 0 -0.021434243687612702 0.018419477828770986 0 -0.021586045574234027 0.018275788938281471 0 -0.021720080950400528 0.018202161458624126 0 -0.021434243687612702 0.018419477828770986 0 -0.021101792127809174 0.018699258453763523 0 -0.02064329268731474 0.019068403711639793 0 -0.021101792127809174 0.018699258453763523 0 -0.021173222187415495 0.018659732964219078 0 -0.021434243687612702 0.018419477828770986 0 -0.021101792127809174 0.018699258453763523 0 -0.021173222187415495 0.018659732964219078 0 -0.021434243687612702 0.018419477828770986 0 -0.021173222187415495 0.018659732964219078 0 -0.021586045574234027 0.018275788938281471 0 -0.021514937160458623 0.018370378785468433 0 -0.021173222187415495 0.018659732964219078 0 -0.021586045574234027 0.018275788938281471 0 -0.021514937160458623 0.018370378785468433 0 -0.021173222187415495 0.018659732964219078 0 -0.021164354306021625 0.018705364772430354 0 -0.021173222187415495 0.018659732964219078 0 -0.021164354306021625 0.018705364772430354 0 -0.020706169160716745 0.019078615440951234 0 -0.02064329268731474 0.019068403711639793 0 -0.021173222187415495 0.018659732964219078 0 -0.020706169160716745 0.019078615440951234 0 -0.019958781137867289 0.019550196389719263 0 -0.02064329268731474 0.019068403711639793 0 -0.020706169160716745 0.019078615440951234 0 -0.019958781137867289 0.019550196389719263 0 -0.020706169160716745 0.019078615440951234 0 -0.02019463837957557 0.01945275530029297 0 -0.020706169160716745 0.019078615440951234 0 -0.020999837251185174 0.01889148352876718 0 -0.020612653415258295 0.019259885697007838 0 -0.021164354306021625 0.018705364772430354 0 -0.020706169160716745 0.019078615440951234 0 -0.020999837251185174 0.01889148352876718 0 -0.020999837251185174 0.01889148352876718 0 -0.021423248116800239 0.018507756468105943 0 -0.021029324945874613 0.018938131798446313 0 -0.021164354306021625 0.018705364772430354 0 -0.020999837251185174 0.01889148352876718 0 -0.021423248116800239 0.018507756468105943 0 -0.021514937160458623 0.018370378785468433 0 -0.021164354306021625 0.018705364772430354 0 -0.021423248116800239 0.018507756468105943 0 -0.021933738555222099 0.017972667475982709 0 -0.021514937160458623 0.018370378785468433 0 -0.021423248116800239 0.018507756468105943 0 -0.021933738555222099 0.017972667475982709 0 -0.021423248116800239 0.018507756468105943 0 -0.021862836030457904 0.018088396289139046 0 -0.021423248116800239 0.018507756468105943 0 -0.021862836030457904 0.018088396289139046 0 -0.021582539774292038 0.01838597559579171 0 -0.021423248116800239 0.018507756468105943 0 -0.021582539774292038 0.01838597559579171 0 -0.021314194673673185 0.018689849254904401 0 -0.021582539774292038 0.01838597559579171 0 -0.021314194673673185 0.018689849254904401 0 -0.02173588540644383 0.018258950306770154 0 -0.021423248116800239 0.018507756468105943 0 -0.021314194673673185 0.018689849254904401 0 -0.021029324945874613 0.018938131798446313 0 -0.021314194673673185 0.018689849254904401 0 -0.02173588540644383 0.018258950306770154 0 -0.021331422708504428 0.018723287381869159 0 -0.021862836030457904 0.018088396289139046 0 -0.02173588540644383 0.018258950306770154 0 -0.022393625279502442 0.017630911039528657 0 -0.021862836030457904 0.018088396289139046 0 -0.021582539774292038 0.01838597559579171 0 -0.02173588540644383 0.018258950306770154 0 -0.02173588540644383 0.018258950306770154 0 -0.022393625279502442 0.017630911039528657 0 -0.022281907853323422 0.01777782418884211 0 -0.02173588540644383 0.018258950306770154 0 -0.022281907853323422 0.01777782418884211 0 -0.021657969074666279 0.018372187749165662 0 -0.022281907853323422 0.01777782418884211 0 -0.021988520067347812 0.018041594803166663 0 -0.02264467239313513 0.017561334983577318 0 -0.022281907853323422 0.01777782418884211 0 -0.023029397318527725 0.017231616055001037 0 -0.02264467239313513 0.017561334983577318 0 -0.022393625279502442 0.017630911039528657 0 -0.022281907853323422 0.01777782418884211 0 -0.023029397318527725 0.017231616055001037 0 -0.022393625279502442 0.017630911039528657 0 -0.023029397318527725 0.017231616055001037 0 -0.023061501943482235 0.017082930673854923 0 -0.023029397318527725 0.017231616055001037 0 -0.023061501943482235 0.017082930673854923 0 -0.024087695811356117 0.016464849870388116 0 -0.023061501943482235 0.017082930673854923 0 -0.022446057434991867 0.017490576301019353 0 -0.023375031049499881 0.016693734878316678 0 -0.022393625279502442 0.017630911039528657 0 -0.023061501943482235 0.017082930673854923 0 -0.022446057434991867 0.017490576301019353 0 -0.021862836030457904 0.018088396289139046 0 -0.022393625279502442 0.017630911039528657 0 -0.022446057434991867 0.017490576301019353 0 -0.023375031049499881 0.016693734878316678 0 -0.024087695811356117 0.016464849870388116 0 -0.024799626572217723 0.015913858238608802 0 -0.022889553400965785 0.016904980127240815 0 -0.023375031049499881 0.016693734878316678 0 -0.024799626572217723 0.015913858238608802 0 -0.022642896089194009 0.017252455219870115 0 -0.022446057434991867 0.017490576301019353 0 -0.023375031049499881 0.016693734878316678 0 -0.023061501943482235 0.017082930673854923 0 -0.023375031049499881 0.016693734878316678 0 -0.024087695811356117 0.016464849870388116 0 -0.024087695811356117 0.016464849870388116 0 -0.025195253474622023 0.0152956183328237 0 -0.025776777757187876 0.015532808419188613 0 -0.024087695811356117 0.016464849870388116 0 -0.025195253474622023 0.0152956183328237 0 -0.024466877851518826 0.014957220245208997 0 -0.024001161996908753 0.016644258993249544 0 -0.025106628739576021 0.014602629673064098 0 -0.026234720794707064 0.014991821630655253 0 -0.025195253474622023 0.0152956183328237 0 -0.025776777757187876 0.015532808419188613 0 -0.024087695811356117 0.016464849870388116 0 -0.024799626572217723 0.015913858238608802 0 -0.025254442214706713 0.015772876015430305 0 -0.025361993678294781 0.01484894053406473 0 -0.025195253474622023 0.0152956183328237 0 -0.024466877851518826 0.014957220245208997 0 -0.024717972415006853 0.015668281576856565 0 -0.024434814529171001 0.015959866583639532 0 -0.024799626572217723 0.015913858238608802 0 -0.023476740050957217 0.0162228279693706 0 -0.024573255329051195 0.016344868324687369 0 -0.024717972415006853 0.015668281576856565 0 -0.024799626572217723 0.015913858238608802 0 -0.025254442214706713 0.015772876015430305 0 -0.020366311929272334 0.020408453253871861 0 -0.017911383057335951 0.020354256464771341 0 -0.021456177899251399 0.020711321248089446 0 -0.020366311929272334 0.020408453253871861 0 -0.017911383057335951 0.020354256464771341 0 -0.019854729669994037 0.020274126631743487 0 -0.016540605061504298 0.020920969822012241 0 -0.017911383057335951 0.020354256464771341 0 -0.016787548611652638 0.020656747410999314 0 -0.018454232095059624 0.020582644426623938 0 -0.017550687651186767 0.019307730995853523 0 -0.020366311929272334 0.020408453253871861 0 -0.020786493213533624 0.020070205327400302 0 -0.021011576812034645 0.020277811240062001 0 -0.016540605061504298 0.020920969822012241 0 -0.016314219189284582 0.021201896183610014 0 -0.016787548611652638 0.020656747410999314 0 -0.016540605061504298 0.020920969822012241 0 -0.015784480317346271 0.021335380950612656 0 -0.016314219189284582 0.021201896183610014 0 -0.016540605061504298 0.020920969822012241 0 -0.015784480317346271 0.021335380950612656 0 -0.015235298935313458 0.021049606042098545 0 -0.015784480317346271 0.021335380950612656 0 -0.015235298935313458 0.021049606042098545 0 -0.015018257161103081 0.021661715404797485 0 -0.016540605061504298 0.020920969822012241 0 -0.015235298935313458 0.021049606042098545 0 -0.016110725003576007 0.02062548608787822 0 -0.014656487990009645 0.02070871058759392 0 -0.015235298935313458 0.021049606042098545 0 -0.016110725003576007 0.02062548608787822 0 -0.014656487990009645 0.02070871058759392 0 -0.016110725003576007 0.02062548608787822 0 -0.015519666830897045 0.020190364514110524 0 -0.016110725003576007 0.02062548608787822 0 -0.015519666830897045 0.020190364514110524 0 -0.017911383057335951 0.020354256464771341 0 -0.016540605061504298 0.020920969822012241 0 -0.016110725003576007 0.02062548608787822 0 -0.017911383057335951 0.020354256464771341 0 -0.019554058139309875 0.019773367205655267 0 -0.019135709460308799 0.019832815930595542 0 -0.020023909288657389 0.01964927688947004 0 -0.019874963496916517 0.019993343460818436 0 -0.020023909288657389 0.01964927688947004 0 -0.020413563812383215 0.01956049677101409 0 -0.019135709460308799 0.019832815930595542 0 -0.019874963496916517 0.019993343460818436 0 -0.020023909288657389 0.01964927688947004 0 -0.017911383057335951 0.020354256464771341 0 -0.019135709460308799 0.019832815930595542 0 -0.019874963496916517 0.019993343460818436 0 -0.019554058139309875 0.019773367205655267 0 -0.02019463837957557 0.01945275530029297 0 -0.020023909288657389 0.01964927688947004 0 -0.02019463837957557 0.01945275530029297 0 -0.020023909288657389 0.01964927688947004 0 -0.020612653415258295 0.019259885697007838 0 -0.020023909288657389 0.01964927688947004 0 -0.020612653415258295 0.019259885697007838 0 -0.020413563812383215 0.01956049677101409 0 -0.020706169160716745 0.019078615440951234 0 -0.02019463837957557 0.01945275530029297 0 -0.020612653415258295 0.019259885697007838 0 -0.020999837251185174 0.01889148352876718 0 -0.020612653415258295 0.019259885697007838 0 -0.021029324945874613 0.018938131798446313 0 -0.020612653415258295 0.019259885697007838 0 -0.021029324945874613 0.018938131798446313 0 -0.020788131491137764 0.019219633244283878 0 -0.021029324945874613 0.018938131798446313 0 -0.020788131491137764 0.019219633244283878 0 -0.021048095110791937 0.01900514418469363 0 -0.020612653415258295 0.019259885697007838 0 -0.020788131491137764 0.019219633244283878 0 -0.020413563812383215 0.01956049677101409 0 -0.020788131491137764 0.019219633244283878 0 -0.020413563812383215 0.01956049677101409 0 -0.020747937649578396 0.019369204390463732 0 -0.020413563812383215 0.01956049677101409 0 -0.020747937649578396 0.019369204390463732 0 -0.020450345500807238 0.019707485708168462 0 -0.020747937649578396 0.019369204390463732 0 -0.021027032443930282 0.019105237537716296 0 -0.020754823148229216 0.019529552687169299 0 -0.020788131491137764 0.019219633244283878 0 -0.020747937649578396 0.019369204390463732 0 -0.021048095110791937 0.01900514418469363 0 -0.020747937649578396 0.019369204390463732 0 -0.021027032443930282 0.019105237537716296 0 -0.021048095110791937 0.01900514418469363 0 -0.021027032443930282 0.019105237537716296 0 -0.021048095110791937 0.01900514418469363 0 -0.021331422708504428 0.018723287381869159 0 -0.021314194673673185 0.018689849254904401 0 -0.021048095110791937 0.01900514418469363 0 -0.021331422708504428 0.018723287381869159 0 -0.021314194673673185 0.018689849254904401 0 -0.021029324945874613 0.018938131798446313 0 -0.021048095110791937 0.01900514418469363 0 -0.017911383057335951 0.020354256464771341 0 -0.019874963496916517 0.019993343460818436 0 -0.019854729669994037 0.020274126631743487 0 -0.019874963496916517 0.019993343460818436 0 -0.019854729669994037 0.020274126631743487 0 -0.020285575224018151 0.019994531126384572 0 -0.019874963496916517 0.019993343460818436 0 -0.020450345500807238 0.019707485708168462 0 -0.020285575224018151 0.019994531126384572 0 -0.019874963496916517 0.019993343460818436 0 -0.020413563812383215 0.01956049677101409 0 -0.020450345500807238 0.019707485708168462 0 -0.020754823148229216 0.019529552687169299 0 -0.020570020496598746 0.02003383671151256 0 -0.020285575224018151 0.019994531126384572 0 -0.020450345500807238 0.019707485708168462 0 -0.020754823148229216 0.019529552687169299 0 -0.020285575224018151 0.019994531126384572 0 -0.020747937649578396 0.019369204390463732 0 -0.020450345500807238 0.019707485708168462 0 -0.020754823148229216 0.019529552687169299 0 -0.020366311929272334 0.020408453253871861 0 -0.019854729669994037 0.020274126631743487 0 -0.020570020496598746 0.02003383671151256 0 -0.019854729669994037 0.020274126631743487 0 -0.020570020496598746 0.02003383671151256 0 -0.020285575224018151 0.019994531126384572 0 -0.020366311929272334 0.020408453253871861 0 -0.020570020496598746 0.02003383671151256 0 -0.020786493213533624 0.020070205327400302 0 -0.020941830728476909 0.01968850770521989 0 -0.021260795036036447 0.019106723646868478 0 -0.021011576812034645 0.020277811240062001 0 -0.020570020496598746 0.02003383671151256 0 -0.020786493213533624 0.020070205327400302 0 -0.020941830728476909 0.01968850770521989 0 -0.020786493213533624 0.020070205327400302 0 -0.020941830728476909 0.01968850770521989 0 -0.021011576812034645 0.020277811240062001 0 -0.020941830728476909 0.01968850770521989 0 -0.021026817308301401 0.019301992378674689 0 -0.021260795036036447 0.019106723646868478 0 -0.020570020496598746 0.02003383671151256 0 -0.020941830728476909 0.01968850770521989 0 -0.021026817308301401 0.019301992378674689 0 -0.020754823148229216 0.019529552687169299 0 -0.021026817308301401 0.019301992378674689 0 -0.021216793371860849 0.018920218175776812 0 -0.020754823148229216 0.019529552687169299 0 -0.020570020496598746 0.02003383671151256 0 -0.021026817308301401 0.019301992378674689 0 -0.021026817308301401 0.019301992378674689 0 -0.021260795036036447 0.019106723646868478 0 -0.021517024260095163 0.018525510658385366 0 -0.021026817308301401 0.019301992378674689 0 -0.021216793371860849 0.018920218175776812 0 -0.021517024260095163 0.018525510658385366 0 -0.021331422708504428 0.018723287381869159 0 -0.021216793371860849 0.018920218175776812 0 -0.021657969074666279 0.018372187749165662 0 -0.02173588540644383 0.018258950306770154 0 -0.021331422708504428 0.018723287381869159 0 -0.021657969074666279 0.018372187749165662 0 -0.021027032443930282 0.019105237537716296 0 -0.021331422708504428 0.018723287381869159 0 -0.021216793371860849 0.018920218175776812 0 -0.021027032443930282 0.019105237537716296 0 -0.020754823148229216 0.019529552687169299 0 -0.021216793371860849 0.018920218175776812 0 -0.021216793371860849 0.018920218175776812 0 -0.021517024260095163 0.018525510658385366 0 -0.021657969074666279 0.018372187749165662 0 -0.021517024260095163 0.018525510658385366 0 -0.021657969074666279 0.018372187749165662 0 -0.021988520067347812 0.018041594803166663 0 -0.022281907853323422 0.01777782418884211 0 -0.021657969074666279 0.018372187749165662 0 -0.021988520067347812 0.018041594803166663 0 -0.021517024260095163 0.018525510658385366 0 -0.021988520067347812 0.018041594803166663 0 -0.022080003963272553 0.017923897383212557 0 -0.021988520067347812 0.018041594803166663 0 -0.022080003963272553 0.017923897383212557 0 -0.02264467239313513 0.017561334983577318 0 -0.021260795036036447 0.019106723646868478 0 -0.021829730044590871 0.01816021842804208 0 -0.021975247611773493 0.018492234126324097 0 -0.021260795036036447 0.019106723646868478 0 -0.021517024260095163 0.018525510658385366 0 -0.021829730044590871 0.01816021842804208 0 -0.021517024260095163 0.018525510658385366 0 -0.022080003963272553 0.017923897383212557 0 -0.021829730044590871 0.01816021842804208 0 -0.01448562965901567 0.017674720325329265 0 -0.013503933965961484 0.017063311440718681 0 -0.013495530023589239 0.018108653271117419 0 -0.018151281241258338 0.018326697653990233 0 -0.017780396998933037 0.015853247362980494 0 -0.021829730044590871 0.01816021842804208 0 -0.021975247611773493 0.018492234126324097 0 -0.022040927032047002 0.01804187338099596 0 -0.01448562965901567 0.017674720325329265 0 -0.013495530023589239 0.018108653271117419 0 -0.014480452135361538 0.018683527878030716 0 -0.018151281241258338 0.018326697653990233 0 -0.017550687651186767 0.019307730995853523 0 -0.021260795036036447 0.019106723646868478 0 -0.021975247611773493 0.018492234126324097 0 -0.021199182897645628 0.020134175476602796 0 -0.01448562965901567 0.017674720325329265 0 -0.014508826731932741 0.016639698302024587 0 -0.013503933965961484 0.017063311440718681 0 -0.016314219189284582 0.021201896183610014 0 -0.016787548611652638 0.020656747410999314 0 -0.015901640961979834 0.022138932065717543 0 -0.017550687651186767 0.019307730995853523 0 -0.014334769839820294 0.019667663254535481 0 -0.021260795036036447 0.019106723646868478 0 -0.021199182897645628 0.020134175476602796 0 -0.021011576812034645 0.020277811240062001 0 -0.020366311929272334 0.020408453253871861 0 -0.021456177899251399 0.020711321248089446 0 -0.021011576812034645 0.020277811240062001 0 -0.017550687651186767 0.019307730995853523 0 -0.018380448536147627 0.01917960395617016 0 -0.014689455380371159 0.022775622010846208 0 -0.015018257161103081 0.021661715404797485 0 -0.015901640961979834 0.022138932065717543 0 -0.015784480317346271 0.021335380950612656 0 -0.015018257161103081 0.021661715404797485 0 -0.015901640961979834 0.022138932065717543 0 -0.015784480317346271 0.021335380950612656 0 -0.016314219189284582 0.021201896183610014 0 -0.015901640961979834 0.022138932065717543 0 -0.013176434027194033 0.018090324115977909 0 -0.014334769839820294 0.019667663254535481 0 -0.013176434027194033 0.018090324115977909 0 -0.010651722563759481 0.015535533368113924 0 -0.01248177744473067 0.017509053673597619 0 -0.013503933965961484 0.017063311440718681 0 -0.013495530023589239 0.018108653271117419 0 -0.010987611327449333 0.014962019405746166 0 -0.0099137201034377176 0.014262396862626174 0 -0.010894173914327388 0.013852548552822676 0 -0.0099137201034377176 0.014262396862626174 0 -0.01013893165147242 0.012662229132467699 0 -0.0088164154415968626 0.013562683284211764 0 -0.0099137201034377176 0.014262396862626174 0 -0.01013893165147242 0.012662229132467699 0 -0.010894173914327388 0.013852548552822676 0 -0.01013893165147242 0.012662229132467699 0 -0.009849034222506976 0.010925944416441263 0 -0.010815225259644548 0.011221612770345869 0 -0.01013893165147242 0.012662229132467699 0 -0.0087656757996800623 0.011956335861505697 0 -0.009849034222506976 0.010925944416441263 0 -0.016316106024963747 0.01303078567974442 0 -0.017780396998933037 0.015853247362980494 0 -0.01013893165147242 0.012662229132467699 0 -0.0087656757996800623 0.011956335861505697 0 -0.0088164154415968626 0.013562683284211764 0 -0.010651722563759481 0.015535533368113924 0 -0.017780396998933037 0.015853247362980494 0 -0.017780396998933037 0.015853247362980494 0 -0.024306062347497485 0.016652091548133078 0 -0.022080003963272553 0.017923897383212557 0 -0.021829730044590871 0.01816021842804208 0 -0.022413513475206766 0.017830315878597392 0 -0.021829730044590871 0.01816021842804208 0 -0.022040927032047002 0.01804187338099596 0 -0.022413513475206766 0.017830315878597392 0 -0.022080003963272553 0.017923897383212557 0 -0.022413513475206766 0.017830315878597392 0 -0.02264467239313513 0.017561334983577318 0 -0.022413513475206766 0.017830315878597392 0 -0.02264467239313513 0.017561334983577318 0 -0.02323268275247008 0.017374894628059551 0 -0.024306062347497485 0.016652091548133078 0 -0.024033428987294866 0.016248074300982684 0 -0.024361968190980392 0.014808012431163435 0 -0.024776206434362909 0.015468573645023976 0 -0.02500376431086054 0.01531350151568316 0 -0.022413513475206766 0.017830315878597392 0 -0.02323268275247008 0.017374894628059551 0 -0.023590850100679631 0.017505214117387199 0 -0.024047658578306711 0.015049403973848829 0 -0.023971563563478786 0.014618967316009207 0 -0.024361968190980392 0.014808012431163435 0 -0.024361968190980392 0.014808012431163435 0 -0.024340838835095604 0.015197337177235948 0 -0.024776206434362909 0.015468573645023976 0 -0.024047658578306711 0.015049403973848829 0 -0.024361968190980392 0.014808012431163435 0 -0.024340838835095604 0.015197337177235948 0 -0.024047658578306711 0.015049403973848829 0 -0.024340838835095604 0.015197337177235948 0 -0.024308957790879247 0.015249079147800363 0 -0.024340838835095604 0.015197337177235948 0 -0.024403238901670916 0.015290868671814454 0 -0.024776206434362909 0.015468573645023976 0 -0.024340838835095604 0.015197337177235948 0 -0.024403238901670916 0.015290868671814454 0 -0.024308957790879247 0.015249079147800363 0 -0.024776206434362909 0.015468573645023976 0 -0.025437255708345353 0.015648346210331367 0 -0.02520419095865175 0.015814549538813279 0 -0.024776206434362909 0.015468573645023976 0 -0.02500376431086054 0.01531350151568316 0 -0.02520419095865175 0.015814549538813279 0 -0.024732348960108046 0.015087674198958744 0 -0.025373723827671509 0.015995185306947872 0 -0.024776206434362909 0.015468573645023976 0 -0.025437255708345353 0.015648346210331367 0 -0.025726888313678541 0.015519741445028171 0 -0.024403238901670916 0.015290868671814454 0 -0.024776206434362909 0.015468573645023976 0 -0.02419235723728886 0.015049478680043653 0 -0.024403238901670916 0.015290868671814454 0 -0.024331662717262857 0.015163721391412012 0 -0.02419235723728886 0.015049478680043653 0 -0.024403238901670916 0.015290868671814454 0 -0.024308957790879247 0.015249079147800363 0 -0.024331662717262857 0.015163721391412012 0 -0.0086219282859985851 0.0097869457695328611 0 -0.0095655573338129414 0.0090062271053012941 0 -0.0087115116609252728 0.007217485663559689 0 -0.024331662717262857 0.015163721391412012 0 -0.024300344515866802 0.015250248974849187 0 -0.024424353890328019 0.014960827176113066 0 -0.016685899813668845 0.013026538139332956 0 -0.013038141279800438 0.0086928546187468245 0 -0.024308957790879247 0.015249079147800363 0 -0.024331662717262857 0.015163721391412012 0 -0.024300344515866802 0.015250248974849187 0 -0.0091526810025130828 0.0076027644018662769 0 -0.013038141279800438 0.0086928546187468245 0 -0.0095655573338129414 0.0090062271053012941 0 -0.010525554685161821 0.0071122917112953392 0 -0.009414817047166426 0.0055187051235272679 0 -0.0095655573338129414 0.0090062271053012941 0 -0.010576239484401425 0.009653691413313981 0 -0.010525554685161821 0.0071122917112953392 0 -0.010576239484401425 0.009653691413313981 0 -0.011622099223838479 0.008972480420813422 0 -0.010815225259644548 0.011221612770345869 0 -0.010576239484401425 0.009653691413313981 0 -0.010525554685161821 0.0071122917112953392 0 -0.011622099223838479 0.008972480420813422 0 -0.0095655573338129414 0.0090062271053012941 0 -0.010576239484401425 0.009653691413313981 0 -0.009849034222506976 0.010925944416441263 0 -0.010576239484401425 0.009653691413313981 0 -0.009849034222506976 0.010925944416441263 0 -0.010815225259644548 0.011221612770345869 0 -0.016316106024963747 0.01303078567974442 0 -0.016685899813668845 0.013026538139332956 0 -0.0087656757996800623 0.011956335861505697 0 -0.0086219282859985851 0.0097869457695328611 0 -0.009849034222506976 0.010925944416441263 0 -0.024047658578306711 0.015049403973848829 0 -0.024308957790879247 0.015249079147800363 0 -0.024300344515866802 0.015250248974849187 0 -0.0086219282859985851 0.0097869457695328611 0 -0.0095655573338129414 0.0090062271053012941 0 -0.009849034222506976 0.010925944416441263 0 -0.027773673566194708 0.015777285501764347 0 -0.026259028334729227 0.016116611990703841 0 -0.025760123262815241 0.015941775277011457 0 -0.027773673566194708 0.015777285501764347 0 -0.027087792654626013 0.015402981641067555 0 -0.025760123262815241 0.015941775277011457 0 -0.024087695811356117 0.016464849870388116 0 -0.025760123262815241 0.015941775277011457 0 -0.025776777757187876 0.015532808419188613 0 -0.027087792654626013 0.015402981641067555 0 -0.025760123262815241 0.015941775277011457 0 -0.025776777757187876 0.015532808419188613 0 -0.024087695811356117 0.016464849870388116 0 -0.025760123262815241 0.015941775277011457 0 -0.024949737445304637 0.016476821011077513 0 -0.026259028334729227 0.016116611990703841 0 -0.024949737445304637 0.016476821011077513 0 -0.025746226634422859 0.016328247948871454 0 -0.026259028334729227 0.016116611990703841 0 -0.025760123262815241 0.015941775277011457 0 -0.024949737445304637 0.016476821011077513 0 -0.024949737445304637 0.016476821011077513 0 -0.024257594610384989 0.016914090884769573 0 -0.025082265499651316 0.016396337939183339 0 -0.024949737445304637 0.016476821011077513 0 -0.024257594610384989 0.016914090884769573 0 -0.023657754020763672 0.017014886052206284 0 -0.024087695811356117 0.016464849870388116 0 -0.024949737445304637 0.016476821011077513 0 -0.023657754020763672 0.017014886052206284 0 -0.023029397318527725 0.017231616055001037 0 -0.024087695811356117 0.016464849870388116 0 -0.023657754020763672 0.017014886052206284 0 -0.023657754020763672 0.017014886052206284 0 -0.02264467239313513 0.017561334983577318 0 -0.02323268275247008 0.017374894628059551 0 -0.023029397318527725 0.017231616055001037 0 -0.023657754020763672 0.017014886052206284 0 -0.02264467239313513 0.017561334983577318 0 -0.024257594610384989 0.016914090884769573 0 -0.023657754020763672 0.017014886052206284 0 -0.02323268275247008 0.017374894628059551 0 -0.024257594610384989 0.016914090884769573 0 -0.02323268275247008 0.017374894628059551 0 -0.023590850100679631 0.017505214117387199 0 -0.024033428987294866 0.016248074300982684 0 -0.024925916900540451 0.016411797117050961 0 -0.024257594610384989 0.016914090884769573 0 -0.023590850100679631 0.017505214117387199 0 -0.025082265499651316 0.016396337939183339 0 -0.02500376431086054 0.01531350151568316 0 -0.02520419095865175 0.015814549538813279 0 -0.025082265499651316 0.016396337939183339 0 -0.02520419095865175 0.015814549538813279 0 -0.025414074539001286 0.015660915329304234 0 -0.025082265499651316 0.016396337939183339 0 -0.025437255708345353 0.015648346210331367 0 -0.02520419095865175 0.015814549538813279 0 -0.025414074539001286 0.015660915329304234 0 -0.025414074539001286 0.015660915329304234 0 -0.025631847382938003 0.016482704779360688 0 -0.025901931379409333 0.017384712083783033 0 -0.025414074539001286 0.015660915329304234 0 -0.025631847382938003 0.016482704779360688 0 -0.025082265499651316 0.016396337939183339 0 -0.025631847382938003 0.016482704779360688 0 -0.025082265499651316 0.016396337939183339 0 -0.025746226634422859 0.016328247948871454 0 -0.024949737445304637 0.016476821011077513 0 -0.025082265499651316 0.016396337939183339 0 -0.025746226634422859 0.016328247948871454 0 -0.025631847382938003 0.016482704779360688 0 -0.025746226634422859 0.016328247948871454 0 -0.027330244522426318 0.016477051412602122 0 -0.025631847382938003 0.016482704779360688 0 -0.027330244522426318 0.016477051412602122 0 -0.027134031521149498 0.017132053553561784 0 -0.027330244522426318 0.016477051412602122 0 -0.028633340845513857 0.016991921784439073 0 -0.027134031521149498 0.017132053553561784 0 -0.026259028334729227 0.016116611990703841 0 -0.025746226634422859 0.016328247948871454 0 -0.027330244522426318 0.016477051412602122 0 -0.027773673566194708 0.015777285501764347 0 -0.026259028334729227 0.016116611990703841 0 -0.027330244522426318 0.016477051412602122 0 -0.029975687770814319 0.016070267682536069 0 -0.030342541141250096 0.014821084303642797 0 -0.028288933173963169 0.015602043892512484 0 -0.029975687770814319 0.016070267682536069 0 -0.030342541141250096 0.014821084303642797 0 -0.031434543761640302 0.016553475272203782 0 -0.028288639348566791 0.018508434381506875 0 -0.028633340845513857 0.016991921784439073 0 -0.027134031521149498 0.017132053553561784 0 -0.025631847382938003 0.016482704779360688 0 -0.027134031521149498 0.017132053553561784 0 -0.025901931379409333 0.017384712083783033 0 -0.028288639348566791 0.018508434381506875 0 -0.027134031521149498 0.017132053553561784 0 -0.025901931379409333 0.017384712083783033 0 -0.030530390887086003 0.018698989624165243 0 -0.026360545649533208 0.015647373637605055 0 -0.030342541141250096 0.014821084303642797 0 -0.027232376983538323 0.014503723319228315 0 -0.028288933173963169 0.015602043892512484 0 -0.028288933173963169 0.015602043892512484 0 -0.026481863567826169 0.016043064231870515 0 -0.029321010651409928 0.017136433454989816 0 -0.027232376983538323 0.014503723319228315 0 -0.028288933173963169 0.015602043892512484 0 -0.026481863567826169 0.016043064231870515 0 -0.027232376983538323 0.014503723319228315 0 -0.026481863567826169 0.016043064231870515 0 -0.026046847164774636 0.015254587470265002 0 -0.025789273251484543 0.015838971904802112 0 -0.026360545649533208 0.015647373637605055 0 -0.025414074539001286 0.015660915329304234 0 -0.027232376983538323 0.014503723319228315 0 -0.026046847164774636 0.015254587470265002 0 -0.025414074539001286 0.015660915329304234 0 -0.026046847164774636 0.015254587470265002 0 -0.025752121294612289 0.015109276118884058 0 -0.025437255708345353 0.015648346210331367 0 -0.025414074539001286 0.015660915329304234 0 -0.025752121294612289 0.015109276118884058 0 -0.028263159362994599 0.017336603761921858 0 -0.025263700010087927 0.01445016488919253 0 -0.026481863567826169 0.016043064231870515 0 -0.026046847164774636 0.015254587470265002 0 -0.025752121294612289 0.015109276118884058 0 -0.02731439470334324 0.014374981596717613 0 -0.026472066564329651 0.014936630664107059 0 -0.025752121294612289 0.015109276118884058 0 -0.026472066564329651 0.014936630664107059 0 -0.025752121294612289 0.015109276118884058 0 -0.026085061272891976 0.015106641115128472 0 -0.026954095743227796 0.01562947293673142 0 -0.026085061272891976 0.015106641115128472 0 -0.025757252253141658 0.01541103832072635 0 -0.026472066564329651 0.014936630664107059 0 -0.026954095743227796 0.01562947293673142 0 -0.026085061272891976 0.015106641115128472 0 -0.020550591674474296 -0.011924684859930174 0 -0.019001283327976112 -0.011228092982515998 0 -0.020337389287961052 -0.010843358245237241 0 -0.023881889042308875 0.0023551227049834313 0 -0.021577227299633839 -0.0027187077568486691 0 -0.020550591674474296 -0.011924684859930174 0 -0.021528394656065458 -0.011308460351281238 0 -0.022663261845400413 -0.013189253679753399 0 -0.020550591674474296 -0.011924684859930174 0 -0.021528394656065458 -0.011308460351281238 0 -0.020337389287961052 -0.010843358245237241 0 -0.02731439470334324 0.014374981596717613 0 -0.026954095743227796 0.01562947293673142 0 -0.029863334142665763 0.014944680979812537 0 -0.023881889042308875 0.0023551227049834313 0 -0.026450544827139932 0.0021656949170883264 0 -0.02731439470334324 0.014374981596717613 0 -0.026472066564329651 0.014936630664107059 0 -0.026954095743227796 0.01562947293673142 0 -0.029975687770814319 0.016070267682536069 0 -0.028288933173963169 0.015602043892512484 0 -0.029321010651409928 0.017136433454989816 0 -0.028263159362994599 0.017336603761921858 0 -0.026450544827139932 0.0021656949170883264 0 -0.022663261845400413 -0.013189253679753399 0 -0.022691518449878382 -0.011640265342835729 0 -0.023471141538327179 -0.01241483304877764 0 -0.021528394656065458 -0.011308460351281238 0 -0.022663261845400413 -0.013189253679753399 0 -0.022691518449878382 -0.011640265342835729 0 -0.021528394656065458 -0.011308460351281238 0 -0.022691518449878382 -0.011640265342835729 0 -0.022309391954546298 -0.0109376789455468 0 -0.022691518449878382 -0.011640265342835729 0 -0.023154320692853718 -0.010711200606214475 0 -0.022309391954546298 -0.0109376789455468 0 -0.022691518449878382 -0.011640265342835729 0 -0.023614902444133789 -0.011548958717107247 0 -0.023154320692853718 -0.010711200606214475 0 -0.022691518449878382 -0.011640265342835729 0 -0.023471141538327179 -0.01241483304877764 0 -0.023614902444133789 -0.011548958717107247 0 -0.024606196767115479 -0.012268390082308265 0 -0.024150893451695365 -0.010766913756295552 0 -0.025378439074949594 -0.010330336934795618 0 -0.023471141538327179 -0.01241483304877764 0 -0.023614902444133789 -0.011548958717107247 0 -0.024606196767115479 -0.012268390082308265 0 -0.023614902444133789 -0.011548958717107247 0 -0.024606196767115479 -0.012268390082308265 0 -0.024150893451695365 -0.010766913756295552 0 -0.0251930749999437 -0.0127409370141896 0 -0.023471141538327179 -0.01241483304877764 0 -0.024606196767115479 -0.012268390082308265 0 -0.029975687770814319 0.016070267682536069 0 -0.029321010651409928 0.017136433454989816 0 -0.031434543761640302 0.016553475272203782 0 -0.0251930749999437 -0.0127409370141896 0 -0.022663261845400413 -0.013189253679753399 0 -0.023471141538327179 -0.01241483304877764 0 -0.023327019859019648 -0.013426116498450647 0 -0.026450544827139932 0.0021656949170883264 0 -0.024697150251202817 -0.0116373633337182 0 -0.02202977726086728 -0.012028737294547839 0 -0.024354894440613586 -0.013113858882440228 0 -0.026450544827139932 0.0021656949170883264 0 -0.02783600157858318 0.0017598663184576564 0 -0.010994682930746754 0.0031756153605593559 0 -0.010417761956171067 0.0055304948915074871 0 -0.010716662423344804 0.0017141159439429236 0 -0.010994682930746754 0.0031756153605593559 0 -0.010716662423344804 0.0017141159439429236 0 -0.012041068922061714 0.0012778882414797314 0 -0.010994682930746754 0.0031756153605593559 0 -0.012353666346576912 0.0014320390950317112 0 -0.012041068922061714 0.0012778882414797314 0 -0.012353666346576912 0.0014320390950317112 0 -0.01162464319169332 0.0047269795748838888 0 -0.012462323218990264 0.0015022762566467885 0 -0.010994682930746754 0.0031756153605593559 0 -0.012353666346576912 0.0014320390950317112 0 -0.01162464319169332 0.0047269795748838888 0 -0.012353666346576912 0.0014320390950317112 0 -0.012730421483248528 0.00070391849849323496 0 -0.012462323218990264 0.0015022762566467885 0 -0.01162464319169332 0.0047269795748838888 0 -0.010525554685161821 0.0071122917112953392 0 -0.011622099223838479 0.008972480420813422 0 -0.01162464319169332 0.0047269795748838888 0 -0.010525554685161821 0.0071122917112953392 0 -0.009414817047166426 0.0055187051235272679 0 -0.010994682930746754 0.0031756153605593559 0 -0.01162464319169332 0.0047269795748838888 0 -0.009414817047166426 0.0055187051235272679 0 -0.010933297493507516 0.002764430088420658 0 -0.013038141279800438 0.0086928546187468245 0 -0.024424353890328019 0.014960827176113066 0 -0.02419235723728886 0.015049478680043653 0 -0.024215268418970211 0.014509464816408177 0 -0.024331662717262857 0.015163721391412012 0 -0.024424353890328019 0.014960827176113066 0 -0.02419235723728886 0.015049478680043653 0 -0.025437255708345353 0.015648346210331367 0 -0.025726888313678541 0.015519741445028171 0 -0.025752121294612289 0.015109276118884058 0 -0.025726888313678541 0.015519741445028171 0 -0.025812309418719634 0.015100210478172279 0 -0.025752121294612289 0.015109276118884058 0 -0.025812309418719634 0.015100210478172279 0 -0.025752121294612289 0.015109276118884058 0 -0.026085061272891976 0.015106641115128472 0 -0.025812309418719634 0.015100210478172279 0 -0.025780388275754462 0.015009869950695412 0 -0.026085061272891976 0.015106641115128472 0 -0.025726888313678541 0.015519741445028171 0 -0.025812309418719634 0.015100210478172279 0 -0.025780388275754462 0.015009869950695412 0 -0.013038141279800438 0.0086928546187468245 0 -0.021664122591432911 0.011184251218149869 0 -0.025373723827671509 0.015995185306947872 0 -0.021664122591432911 0.011184251218149869 0 -0.020876679697833925 0.0074338407284613378 0 -0.017500505175641556 4.1903735811880967e-06 0 -0.022550769192485904 0.0019099577899807695 0 -0.010716662423344804 0.0017141159439429236 0 -0.013380612229295095 0.00097108815709414092 0 -0.012041068922061714 0.0012778882414797314 0 -0.021664122591432911 0.011184251218149869 0 -0.016568654919855121 0.00041616491461934159 0 -0.021664122591432911 0.011184251218149869 0 -0.021577227299633839 -0.0027187077568486691 0 -0.025780388275754462 0.015009869950695412 0 -0.026085061272891976 0.015106641115128472 0 -0.025757252253141658 0.01541103832072635 0 -0.020550591674474296 -0.011924684859930174 0 -0.018918047613688697 -0.011244296502974798 0 -0.019001283327976112 -0.011228092982515998 0 -0.019188906714415251 -0.0098488994287215942 0 -0.022241764852551721 -0.016229522109736799 0 -0.019188906714415251 -0.0098488994287215942 0 -0.019630257858081725 -0.019692819112129667 0 -0.015324125470933999 -0.019755845305887369 0 -0.01566886741958945 -0.019663853756731506 0 -0.015236540240567574 -0.018305128322722308 0 -0.021577227299633839 -0.0027187077568486691 0 -0.019188906714415251 -0.0098488994287215942 0 -0.021577227299633839 -0.0027187077568486691 0 -0.012421415382787855 -0.009376919089402691 0 -0.020929669487679686 -3.8269202703319484e-05 0 -0.015935425674578493 -7.746242019457101e-06 0 -0.014665544703662698 0.00073303808506276747 0 -0.015324125470933999 -0.019755845305887369 0 -0.010899641918815513 -0.017916525227283989 0 -0.015236540240567574 -0.018305128322722308 0 -0.020929669487679686 -3.8269202703319484e-05 0 -0.016440278378175736 -0.0010844669989893733 0 -0.015935425674578493 -7.746242019457101e-06 0 -0.021577227299633839 -0.0027187077568486691 0 -0.016568654919855121 0.00041616491461934159 0 -0.015935425674578493 -7.746242019457101e-06 0 -0.014665544703662698 0.00073303808506276747 0 -0.01399780137230661 -6.6746670984050576e-05 0 -0.014665544703662698 0.00073303808506276747 0 -0.01399780137230661 -6.6746670984050576e-05 0 -0.013603574915443265 0.0003314710052543014 0 -0.01399780137230661 -6.6746670984050576e-05 0 -0.013142777094071197 0.00038554751015974336 0 -0.013603574915443265 0.0003314710052543014 0 -0.014379368567095464 -0.0017155642648520634 0 -0.015935425674578493 -7.746242019457101e-06 0 -0.01399780137230661 -6.6746670984050576e-05 0 -0.014379368567095464 -0.0017155642648520634 0 -0.01399780137230661 -6.6746670984050576e-05 0 -0.013142777094071197 0.00038554751015974336 0 -0.016568654919855121 0.00041616491461934159 0 -0.016212443992779213 4.6624699712456541e-05 0 -0.016568654919855121 0.00041616491461934159 0 -0.013157895841891393 -0.00015639455620735268 0 -0.013380612229295095 0.00097108815709414092 0 -0.013142777094071197 0.00038554751015974336 0 -0.012041068922061714 0.0012778882414797314 0 -0.012353666346576912 0.0014320390950317112 0 -0.013142777094071197 0.00038554751015974336 0 -0.012041068922061714 0.0012778882414797314 0 -0.013033247347928793 0.00054612599912313086 0 -0.013603574915443265 0.0003314710052543014 0 -0.012878628272911453 0.00035353880558789541 0 -0.012353666346576912 0.0014320390950317112 0 -0.013033247347928793 0.00054612599912313086 0 -0.012730421483248528 0.00070391849849323496 0 -0.012353666346576912 0.0014320390950317112 0 -0.013142777094071197 0.00038554751015974336 0 -0.013033247347928793 0.00054612599912313086 0 -0.013142777094071197 0.00038554751015974336 0 -0.013033247347928793 0.00054612599912313086 0 -0.013603574915443265 0.0003314710052543014 0 -0.013603574915443265 0.0003314710052543014 0 -0.012878628272911453 0.00035353880558789541 0 -0.01377901152127539 0.00085151301508423619 0 -0.014665544703662698 0.00073303808506276747 0 -0.013603574915443265 0.0003314710052543014 0 -0.01377901152127539 0.00085151301508423619 0 -0.012288102118390947 0.00058392647599759932 0 -0.012878628272911453 0.00035353880558789541 0 -0.01377901152127539 0.00085151301508423619 0 -0.012288102118390947 0.00058392647599759932 0 -0.010573261727365241 0.00029668942595743186 0 -0.012091936302971052 0.0015879768400127814 0 -0.012288102118390947 0.00058392647599759932 0 -0.011516158141710876 -0.00011894913213180637 0 -0.012878628272911453 0.00035353880558789541 0 -0.012288102118390947 0.00058392647599759932 0 -0.011516158141710876 -0.00011894913213180637 0 -0.010573261727365241 0.00029668942595743186 0 -0.011516158141710876 -0.00011894913213180637 0 -0.012878628272911453 0.00035353880558789541 0 -0.012122092564239101 7.1555006308934971e-05 0 -0.011516158141710876 -0.00011894913213180637 0 -0.010447245077412888 -0.0010187927195254749 0 -0.012122092564239101 7.1555006308934971e-05 0 -0.012730421483248528 0.00070391849849323496 0 -0.012878628272911453 0.00035353880558789541 0 -0.012122092564239101 7.1555006308934971e-05 0 -0.013033247347928793 0.00054612599912313086 0 -0.012730421483248528 0.00070391849849323496 0 -0.012878628272911453 0.00035353880558789541 0 -0.010573261727365241 0.00029668942595743186 0 -0.0073343974364706108 -0.0013727561868919743 0 -0.0092225437805012935 0.00096084335619662218 0 -0.0073779233076960238 -0.0019639412566634586 0 -0.0076348050171068617 -0.00047410941842527783 0 -0.0073343974364706108 -0.0013727561868919743 0 -0.00628438809306202 -0.0025870454289558149 0 -0.0058049407653634217 -0.0036136528419191318 0 -0.010573261727365241 0.00029668942595743186 0 -0.0095141160612668921 -0.00092126206211081861 0 -0.0073343974364706108 -0.0013727561868919743 0 -0.0095141160612668921 -0.00092126206211081861 0 -0.0081510158510558241 -0.0017048834452008869 0 -0.010447245077412888 -0.0010187927195254749 0 -0.011516158141710876 -0.00011894913213180637 0 -0.010573261727365241 0.00029668942595743186 0 -0.0095141160612668921 -0.00092126206211081861 0 -0.011516158141710876 -0.00011894913213180637 0 -0.0095141160612668921 -0.00092126206211081861 0 -0.010447245077412888 -0.0010187927195254749 0 -0.0073343974364706108 -0.0013727561868919743 0 -0.0063600129718239164 -0.0020612431269719303 0 -0.00628438809306202 -0.0025870454289558149 0 -0.0095141160612668921 -0.00092126206211081861 0 -0.0073343974364706108 -0.0013727561868919743 0 -0.0081510158510558241 -0.0017048834452008869 0 -0.0073343974364706108 -0.0013727561868919743 0 -0.0081510158510558241 -0.0017048834452008869 0 -0.0063600129718239164 -0.0020612431269719303 0 -0.006289804125940531 -0.0029076221749597827 0 -0.0086945079568469218 -0.0020494352385253202 0 -0.0099148426047383238 -0.0025106782297041417 0 -0.0081510158510558241 -0.0017048834452008869 0 -0.006289804125940531 -0.0029076221749597827 0 -0.0063600129718239164 -0.0020612431269719303 0 -0.0081510158510558241 -0.0017048834452008869 0 -0.006289804125940531 -0.0029076221749597827 0 -0.0086945079568469218 -0.0020494352385253202 0 -0.010253338130895457 0.0074714008358132541 0 -0.01014702808272455 0.0034725676023507359 0 -0.0081510158510558241 -0.0017048834452008869 0 -0.0086945079568469218 -0.0020494352385253202 0 -0.010447245077412888 -0.0010187927195254749 0 -0.010447245077412888 -0.0010187927195254749 0 -0.0099148426047383238 -0.0025106782297041417 0 -0.011177594905843555 -0.00084442564000463034 0 -0.0086945079568469218 -0.0020494352385253202 0 -0.010447245077412888 -0.0010187927195254749 0 -0.0099148426047383238 -0.0025106782297041417 0 -0.011858551407605103 0.011589288415257864 0 -0.011867688794188907 0.0099316759636057742 0 -0.011728874192875266 0.011202615137335876 0 -0.011352694454543946 0.010941200352272874 0 -0.011783832661580682 0.010116713340463874 0 -0.011325872791906159 0.010003021575000999 0 -0.011035860427895562 0.0098820846183481324 0 -0.011867688794188907 0.0099316759636057742 0 -0.011858551407605103 0.011589288415257864 0 -0.011728874192875266 0.011202615137335876 0 -0.011633141801721408 0.011768512240047657 0 -0.012193794627243106 0.012098052931683818 0 -0.011858551407605103 0.011589288415257864 0 -0.011806281636337049 0.011972863994919036 0 -0.010253338130895457 0.0074714008358132541 0 -0.011352694454543946 0.010941200352272874 0 -0.010453264569954625 0.010107491065226079 0 -0.011325872791906159 0.010003021575000999 0 -0.011035860427895562 0.0098820846183481324 0 -0.011858551407605103 0.011589288415257864 0 -0.011806281636337049 0.011972863994919036 0 -0.011633141801721408 0.011768512240047657 0 -0.01162464319169332 0.0047269795748838888 0 -0.012462323218990264 0.0015022762566467885 0 -0.011940485260636614 0.000119827764355732 0 -0.012462323218990264 0.0015022762566467885 0 -0.012122092564239101 7.1555006308934971e-05 0 -0.011940485260636614 0.000119827764355732 0 -0.012730421483248528 0.00070391849849323496 0 -0.012462323218990264 0.0015022762566467885 0 -0.012122092564239101 7.1555006308934971e-05 0 -0.012122092564239101 7.1555006308934971e-05 0 -0.011177594905843555 -0.00084442564000463034 0 -0.011940485260636614 0.000119827764355732 0 -0.010447245077412888 -0.0010187927195254749 0 -0.012122092564239101 7.1555006308934971e-05 0 -0.011177594905843555 -0.00084442564000463034 0 -0.0099148426047383238 -0.0025106782297041417 0 -0.011177594905843555 -0.00084442564000463034 0 -0.011940485260636614 0.000119827764355732 0 -0.01014702808272455 0.0034725676023507359 0 -0.011872435073539493 0.0043663354856110633 0 -0.011325872791906159 0.010003021575000999 0 -0.012527365559352308 0.0085782878386631307 0 -0.011867688794188907 0.0099316759636057742 0 -0.01162464319169332 0.0047269795748838888 0 -0.012527365559352308 0.0085782878386631307 0 -0.011622099223838479 0.008972480420813422 0 -0.012527365559352308 0.0085782878386631307 0 -0.011622099223838479 0.008972480420813422 0 -0.011867688794188907 0.0099316759636057742 0 -0.011169919701197508 0.0046873145459473365 0 -0.011872435073539493 0.0043663354856110633 0 -0.011622099223838479 0.008972480420813422 0 -0.011401595191766504 0.01053567848075551 0 -0.010815225259644548 0.011221612770345869 0 -0.011622099223838479 0.008972480420813422 0 -0.011401595191766504 0.01053567848075551 0 -0.011867688794188907 0.0099316759636057742 0 -0.011401595191766504 0.01053567848075551 0 -0.010815225259644548 0.011221612770345869 0 -0.010842555847215794 0.012088252735362692 0 -0.011401595191766504 0.01053567848075551 0 -0.010842555847215794 0.012088252735362692 0 -0.01142759861996836 0.011173591804246832 0 -0.010842555847215794 0.012088252735362692 0 -0.01142759861996836 0.011173591804246832 0 -0.011158490526773349 0.012090922703592116 0 -0.01142759861996836 0.011173591804246832 0 -0.011867688794188907 0.0099316759636057742 0 -0.011547404589866219 0.011519544925758024 0 -0.011401595191766504 0.01053567848075551 0 -0.01142759861996836 0.011173591804246832 0 -0.011867688794188907 0.0099316759636057742 0 -0.011867688794188907 0.0099316759636057742 0 -0.011728874192875266 0.011202615137335876 0 -0.011547404589866219 0.011519544925758024 0 -0.011728874192875266 0.011202615137335876 0 -0.011547404589866219 0.011519544925758024 0 -0.011633141801721408 0.011768512240047657 0 -0.011547404589866219 0.011519544925758024 0 -0.011633141801721408 0.011768512240047657 0 -0.011290683412241214 0.012246715775447899 0 -0.01142759861996836 0.011173591804246832 0 -0.011547404589866219 0.011519544925758024 0 -0.011158490526773349 0.012090922703592116 0 -0.011806281636337049 0.011972863994919036 0 -0.011633141801721408 0.011768512240047657 0 -0.011490011782389358 0.012359395305207412 0 -0.011633141801721408 0.011768512240047657 0 -0.011290683412241214 0.012246715775447899 0 -0.011490011782389358 0.012359395305207412 0 -0.011290683412241214 0.012246715775447899 0 -0.010980901141834453 0.013171370722021536 0 -0.011490011782389358 0.012359395305207412 0 -0.011290683412241214 0.012246715775447899 0 -0.01090405026063538 0.012905426632172666 0 -0.010980901141834453 0.013171370722021536 0 -0.01090405026063538 0.012905426632172666 0 -0.011158490526773349 0.012090922703592116 0 -0.010550438515465667 0.013267020457338055 0 -0.010842555847215794 0.012088252735362692 0 -0.011158490526773349 0.012090922703592116 0 -0.010550438515465667 0.013267020457338055 0 -0.011547404589866219 0.011519544925758024 0 -0.011290683412241214 0.012246715775447899 0 -0.011158490526773349 0.012090922703592116 0 -0.011290683412241214 0.012246715775447899 0 -0.01090405026063538 0.012905426632172666 0 -0.011158490526773349 0.012090922703592116 0 -0.010550438515465667 0.013267020457338055 0 -0.010486214887115545 0.013917862030918559 0 -0.0099452256288425391 0.014783241068247542 0 -0.010486214887115545 0.013917862030918559 0 -0.010166633604423686 0.014720901096447078 0 -0.010482631433520437 0.014551517299556298 0 -0.010980901141834453 0.013171370722021536 0 -0.010486214887115545 0.013917862030918559 0 -0.010482631433520437 0.014551517299556298 0 -0.01090405026063538 0.012905426632172666 0 -0.010980901141834453 0.013171370722021536 0 -0.010486214887115545 0.013917862030918559 0 -0.01090405026063538 0.012905426632172666 0 -0.010550438515465667 0.013267020457338055 0 -0.010486214887115545 0.013917862030918559 0 -0.010486214887115545 0.013917862030918559 0 -0.010166633604423686 0.014720901096447078 0 -0.0099452256288425391 0.014783241068247542 0 -0.010166633604423686 0.014720901096447078 0 -0.0099452256288425391 0.014783241068247542 0 -0.0097764279933133837 0.015603412710681051 0 -0.009625958644846418 0.014579258694326615 0 -0.0099452256288425391 0.014783241068247542 0 -0.0099893699662575788 0.013835936488864062 0 -0.010550438515465667 0.013267020457338055 0 -0.0099452256288425391 0.014783241068247542 0 -0.0099893699662575788 0.013835936488864062 0 -0.0095947900278931745 0.01494077194776113 0 -0.010015023845325211 0.014739337109696712 0 -0.0092764159382608246 0.01473147084051887 0 -0.0099893699662575788 0.013835936488864062 0 -0.009667172264482337 0.013386491798289546 0 -0.0092764159382608246 0.01473147084051887 0 -0.009625958644846418 0.014579258694326615 0 -0.0099893699662575788 0.013835936488864062 0 -0.010817687558759724 0.015122524904479556 0 -0.010592412757673329 0.013032455101458781 0 -0.01013893165147242 0.012662229132467699 0 -0.011455292809550524 0.012856412512984687 0 -0.010894173914327388 0.013852548552822676 0 -0.011962993059324942 0.014516263768794103 0 -0.011455292809550524 0.012856412512984687 0 -0.010894173914327388 0.013852548552822676 0 -0.01013893165147242 0.012662229132467699 0 -0.010815225259644548 0.011221612770345869 0 -0.011455292809550524 0.012856412512984687 0 -0.010815225259644548 0.011221612770345869 0 -0.010842555847215794 0.012088252735362692 0 -0.009667172264482337 0.013386491798289546 0 -0.010726375717212589 0.011538924382652551 0 -0.010592412757673329 0.013032455101458781 0 -0.010842555847215794 0.012088252735362692 0 -0.010550438515465667 0.013267020457338055 0 -0.0099893699662575788 0.013835936488864062 0 -0.010842555847215794 0.012088252735362692 0 -0.0099893699662575788 0.013835936488864062 0 -0.009667172264482337 0.013386491798289546 0 -0.0084607322645096263 0.015617910578004738 0 -0.0090729441308109518 0.016272506927181737 0 -0.0072846770114347479 0.018089686175035397 0 -0.0089146091158502742 0.017664720509090494 0 -0.0080149290413630715 0.019167239582298021 0 -0.0072846770114347479 0.018089686175035397 0 -0.0089146091158502742 0.017664720509090494 0 -0.0090729441308109518 0.016272506927181737 0 -0.0072846770114347479 0.018089686175035397 0 -0.011814365076715063 0.014582708021849531 0 -0.011246838711333628 0.016865996097698809 0 -0.010827697810408874 0.01507127523287875 0 -0.010131016561745393 0.01515707736141967 0 -0.009260073468448083 0.017497934127671051 0 -0.0098508555489723176 0.016353950015578638 0 -0.011246838711333628 0.016865996097698809 0 -0.010827697810408874 0.01507127523287875 0 -0.0098508555489723176 0.016353950015578638 0 -0.010482631433520437 0.014551517299556298 0 -0.010827697810408874 0.01507127523287875 0 -0.0098508555489723176 0.016353950015578638 0 -0.0097764279933133837 0.015603412710681051 0 -0.010482631433520437 0.014551517299556298 0 -0.010166633604423686 0.014720901096447078 0 -0.0097764279933133837 0.015603412710681051 0 -0.010482631433520437 0.014551517299556298 0 -0.010980901141834453 0.013171370722021536 0 -0.010482631433520437 0.014551517299556298 0 -0.011241278417509578 0.013482458404871476 0 -0.011814365076715063 0.014582708021849531 0 -0.010827697810408874 0.01507127523287875 0 -0.011241278417509578 0.013482458404871476 0 -0.010482631433520437 0.014551517299556298 0 -0.010827697810408874 0.01507127523287875 0 -0.011241278417509578 0.013482458404871476 0 -0.011814365076715063 0.014582708021849531 0 -0.011241278417509578 0.013482458404871476 0 -0.011986513496905916 0.0129782175172211 0 -0.010980901141834453 0.013171370722021536 0 -0.011241278417509578 0.013482458404871476 0 -0.011490011782389358 0.012359395305207412 0 -0.011241278417509578 0.013482458404871476 0 -0.011490011782389358 0.012359395305207412 0 -0.011700412654784824 0.012401727216208584 0 -0.011241278417509578 0.013482458404871476 0 -0.011986513496905916 0.0129782175172211 0 -0.011700412654784824 0.012401727216208584 0 -0.0098193230880346972 0.013647223144921172 0 -0.01010952594164518 0.014558170018090164 0 -0.011118558948002073 0.013285534325768006 0 -0.0084607322645096263 0.015617910578004738 0 -0.0098193230880346972 0.013647223144921172 0 -0.01010952594164518 0.014558170018090164 0 -0.010131016561745393 0.01515707736141967 0 -0.010934810501637211 0.013398461593644178 0 -0.010105734106685174 0.015480098288088724 0 -0.0090729441308109518 0.016272506927181737 0 -0.01010952594164518 0.014558170018090164 0 -0.0084607322645096263 0.015617910578004738 0 -0.0090729441308109518 0.016272506927181737 0 -0.01010952594164518 0.014558170018090164 0 -0.011232465170473781 0.013910398650325341 0 -0.01010952594164518 0.014558170018090164 0 -0.011118558948002073 0.013285534325768006 0 -0.01197238109092858 0.013148087360274643 0 -0.011118558948002073 0.013285534325768006 0 -0.011909346635573996 0.01245840216626623 0 -0.011232465170473781 0.013910398650325341 0 -0.01197238109092858 0.013148087360274643 0 -0.011118558948002073 0.013285534325768006 0 -0.0098193230880346972 0.013647223144921172 0 -0.011269133446670311 0.012614290054493398 0 -0.011666745727870343 0.012279408504239326 0 -0.011118558948002073 0.013285534325768006 0 -0.011269133446670311 0.012614290054493398 0 -0.011909346635573996 0.01245840216626623 0 -0.0098193230880346972 0.013647223144921172 0 -0.011118558948002073 0.013285534325768006 0 -0.011269133446670311 0.012614290054493398 0 -0.011269133446670311 0.012614290054493398 0 -0.011809280198714417 0.012075235179694633 0 -0.011909346635573996 0.01245840216626623 0 -0.011809280198714417 0.012075235179694633 0 -0.011797893382489518 0.011395403580426584 0 -0.012185497577958884 0.011729126682905438 0 -0.011269133446670311 0.012614290054493398 0 -0.011511351988189854 0.012216283746243438 0 -0.011809280198714417 0.012075235179694633 0 -0.011269133446670311 0.012614290054493398 0 -0.011511351988189854 0.012216283746243438 0 -0.011666745727870343 0.012279408504239326 0 -0.011809280198714417 0.012075235179694633 0 -0.011909346635573996 0.01245840216626623 0 -0.012185497577958884 0.011729126682905438 0 -0.012603749522816282 0.012415363240406502 0 -0.011909346635573996 0.01245840216626623 0 -0.012185497577958884 0.011729126682905438 0 -0.01197238109092858 0.013148087360274643 0 -0.012603749522816282 0.012415363240406502 0 -0.011909346635573996 0.01245840216626623 0 -0.011862942122163515 0.012188628229121336 0 -0.011700412654784824 0.012401727216208584 0 -0.011981775079946685 0.012313139982848831 0 -0.012193794627243106 0.012098052931683818 0 -0.011862942122163515 0.012188628229121336 0 -0.011981775079946685 0.012313139982848831 0 -0.012193794627243106 0.012098052931683818 0 -0.011806281636337049 0.011972863994919036 0 -0.011862942122163515 0.012188628229121336 0 -0.011806281636337049 0.011972863994919036 0 -0.011490011782389358 0.012359395305207412 0 -0.011862942122163515 0.012188628229121336 0 -0.011490011782389358 0.012359395305207412 0 -0.011862942122163515 0.012188628229121336 0 -0.011700412654784824 0.012401727216208584 0 -0.010934810501637211 0.013398461593644178 0 -0.011539383006378726 0.012474964874270789 0 -0.011986513496905916 0.0129782175172211 0 -0.011700412654784824 0.012401727216208584 0 -0.011666745727870343 0.012279408504239326 0 -0.011700412654784824 0.012401727216208584 0 -0.011981775079946685 0.012313139982848831 0 -0.011666745727870343 0.012279408504239326 0 -0.011511351988189854 0.012216283746243438 0 -0.011632542788539936 0.010904076281508064 0 -0.011797893382489518 0.011395403580426584 0 -0.011511351988189854 0.012216283746243438 0 -0.011809280198714417 0.012075235179694633 0 -0.011797893382489518 0.011395403580426584 0 -0.011535960083090659 0.012020615457996186 0 -0.012211006948971526 0.011578043264810581 0 -0.011511351988189854 0.012216283746243438 0 -0.011981775079946685 0.012313139982848831 0 -0.011666745727870343 0.012279408504239326 0 -0.006289804125940531 -0.0029076221749597827 0 -0.0050079089199464317 -0.0024754029231096489 0 -0.0055535091735330055 -0.0023972627822503078 0 -0.010253338130895457 0.0074714008358132541 0 -0.0083745578513296105 0.0040222387335623619 0 -0.010253338130895457 0.0074714008358132541 0 -0.012211006948971526 0.011578043264810581 0 -0.012282713337644253 0.0097516174624340465 0 -0.011632542788539936 0.010904076281508064 0 -0.011797893382489518 0.011395403580426584 0 -0.006289804125940531 -0.0029076221749597827 0 -0.0063600129718239164 -0.0020612431269719303 0 -0.0055535091735330055 -0.0023972627822503078 0 -0.0063600129718239164 -0.0020612431269719303 0 -0.0056297449914877139 -0.0026825343281321346 0 -0.00628438809306202 -0.0025870454289558149 0 -0.0063600129718239164 -0.0020612431269719303 0 -0.0055535091735330055 -0.0023972627822503078 0 -0.0056297449914877139 -0.0026825343281321346 0 -0.0052922061205459168 -0.0027307040094880809 0 -0.0054717866477630396 -0.0032205456470209711 0 -0.0052644674296329205 -0.0028582141323417643 0 -0.0083745578513296105 0.0040222387335623619 0 -0.008663830203046792 0.0044951291219321446 0 -0.0050079089199464317 -0.0024754029231096489 0 -0.0052922061205459168 -0.0027307040094880809 0 -0.0052644674296329205 -0.0028582141323417643 0 -0.0056297449914877139 -0.0026825343281321346 0 -0.0052922061205459168 -0.0027307040094880809 0 -0.0054717866477630396 -0.0032205456470209711 0 -0.0055535091735330055 -0.0023972627822503078 0 -0.0056297449914877139 -0.0026825343281321346 0 -0.0052922061205459168 -0.0027307040094880809 0 -0.0050079089199464317 -0.0024754029231096489 0 -0.0055535091735330055 -0.0023972627822503078 0 -0.0052922061205459168 -0.0027307040094880809 0 -0.0054717866477630396 -0.0032205456470209711 0 -0.0057516702426292799 -0.0035165613592602471 0 -0.0057072152438327741 -0.0040104193909511468 0 -0.0057516702426292799 -0.0035165613592602471 0 -0.0057072152438327741 -0.0040104193909511468 0 -0.0058068786569273672 -0.0049859682879984128 0 -0.0056297449914877139 -0.0026825343281321346 0 -0.0054717866477630396 -0.0032205456470209711 0 -0.0057516702426292799 -0.0035165613592602471 0 -0.0057516702426292799 -0.0035165613592602471 0 -0.00628438809306202 -0.0025870454289558149 0 -0.0060830663321189268 -0.0044121397234221623 0 -0.00628438809306202 -0.0025870454289558149 0 -0.0060830663321189268 -0.0044121397234221623 0 -0.0058049407653634217 -0.0036136528419191318 0 -0.0056297449914877139 -0.0026825343281321346 0 -0.0057516702426292799 -0.0035165613592602471 0 -0.00628438809306202 -0.0025870454289558149 0 -0.012603749522816282 0.012415363240406502 0 -0.012185497577958884 0.011729126682905438 0 -0.013245187060356852 0.011729749950877199 0 -0.008663830203046792 0.0044951291219321446 0 -0.0095075259241604558 0.0040227719489139332 0 -0.0052644674296329205 -0.0028582141323417643 0 -0.0057072152438327741 -0.0040104193909511468 0 -0.0057567282639544746 -0.0035908595210540203 0 -0.0054717866477630396 -0.0032205456470209711 0 -0.0052644674296329205 -0.0028582141323417643 0 -0.0057072152438327741 -0.0040104193909511468 0 -0.0057072152438327741 -0.0040104193909511468 0 -0.0060458357557826104 -0.0046987154281245627 0 -0.0057567282639544746 -0.0035908595210540203 0 -0.0060458357557826104 -0.0046987154281245627 0 -0.0057567282639544746 -0.0035908595210540203 0 -0.0061477557914408299 -0.0044514104190878645 0 -0.0061477557914408299 -0.0044514104190878645 0 -0.0064167555414532179 -0.0061018838205353356 0 -0.0063187586119329764 -0.004342306111698644 0 -0.0068679150424029289 -0.0069859104703918146 0 -0.0064167555414532179 -0.0061018838205353356 0 -0.0072722096786124197 -0.0073186126529375421 0 -0.0069563279221862154 -0.006020204087482839 0 -0.0046028838279832535 -0.0054810452421544219 0 -0.0068679150424029289 -0.0069859104703918146 0 -0.0064167555414532179 -0.0061018838205353356 0 -0.0067017876460330012 -0.0073848116329430719 0 -0.0060458357557826104 -0.0046987154281245627 0 -0.0061477557914408299 -0.0044514104190878645 0 -0.0064167555414532179 -0.0061018838205353356 0 -0.0060458357557826104 -0.0046987154281245627 0 -0.0064167555414532179 -0.0061018838205353356 0 -0.006000358219739931 -0.0058516086202851526 0 -0.0057072152438327741 -0.0040104193909511468 0 -0.0060458357557826104 -0.0046987154281245627 0 -0.006000358219739931 -0.0058516086202851526 0 -0.0064167555414532179 -0.0061018838205353356 0 -0.006000358219739931 -0.0058516086202851526 0 -0.0063637894365366982 -0.0073088054090367314 0 -0.006000358219739931 -0.0058516086202851526 0 -0.0059486656657390079 -0.0086806631327901 0 -0.0063637894365366982 -0.0073088054090367314 0 -0.0059486656657390079 -0.0086806631327901 0 -0.0063637894365366982 -0.0073088054090367314 0 -0.0066765680291736408 -0.0084623490499309735 0 -0.0068679150424029289 -0.0069859104703918146 0 -0.0067017876460330012 -0.0073848116329430719 0 -0.0068072462120107539 -0.0077694540743852214 0 -0.0066765680291736408 -0.0084623490499309735 0 -0.0067017876460330012 -0.0073848116329430719 0 -0.0068072462120107539 -0.0077694540743852214 0 -0.0063637894365366982 -0.0073088054090367314 0 -0.0066765680291736408 -0.0084623490499309735 0 -0.0067017876460330012 -0.0073848116329430719 0 -0.0064167555414532179 -0.0061018838205353356 0 -0.0063637894365366982 -0.0073088054090367314 0 -0.0067017876460330012 -0.0073848116329430719 0 -0.0060830663321189268 -0.0044121397234221623 0 -0.0058068786569273672 -0.0049859682879984128 0 -0.0061900467749262328 -0.0058846641164756412 0 -0.0060830663321189268 -0.0044121397234221623 0 -0.0061900467749262328 -0.0058846641164756412 0 -0.0060925428840979678 -0.0049867423551145946 0 -0.0057072152438327741 -0.0040104193909511468 0 -0.006000358219739931 -0.0058516086202851526 0 -0.0058068786569273672 -0.0049859682879984128 0 -0.006000358219739931 -0.0058516086202851526 0 -0.0059486656657390079 -0.0086806631327901 0 -0.0058068786569273672 -0.0049859682879984128 0 -0.0057516702426292799 -0.0035165613592602471 0 -0.0060830663321189268 -0.0044121397234221623 0 -0.0058068786569273672 -0.0049859682879984128 0 -0.0059486656657390079 -0.0086806631327901 0 -0.0049159428614324145 -0.011100300796534479 0 -0.0058292327884608202 -0.011621435121254114 0 -0.0059486656657390079 -0.0086806631327901 0 -0.0058068786569273672 -0.0049859682879984128 0 -0.0061900467749262328 -0.0058846641164756412 0 -0.0063989700327963398 -0.0087444756582685176 0 -0.0053701231738494315 -0.0086179921290382294 0 -0.0053701231738494315 -0.0086179921290382294 0 -0.007373386634212096 -0.0077713227053212925 0 -0.0049159428614324145 -0.011100300796534479 0 -0.0058292327884608202 -0.011621435121254114 0 -0.0056803743706811431 -0.013154391331684912 0 -0.0059486656657390079 -0.0086806631327901 0 -0.0058292327884608202 -0.011621435121254114 0 -0.0063753796882961601 -0.011672039786484546 0 -0.0058292327884608202 -0.011621435121254114 0 -0.0063753796882961601 -0.011672039786484546 0 -0.0068247369617037675 -0.013067142971633567 0 -0.0058292327884608202 -0.011621435121254114 0 -0.0068247369617037675 -0.013067142971633567 0 -0.0056803743706811431 -0.013154391331684912 0 -0.0066765680291736408 -0.0084623490499309735 0 -0.006660792670559885 -0.010219452123728174 0 -0.0068130627884030849 -0.0087532237510036595 0 -0.0059486656657390079 -0.0086806631327901 0 -0.0063753796882961601 -0.011672039786484546 0 -0.006660792670559885 -0.010219452123728174 0 -0.0059486656657390079 -0.0086806631327901 0 -0.0066765680291736408 -0.0084623490499309735 0 -0.006660792670559885 -0.010219452123728174 0 -0.0063753796882961601 -0.011672039786484546 0 -0.006660792670559885 -0.010219452123728174 0 -0.0066614913985027458 -0.012167833970513521 0 -0.006660792670559885 -0.010219452123728174 0 -0.0066614913985027458 -0.012167833970513521 0 -0.0067156749720643609 -0.010516751067616332 0 -0.0066614913985027458 -0.012167833970513521 0 -0.0068989952931384621 -0.013311147131968126 0 -0.0065158567300040802 -0.01216799461543022 0 -0.0066614913985027458 -0.012167833970513521 0 -0.007015525371978317 -0.012981762820528348 0 -0.0071865655733176414 -0.013370994821276246 0 -0.0066614913985027458 -0.012167833970513521 0 -0.0068989952931384621 -0.013311147131968126 0 -0.0071865655733176414 -0.013370994821276246 0 -0.0063753796882961601 -0.011672039786484546 0 -0.0066614913985027458 -0.012167833970513521 0 -0.007015525371978317 -0.012981762820528348 0 -0.0063753796882961601 -0.011672039786484546 0 -0.007015525371978317 -0.012981762820528348 0 -0.0068247369617037675 -0.013067142971633567 0 -0.007015525371978317 -0.012981762820528348 0 -0.0068247369617037675 -0.013067142971633567 0 -0.0092603472569568902 -0.013848598146651613 0 -0.007015525371978317 -0.012981762820528348 0 -0.0091448252510583101 -0.01374832648259126 0 -0.0092603472569568902 -0.013848598146651613 0 -0.0072375580836917973 -0.013120970415180637 0 -0.0084019423325478512 -0.014019793939139123 0 -0.007015525371978317 -0.012981762820528348 0 -0.0077950521960892232 -0.014107738511146379 0 -0.0071865655733176414 -0.013370994821276246 0 -0.0077950521960892232 -0.014107738511146379 0 -0.0076453237687594822 -0.014080124109171059 0 -0.0071865655733176414 -0.013370994821276246 0 -0.0084019423325478512 -0.014019793939139123 0 -0.010611974936109202 -0.014341001002350412 0 -0.0077950521960892232 -0.014107738511146379 0 -0.0084399633279139789 -0.014551087038604707 0 -0.0094902944971424884 -0.014947134133146233 0 -0.0077950521960892232 -0.014107738511146379 0 -0.0084399633279139789 -0.014551087038604707 0 -0.0076453237687594822 -0.014080124109171059 0 -0.0076453237687594822 -0.014080124109171059 0 -0.0068989952931384621 -0.013311147131968126 0 -0.0073930283804770859 -0.014255151692225918 0 -0.0068989952931384621 -0.013311147131968126 0 -0.0073930283804770859 -0.014255151692225918 0 -0.0066297912086517889 -0.013882730182701291 0 -0.0076453237687594822 -0.014080124109171059 0 -0.0068989952931384621 -0.013311147131968126 0 -0.0071865655733176414 -0.013370994821276246 0 -0.011551212667812821 -0.014848880325981062 0 -0.012318987560613589 -0.014876724989538908 0 -0.010503652201751458 -0.014277388288847226 0 -0.012318987560613589 -0.014876724989538908 0 -0.010503652201751458 -0.014277388288847226 0 -0.011492237654669729 -0.014749945342145803 0 -0.010503652201751458 -0.014277388288847226 0 -0.0092603472569568902 -0.013848598146651613 0 -0.011305226095056466 -0.01438298322780435 0 -0.0091448252510583101 -0.01374832648259126 0 -0.0092603472569568902 -0.013848598146651613 0 -0.011305226095056466 -0.01438298322780435 0 -0.010503652201751458 -0.014277388288847226 0 -0.011305226095056466 -0.01438298322780435 0 -0.011492237654669729 -0.014749945342145803 0 -0.010503652201751458 -0.014277388288847226 0 -0.0092603472569568902 -0.013848598146651613 0 -0.010058383464877838 -0.014493090362889677 0 -0.0092603472569568902 -0.013848598146651613 0 -0.008453619918777076 -0.01379290193108515 0 -0.010058383464877838 -0.014493090362889677 0 -0.0068247369617037675 -0.013067142971633567 0 -0.0092603472569568902 -0.013848598146651613 0 -0.008453619918777076 -0.01379290193108515 0 -0.008453619918777076 -0.01379290193108515 0 -0.010058383464877838 -0.014493090362889677 0 -0.0089721592511283269 -0.014101746570447382 0 -0.011551212667812821 -0.014848880325981062 0 -0.010058383464877838 -0.014493090362889677 0 -0.011961031561191124 -0.0152633622452895 0 -0.010058383464877838 -0.014493090362889677 0 -0.010703983679779334 -0.015277113895311365 0 -0.011961031561191124 -0.0152633622452895 0 -0.011551212667812821 -0.014848880325981062 0 -0.010503652201751458 -0.014277388288847226 0 -0.010058383464877838 -0.014493090362889677 0 -0.010058383464877838 -0.014493090362889677 0 -0.009321598053686651 -0.014521377739730208 0 -0.010703983679779334 -0.015277113895311365 0 -0.010058383464877838 -0.014493090362889677 0 -0.009321598053686651 -0.014521377739730208 0 -0.0089721592511283269 -0.014101746570447382 0 -0.009321598053686651 -0.014521377739730208 0 -0.0081880281245900449 -0.013720049910364834 0 -0.0091184882195905204 -0.014742563688027415 0 -0.009321598053686651 -0.014521377739730208 0 -0.0089721592511283269 -0.014101746570447382 0 -0.0081880281245900449 -0.013720049910364834 0 -0.0094582250955427914 -0.0146497159009064 0 -0.011103767338339857 -0.015509791143606472 0 -0.009321598053686651 -0.014521377739730208 0 -0.010703983679779334 -0.015277113895311365 0 -0.010439722199036126 -0.016904803983224408 0 -0.009321598053686651 -0.014521377739730208 0 -0.0091184882195905204 -0.014742563688027415 0 -0.011306660112035653 -0.014052293265564106 0 -0.0082997333495134495 -0.013099689279609533 0 -0.0068943356243793934 -0.014312957653294659 0 -0.0068247369617037675 -0.013067142971633567 0 -0.008453619918777076 -0.01379290193108515 0 -0.0056803743706811431 -0.013154391331684912 0 -0.008453619918777076 -0.01379290193108515 0 -0.0089721592511283269 -0.014101746570447382 0 -0.0085371755474148887 -0.013267275331059612 0 -0.0089721592511283269 -0.014101746570447382 0 -0.0085371755474148887 -0.013267275331059612 0 -0.0081880281245900449 -0.013720049910364834 0 -0.0068943356243793934 -0.014312957653294659 0 -0.007373386634212096 -0.0077713227053212925 0 -0.0049159428614324145 -0.011100300796534479 0 -0.0056803743706811431 -0.013154391331684912 0 -0.0042403789356164545 -0.012567864071093858 0 -0.0071527822727654447 -0.012682873473982807 0 -0.0081880281245900449 -0.013720049910364834 0 -0.0078055911421615054 -0.014597890115456131 0 -0.0085371755474148887 -0.013267275331059612 0 -0.0071527822727654447 -0.012682873473982807 0 -0.0081880281245900449 -0.013720049910364834 0 -0.010573261727365241 0.00029668942595743186 0 -0.0092225437805012935 0.00096084335619662218 0 -0.012091936302971052 0.0015879768400127814 0 -0.010357883238458611 0.0018001251690740753 0 -0.0092225437805012935 0.00096084335619662218 0 -0.012091936302971052 0.0015879768400127814 0 -0.007373386634212096 -0.0077713227053212925 0 -0.010265080575711041 -0.0062934685936038241 0 -0.007373386634212096 -0.0077713227053212925 0 -0.0076348050171068617 -0.00047410941842527783 0 -0.0060830663321189268 -0.0044121397234221623 0 -0.0060925428840979678 -0.0049867423551145946 0 -0.0058049407653634217 -0.0036136528419191318 0 -0.0081880281245900449 -0.013720049910364834 0 -0.0091184882195905204 -0.014742563688027415 0 -0.0078055911421615054 -0.014597890115456131 0 -0.012288102118390947 0.00058392647599759932 0 -0.012091936302971052 0.0015879768400127814 0 -0.01377901152127539 0.00085151301508423619 0 -0.0091184882195905204 -0.014742563688027415 0 -0.0078055911421615054 -0.014597890115456131 0 -0.008829275672213437 -0.016179457942525278 0 -0.010265080575711041 -0.0062934685936038241 0 -0.011382943811027684 -0.0075928760808472275 0 -0.010899641918815513 -0.017916525227283989 0 -0.008829275672213437 -0.016179457942525278 0 -0.011336595586095516 -0.015734986210797542 0 -0.0091184882195905204 -0.014742563688027415 0 -0.008829275672213437 -0.016179457942525278 0 -0.011336595586095516 -0.015734986210797542 0 -0.012421415382787855 -0.009376919089402691 0 -0.011382943811027684 -0.0075928760808472275 0 -0.0091184882195905204 -0.014742563688027415 0 -0.011336595586095516 -0.015734986210797542 0 -0.011306660112035653 -0.014052293265564106 0 -0.011336595586095516 -0.015734986210797542 0 -0.01405144948974202 -0.016832726903597418 0 -0.014916253064835388 -0.014446475460847636 0 -0.011336595586095516 -0.015734986210797542 0 -0.014916253064835388 -0.014446475460847636 0 -0.011306660112035653 -0.014052293265564106 0 -0.010899641918815513 -0.017916525227283989 0 -0.011336595586095516 -0.015734986210797542 0 -0.01405144948974202 -0.016832726903597418 0 -0.01405144948974202 -0.016832726903597418 0 -0.017547699358282862 -0.017788877604024006 0 -0.014916253064835388 -0.014446475460847636 0 -0.010899641918815513 -0.017916525227283989 0 -0.01405144948974202 -0.016832726903597418 0 -0.015236540240567574 -0.018305128322722308 0 -0.022402240574917329 -0.020588631910928763 0 -0.022933878582499005 -0.01974184648585061 0 -0.023947438675727909 -0.02034122910011165 0 -0.01405144948974202 -0.016832726903597418 0 -0.015236540240567574 -0.018305128322722308 0 -0.017547699358282862 -0.017788877604024006 0 -0.01566886741958945 -0.019663853756731506 0 -0.015236540240567574 -0.018305128322722308 0 -0.017547699358282862 -0.017788877604024006 0 -0.019630257858081725 -0.019692819112129667 0 -0.020700141501436072 -0.018540910029258752 0 -0.013497965563606891 -0.019113424346503025 0 -0.017187854427584519 -0.018004767147776993 0 -0.018036733315883874 -0.021149036772203728 0 -0.013866632950189223 -0.016766229993718879 0 -0.020700141501436072 -0.018540910029258752 0 -0.017547699358282862 -0.017788877604024006 0 -0.014916253064835388 -0.014446475460847636 0 -0.019610270386013814 -0.015970711712019248 0 -0.013497965563606891 -0.019113424346503025 0 -0.017187854427584519 -0.018004767147776993 0 -0.016331492837408063 -0.015535606270351601 0 -0.016331492837408063 -0.015535606270351601 0 -0.019812794499737475 -0.01529658699394275 0 -0.019713231860041272 -0.013923532774352983 0 -0.017187854427584519 -0.018004767147776993 0 -0.016331492837408063 -0.015535606270351601 0 -0.018999480587628827 -0.016917901280033908 0 -0.016331492837408063 -0.015535606270351601 0 -0.018999480587628827 -0.016917901280033908 0 -0.019812794499737475 -0.01529658699394275 0 -0.016331492837408063 -0.015535606270351601 0 -0.01265608492419782 -0.01570307076971068 0 -0.015201022948304756 -0.014028079185715249 0 -0.013497965563606891 -0.019113424346503025 0 -0.016331492837408063 -0.015535606270351601 0 -0.01265608492419782 -0.01570307076971068 0 -0.01265608492419782 -0.01570307076971068 0 -0.010703983679779334 -0.015277113895311365 0 -0.010439722199036126 -0.016904803983224408 0 -0.013497965563606891 -0.019113424346503025 0 -0.01265608492419782 -0.01570307076971068 0 -0.010439722199036126 -0.016904803983224408 0 -0.013866632950189223 -0.016766229993718879 0 -0.011103767338339857 -0.015509791143606472 0 -0.026803840272483184 -0.019212556403143385 0 -0.026471343526064256 -0.018425915105759926 0 -0.02808298071497084 -0.018488536275877043 0 -0.027915124015536485 -0.019671965041352133 0 -0.026803840272483184 -0.019212556403143385 0 -0.02808298071497084 -0.018488536275877043 0 -0.024225842564509065 -0.0093955192533368512 0 -0.024150893451695365 -0.010766913756295552 0 -0.025378439074949594 -0.010330336934795618 0 -0.023614902444133789 -0.011548958717107247 0 -0.024150893451695365 -0.010766913756295552 0 -0.023154320692853718 -0.010711200606214475 0 -0.024225842564509065 -0.0093955192533368512 0 -0.024150893451695365 -0.010766913756295552 0 -0.023154320692853718 -0.010711200606214475 0 -0.025911562712152541 -0.014673329744778583 0 -0.02398031939717582 -0.015063180731978789 0 -0.024225842564509065 -0.0093955192533368512 0 -0.023154320692853718 -0.010711200606214475 0 -0.022079032809309947 -0.010152602265585052 0 -0.023154320692853718 -0.010711200606214475 0 -0.022309391954546298 -0.0109376789455468 0 -0.022079032809309947 -0.010152602265585052 0 -0.021528394656065458 -0.011308460351281238 0 -0.022309391954546298 -0.0109376789455468 0 -0.022079032809309947 -0.010152602265585052 0 -0.027915124015536485 -0.019671965041352133 0 -0.02573371629391882 -0.020194551463433581 0 -0.026803840272483184 -0.019212556403143385 0 -0.025754198855542369 -0.019304549494825473 0 -0.025021910335830407 -0.018646833567720324 0 -0.026471343526064256 -0.018425915105759926 0 -0.02573371629391882 -0.020194551463433581 0 -0.025754198855542369 -0.019304549494825473 0 -0.026803840272483184 -0.019212556403143385 0 -0.025754198855542369 -0.019304549494825473 0 -0.026803840272483184 -0.019212556403143385 0 -0.026471343526064256 -0.018425915105759926 0 -0.025021910335830407 -0.018646833567720324 0 -0.024959365244531261 -0.01968208492733323 0 -0.023330703450470499 -0.01929685597384501 0 -0.025754198855542369 -0.019304549494825473 0 -0.025021910335830407 -0.018646833567720324 0 -0.024959365244531261 -0.01968208492733323 0 -0.021528394656065458 -0.011308460351281238 0 -0.022079032809309947 -0.010152602265585052 0 -0.020337389287961052 -0.010843358245237241 0 -0.02573371629391882 -0.020194551463433581 0 -0.025754198855542369 -0.019304549494825473 0 -0.024959365244531261 -0.01968208492733323 0 -0.02398031939717582 -0.015063180731978789 0 -0.022241764852551721 -0.016229522109736799 0 -0.02573371629391882 -0.020194551463433581 0 -0.024959365244531261 -0.01968208492733323 0 -0.023947438675727909 -0.02034122910011165 0 -0.024959365244531261 -0.01968208492733323 0 -0.023947438675727909 -0.02034122910011165 0 -0.023493061493244552 -0.018761294597045189 0 -0.022933878582499005 -0.01974184648585061 0 -0.023947438675727909 -0.02034122910011165 0 -0.023493061493244552 -0.018761294597045189 0 -0.025021910335830407 -0.018646833567720324 0 -0.023330703450470499 -0.01929685597384501 0 -0.024043330829311434 -0.017771704137383035 0 -0.020700141501436072 -0.018540910029258752 0 -0.022646186523926935 -0.018274938546069253 0 -0.025850296329175886 -0.019861387697085512 0 -0.020700141501436072 -0.018540910029258752 0 -0.017187854427584519 -0.018004767147776993 0 -0.018036733315883874 -0.021149036772203728 0 -0.021202839740384029 -0.018490625656869368 0 -0.017187854427584519 -0.018004767147776993 0 -0.018999480587628827 -0.016917901280033908 0 -0.021202839740384029 -0.018490625656869368 0 -0.021202839740384029 -0.018490625656869368 0 -0.021535759204793049 -0.016268751516507439 0 -0.024913917195617061 -0.015682240507154097 0 -0.018999480587628827 -0.016917901280033908 0 -0.021202839740384029 -0.018490625656869368 0 -0.021535759204793049 -0.016268751516507439 0 -0.018999480587628827 -0.016917901280033908 0 -0.019812794499737475 -0.01529658699394275 0 -0.021535759204793049 -0.016268751516507439 0 -0.021287008493402794 -0.01504073193803037 0 -0.019812794499737475 -0.01529658699394275 0 -0.020995817618217501 -0.013573373962991502 0 -0.021287008493402794 -0.01504073193803037 0 -0.019812794499737475 -0.01529658699394275 0 -0.021535759204793049 -0.016268751516507439 0 -0.022781214559195306 -0.014990224335406635 0 -0.021535759204793049 -0.016268751516507439 0 -0.024913917195617061 -0.015682240507154097 0 -0.021287008493402794 -0.01504073193803037 0 -0.022781214559195306 -0.014990224335406635 0 -0.021535759204793049 -0.016268751516507439 0 -0.024043330829311434 -0.017771704137383035 0 -0.024913917195617061 -0.015682240507154097 0 -0.02608393960413067 -0.017110647292274808 0 -0.022646186523926935 -0.018274938546069253 0 -0.024697520995484154 -0.015589302854849572 0 -0.022781214559195306 -0.014990224335406635 0 -0.024913917195617061 -0.015682240507154097 0 -0.025365315264925792 -0.015173638911697894 0 -0.024913917195617061 -0.015682240507154097 0 -0.02608393960413067 -0.017110647292274808 0 -0.025365315264925792 -0.015173638911697894 0 -0.025021910335830407 -0.018646833567720324 0 -0.024043330829311434 -0.017771704137383035 0 -0.02608393960413067 -0.017110647292274808 0 -0.025021910335830407 -0.018646833567720324 0 -0.026471343526064256 -0.018425915105759926 0 -0.02608393960413067 -0.017110647292274808 0 -0.026471343526064256 -0.018425915105759926 0 -0.02720585826060825 -0.017617058367750103 0 -0.02608393960413067 -0.017110647292274808 0 -0.026849734941523675 -0.017171175845014996 0 -0.024678136167589661 -0.016651104820558229 0 -0.02608393960413067 -0.017110647292274808 0 -0.027135590050161175 -0.016316514445210397 0 -0.025365315264925792 -0.015173638911697894 0 -0.02720585826060825 -0.017617058367750103 0 -0.02608393960413067 -0.017110647292274808 0 -0.027135590050161175 -0.016316514445210397 0 -0.02720585826060825 -0.017617058367750103 0 -0.027135590050161175 -0.016316514445210397 0 -0.028673410733252198 -0.017367198082827263 0 -0.026849734941523675 -0.017171175845014996 0 -0.028442691517833671 -0.017364788460915576 0 -0.02720585826060825 -0.017617058367750103 0 -0.02808298071497084 -0.018488536275877043 0 -0.028673410733252198 -0.017367198082827263 0 -0.026471343526064256 -0.018425915105759926 0 -0.02720585826060825 -0.017617058367750103 0 -0.02808298071497084 -0.018488536275877043 0 -0.026895208501574289 -0.016020729589658337 0 -0.028483601453162335 -0.016226933529093792 0 -0.028736701499805561 -0.015429944482018981 0 -0.027085518937021113 -0.01690840839169545 0 -0.026895208501574289 -0.016020729589658337 0 -0.028483601453162335 -0.016226933529093792 0 -0.027085518937021113 -0.01690840839169545 0 -0.028673410733252198 -0.017367198082827263 0 -0.028483601453162335 -0.016226933529093792 0 -0.026814879391707267 -0.018104797461653756 0 -0.027085518937021113 -0.01690840839169545 0 -0.028673410733252198 -0.017367198082827263 0 -0.026814879391707267 -0.018104797461653756 0 -0.025630719368877349 -0.017389371512802093 0 -0.023852951639707094 -0.01834100473073829 0 -0.026814879391707267 -0.018104797461653756 0 -0.027085518937021113 -0.01690840839169545 0 -0.025630719368877349 -0.017389371512802093 0 -0.027085518937021113 -0.01690840839169545 0 -0.025630719368877349 -0.017389371512802093 0 -0.0257580249639346 -0.016731069919982924 0 -0.025630719368877349 -0.017389371512802093 0 -0.0257580249639346 -0.016731069919982924 0 -0.024437743578132071 -0.017128720521646677 0 -0.027085518937021113 -0.01690840839169545 0 -0.0257580249639346 -0.016731069919982924 0 -0.026895208501574289 -0.016020729589658337 0 -0.0257580249639346 -0.016731069919982924 0 -0.026895208501574289 -0.016020729589658337 0 -0.024687241808612061 -0.016212178796033077 0 -0.024687241808612061 -0.016212178796033077 0 -0.023601299889390599 -0.016874671297706506 0 -0.024437743578132071 -0.017128720521646677 0 -0.0257580249639346 -0.016731069919982924 0 -0.024687241808612061 -0.016212178796033077 0 -0.024437743578132071 -0.017128720521646677 0 -0.025630719368877349 -0.017389371512802093 0 -0.024437743578132071 -0.017128720521646677 0 -0.023852951639707094 -0.01834100473073829 0 -0.024437743578132071 -0.017128720521646677 0 -0.023852951639707094 -0.01834100473073829 0 -0.023212051168505096 -0.017642504972727704 0 -0.023601299889390599 -0.016874671297706506 0 -0.024437743578132071 -0.017128720521646677 0 -0.023212051168505096 -0.017642504972727704 0 -0.022781214559195306 -0.014990224335406635 0 -0.025365315264925792 -0.015173638911697894 0 -0.020995817618217501 -0.013573373962991502 0 -0.023852951639707094 -0.01834100473073829 0 -0.023212051168505096 -0.017642504972727704 0 -0.021173063138433538 -0.017851682989444069 0 -0.022766809447499606 -0.017117536714653641 0 -0.021173063138433538 -0.017851682989444069 0 -0.023197228163261287 -0.016250362184502494 0 -0.023212051168505096 -0.017642504972727704 0 -0.022766809447499606 -0.017117536714653641 0 -0.021173063138433538 -0.017851682989444069 0 -0.024678136167589661 -0.016651104820558229 0 -0.02002999078212913 -0.016658324249169236 0 -0.023601299889390599 -0.016874671297706506 0 -0.023212051168505096 -0.017642504972727704 0 -0.022766809447499606 -0.017117536714653641 0 -0.021287008493402794 -0.01504073193803037 0 -0.022781214559195306 -0.014990224335406635 0 -0.020995817618217501 -0.013573373962991502 0 -0.020068889201558103 -0.015092714481972901 0 -0.02002999078212913 -0.016658324249169236 0 -0.02002999078212913 -0.016658324249169236 0 -0.021109390627346274 -0.016870366129962296 0 -0.024687241808612061 -0.016212178796033077 0 -0.023601299889390599 -0.016874671297706506 0 -0.023197228163261287 -0.016250362184502494 0 -0.023601299889390599 -0.016874671297706506 0 -0.022766809447499606 -0.017117536714653641 0 -0.023197228163261287 -0.016250362184502494 0 -0.019102389403894023 -0.016519092769816793 0 -0.020410683374312465 -0.015351155267341208 0 -0.01813794571188089 -0.015840097753002259 0 -0.021109390627346274 -0.016870366129962296 0 -0.022190184909435213 -0.01523651179608093 0 -0.024687241808612061 -0.016212178796033077 0 -0.023197228163261287 -0.016250362184502494 0 -0.023878264765344496 -0.015609021939729224 0 -0.020410683374312465 -0.015351155267341208 0 -0.019115483519108092 -0.014939107888612416 0 -0.023235816302166947 -0.014292845683316751 0 -0.022190184909435213 -0.01523651179608093 0 -0.023013692535664231 -0.014192638993778277 0 -0.023878264765344496 -0.015609021939729224 0 -0.025891590482301979 -0.015594842519744776 0 -0.025974725364153746 -0.015023495983156247 0 -0.024687241808612061 -0.016212178796033077 0 -0.023878264765344496 -0.015609021939729224 0 -0.025891590482301979 -0.015594842519744776 0 -0.026895208501574289 -0.016020729589658337 0 -0.024687241808612061 -0.016212178796033077 0 -0.025891590482301979 -0.015594842519744776 0 -0.026895208501574289 -0.016020729589658337 0 -0.025891590482301979 -0.015594842519744776 0 -0.027547886911991278 -0.015529676715861807 0 -0.025891590482301979 -0.015594842519744776 0 -0.027300846394205533 -0.015304654710060201 0 -0.025974725364153746 -0.015023495983156247 0 -0.025891590482301979 -0.015594842519744776 0 -0.027300846394205533 -0.015304654710060201 0 -0.027547886911991278 -0.015529676715861807 0 -0.027300846394205533 -0.015304654710060201 0 -0.028505848840314478 -0.015327842946275757 0 -0.027547886911991278 -0.015529676715861807 0 -0.028505848840314478 -0.015327842946275757 0 -0.028589009695987468 -0.015377753796539642 0 -0.027547886911991278 -0.015529676715861807 0 -0.028589009695987468 -0.015377753796539642 0 -0.027547886911991278 -0.015529676715861807 0 -0.028736701499805561 -0.015429944482018981 0 -0.026895208501574289 -0.016020729589658337 0 -0.027547886911991278 -0.015529676715861807 0 -0.028736701499805561 -0.015429944482018981 0 -0.014541981858864994 -0.017704271157186008 0 -0.015936803936325929 -0.016189386089806922 0 -0.013532407605013804 -0.015341653287933427 0 -0.011961031561191124 -0.0152633622452895 0 -0.014541981858864994 -0.017704271157186008 0 -0.013532407605013804 -0.015341653287933427 0 -0.011551212667812821 -0.014848880325981062 0 -0.011961031561191124 -0.0152633622452895 0 -0.013532407605013804 -0.015341653287933427 0 -0.01265608492419782 -0.01570307076971068 0 -0.010703983679779334 -0.015277113895311365 0 -0.011961031561191124 -0.0152633622452895 0 -0.012337831168298508 -0.015351336489790706 0 -0.014810892601858841 -0.015825372435148546 0 -0.01265608492419782 -0.01570307076971068 0 -0.011961031561191124 -0.0152633622452895 0 -0.015201022948304756 -0.014028079185715249 0 -0.016331492837408063 -0.015535606270351601 0 -0.019713231860041272 -0.013923532774352983 0 -0.015201022948304756 -0.014028079185715249 0 -0.018801074332727024 -0.019012210062909735 0 -0.014541981858864994 -0.017704271157186008 0 -0.01728101606520157 -0.017027995053284249 0 -0.02002999078212913 -0.016658324249169236 0 -0.014810892601858841 -0.015825372435148546 0 -0.018801074332727024 -0.019012210062909735 0 -0.019102389403894023 -0.016519092769816793 0 -0.01728101606520157 -0.017027995053284249 0 -0.01728101606520157 -0.017027995053284249 0 -0.015936803936325929 -0.016189386089806922 0 -0.01813794571188089 -0.015840097753002259 0 -0.019102389403894023 -0.016519092769816793 0 -0.01728101606520157 -0.017027995053284249 0 -0.01813794571188089 -0.015840097753002259 0 -0.014541981858864994 -0.017704271157186008 0 -0.01728101606520157 -0.017027995053284249 0 -0.015936803936325929 -0.016189386089806922 0 -0.016284914708573493 -0.015297290648212681 0 -0.01813794571188089 -0.015840097753002259 0 -0.019115483519108092 -0.014939107888612416 0 -0.015936803936325929 -0.016189386089806922 0 -0.016284914708573493 -0.015297290648212681 0 -0.01813794571188089 -0.015840097753002259 0 -0.020410683374312465 -0.015351155267341208 0 -0.01813794571188089 -0.015840097753002259 0 -0.019115483519108092 -0.014939107888612416 0 -0.016284914708573493 -0.015297290648212681 0 -0.019115483519108092 -0.014939107888612416 0 -0.016956109677048109 -0.0143813128078556 0 -0.016956109677048109 -0.0143813128078556 0 -0.014673502350834061 -0.014771707059309852 0 -0.015211673049243276 -0.013950954395408116 0 -0.016284914708573493 -0.015297290648212681 0 -0.016956109677048109 -0.0143813128078556 0 -0.014673502350834061 -0.014771707059309852 0 -0.015936803936325929 -0.016189386089806922 0 -0.016284914708573493 -0.015297290648212681 0 -0.013532407605013804 -0.015341653287933427 0 -0.016284914708573493 -0.015297290648212681 0 -0.014673502350834061 -0.014771707059309852 0 -0.013532407605013804 -0.015341653287933427 0 -0.011551212667812821 -0.014848880325981062 0 -0.012318987560613589 -0.014876724989538908 0 -0.013532407605013804 -0.015341653287933427 0 -0.012318987560613589 -0.014876724989538908 0 -0.014673502350834061 -0.014771707059309852 0 -0.015211673049243276 -0.013950954395408116 0 -0.012318987560613589 -0.014876724989538908 0 -0.014673502350834061 -0.014771707059309852 0 -0.013532407605013804 -0.015341653287933427 0 -0.012318987560613589 -0.014876724989538908 0 -0.014525498158422859 -0.012865414145922108 0 -0.015211673049243276 -0.013950954395408116 0 -0.012318987560613589 -0.014876724989538908 0 -0.015043917585607624 -0.015832211658697751 0 -0.01322709801841134 -0.015358891935237737 0 -0.0124329224434297 -0.015350154993711725 0 -0.015182477115694525 -0.013003477958366701 0 -0.015043917585607624 -0.015832211658697751 0 -0.015441087101495634 -0.013743019442222769 0 -0.01322709801841134 -0.015358891935237737 0 -0.015182477115694525 -0.013003477958366701 0 -0.018763144000219022 -0.019261515882392981 0 -0.015043917585607624 -0.015832211658697751 0 -0.015441087101495634 -0.013743019442222769 0 -0.01898730922008551 -0.013732640049085934 0 -0.014525498158422859 -0.012865414145922108 0 -0.016172506648556458 -0.013166406468149712 0 -0.018303715173298218 -0.010918608897086353 0 -0.016172506648556458 -0.013166406468149712 0 -0.015211673049243276 -0.013950954395408116 0 -0.017421786140703874 -0.013544303912369144 0 -0.014525498158422859 -0.012865414145922108 0 -0.016172506648556458 -0.013166406468149712 0 -0.015211673049243276 -0.013950954395408116 0 -0.016956109677048109 -0.0143813128078556 0 -0.015211673049243276 -0.013950954395408116 0 -0.017421786140703874 -0.013544303912369144 0 -0.019115483519108092 -0.014939107888612416 0 -0.016956109677048109 -0.0143813128078556 0 -0.019548581947245999 -0.01362277511147973 0 -0.016956109677048109 -0.0143813128078556 0 -0.017421786140703874 -0.013544303912369144 0 -0.019548581947245999 -0.01362277511147973 0 -0.017421786140703874 -0.013544303912369144 0 -0.019548581947245999 -0.01362277511147973 0 -0.018596020141825553 -0.012724002135647897 0 -0.016172506648556458 -0.013166406468149712 0 -0.017421786140703874 -0.013544303912369144 0 -0.018596020141825553 -0.012724002135647897 0 -0.019548581947245999 -0.01362277511147973 0 -0.023235816302166947 -0.014292845683316751 0 -0.022730853433386138 -0.013220541208503028 0 -0.019115483519108092 -0.014939107888612416 0 -0.019548581947245999 -0.01362277511147973 0 -0.023235816302166947 -0.014292845683316751 0 -0.019548581947245999 -0.01362277511147973 0 -0.020420883605632118 -0.012369038769508957 0 -0.022730853433386138 -0.013220541208503028 0 -0.020420883605632118 -0.012369038769508957 0 -0.019431096353259271 -0.010702308301486938 0 -0.022247964218231144 -0.011656998564811267 0 -0.020420883605632118 -0.012369038769508957 0 -0.022247964218231144 -0.011656998564811267 0 -0.022730853433386138 -0.013220541208503028 0 -0.016172506648556458 -0.013166406468149712 0 -0.020176180417224621 -0.011303676479711361 0 -0.018303715173298218 -0.010918608897086353 0 -0.016172506648556458 -0.013166406468149712 0 -0.018596020141825553 -0.012724002135647897 0 -0.019431096353259271 -0.010702308301486938 0 -0.017118477307902284 -0.011439482302213495 0 -0.019233013463618508 -0.015605689550926003 0 -0.019548581947245999 -0.01362277511147973 0 -0.020420883605632118 -0.012369038769508957 0 -0.018596020141825553 -0.012724002135647897 0 -0.020420883605632118 -0.012369038769508957 0 -0.018596020141825553 -0.012724002135647897 0 -0.019431096353259271 -0.010702308301486938 0 -0.019994846510759556 -0.027698064006621826 0 -0.021133188642497646 -0.025857451827719161 0 -0.017830860562124441 -0.027244337545337605 0 -0.019233013463618508 -0.015605689550926003 0 -0.018763144000219022 -0.019261515882392981 0 -0.021184936256900034 -0.026270756804824057 0 -0.018688490812364129 -0.025407808078514893 0 -0.01870916440597294 -0.027673556355104295 0 -0.019994846510759556 -0.027698064006621826 0 -0.021509905474972196 -0.026281737026670898 0 -0.023108747345184776 -0.026245692097596477 0 -0.019994846510759556 -0.027698064006621826 0 -0.021509905474972196 -0.026281737026670898 0 -0.021133188642497646 -0.025857451827719161 0 -0.020644874415478558 -0.026777785309211734 0 -0.020503506083430705 -0.026806537525214325 0 -0.020503506083430705 -0.026806537525214325 0 -0.018763144000219022 -0.019261515882392981 0 -0.019233013463618508 -0.015605689550926003 0 -0.022053117422003745 -0.013472592654547623 0 -0.021944735495733586 -0.013439893512414746 0 -0.023235962947077967 -0.014207854621177993 0 -0.023961347141593727 -0.013887929504306529 0 -0.019338649341913004 -0.015327845993433764 0 -0.022176327700846012 -0.015240632134390955 0 -0.021944735495733586 -0.013439893512414746 0 -0.019233013463618508 -0.015605689550926003 0 -0.022402751167879646 -0.020137470906551696 0 -0.022176327700846012 -0.015240632134390955 0 -0.021944735495733586 -0.013439893512414746 0 -0.023235962947077967 -0.014207854621177993 0 -0.022982245696339072 -0.02535828832917943 0 -0.02620194855420728 -0.024365993527288153 0 -0.022553939183018311 -0.023747602781360844 0 -0.021944735495733586 -0.013439893512414746 0 -0.023961347141593727 -0.013887929504306529 0 -0.02383948056808784 -0.012795977937183411 0 -0.021509905474972196 -0.026281737026670898 0 -0.023108747345184776 -0.026245692097596477 0 -0.022982245696339072 -0.02535828832917943 0 -0.022402751167879646 -0.020137470906551696 0 -0.024199192613266158 -0.021197404359550934 0 -0.023108747345184776 -0.026245692097596477 0 -0.022982245696339072 -0.02535828832917943 0 -0.02620194855420728 -0.024365993527288153 0 -0.022982245696339072 -0.02535828832917943 0 -0.020955259517158598 -0.026610566172083606 0 -0.021337930206756929 -0.025442123535994541 0 -0.021509905474972196 -0.026281737026670898 0 -0.022982245696339072 -0.02535828832917943 0 -0.021049609544365459 -0.025981488685435632 0 -0.022420661663882183 -0.025317954934502961 0 -0.020503506083430705 -0.026806537525214325 0 -0.020955259517158598 -0.026610566172083606 0 -0.021337930206756929 -0.025442123535994541 0 -0.020214452455646435 -0.025126904011808528 0 -0.022982245696339072 -0.02535828832917943 0 -0.021337930206756929 -0.025442123535994541 0 -0.021245787974430618 -0.024658003894727682 0 -0.022982245696339072 -0.02535828832917943 0 -0.021245787974430618 -0.024658003894727682 0 -0.022553939183018311 -0.023747602781360844 0 -0.021337930206756929 -0.025442123535994541 0 -0.021245787974430618 -0.024658003894727682 0 -0.020214452455646435 -0.025126904011808528 0 -0.020955259517158598 -0.026610566172083606 0 -0.020214452455646435 -0.025126904011808528 0 -0.019143629757175047 -0.02511335905479781 0 -0.020955259517158598 -0.026610566172083606 0 -0.019143629757175047 -0.02511335905479781 0 -0.017180588042917305 -0.024831999404304732 0 -0.020503506083430705 -0.026806537525214325 0 -0.01770558574008723 -0.024124820509382944 0 -0.021184936256900034 -0.026270756804824057 0 -0.018688490812364129 -0.025407808078514893 0 -0.018065924112140749 -0.023517384981586984 0 -0.018688490812364129 -0.025407808078514893 0 -0.017547400195870009 -0.024786690443722437 0 -0.017184531758237056 -0.025850544155029815 0 -0.017547400195870009 -0.024786690443722437 0 -0.016249740587707957 -0.024467636080223062 0 -0.017184531758237056 -0.025850544155029815 0 -0.018688490812364129 -0.025407808078514893 0 -0.017547400195870009 -0.024786690443722437 0 -0.018065924112140749 -0.023517384981586984 0 -0.016249740587707957 -0.024467636080223062 0 -0.018065924112140749 -0.023517384981586984 0 -0.015029990407858915 -0.023077280030551778 0 -0.017547400195870009 -0.024786690443722437 0 -0.016249740587707957 -0.024467636080223062 0 -0.018065924112140749 -0.023517384981586984 0 -0.016249740587707957 -0.024467636080223062 0 -0.014033069221963323 -0.023880042023817799 0 -0.015029990407858915 -0.023077280030551778 0 -0.016249740587707957 -0.024467636080223062 0 -0.015190511996490748 -0.026279244243466886 0 -0.017184531758237056 -0.025850544155029815 0 -0.016249740587707957 -0.024467636080223062 0 -0.015190511996490748 -0.026279244243466886 0 -0.014033069221963323 -0.023880042023817799 0 -0.01547456303838295 -0.020134599030985866 0 -0.018763144000219022 -0.019261515882392981 0 -0.015190511996490748 -0.026279244243466886 0 -0.01870916440597294 -0.027673556355104295 0 -0.017184531758237056 -0.025850544155029815 0 -0.018688490812364129 -0.025407808078514893 0 -0.01870916440597294 -0.027673556355104295 0 -0.017184531758237056 -0.025850544155029815 0 -0.029602143061716758 -0.015264121435854148 0 -0.028537642585337395 -0.015067508590865917 0 -0.029308049725642122 -0.014615364694145309 0 -0.027300846394205533 -0.015304654710060201 0 -0.028505848840314478 -0.015327842946275757 0 -0.028537642585337395 -0.015067508590865917 0 -0.029602143061716758 -0.015264121435854148 0 -0.028537642585337395 -0.015067508590865917 0 -0.02934269086383369 -0.015409112752488678 0 -0.028505848840314478 -0.015327842946275757 0 -0.028537642585337395 -0.015067508590865917 0 -0.02934269086383369 -0.015409112752488678 0 -0.027300846394205533 -0.015304654710060201 0 -0.028537642585337395 -0.015067508590865917 0 -0.025974725364153746 -0.015023495983156247 0 -0.028537642585337395 -0.015067508590865917 0 -0.027279137029939535 -0.014552850067398128 0 -0.025974725364153746 -0.015023495983156247 0 -0.027540276072768956 -0.01493375774373449 0 -0.027923481389773297 -0.014214360746624449 0 -0.028537642585337395 -0.015067508590865917 0 -0.027279137029939535 -0.014552850067398128 0 -0.029308049725642122 -0.014615364694145309 0 -0.027279137029939535 -0.014552850067398128 0 -0.029308049725642122 -0.014615364694145309 0 -0.029994036620315669 -0.013988592438570891 0 -0.027279137029939535 -0.014552850067398128 0 -0.025082925257905685 -0.014098256783771699 0 -0.025799434951985341 -0.014681936177349366 0 -0.025082925257905685 -0.014098256783771699 0 -0.02440486107239696 -0.013871973558071378 0 -0.025799434951985341 -0.014681936177349366 0 -0.025082925257905685 -0.014098256783771699 0 -0.025974725364153746 -0.015023495983156247 0 -0.023235816302166947 -0.014292845683316751 0 -0.027279137029939535 -0.014552850067398128 0 -0.025082925257905685 -0.014098256783771699 0 -0.025974725364153746 -0.015023495983156247 0 -0.023878264765344496 -0.015609021939729224 0 -0.025974725364153746 -0.015023495983156247 0 -0.023235816302166947 -0.014292845683316751 0 -0.022247964218231144 -0.011656998564811267 0 -0.022730853433386138 -0.013220541208503028 0 -0.02440486107239696 -0.013871973558071378 0 -0.025082925257905685 -0.014098256783771699 0 -0.023235816302166947 -0.014292845683316751 0 -0.022730853433386138 -0.013220541208503028 0 -0.025082925257905685 -0.014098256783771699 0 -0.022730853433386138 -0.013220541208503028 0 -0.02440486107239696 -0.013871973558071378 0 -0.022176327700846012 -0.015240632134390955 0 -0.02440486107239696 -0.013871973558071378 0 -0.023235962947077967 -0.014207854621177993 0 -0.022053117422003745 -0.013472592654547623 0 -0.023846539185889186 -0.013729493536667293 0 -0.02440486107239696 -0.013871973558071378 0 -0.023961347141593727 -0.013887929504306529 0 -0.025003638769572598 -0.014314669950751665 0 -0.02440486107239696 -0.013871973558071378 0 -0.023235962947077967 -0.014207854621177993 0 -0.023961347141593727 -0.013887929504306529 0 -0.027062627464518239 -0.01645699779888839 0 -0.024199192613266158 -0.021197404359550934 0 -0.023961347141593727 -0.013887929504306529 0 -0.025003638769572598 -0.014314669950751665 0 -0.02383948056808784 -0.012795977937183411 0 -0.025657042421092468 -0.014800185361733477 0 -0.025003638769572598 -0.014314669950751665 0 -0.02383948056808784 -0.012795977937183411 0 -0.027062627464518239 -0.01645699779888839 0 -0.027923481389773297 -0.014214360746624449 0 -0.025657042421092468 -0.014800185361733477 0 -0.025003638769572598 -0.014314669950751665 0 -0.025799434951985341 -0.014681936177349366 0 -0.02440486107239696 -0.013871973558071378 0 -0.025003638769572598 -0.014314669950751665 0 -0.025799434951985341 -0.014681936177349366 0 -0.029308049725642122 -0.014615364694145309 0 -0.029994036620315669 -0.013988592438570891 0 -0.030452710418974051 -0.016395958384030622 0 -0.027062627464518239 -0.01645699779888839 0 -0.031841418936938565 -0.016194558298363238 0 -0.030798850643780341 -0.017439633974957403 0 -0.030452710418974051 -0.016395958384030622 0 -0.031142563177323661 -0.018276731290175163 0 -0.031588192946703328 -0.013819803884831248 0 -0.029994036620315669 -0.013988592438570891 0 -0.030452710418974051 -0.016395958384030622 0 -0.029602143061716758 -0.015264121435854148 0 -0.029308049725642122 -0.014615364694145309 0 -0.030452710418974051 -0.016395958384030622 0 -0.031259071170053186 -0.020361764141607435 0 -0.0313495623885214 -0.020684567610155743 0 -0.031525817559292513 -0.021168603626910944 0 -0.031259071170053186 -0.020361764141607435 0 -0.0313495623885214 -0.020684567610155743 0 -0.031049564373923939 -0.019184641907884381 0 -0.031259071170053186 -0.020361764141607435 0 -0.031049564373923939 -0.019184641907884381 0 -0.030895998039173599 -0.019021418007487252 0 -0.030452710418974051 -0.016395958384030622 0 -0.031049564373923939 -0.019184641907884381 0 -0.030895998039173599 -0.019021418007487252 0 -0.030452710418974051 -0.016395958384030622 0 -0.031049564373923939 -0.019184641907884381 0 -0.031142563177323661 -0.018276731290175163 0 -0.031049564373923939 -0.019184641907884381 0 -0.031142563177323661 -0.018276731290175163 0 -0.03143245525813626 -0.019986886052894417 0 -0.031142563177323661 -0.018276731290175163 0 -0.03143245525813626 -0.019986886052894417 0 -0.03202349445235559 -0.018758712927186953 0 -0.0313495623885214 -0.020684567610155743 0 -0.031049564373923939 -0.019184641907884381 0 -0.03143245525813626 -0.019986886052894417 0 -0.0313495623885214 -0.020684567610155743 0 -0.03143245525813626 -0.019986886052894417 0 -0.031452550026508638 -0.021173139341827085 0 -0.03143245525813626 -0.019986886052894417 0 -0.031519366195731528 -0.020994052584490518 0 -0.031708834558117911 -0.020473977461293827 0 -0.03143245525813626 -0.019986886052894417 0 -0.031519366195731528 -0.020994052584490518 0 -0.031452550026508638 -0.021173139341827085 0 -0.031708834558117911 -0.020473977461293827 0 -0.032369085288063509 -0.020622649003046972 0 -0.03202349445235559 -0.018758712927186953 0 -0.030050679797103658 -0.024598371554275012 0 -0.027847062908171436 -0.026283891289330251 0 -0.028662382099874911 -0.023923992370684238 0 -0.023621629512950076 -0.021381032253340069 0 -0.023230771098470538 -0.02089993571134479 0 -0.023594471052572279 -0.020872805137619896 0 -0.02852499490673047 -0.021813772532338668 0 -0.027622486072507245 -0.020110471178721202 0 -0.031519366195731528 -0.020994052584490518 0 -0.031708834558117911 -0.020473977461293827 0 -0.031613084135619023 -0.021473873532500118 0 -0.031708834558117911 -0.020473977461293827 0 -0.031613084135619023 -0.021473873532500118 0 -0.032369085288063509 -0.020622649003046972 0 -0.03006263185562414 -0.02086595646705415 0 -0.02852499490673047 -0.021813772532338668 0 -0.02852499490673047 -0.021813772532338668 0 -0.025299417779596017 -0.024073946611883664 0 -0.03143245525813626 -0.019986886052894417 0 -0.031708834558117911 -0.020473977461293827 0 -0.03202349445235559 -0.018758712927186953 0 -0.027062627464518239 -0.01645699779888839 0 -0.027622486072507245 -0.020110471178721202 0 -0.030798850643780341 -0.017439633974957403 0 -0.031142563177323661 -0.018276731290175163 0 -0.03202349445235559 -0.018758712927186953 0 -0.022989259807232883 -0.020395974886525035 0 -0.023230771098470538 -0.02089993571134479 0 -0.023594471052572279 -0.020872805137619896 0 -0.027847062908171436 -0.026283891289330251 0 -0.025385193410685854 -0.028110965972160003 0 -0.024754016822823539 -0.025745093871792434 0 -0.022989259807232883 -0.020395974886525035 0 -0.023594471052572279 -0.020872805137619896 0 -0.02360270310988009 -0.020519581493228127 0 -0.025299417779596017 -0.024073946611883664 0 -0.024199192613266158 -0.021197404359550934 0 -0.027847062908171436 -0.026283891289330251 0 -0.026509493481778196 -0.023903417197171317 0 -0.024754016822823539 -0.025745093871792434 0 -0.027847062908171436 -0.026283891289330251 0 -0.028662382099874911 -0.023923992370684238 0 -0.026509493481778196 -0.023903417197171317 0 -0.026509493481778196 -0.023903417197171317 0 -0.028704039926960051 -0.022449713826792304 0 -0.026910889490320982 -0.022651072332544427 0 -0.028662382099874911 -0.023923992370684238 0 -0.028704039926960051 -0.022449713826792304 0 -0.030500570194987635 -0.022242912106486681 0 -0.028662382099874911 -0.023923992370684238 0 -0.026509493481778196 -0.023903417197171317 0 -0.028704039926960051 -0.022449713826792304 0 -0.028704039926960051 -0.022449713826792304 0 -0.026910889490320982 -0.022651072332544427 0 -0.028119422646648996 -0.021923510567121444 0 -0.028119422646648996 -0.021923510567121444 0 -0.028428789650856542 -0.0214658035037503 0 -0.026262836616244661 -0.021544812570611131 0 -0.028428789650856542 -0.0214658035037503 0 -0.02959150529572269 -0.021877688693382712 0 -0.030141675753287515 -0.021643323615867363 0 -0.028428789650856542 -0.0214658035037503 0 -0.030141675753287515 -0.021643323615867363 0 -0.02941449753247407 -0.021346513994401562 0 -0.028704039926960051 -0.022449713826792304 0 -0.028119422646648996 -0.021923510567121444 0 -0.02959150529572269 -0.021877688693382712 0 -0.028119422646648996 -0.021923510567121444 0 -0.028428789650856542 -0.0214658035037503 0 -0.02959150529572269 -0.021877688693382712 0 -0.02959150529572269 -0.021877688693382712 0 -0.030141675753287515 -0.021643323615867363 0 -0.031019613017113215 -0.021925236537188374 0 -0.031019613017113215 -0.021925236537188374 0 -0.031479077002234922 -0.021939845630512139 0 -0.031129692622937584 -0.021826520418147255 0 -0.030141675753287515 -0.021643323615867363 0 -0.031019613017113215 -0.021925236537188374 0 -0.031129692622937584 -0.021826520418147255 0 -0.031019613017113215 -0.021925236537188374 0 -0.031159068437517434 -0.021913725389950244 0 -0.031462128386946196 -0.021779982434005571 0 -0.031019613017113215 -0.021925236537188374 0 -0.030500570194987635 -0.022242912106486681 0 -0.031159068437517434 -0.021913725389950244 0 -0.028704039926960051 -0.022449713826792304 0 -0.02959150529572269 -0.021877688693382712 0 -0.030500570194987635 -0.022242912106486681 0 -0.02959150529572269 -0.021877688693382712 0 -0.031019613017113215 -0.021925236537188374 0 -0.030500570194987635 -0.022242912106486681 0 -0.02852499490673047 -0.021813772532338668 0 -0.030405873880086098 -0.022548902085345955 0 -0.030050679797103658 -0.024598371554275012 0 -0.028662382099874911 -0.023923992370684238 0 -0.030500570194987635 -0.022242912106486681 0 -0.031159068437517434 -0.021913725389950244 0 -0.031436147838149853 -0.021553726307349388 0 -0.031462128386946196 -0.021779982434005571 0 -0.031852262881846755 -0.02135190418393074 0 -0.030500570194987635 -0.022242912106486681 0 -0.031159068437517434 -0.021913725389950244 0 -0.031613084135619023 -0.021473873532500118 0 -0.031852262881846755 -0.02135190418393074 0 -0.031159068437517434 -0.021913725389950244 0 -0.031613084135619023 -0.021473873532500118 0 -0.031159068437517434 -0.021913725389950244 0 -0.031436147838149853 -0.021553726307349388 0 -0.031519366195731528 -0.020994052584490518 0 -0.031613084135619023 -0.021473873532500118 0 -0.031436147838149853 -0.021553726307349388 0 -0.031436147838149853 -0.021553726307349388 0 -0.031452550026508638 -0.021173139341827085 0 -0.031462128386946196 -0.021779982434005571 0 -0.031519366195731528 -0.020994052584490518 0 -0.031436147838149853 -0.021553726307349388 0 -0.031452550026508638 -0.021173139341827085 0 -0.031452550026508638 -0.021173139341827085 0 -0.031564262422104777 -0.021502897454077345 0 -0.031462128386946196 -0.021779982434005571 0 -0.0313495623885214 -0.020684567610155743 0 -0.031452550026508638 -0.021173139341827085 0 -0.031564262422104777 -0.021502897454077345 0 -0.031564262422104777 -0.021502897454077345 0 -0.031587504656591429 -0.021765128309274094 0 -0.031734147745302671 -0.021860750666857304 0 -0.031564262422104777 -0.021502897454077345 0 -0.031587504656591429 -0.021765128309274094 0 -0.031462128386946196 -0.021779982434005571 0 -0.031587504656591429 -0.021765128309274094 0 -0.031462128386946196 -0.021779982434005571 0 -0.031551504586723116 -0.021881421970494856 0 -0.031019613017113215 -0.021925236537188374 0 -0.031462128386946196 -0.021779982434005571 0 -0.031551504586723116 -0.021881421970494856 0 -0.031019613017113215 -0.021925236537188374 0 -0.031551504586723116 -0.021881421970494856 0 -0.031479077002234922 -0.021939845630512139 0 -0.031479077002234922 -0.021939845630512139 0 -0.031817477859240439 -0.022035819332772641 0 -0.03169270389138451 -0.022049106064019119 0 -0.031551504586723116 -0.021881421970494856 0 -0.031479077002234922 -0.021939845630512139 0 -0.031817477859240439 -0.022035819332772641 0 -0.031817477859240439 -0.022035819332772641 0 -0.031734147745302671 -0.021860750666857304 0 -0.031883297389444828 -0.022002578679925965 0 -0.031551504586723116 -0.021881421970494856 0 -0.031817477859240439 -0.022035819332772641 0 -0.031734147745302671 -0.021860750666857304 0 -0.031587504656591429 -0.021765128309274094 0 -0.031551504586723116 -0.021881421970494856 0 -0.031734147745302671 -0.021860750666857304 0 -0.031734147745302671 -0.021860750666857304 0 -0.031890620525186826 -0.02193236526066053 0 -0.031883297389444828 -0.022002578679925965 0 -0.031734147745302671 -0.021860750666857304 0 -0.031890620525186826 -0.02193236526066053 0 -0.031727627977468018 -0.02166277467788531 0 -0.031890620525186826 -0.02193236526066053 0 -0.03206598131124893 -0.022181153536634014 0 -0.031883297389444828 -0.022002578679925965 0 -0.031817477859240439 -0.022035819332772641 0 -0.03206598131124893 -0.022181153536634014 0 -0.031883297389444828 -0.022002578679925965 0 -0.03206598131124893 -0.022181153536634014 0 -0.0320782856260549 -0.022128899085717121 0 -0.032281678655239732 -0.022412681717829386 0 -0.031890620525186826 -0.02193236526066053 0 -0.03206598131124893 -0.022181153536634014 0 -0.0320782856260549 -0.022128899085717121 0 -0.031890620525186826 -0.02193236526066053 0 -0.031883466900258332 -0.021835958502306213 0 -0.031727627977468018 -0.02166277467788531 0 -0.031890620525186826 -0.02193236526066053 0 -0.0320782856260549 -0.022128899085717121 0 -0.031883466900258332 -0.021835958502306213 0 -0.031883466900258332 -0.021835958502306213 0 -0.031693032447350507 -0.021489619240195983 0 -0.031727627977468018 -0.02166277467788531 0 -0.031693032447350507 -0.021489619240195983 0 -0.031727627977468018 -0.02166277467788531 0 -0.031525817559292513 -0.021168603626910944 0 -0.031564262422104777 -0.021502897454077345 0 -0.031727627977468018 -0.02166277467788531 0 -0.031525817559292513 -0.021168603626910944 0 -0.031564262422104777 -0.021502897454077345 0 -0.031734147745302671 -0.021860750666857304 0 -0.031727627977468018 -0.02166277467788531 0 -0.0313495623885214 -0.020684567610155743 0 -0.031564262422104777 -0.021502897454077345 0 -0.031525817559292513 -0.021168603626910944 0 -0.031693032447350507 -0.021489619240195983 0 -0.031525817559292513 -0.021168603626910944 0 -0.031575047212456318 -0.021206701873476577 0 -0.031259071170053186 -0.020361764141607435 0 -0.031525817559292513 -0.021168603626910944 0 -0.031575047212456318 -0.021206701873476577 0 -0.019412583873374668 -0.023732683966501272 0 -0.017070804771845898 -0.023594457950954842 0 -0.019007411536809585 -0.02461212693564609 0 -0.019412583873374668 -0.023732683966501272 0 -0.017070804771845898 -0.023594457950954842 0 -0.016972511622848858 -0.022421875346762394 0 -0.017070804771845898 -0.023594457950954842 0 -0.016972511622848858 -0.022421875346762394 0 -0.014595572687089421 -0.023080416081862131 0 -0.017070804771845898 -0.023594457950954842 0 -0.017180588042917305 -0.024831999404304732 0 -0.014595572687089421 -0.023080416081862131 0 -0.018065924112140749 -0.023517384981586984 0 -0.015429466582257538 -0.021842802268593 0 -0.015029990407858915 -0.023077280030551778 0 -0.01770558574008723 -0.024124820509382944 0 -0.015032460259272479 -0.022476626650538317 0 -0.017070804771845898 -0.023594457950954842 0 -0.017180588042917305 -0.024831999404304732 0 -0.019007411536809585 -0.02461212693564609 0 -0.019412583873374668 -0.023732683966501272 0 -0.019007411536809585 -0.02461212693564609 0 -0.020925625775685068 -0.024841811196669856 0 -0.019143629757175047 -0.02511335905479781 0 -0.017180588042917305 -0.024831999404304732 0 -0.019007411536809585 -0.02461212693564609 0 -0.020214452455646435 -0.025126904011808528 0 -0.019143629757175047 -0.02511335905479781 0 -0.019007411536809585 -0.02461212693564609 0 -0.021245787974430618 -0.024658003894727682 0 -0.020214452455646435 -0.025126904011808528 0 -0.019007411536809585 -0.02461212693564609 0 -0.019007411536809585 -0.02461212693564609 0 -0.021856143159822532 -0.026947250807936828 0 -0.020925625775685068 -0.024841811196669856 0 -0.021245787974430618 -0.024658003894727682 0 -0.019007411536809585 -0.02461212693564609 0 -0.022553939183018311 -0.023747602781360844 0 -0.019389028934352282 -0.024697999476368322 0 -0.022753482837716589 -0.025613852301644934 0 -0.021856143159822532 -0.026947250807936828 0 -0.020925625775685068 -0.024841811196669856 0 -0.022735072563596661 -0.025163410934498389 0 -0.025385193410685854 -0.028110965972160003 0 -0.021856143159822532 -0.026947250807936828 0 -0.024754016822823539 -0.025745093871792434 0 -0.024199192613266158 -0.021197404359550934 0 -0.022753482837716589 -0.025613852301644934 0 -0.021856143159822532 -0.026947250807936828 0 -0.024754016822823539 -0.025745093871792434 0 -0.022735072563596661 -0.025163410934498389 0 -0.026509493481778196 -0.023903417197171317 0 -0.024754016822823539 -0.025745093871792434 0 -0.024082119721986924 -0.024266378592597192 0 -0.024754016822823539 -0.025745093871792434 0 -0.022735072563596661 -0.025163410934498389 0 -0.024082119721986924 -0.024266378592597192 0 -0.022735072563596661 -0.025163410934498389 0 -0.024082119721986924 -0.024266378592597192 0 -0.022124047897990533 -0.023943296840286038 0 -0.024082119721986924 -0.024266378592597192 0 -0.022124047897990533 -0.023943296840286038 0 -0.02459133083496284 -0.02304226495511328 0 -0.026509493481778196 -0.023903417197171317 0 -0.024082119721986924 -0.024266378592597192 0 -0.02459133083496284 -0.02304226495511328 0 -0.019412583873374668 -0.023732683966501272 0 -0.022124047897990533 -0.023943296840286038 0 -0.021571688031894846 -0.022250754083342553 0 -0.019412583873374668 -0.023732683966501272 0 -0.020925625775685068 -0.024841811196669856 0 -0.022124047897990533 -0.023943296840286038 0 -0.020925625775685068 -0.024841811196669856 0 -0.022735072563596661 -0.025163410934498389 0 -0.022124047897990533 -0.023943296840286038 0 -0.022124047897990533 -0.023943296840286038 0 -0.021571688031894846 -0.022250754083342553 0 -0.02459133083496284 -0.02304226495511328 0 -0.021571688031894846 -0.022250754083342553 0 -0.02459133083496284 -0.02304226495511328 0 -0.026262836616244661 -0.021544812570611131 0 -0.026910889490320982 -0.022651072332544427 0 -0.02459133083496284 -0.02304226495511328 0 -0.026262836616244661 -0.021544812570611131 0 -0.026509493481778196 -0.023903417197171317 0 -0.026910889490320982 -0.022651072332544427 0 -0.02459133083496284 -0.02304226495511328 0 -0.026910889490320982 -0.022651072332544427 0 -0.028119422646648996 -0.021923510567121444 0 -0.026262836616244661 -0.021544812570611131 0 -0.026262836616244661 -0.021544812570611131 0 -0.0252081621759268 -0.020665558976781274 0 -0.026625388182163732 -0.020880288920118735 0 -0.026262836616244661 -0.021544812570611131 0 -0.027939061287117845 -0.021057407903877993 0 -0.026625388182163732 -0.020880288920118735 0 -0.028428789650856542 -0.0214658035037503 0 -0.026262836616244661 -0.021544812570611131 0 -0.027939061287117845 -0.021057407903877993 0 -0.021571688031894846 -0.022250754083342553 0 -0.026262836616244661 -0.021544812570611131 0 -0.0252081621759268 -0.020665558976781274 0 -0.021571688031894846 -0.022250754083342553 0 -0.0252081621759268 -0.020665558976781274 0 -0.023895467158568717 -0.020240795489231325 0 -0.021571688031894846 -0.022250754083342553 0 -0.023249943603735675 -0.019461906473512508 0 -0.023895467158568717 -0.020240795489231325 0 -0.021571688031894846 -0.022250754083342553 0 -0.017995501768377959 -0.021501669027785712 0 -0.018794788067735015 -0.021423116323869167 0 -0.021633438297669692 -0.02261029132306239 0 -0.021404410620340489 -0.019959867632645237 0 -0.019412583873374668 -0.023732683966501272 0 -0.021571688031894846 -0.022250754083342553 0 -0.016972511622848858 -0.022421875346762394 0 -0.021571688031894846 -0.022250754083342553 0 -0.016972511622848858 -0.022421875346762394 0 -0.017995501768377959 -0.021501669027785712 0 -0.017995501768377959 -0.021501669027785712 0 -0.016348347189920995 -0.021411839643411985 0 -0.017547163786932909 -0.021063929760545812 0 -0.016972511622848858 -0.022421875346762394 0 -0.017995501768377959 -0.021501669027785712 0 -0.016348347189920995 -0.021411839643411985 0 -0.016348347189920995 -0.021411839643411985 0 -0.014548235578516427 -0.021500389075065563 0 -0.016094700659626891 -0.020336988401147799 0 -0.014548235578516427 -0.021500389075065563 0 -0.013135654072383764 -0.02086216705479876 0 -0.016094700659626891 -0.020336988401147799 0 -0.014548235578516427 -0.021500389075065563 0 -0.01289566600901111 -0.021810729708363945 0 -0.013135654072383764 -0.02086216705479876 0 -0.014254352105597787 -0.021450126949690406 0 -0.012827602126814937 -0.021688082679573204 0 -0.014548235578516427 -0.021500389075065563 0 -0.013343375905762544 -0.021232886255740897 0 -0.012942358236419054 -0.020992611692710269 0 -0.014548235578516427 -0.021500389075065563 0 -0.013343375905762544 -0.021232886255740897 0 -0.01498591821095503 -0.021888127433105812 0 -0.016348347189920995 -0.021411839643411985 0 -0.014548235578516427 -0.021500389075065563 0 -0.01498591821095503 -0.021888127433105812 0 -0.016972511622848858 -0.022421875346762394 0 -0.016348347189920995 -0.021411839643411985 0 -0.01498591821095503 -0.021888127433105812 0 -0.016972511622848858 -0.022421875346762394 0 -0.01498591821095503 -0.021888127433105812 0 -0.014595572687089421 -0.023080416081862131 0 -0.013473937058140435 -0.021335752959315557 0 -0.015032460259272479 -0.022476626650538317 0 -0.013343375905762544 -0.021232886255740897 0 -0.015429466582257538 -0.021842802268593 0 -0.013673580257017535 -0.021585999300921657 0 -0.013343375905762544 -0.021232886255740897 0 -0.01498591821095503 -0.021888127433105812 0 -0.014595572687089421 -0.023080416081862131 0 -0.013343375905762544 -0.021232886255740897 0 -0.013673580257017535 -0.021585999300921657 0 -0.013011631296474268 -0.021302181722456015 0 -0.013673580257017535 -0.021585999300921657 0 -0.012857354976095189 -0.021487365201897719 0 -0.013011631296474268 -0.021302181722456015 0 -0.013673580257017535 -0.021585999300921657 0 -0.013219036689628332 -0.021735501957674975 0 -0.013634831413901601 -0.022115790219438873 0 -0.015429466582257538 -0.021842802268593 0 -0.013673580257017535 -0.021585999300921657 0 -0.013634831413901601 -0.022115790219438873 0 -0.013673580257017535 -0.021585999300921657 0 -0.013219036689628332 -0.021735501957674975 0 -0.012857354976095189 -0.021487365201897719 0 -0.013219036689628332 -0.021735501957674975 0 -0.012722056549679117 -0.021726196643483183 0 -0.012857354976095189 -0.021487365201897719 0 -0.013219036689628332 -0.021735501957674975 0 -0.013634831413901601 -0.022115790219438873 0 -0.012722056549679117 -0.021726196643483183 0 -0.013634831413901601 -0.022115790219438873 0 -0.012722056549679117 -0.021726196643483183 0 -0.012706159690569012 -0.022128971769055341 0 -0.015429466582257538 -0.021842802268593 0 -0.013634831413901601 -0.022115790219438873 0 -0.015029990407858915 -0.023077280030551778 0 -0.01025353996978829 -0.020717571335934246 0 -0.010520570265260147 -0.021358627895652328 0 -0.011819004344322979 -0.021209309161740547 0 -0.0099683086724194087 -0.020599406091244058 0 -0.01073639143532241 -0.021226393370868558 0 -0.011819004344322979 -0.021209309161740547 0 -0.011460387038017312 -0.020725235529000158 0 -0.0099683086724194087 -0.020599406091244058 0 -0.011461993423701093 -0.021276599295482111 0 -0.01025353996978829 -0.020717571335934246 0 -0.011819004344322979 -0.021209309161740547 0 -0.012077125265025855 -0.021627054431886294 0 -0.01073639143532241 -0.021226393370868558 0 -0.012722056549679117 -0.021726196643483183 0 -0.011819004344322979 -0.021209309161740547 0 -0.012077125265025855 -0.021627054431886294 0 -0.012722056549679117 -0.021726196643483183 0 -0.012706159690569012 -0.022128971769055341 0 -0.012077125265025855 -0.021627054431886294 0 -0.012857354976095189 -0.021487365201897719 0 -0.011819004344322979 -0.021209309161740547 0 -0.012494850195140359 -0.021189760629237796 0 -0.012722056549679117 -0.021726196643483183 0 -0.012857354976095189 -0.021487365201897719 0 -0.011819004344322979 -0.021209309161740547 0 -0.012494850195140359 -0.021189760629237796 0 -0.012702322900249223 -0.021097923736440767 0 -0.011460387038017312 -0.020725235529000158 0 -0.011819004344322979 -0.021209309161740547 0 -0.012494850195140359 -0.021189760629237796 0 -0.011460387038017312 -0.020725235529000158 0 -0.011461993423701093 -0.021276599295482111 0 -0.012827602126814937 -0.021688082679573204 0 -0.012702322900249223 -0.021097923736440767 0 -0.011460387038017312 -0.020725235529000158 0 -0.012942358236419054 -0.020992611692710269 0 -0.012857354976095189 -0.021487365201897719 0 -0.012494850195140359 -0.021189760629237796 0 -0.013011631296474268 -0.021302181722456015 0 -0.013343375905762544 -0.021232886255740897 0 -0.013011631296474268 -0.021302181722456015 0 -0.012702322900249223 -0.021097923736440767 0 -0.012494850195140359 -0.021189760629237796 0 -0.013011631296474268 -0.021302181722456015 0 -0.012702322900249223 -0.021097923736440767 0 -0.011426418255331795 -0.021884129912082349 0 -0.01188261951591673 -0.022204823977316109 0 -0.011276688163324089 -0.021609986779839586 0 -0.011426418255331795 -0.021884129912082349 0 -0.01188261951591673 -0.022204823977316109 0 -0.012699690613641398 -0.022434381139067081 0 -0.011787931381772759 -0.022568207320821043 0 -0.01188261951591673 -0.022204823977316109 0 -0.01289566600901111 -0.021810729708363945 0 -0.011787931381772759 -0.022568207320821043 0 -0.01188261951591673 -0.022204823977316109 0 -0.011276688163324089 -0.021609986779839586 0 -0.014548235578516427 -0.021500389075065563 0 -0.012699690613641398 -0.022434381139067081 0 -0.01289566600901111 -0.021810729708363945 0 -0.013343375905762544 -0.021232886255740897 0 -0.012702322900249223 -0.021097923736440767 0 -0.012942358236419054 -0.020992611692710269 0 -0.01188261951591673 -0.022204823977316109 0 -0.012699690613641398 -0.022434381139067081 0 -0.01289566600901111 -0.021810729708363945 0 -0.011787931381772759 -0.022568207320821043 0 -0.01289566600901111 -0.021810729708363945 0 -0.013135654072383764 -0.02086216705479876 0 -0.011787931381772759 -0.022568207320821043 0 -0.012902575197916323 -0.025700411169139566 0 -0.012697734212115225 -0.024795809190385636 0 -0.012030628691248114 -0.022643000523756802 0 -0.013234101415873428 -0.0231456997783713 0 -0.011787931381772759 -0.022568207320821043 0 -0.012154010000724736 -0.022560589002326756 0 -0.012697734212115225 -0.024795809190385636 0 -0.012154010000724736 -0.022560589002326756 0 -0.012274177032645481 -0.021812286235586072 0 -0.013281003643279341 -0.023661243061199603 0 -0.012154010000724736 -0.022560589002326756 0 -0.012274177032645481 -0.021812286235586072 0 -0.010782066553936466 -0.020811294254497119 0 -0.012154010000724736 -0.022560589002326756 0 -0.011276688163324089 -0.021609986779839586 0 -0.010782066553936466 -0.020811294254497119 0 -0.011787931381772759 -0.022568207320821043 0 -0.012154010000724736 -0.022560589002326756 0 -0.011276688163324089 -0.021609986779839586 0 -0.013822407882791429 -0.021727731017756415 0 -0.012274177032645481 -0.021812286235586072 0 -0.010650137762315614 -0.020458018498853918 0 -0.013822407882791429 -0.021727731017756415 0 -0.012274177032645481 -0.021812286235586072 0 -0.01377209731043744 -0.023141084800080459 0 -0.012274177032645481 -0.021812286235586072 0 -0.013281003643279341 -0.023661243061199603 0 -0.01377209731043744 -0.023141084800080459 0 -0.012274177032645481 -0.021812286235586072 0 -0.010650137762315614 -0.020458018498853918 0 -0.010782066553936466 -0.020811294254497119 0 -0.010650137762315614 -0.020458018498853918 0 -0.0098577270893876346 -0.019369164177239016 0 -0.010407143081072278 -0.020418634430186978 0 -0.011541221032982267 -0.022320995957754903 0 -0.010896563246722987 -0.0208456253864551 0 -0.0094992802655470485 -0.022705837695073658 0 -0.010650137762315614 -0.020458018498853918 0 -0.010407143081072278 -0.020418634430186978 0 -0.010650137762315614 -0.020458018498853918 0 -0.0098296285395855498 -0.019855828888357498 0 -0.0098577270893876346 -0.019369164177239016 0 -0.0098296285395855498 -0.019855828888357498 0 -0.010782066553936466 -0.020811294254497119 0 -0.0096532428873933457 -0.020120388230952913 0 -0.010650137762315614 -0.020458018498853918 0 -0.0098296285395855498 -0.019855828888357498 0 -0.010782066553936466 -0.020811294254497119 0 -0.0098296285395855498 -0.019855828888357498 0 -0.008944202644689184 -0.019173349754379308 0 -0.0096532428873933457 -0.020120388230952913 0 -0.008944202644689184 -0.019173349754379308 0 -0.0096532428873933457 -0.020120388230952913 0 -0.0087477263769249435 -0.019921576524341122 0 -0.0098296285395855498 -0.019855828888357498 0 -0.008944202644689184 -0.019173349754379308 0 -0.0092586512473072646 -0.018577932250012034 0 -0.0098296285395855498 -0.019855828888357498 0 -0.0092586512473072646 -0.018577932250012034 0 -0.0098577270893876346 -0.019369164177239016 0 -0.011276688163324089 -0.021609986779839586 0 -0.010782066553936466 -0.020811294254497119 0 -0.010523714800077546 -0.020729227051593472 0 -0.011426418255331795 -0.021884129912082349 0 -0.011276688163324089 -0.021609986779839586 0 -0.010523714800077546 -0.020729227051593472 0 -0.010812731833071645 -0.020869252001013576 0 -0.01025353996978829 -0.020717571335934246 0 -0.0096532428873933457 -0.020120388230952913 0 -0.010367876397965568 -0.020893439433929354 0 -0.0087477263769249435 -0.019921576524341122 0 -0.01025353996978829 -0.020717571335934246 0 -0.0088253023731618349 -0.020006236331376902 0 -0.010782066553936466 -0.020811294254497119 0 -0.0096532428873933457 -0.020120388230952913 0 -0.010367876397965568 -0.020893439433929354 0 -0.0099241009349746671 -0.020732344736250418 0 -0.0094096759596898928 -0.020928275290643707 0 -0.010461551991324406 -0.021430645098622719 0 -0.0099241009349746671 -0.020732344736250418 0 -0.0094096759596898928 -0.020928275290643707 0 -0.0091334917937834371 -0.020011714822789118 0 -0.0094096759596898928 -0.020928275290643707 0 -0.0091334917937834371 -0.020011714822789118 0 -0.0083884820783283708 -0.020432169479924399 0 -0.0091334917937834371 -0.020011714822789118 0 -0.0083884820783283708 -0.020432169479924399 0 -0.0082709561377762794 -0.018912726785056563 0 -0.0092056648197172252 -0.017459864310609426 0 -0.0097965426446845437 -0.018071352182301 0 -0.0094096759596898928 -0.020928275290643707 0 -0.0083884820783283708 -0.020432169479924399 0 -0.0091462103508234294 -0.02172978196617785 0 -0.0086999290156025474 -0.017771977825449866 0 -0.0083146271246564898 -0.015617019615965353 0 -0.0089348556680032745 -0.016878832905251166 0 -0.008944202644689184 -0.019173349754379308 0 -0.0092586512473072646 -0.018577932250012034 0 -0.0086999290156025474 -0.017771977825449866 0 -0.0092586512473072646 -0.018577932250012034 0 -0.0086999290156025474 -0.017771977825449866 0 -0.0089348556680032745 -0.016878832905251166 0 -0.0086999290156025474 -0.017771977825449866 0 -0.0082571567099115079 -0.018357659924269121 0 -0.0082116783830793114 -0.016827512868982254 0 -0.0088253023731618349 -0.020006236331376902 0 -0.0084401421746764325 -0.01746465945663191 0 -0.0087477263769249435 -0.019921576524341122 0 -0.0082571567099115079 -0.018357659924269121 0 -0.0075338513335676113 -0.017644949422929077 0 -0.008944202644689184 -0.019173349754379308 0 -0.0087477263769249435 -0.019921576524341122 0 -0.0082571567099115079 -0.018357659924269121 0 -0.008944202644689184 -0.019173349754379308 0 -0.0086999290156025474 -0.017771977825449866 0 -0.0082571567099115079 -0.018357659924269121 0 -0.0092056648197172252 -0.017459864310609426 0 -0.0084401421746764325 -0.01746465945663191 0 -0.0096649642090054153 -0.014486261548967828 0 -0.0089214557905360429 -0.014996986836202425 0 -0.0086392714067433877 -0.01484243535032042 0 -0.0089214557905360429 -0.014996986836202425 0 -0.0081680348714108751 -0.015501262180471617 0 -0.0086392714067433877 -0.01484243535032042 0 -0.0084401421746764325 -0.01746465945663191 0 -0.0087924603940817865 -0.016331964459719562 0 -0.0077325171519631152 -0.016628995949522801 0 -0.0082116783830793114 -0.016827512868982254 0 -0.0081680348714108751 -0.015501262180471617 0 -0.0084401421746764325 -0.01746465945663191 0 -0.0082352790654233159 -0.017285146102096704 0 -0.0082571567099115079 -0.018357659924269121 0 -0.0075338513335676113 -0.017644949422929077 0 -0.0082116783830793114 -0.016827512868982254 0 -0.0086999290156025474 -0.017771977825449866 0 -0.0082116783830793114 -0.016827512868982254 0 -0.0083146271246564898 -0.015617019615965353 0 -0.0082116783830793114 -0.016827512868982254 0 -0.0081680348714108751 -0.015501262180471617 0 -0.0083146271246564898 -0.015617019615965353 0 -0.0081680348714108751 -0.015501262180471617 0 -0.0083146271246564898 -0.015617019615965353 0 -0.0078783490094953123 -0.014824601178062618 0 -0.0083146271246564898 -0.015617019615965353 0 -0.0072600580586106985 -0.014630108886832804 0 -0.0078783490094953123 -0.014824601178062618 0 -0.0078783490094953123 -0.014824601178062618 0 -0.0086392714067433877 -0.01484243535032042 0 -0.008174387851756176 -0.014580979874833061 0 -0.0081680348714108751 -0.015501262180471617 0 -0.0078783490094953123 -0.014824601178062618 0 -0.0086392714067433877 -0.01484243535032042 0 -0.0078783490094953123 -0.014824601178062618 0 -0.008174387851756176 -0.014580979874833061 0 -0.0073930283804770859 -0.014255151692225918 0 -0.0076453237687594822 -0.014080124109171059 0 -0.008174387851756176 -0.014580979874833061 0 -0.0073930283804770859 -0.014255151692225918 0 -0.0072600580586106985 -0.014630108886832804 0 -0.0073930283804770859 -0.014255151692225918 0 -0.0066297912086517889 -0.013882730182701291 0 -0.0072600580586106985 -0.014630108886832804 0 -0.0078783490094953123 -0.014824601178062618 0 -0.0073930283804770859 -0.014255151692225918 0 -0.010482053411366482 -0.014307758515389964 0 -0.0090923317472463364 -0.014640548453207126 0 -0.0094902944971424884 -0.014947134133146233 0 -0.0096649642090054153 -0.014486261548967828 0 -0.010482053411366482 -0.014307758515389964 0 -0.0090923317472463364 -0.014640548453207126 0 -0.0086392714067433877 -0.01484243535032042 0 -0.008174387851756176 -0.014580979874833061 0 -0.0090923317472463364 -0.014640548453207126 0 -0.0096649642090054153 -0.014486261548967828 0 -0.0086392714067433877 -0.01484243535032042 0 -0.0090923317472463364 -0.014640548453207126 0 -0.0084399633279139789 -0.014551087038604707 0 -0.008174387851756176 -0.014580979874833061 0 -0.0090923317472463364 -0.014640548453207126 0 -0.0084399633279139789 -0.014551087038604707 0 -0.0076453237687594822 -0.014080124109171059 0 -0.008174387851756176 -0.014580979874833061 0 -0.0084399633279139789 -0.014551087038604707 0 -0.0090923317472463364 -0.014640548453207126 0 -0.0094902944971424884 -0.014947134133146233 0 -0.011305226095056466 -0.01438298322780435 0 -0.013287893736406152 -0.016814940035380376 0 -0.012031200852151364 -0.015282534915234073 0 -0.010482053411366482 -0.014307758515389964 0 -0.0094902944971424884 -0.014947134133146233 0 -0.011788388397371251 -0.014520690705386955 0 -0.010611974936109202 -0.014341001002350412 0 -0.011586639039949722 -0.017266633399614078 0 -0.012444844053868745 -0.017011525318535343 0 -0.013287893736406152 -0.016814940035380376 0 -0.012031200852151364 -0.015282534915234073 0 -0.012545826537916317 -0.017248826926323773 0 -0.011586639039949722 -0.017266633399614078 0 -0.012444844053868745 -0.017011525318535343 0 -0.012031200852151364 -0.015282534915234073 0 -0.011919112315471313 -0.015437194981202357 0 -0.011305226095056466 -0.01438298322780435 0 -0.012031200852151364 -0.015282534915234073 0 -0.011492237654669729 -0.014749945342145803 0 -0.012031200852151364 -0.015282534915234073 0 -0.011492237654669729 -0.014749945342145803 0 -0.011919112315471313 -0.015437194981202357 0 -0.012318987560613589 -0.014876724989538908 0 -0.011492237654669729 -0.014749945342145803 0 -0.012127779959886276 -0.015246814991466819 0 -0.011492237654669729 -0.014749945342145803 0 -0.012127779959886276 -0.015246814991466819 0 -0.011919112315471313 -0.015437194981202357 0 -0.012318987560613589 -0.014876724989538908 0 -0.012127779959886276 -0.015246814991466819 0 -0.01322709801841134 -0.015358891935237737 0 -0.01322709801841134 -0.015358891935237737 0 -0.012074133462292072 -0.015769389098392247 0 -0.012702263229307167 -0.014942686259735086 0 -0.015441087101495634 -0.013743019442222769 0 -0.01322709801841134 -0.015358891935237737 0 -0.012702263229307167 -0.014942686259735086 0 -0.012127779959886276 -0.015246814991466819 0 -0.01322709801841134 -0.015358891935237737 0 -0.012074133462292072 -0.015769389098392247 0 -0.012444844053868745 -0.017011525318535343 0 -0.011919112315471313 -0.015437194981202357 0 -0.012074133462292072 -0.015769389098392247 0 -0.012127779959886276 -0.015246814991466819 0 -0.011919112315471313 -0.015437194981202357 0 -0.012074133462292072 -0.015769389098392247 0 -0.012444844053868745 -0.017011525318535343 0 -0.012074133462292072 -0.015769389098392247 0 -0.012360547180457771 -0.018686935767010394 0 -0.012522825116389981 -0.023922441858938628 0 -0.012360547180457771 -0.018686935767010394 0 -0.012334910700781233 -0.01934976842688611 0 -0.012284173754866751 -0.022314889797678584 0 -0.012522825116389981 -0.023922441858938628 0 -0.012334910700781233 -0.01934976842688611 0 -0.012074133462292072 -0.015769389098392247 0 -0.012702263229307167 -0.014942686259735086 0 -0.012360547180457771 -0.018686935767010394 0 -0.013055393445216808 -0.019393857576336292 0 -0.012911362223921469 -0.018879497766774955 0 -0.012284173754866751 -0.022314889797678584 0 -0.012282368556870302 -0.021307897585781058 0 -0.012182835120859209 -0.021699708503186976 0 -0.012284173754866751 -0.022314889797678584 0 -0.012282368556870302 -0.021307897585781058 0 -0.012334910700781233 -0.01934976842688611 0 -0.01547456303838295 -0.020134599030985866 0 -0.013055393445216808 -0.019393857576336292 0 -0.012284173754866751 -0.022314889797678584 0 -0.012522825116389981 -0.023922441858938628 0 -0.014033069221963323 -0.023880042023817799 0 -0.015190511996490748 -0.026279244243466886 0 -0.012522825116389981 -0.023922441858938628 0 -0.014033069221963323 -0.023880042023817799 0 -0.012284173754866751 -0.022314889797678584 0 -0.014033069221963323 -0.023880042023817799 0 -0.013531503768596327 -0.022783278334304866 0 -0.013634831413901601 -0.022115790219438873 0 -0.013531503768596327 -0.022783278334304866 0 -0.015029990407858915 -0.023077280030551778 0 -0.014033069221963323 -0.023880042023817799 0 -0.013531503768596327 -0.022783278334304866 0 -0.015029990407858915 -0.023077280030551778 0 -0.012284173754866751 -0.022314889797678584 0 -0.012706159690569012 -0.022128971769055341 0 -0.012182835120859209 -0.021699708503186976 0 -0.012284173754866751 -0.022314889797678584 0 -0.013531503768596327 -0.022783278334304866 0 -0.012706159690569012 -0.022128971769055341 0 -0.013634831413901601 -0.022115790219438873 0 -0.013531503768596327 -0.022783278334304866 0 -0.012706159690569012 -0.022128971769055341 0 -0.012706159690569012 -0.022128971769055341 0 -0.012077125265025855 -0.021627054431886294 0 -0.012182835120859209 -0.021699708503186976 0 -0.010520570265260147 -0.021358627895652328 0 -0.011805130653752853 -0.021153823941900081 0 -0.012182835120859209 -0.021699708503186976 0 -0.01073639143532241 -0.021226393370868558 0 -0.011611219229497318 -0.021642291658234024 0 -0.012077125265025855 -0.021627054431886294 0 -0.012182835120859209 -0.021699708503186976 0 -0.01073639143532241 -0.021226393370868558 0 -0.0094096759596898928 -0.020928275290643707 0 -0.010461551991324406 -0.021430645098622719 0 -0.010071439794402073 -0.021871222098652453 0 -0.0094096759596898928 -0.020928275290643707 0 -0.0091462103508234294 -0.02172978196617785 0 -0.010071439794402073 -0.021871222098652453 0 -0.0097965426446845437 -0.018071352182301 0 -0.011586639039949722 -0.017266633399614078 0 -0.0091462103508234294 -0.02172978196617785 0 -0.010119523017742878 -0.022474552919694354 0 -0.010071439794402073 -0.021871222098652453 0 -0.010461551991324406 -0.021430645098622719 0 -0.010071439794402073 -0.021871222098652453 0 -0.011020653012975794 -0.022351100865377987 0 -0.010119523017742878 -0.022474552919694354 0 -0.010071439794402073 -0.021871222098652453 0 -0.011020653012975794 -0.022351100865377987 0 -0.011586639039949722 -0.017266633399614078 0 -0.011805130653752853 -0.021153823941900081 0 -0.013151503417639888 -0.01751232022519084 0 -0.012360547180457771 -0.018686935767010394 0 -0.013194320374383886 -0.020011746896025952 0 -0.012444844053868745 -0.017011525318535343 0 -0.013151503417639888 -0.01751232022519084 0 -0.012360547180457771 -0.018686935767010394 0 -0.012360547180457771 -0.018686935767010394 0 -0.012334910700781233 -0.01934976842688611 0 -0.013194320374383886 -0.020011746896025952 0 -0.01182319131344999 -0.020409935616788354 0 -0.011805130653752853 -0.021153823941900081 0 -0.012282368556870302 -0.021307897585781058 0 -0.012182835120859209 -0.021699708503186976 0 -0.012771738562959125 -0.020457019847420745 0 -0.012282368556870302 -0.021307897585781058 0 -0.012334910700781233 -0.01934976842688611 0 -0.012771738562959125 -0.020457019847420745 0 -0.011971850636910347 -0.021279105229147173 0 -0.011805130653752853 -0.021153823941900081 0 -0.049382596047378817 -0.011146761733873129 0 -0.050191251866170801 -0.0090674016843511739 0 -0.051954658586276174 -0.01010853809874483 0 -0.049759014638969111 -0.010164587347060682 0 -0.051225672159499351 -0.0085422932536970125 0 -0.050783551572626089 -0.010406062635576798 0 -0.050000190599421915 -0.011973608818231717 0 -0.049999519544475311 -0.008975322402237175 0 -0.049759014638969111 -0.010164587347060682 0 -0.049816187504990964 -0.012546476918855106 0 -0.050521202908105807 -0.012331638710203985 0 -0.05021872003577877 -0.01031835028128371 0 -0.049982833113797705 -0.012862569850299276 0 -0.050783551572626089 -0.010406062635576798 0 -0.050000190599421915 -0.011973608818231717 0 -0.050264487442304565 -0.012826307832507025 0 -0.049759014638969111 -0.010164587347060682 0 -0.049816187504990964 -0.012546476918855106 0 -0.048931623286417869 -0.013048553103779665 0 -0.04999992087662776 -0.011974008678848368 0 -0.049982833113797705 -0.012862569850299276 0 -0.051954658586276174 -0.01010853809874483 0 -0.049759014638969111 -0.010164587347060682 0 -0.050521202908105807 -0.012331638710203985 0 -0.046666568075418635 -0.012643395713939064 0 -0.046537724795355305 -0.01314968753495957 0 -0.046984556926377846 -0.012909626477840075 0 -0.050027386727966444 -0.014297223385016005 0 -0.047464587885126037 -0.015030774586117301 0 -0.051954658586276174 -0.01010853809874483 0 -0.050521202908105807 -0.012331638710203985 0 -0.051376055354170329 -0.012543685934903692 0 -0.049382596047378817 -0.011146761733873129 0 -0.047464587885126037 -0.015030774586117301 0 -0.046537724795355305 -0.01314968753495957 0 -0.046984556926377846 -0.012909626477840075 0 -0.047068934636171809 -0.013265470921786184 0 -0.046984556926377846 -0.012909626477840075 0 -0.047443705910510406 -0.012938381089707495 0 -0.047162043411065849 -0.012536058607810728 0 -0.046984556926377846 -0.012909626477840075 0 -0.047443705910510406 -0.012938381089707495 0 -0.047068934636171809 -0.013265470921786184 0 -0.052422603969272306 -0.009416217532930966 0 -0.051720352386888574 -0.008670446144315282 0 -0.052831918128464259 -0.0089773374773910695 0 -0.051720352386888574 -0.008670446144315282 0 -0.052694871725311059 -0.0076275218679163932 0 -0.052831918128464259 -0.0089773374773910695 0 -0.050479683845926875 -0.011310100155063837 0 -0.049227670410210367 -0.010569163644109345 0 -0.046666568075418635 -0.012643395713939064 0 -0.046984556926377846 -0.012909626477840075 0 -0.047162043411065849 -0.012536058607810728 0 -0.046666568075418635 -0.012643395713939064 0 -0.047162043411065849 -0.012536058607810728 0 -0.046820911204575891 -0.012103031980087348 0 -0.051720352386888574 -0.008670446144315282 0 -0.050725053128734258 -0.007825796327006149 0 -0.051757514624180732 -0.0073457979116388107 0 -0.049227670410210367 -0.010569163644109345 0 -0.050191251866170801 -0.0090674016843511739 0 -0.051720352386888574 -0.008670446144315282 0 -0.051757514624180732 -0.0073457979116388107 0 -0.052694871725311059 -0.0076275218679163932 0 -0.051757514624180732 -0.0073457979116388107 0 -0.051066410017081183 -0.0064082645835328239 0 -0.052648737710762852 -0.0057560725196646994 0 -0.051757514624180732 -0.0073457979116388107 0 -0.052648737710762852 -0.0057560725196646994 0 -0.052694871725311059 -0.0076275218679163932 0 -0.046336668358916713 -0.0082171266457622631 0 -0.04533915494808196 -0.0097821614019570555 0 -0.05205995197994364 -0.0085041075891601654 0 -0.052115883912835906 -0.0063859330625462788 0 -0.051191277130109819 -0.0064809354201700829 0 -0.050191251866170801 -0.0090674016843511739 0 -0.051663244748031655 -0.0061965950072734918 0 -0.050725053128734258 -0.007825796327006149 0 -0.051757514624180732 -0.0073457979116388107 0 -0.051066410017081183 -0.0064082645835328239 0 -0.05205995197994364 -0.0085041075891601654 0 -0.051191277130109819 -0.0064809354201700829 0 -0.049899317050386596 -0.0063275941245330364 0 -0.050191251866170801 -0.0090674016843511739 0 -0.050738265261905523 -0.0061251039284414034 0 -0.052194311105833793 -0.0079426358100127773 0 -0.050991597794017657 -0.007515276194760505 0 -0.050300488575220639 -0.0063738576165319836 0 -0.051954658586276174 -0.01010853809874483 0 -0.052194311105833793 -0.0079426358100127773 0 -0.051225672159499351 -0.0085422932536970125 0 -0.052194311105833793 -0.0079426358100127773 0 -0.050991597794017657 -0.007515276194760505 0 -0.051225672159499351 -0.0085422932536970125 0 -0.050991597794017657 -0.007515276194760505 0 -0.051225672159499351 -0.0085422932536970125 0 -0.050806955019582913 -0.007881667940466618 0 -0.050783551572626089 -0.010406062635576798 0 -0.049999519544475311 -0.008975322402237175 0 -0.050806955019582913 -0.007881667940466618 0 -0.049759014638969111 -0.010164587347060682 0 -0.051225672159499351 -0.0085422932536970125 0 -0.050806955019582913 -0.007881667940466618 0 -0.05021872003577877 -0.01031835028128371 0 -0.050773283199354216 -0.0080877370165648114 0 -0.049999519544475311 -0.008975322402237175 0 -0.050806955019582913 -0.007881667940466618 0 -0.050567091256898337 -0.0072570960540660921 0 -0.049999519544475311 -0.008975322402237175 0 -0.050567091256898337 -0.0072570960540660921 0 -0.049999594867269861 -0.0059782243535601506 0 -0.050991597794017657 -0.007515276194760505 0 -0.050567091256898337 -0.0072570960540660921 0 -0.050860427508197324 -0.0061642029512312749 0 -0.050991597794017657 -0.007515276194760505 0 -0.050806955019582913 -0.007881667940466618 0 -0.050567091256898337 -0.0072570960540660921 0 -0.050948709592151212 -0.0073016044510664764 0 -0.050738265261905523 -0.0061251039284414034 0 -0.050567091256898337 -0.0072570960540660921 0 -0.050860427508197324 -0.0061642029512312749 0 -0.049999594867269861 -0.0059782243535601506 0 -0.049899317050386596 -0.0063275941245330364 0 -0.050689863611132882 -0.0047494237638170539 0 -0.049528222862501539 -0.0047465896542594884 0 -0.049999594867269861 -0.0059782243535601506 0 -0.050161712801597022 -0.0051358764597757602 0 -0.049999417318313172 -0.0029790698154299007 0 -0.050738265261905523 -0.0061251039284414034 0 -0.050256675387722959 -0.0052693112459687285 0 -0.051197205009964102 -0.0058394140406343728 0 -0.050161712801597022 -0.0051358764597757602 0 -0.050453509963959989 -0.0044021264651846435 0 -0.050738265261905523 -0.0061251039284414034 0 -0.050094947701958437 -0.0045933571931076386 0 -0.050860427508197324 -0.0061642029512312749 0 -0.049999594867269861 -0.0059782243535601506 0 -0.050161712801597022 -0.0051358764597757602 0 -0.052115883912835906 -0.0063859330625462788 0 -0.051191277130109819 -0.0064809354201700829 0 -0.050689863611132882 -0.0047494237638170539 0 -0.051191277130109819 -0.0064809354201700829 0 -0.049899317050386596 -0.0063275941245330364 0 -0.050689863611132882 -0.0047494237638170539 0 -0.050689863611132882 -0.0047494237638170539 0 -0.049948963628266327 -0.0032866155245453617 0 -0.050261125496297 -0.0028220771919355916 0 -0.050689863611132882 -0.0047494237638170539 0 -0.050261125496297 -0.0028220771919355916 0 -0.050989867936501614 -0.0034352446427073501 0 -0.050689863611132882 -0.0047494237638170539 0 -0.049528222862501539 -0.0047465896542594884 0 -0.049948963628266327 -0.0032866155245453617 0 -0.049528222862501539 -0.0047465896542594884 0 -0.049948963628266327 -0.0032866155245453617 0 -0.049997841825253145 -0.0029816676922291433 0 -0.050161712801597022 -0.0051358764597757602 0 -0.050453509963959989 -0.0044021264651846435 0 -0.049999417318313172 -0.0029790698154299007 0 -0.050094947701958437 -0.0045933571931076386 0 -0.049999912616098784 -0.0029816559700665286 0 -0.049997841825253145 -0.0029816676922291433 0 -0.049874094633698733 -0.0019674570310926026 0 -0.049999422370618996 -0.0012467966895884335 0 -0.049948963628266327 -0.0032866155245453617 0 -0.049997841825253145 -0.0029816676922291433 0 -0.049874094633698733 -0.0019674570310926026 0 -0.049948963628266327 -0.0032866155245453617 0 -0.049874094633698733 -0.0019674570310926026 0 -0.050261125496297 -0.0028220771919355916 0 -0.050261125496297 -0.0028220771919355916 0 -0.049818035824645564 -0.0015794393967720902 0 -0.05047978983467348 -0.0023294106901289202 0 -0.049874094633698733 -0.0019674570310926026 0 -0.050261125496297 -0.0028220771919355916 0 -0.049818035824645564 -0.0015794393967720902 0 -0.049874094633698733 -0.0019674570310926026 0 -0.049818035824645564 -0.0015794393967720902 0 -0.049235007273173974 -0.00070136748095225409 0 -0.049818035824645564 -0.0015794393967720902 0 -0.049235007273173974 -0.00070136748095225409 0 -0.049709349607156408 -0.00087052114992647474 0 -0.049999339187705452 0.00048238483838640385 0 -0.049235007273173974 -0.00070136748095225409 0 -0.049999422370618996 -0.0012467966895884335 0 -0.049874094633698733 -0.0019674570310926026 0 -0.049235007273173974 -0.00070136748095225409 0 -0.049999422370618996 -0.0012467966895884335 0 -0.047051776327671026 -0.001429092229451305 0 -0.04665614888481695 -0.0017538105162464824 0 -0.045812636748737492 -0.0031376144524774855 0 -0.047051776327671026 -0.001429092229451305 0 -0.047119240238257691 -0.0012263779889935152 0 -0.04665614888481695 -0.0017538105162464824 0 -0.047119240238257691 -0.0012263779889935152 0 -0.04665614888481695 -0.0017538105162464824 0 -0.046677744226915861 -0.0013268257216735137 0 -0.04665614888481695 -0.0017538105162464824 0 -0.046677744226915861 -0.0013268257216735137 0 -0.045812636748737492 -0.0031376144524774855 0 -0.047051776327671026 -0.001429092229451305 0 -0.045812636748737492 -0.0031376144524774855 0 -0.045849181973355746 -0.0040928090366391338 0 -0.047051776327671026 -0.001429092229451305 0 -0.045849181973355746 -0.0040928090366391338 0 -0.048042640368757619 -0.0011721903022264566 0 -0.047051776327671026 -0.001429092229451305 0 -0.048094013561768421 -0.00046835334781063036 0 -0.048042640368757619 -0.0011721903022264566 0 -0.048734245503726646 6.0549454595131015e-05 0 -0.048094013561768421 -0.00046835334781063036 0 -0.048042640368757619 -0.0011721903022264566 0 -0.047051776327671026 -0.001429092229451305 0 -0.048094013561768421 -0.00046835334781063036 0 -0.048045964838416062 -0.0006517304935184532 0 -0.047051776327671026 -0.001429092229451305 0 -0.047119240238257691 -0.0012263779889935152 0 -0.048045964838416062 -0.0006517304935184532 0 -0.050084191152270363 -0.00031865567415076862 0 -0.048403765310791019 -0.0016160520702831656 0 -0.049120362729056635 7.985025098075059e-05 0 -0.048045964838416062 -0.0006517304935184532 0 -0.048349571183656979 -0.001111737615672235 0 -0.047119240238257691 -0.0012263779889935152 0 -0.048045964838416062 -0.0006517304935184532 0 -0.048349571183656979 -0.001111737615672235 0 -0.049120362729056635 7.985025098075059e-05 0 -0.050776628103017911 2.9440450614334067e-05 0 -0.048349571183656979 -0.001111737615672235 0 -0.047119240238257691 -0.0012263779889935152 0 -0.048349571183656979 -0.001111737615672235 0 -0.046677744226915861 -0.0013268257216735137 0 -0.048403765310791019 -0.0016160520702831656 0 -0.048117581694244724 -0.0015167740474514614 0 -0.046395324791945192 -0.0010081841404815269 0 -0.046677744226915861 -0.0013268257216735137 0 -0.042353754149048184 -0.0080912115863764171 0 -0.049818035824645564 -0.0015794393967720902 0 -0.049709349607156408 -0.00087052114992647474 0 -0.05047978983467348 -0.0023294106901289202 0 -0.049709349607156408 -0.00087052114992647474 0 -0.05047978983467348 -0.0023294106901289202 0 -0.052166366362594682 -0.0033232310168646913 0 -0.048403765310791019 -0.0016160520702831656 0 -0.047326966874785256 -0.0058191237651983507 0 -0.050261125496297 -0.0028220771919355916 0 -0.05047978983467348 -0.0023294106901289202 0 -0.050989867936501614 -0.0034352446427073501 0 -0.046677744226915861 -0.0013268257216735137 0 -0.045812636748737492 -0.0031376144524774855 0 -0.042353754149048184 -0.0080912115863764171 0 -0.045812636748737492 -0.0031376144524774855 0 -0.045849181973355746 -0.0040928090366391338 0 -0.042353754149048184 -0.0080912115863764171 0 -0.047326966874785256 -0.0058191237651983507 0 -0.046336668358916713 -0.0082171266457622631 0 -0.042353754149048184 -0.0080912115863764171 0 -0.039959520666902892 -0.010498973043776907 0 -0.04258446241316171 -0.0095119841251100883 0 -0.052166366362594682 -0.0033232310168646913 0 -0.051719278011144745 -0.0045713063283548084 0 -0.052648737710762852 -0.0057560725196646994 0 -0.045849181973355746 -0.0040928090366391338 0 -0.042353754149048184 -0.0080912115863764171 0 -0.04258446241316171 -0.0095119841251100883 0 -0.050689863611132882 -0.0047494237638170539 0 -0.050989867936501614 -0.0034352446427073501 0 -0.051719278011144745 -0.0045713063283548084 0 -0.05047978983467348 -0.0023294106901289202 0 -0.052166366362594682 -0.0033232310168646913 0 -0.050989867936501614 -0.0034352446427073501 0 -0.052166366362594682 -0.0033232310168646913 0 -0.050989867936501614 -0.0034352446427073501 0 -0.051719278011144745 -0.0045713063283548084 0 -0.052115883912835906 -0.0063859330625462788 0 -0.050689863611132882 -0.0047494237638170539 0 -0.051719278011144745 -0.0045713063283548084 0 -0.051066410017081183 -0.0064082645835328239 0 -0.051719278011144745 -0.0045713063283548084 0 -0.052648737710762852 -0.0057560725196646994 0 -0.051663244748031655 -0.0061965950072734918 0 -0.051730520194898773 -0.00491667563166977 0 -0.039930307428988877 -0.010135096606970498 0 -0.038401680356059828 -0.010726449300264194 0 -0.038356747443650106 -0.011189333509255843 0 -0.039959520666902892 -0.010498973043776907 0 -0.039930307428988877 -0.010135096606970498 0 -0.038356747443650106 -0.011189333509255843 0 -0.039959520666902892 -0.010498973043776907 0 -0.039930307428988877 -0.010135096606970498 0 -0.04258446241316171 -0.0095119841251100883 0 -0.038401680356059828 -0.010726449300264194 0 -0.037119071030788646 -0.011627190006093352 0 -0.038356747443650106 -0.011189333509255843 0 -0.039930307428988877 -0.010135096606970498 0 -0.038401680356059828 -0.010726449300264194 0 -0.038292925348506208 -0.010762065689278571 0 -0.038401680356059828 -0.010726449300264194 0 -0.038292925348506208 -0.010762065689278571 0 -0.037234926879307899 -0.011162821145004912 0 -0.038292925348506208 -0.010762065689278571 0 -0.036645992641126883 -0.011427285804029685 0 -0.037234926879307899 -0.011162821145004912 0 -0.039930307428988877 -0.010135096606970498 0 -0.038292925348506208 -0.010762065689278571 0 -0.04258446241316171 -0.0095119841251100883 0 -0.038292925348506208 -0.010762065689278571 0 -0.04258446241316171 -0.0095119841251100883 0 -0.038084746582694749 -0.012196650103910772 0 -0.045849181973355746 -0.0040928090366391338 0 -0.04258446241316171 -0.0095119841251100883 0 -0.049956214470039319 -0.0031057924494969943 0 -0.042939567765591172 -0.0091262767766338137 0 -0.043787895918179533 -0.0075618090047403505 0 -0.038292925348506208 -0.010762065689278571 0 -0.038084746582694749 -0.012196650103910772 0 -0.036567922722145596 -0.011736912402374016 0 -0.038292925348506208 -0.010762065689278571 0 -0.036567922722145596 -0.011736912402374016 0 -0.036645992641126883 -0.011427285804029685 0 -0.035416002861662514 -0.011194024194350848 0 -0.038084746582694749 -0.012196650103910772 0 -0.036567922722145596 -0.011736912402374016 0 -0.049400232261110684 -0.00032192687710057012 0 -0.050903095860522544 0.0001257078253767003 0 -0.049956214470039319 -0.0031057924494969943 0 -0.043860017438316828 -0.0050594748251993555 0 -0.043787895918179533 -0.0075618090047403505 0 -0.045849181973355746 -0.0040928090366391338 0 -0.049956214470039319 -0.0031057924494969943 0 -0.048042640368757619 -0.0011721903022264566 0 -0.049400232261110684 -0.00032192687710057012 0 -0.049956214470039319 -0.0031057924494969943 0 -0.048042640368757619 -0.0011721903022264566 0 -0.048734245503726646 6.0549454595131015e-05 0 -0.049400232261110684 -0.00032192687710057012 0 -0.048042640368757619 -0.0011721903022264566 0 -0.035036188543203874 -0.011243535163633422 0 -0.035090037904252316 -0.012199041659547901 0 -0.035290606973274345 -0.011474361121874076 0 -0.035090037904252316 -0.012199041659547901 0 -0.035590062010122846 -0.011552343387635446 0 -0.035290606973274345 -0.011474361121874076 0 -0.034812935842318427 -0.011458015359608586 0 -0.03563245994513041 -0.011711354943920269 0 -0.035416002861662514 -0.011194024194350848 0 -0.036567922722145596 -0.011736912402374016 0 -0.035665916268648359 -0.011399633783011211 0 -0.043860017438316828 -0.0050594748251993555 0 -0.034812935842318427 -0.011458015359608586 0 -0.035665916268648359 -0.011399633783011211 0 -0.036645992641126883 -0.011427285804029685 0 -0.035590062010122846 -0.011552343387635446 0 -0.036567922722145596 -0.011736912402374016 0 -0.035665916268648359 -0.011399633783011211 0 -0.036645992641126883 -0.011427285804029685 0 -0.035590062010122846 -0.011552343387635446 0 -0.03620342142546408 -0.011483222033275097 0 -0.03531537434869246 -0.011331797279652269 0 -0.036645992641126883 -0.011427285804029685 0 -0.035590062010122846 -0.011552343387635446 0 -0.03620342142546408 -0.011483222033275097 0 -0.036645992641126883 -0.011427285804029685 0 -0.03620342142546408 -0.011483222033275097 0 -0.037234926879307899 -0.011162821145004912 0 -0.03620342142546408 -0.011483222033275097 0 -0.037234926879307899 -0.011162821145004912 0 -0.037119071030788646 -0.011627190006093352 0 -0.038401680356059828 -0.010726449300264194 0 -0.037234926879307899 -0.011162821145004912 0 -0.037119071030788646 -0.011627190006093352 0 -0.03620342142546408 -0.011483222033275097 0 -0.037119071030788646 -0.011627190006093352 0 -0.036020216447977489 -0.01177258000286068 0 -0.037119071030788646 -0.011627190006093352 0 -0.036374023582000439 -0.01249867712260052 0 -0.036020216447977489 -0.01177258000286068 0 -0.037119071030788646 -0.011627190006093352 0 -0.03741642757313262 -0.012203413208869267 0 -0.036374023582000439 -0.01249867712260052 0 -0.037044350738380867 -0.012927110042509847 0 -0.03741642757313262 -0.012203413208869267 0 -0.036374023582000439 -0.01249867712260052 0 -0.037044350738380867 -0.012927110042509847 0 -0.037214279152365221 -0.013796116324173139 0 -0.03648409424061496 -0.013371725842508465 0 -0.037044350738380867 -0.012927110042509847 0 -0.037214279152365221 -0.013796116324173139 0 -0.037555672062685501 -0.013210961778638803 0 -0.037044350738380867 -0.012927110042509847 0 -0.03741642757313262 -0.012203413208869267 0 -0.037555672062685501 -0.013210961778638803 0 -0.03741642757313262 -0.012203413208869267 0 -0.037814140904421992 -0.01253592905310179 0 -0.037555672062685501 -0.013210961778638803 0 -0.037119071030788646 -0.011627190006093352 0 -0.03741642757313262 -0.012203413208869267 0 -0.038356747443650106 -0.011189333509255843 0 -0.039959520666902892 -0.010498973043776907 0 -0.038356747443650106 -0.011189333509255843 0 -0.037825195496784557 -0.011767393161123622 0 -0.037825195496784557 -0.011767393161123622 0 -0.037814140904421992 -0.01253592905310179 0 -0.03700307013853444 -0.013768144239691991 0 -0.038356747443650106 -0.011189333509255843 0 -0.037825195496784557 -0.011767393161123622 0 -0.037814140904421992 -0.01253592905310179 0 -0.03741642757313262 -0.012203413208869267 0 -0.038356747443650106 -0.011189333509255843 0 -0.037814140904421992 -0.01253592905310179 0 -0.037814140904421992 -0.01253592905310179 0 -0.037724705242989105 -0.013715251008215095 0 -0.037555672062685501 -0.013210961778638803 0 -0.037814140904421992 -0.01253592905310179 0 -0.037724705242989105 -0.013715251008215095 0 -0.03700307013853444 -0.013768144239691991 0 -0.04533915494808196 -0.0097821614019570555 0 -0.045003973623836901 -0.011314081537205528 0 -0.052422603969272306 -0.009416217532930966 0 -0.052831918128464259 -0.0089773374773910695 0 -0.053002807475938982 -0.010209182873752326 0 -0.045003973623836901 -0.011314081537205528 0 -0.045211165820643058 -0.013459403664569323 0 -0.050479683845926875 -0.011310100155063837 0 -0.045211165820643058 -0.013459403664569323 0 -0.037724705242989105 -0.013715251008215095 0 -0.037922220678117166 -0.015040212447055713 0 -0.03773631115121729 -0.014422081065038546 0 -0.037724705242989105 -0.013715251008215095 0 -0.03700307013853444 -0.013768144239691991 0 -0.037922220678117166 -0.015040212447055713 0 -0.03700307013853444 -0.013768144239691991 0 -0.037922220678117166 -0.015040212447055713 0 -0.03782523508892674 -0.016103333087947959 0 -0.037922220678117166 -0.015040212447055713 0 -0.03773631115121729 -0.014422081065038546 0 -0.0379456294031549 -0.015546431001894304 0 -0.03773631115121729 -0.014422081065038546 0 -0.037429684150894288 -0.014855139251337135 0 -0.0379456294031549 -0.015546431001894304 0 -0.03773631115121729 -0.014422081065038546 0 -0.037429684150894288 -0.014855139251337135 0 -0.037214279152365221 -0.013796116324173139 0 -0.037429684150894288 -0.014855139251337135 0 -0.037214279152365221 -0.013796116324173139 0 -0.036728310796433461 -0.014254887464417144 0 -0.03773631115121729 -0.014422081065038546 0 -0.037214279152365221 -0.013796116324173139 0 -0.037555672062685501 -0.013210961778638803 0 -0.037724705242989105 -0.013715251008215095 0 -0.03773631115121729 -0.014422081065038546 0 -0.037555672062685501 -0.013210961778638803 0 -0.035799813583555135 -0.013834334901856192 0 -0.036728310796433461 -0.014254887464417144 0 -0.03648409424061496 -0.013371725842508465 0 -0.037214279152365221 -0.013796116324173139 0 -0.036728310796433461 -0.014254887464417144 0 -0.03648409424061496 -0.013371725842508465 0 -0.037429684150894288 -0.014855139251337135 0 -0.036728310796433461 -0.014254887464417144 0 -0.037034824788558116 -0.01523682773779214 0 -0.036728310796433461 -0.014254887464417144 0 -0.036216838860297244 -0.014969211181931168 0 -0.037034824788558116 -0.01523682773779214 0 -0.035799813583555135 -0.013834334901856192 0 -0.036728310796433461 -0.014254887464417144 0 -0.036216838860297244 -0.014969211181931168 0 -0.035799813583555135 -0.013834334901856192 0 -0.036216838860297244 -0.014969211181931168 0 -0.034628464168440357 -0.013470823376502433 0 -0.035991289848526967 -0.01496130670472781 0 -0.035006463946122342 -0.014954276782764026 0 -0.034628464168440357 -0.013470823376502433 0 -0.034102734066123588 -0.01383863069481917 0 -0.033763171611368978 -0.013747666037292557 0 -0.035799813583555135 -0.013834334901856192 0 -0.034628464168440357 -0.013470823376502433 0 -0.034102734066123588 -0.01383863069481917 0 -0.035799813583555135 -0.013834334901856192 0 -0.034102734066123588 -0.01383863069481917 0 -0.035540688745838399 -0.013246610181363909 0 -0.034102734066123588 -0.01383863069481917 0 -0.03382546724521239 -0.013479050444769495 0 -0.032824387064233046 -0.013362786819485351 0 -0.034102734066123588 -0.01383863069481917 0 -0.03382546724521239 -0.013479050444769495 0 -0.035540688745838399 -0.013246610181363909 0 -0.035350529647545446 -0.013059693317901779 0 -0.034481076532719084 -0.012503124361734928 0 -0.035540688745838399 -0.013246610181363909 0 -0.036374023582000439 -0.01249867712260052 0 -0.035846758947680975 -0.01199423142306665 0 -0.03382546724521239 -0.013479050444769495 0 -0.035540688745838399 -0.013246610181363909 0 -0.03299930796587415 -0.013189316139842793 0 -0.035799813583555135 -0.013834334901856192 0 -0.035540688745838399 -0.013246610181363909 0 -0.03648409424061496 -0.013371725842508465 0 -0.037044350738380867 -0.012927110042509847 0 -0.03648409424061496 -0.013371725842508465 0 -0.036374023582000439 -0.01249867712260052 0 -0.035540688745838399 -0.013246610181363909 0 -0.03648409424061496 -0.013371725842508465 0 -0.036374023582000439 -0.01249867712260052 0 -0.036374023582000439 -0.01249867712260052 0 -0.035846758947680975 -0.01199423142306665 0 -0.036020216447977489 -0.01177258000286068 0 -0.034481076532719084 -0.012503124361734928 0 -0.033511672790824412 -0.011599106849744901 0 -0.035846758947680975 -0.01199423142306665 0 -0.03531537434869246 -0.011331797279652269 0 -0.035147963219119699 -0.011119680176306948 0 -0.035846758947680975 -0.01199423142306665 0 -0.036020216447977489 -0.01177258000286068 0 -0.03531537434869246 -0.011331797279652269 0 -0.03620342142546408 -0.011483222033275097 0 -0.036020216447977489 -0.01177258000286068 0 -0.03531537434869246 -0.011331797279652269 0 -0.03531537434869246 -0.011331797279652269 0 -0.034620888867775243 -0.011006839840950805 0 -0.035147963219119699 -0.011119680176306948 0 -0.032618024252922956 -0.011080772300870647 0 -0.034620888867775243 -0.011006839840950805 0 -0.035147963219119699 -0.011119680176306948 0 -0.03531537434869246 -0.011331797279652269 0 -0.034620888867775243 -0.011006839840950805 0 -0.03497062637424353 -0.01115338003251256 0 -0.034330197349207087 -0.011043327153034325 0 -0.034620888867775243 -0.011006839840950805 0 -0.03497062637424353 -0.01115338003251256 0 -0.035590062010122846 -0.011552343387635446 0 -0.03531537434869246 -0.011331797279652269 0 -0.035290606973274345 -0.011474361121874076 0 -0.035216335285830999 -0.011184813038218328 0 -0.03497062637424353 -0.01115338003251256 0 -0.035290606973274345 -0.011474361121874076 0 -0.03531537434869246 -0.011331797279652269 0 -0.03497062637424353 -0.01115338003251256 0 -0.035290606973274345 -0.011474361121874076 0 -0.030569893586941968 -0.011706839789636598 0 -0.031504003459927016 -0.011305796296737005 0 -0.031788396625039947 -0.01161053872170221 0 -0.031504003459927016 -0.011305796296737005 0 -0.032000077916923483 -0.01139171061706642 0 -0.031788396625039947 -0.01161053872170221 0 -0.032618024252922956 -0.011080772300870647 0 -0.031504003459927016 -0.011305796296737005 0 -0.032000077916923483 -0.01139171061706642 0 -0.032618024252922956 -0.011080772300870647 0 -0.032000077916923483 -0.01139171061706642 0 -0.03194607459755635 -0.011917443614034164 0 -0.032762789434360083 -0.011283898094623679 0 -0.033511672790824412 -0.011599106849744901 0 -0.032000077916923483 -0.01139171061706642 0 -0.03194607459755635 -0.011917443614034164 0 -0.031788396625039947 -0.01161053872170221 0 -0.03194607459755635 -0.011917443614034164 0 -0.031788396625039947 -0.01161053872170221 0 -0.03217728355314544 -0.012451685715175546 0 -0.031788396625039947 -0.01161053872170221 0 -0.03217728355314544 -0.012451685715175546 0 -0.031341654706557857 -0.011725012743866855 0 -0.03299930796587415 -0.013189316139842793 0 -0.03194607459755635 -0.011917443614034164 0 -0.03217728355314544 -0.012451685715175546 0 -0.03382546724521239 -0.013479050444769495 0 -0.03299930796587415 -0.013189316139842793 0 -0.032824387064233046 -0.013362786819485351 0 -0.03299930796587415 -0.013189316139842793 0 -0.03217728355314544 -0.012451685715175546 0 -0.032824387064233046 -0.013362786819485351 0 -0.03217728355314544 -0.012451685715175546 0 -0.032824387064233046 -0.013362786819485351 0 -0.03220408206036246 -0.013159562564258209 0 -0.03220408206036246 -0.013159562564258209 0 -0.031614281182223911 -0.012190479879900025 0 -0.031896314492187043 -0.012614447361191133 0 -0.03220408206036246 -0.013159562564258209 0 -0.031896314492187043 -0.012614447361191133 0 -0.032589189676579845 -0.014624794290166341 0 -0.03217728355314544 -0.012451685715175546 0 -0.03220408206036246 -0.013159562564258209 0 -0.031614281182223911 -0.012190479879900025 0 -0.03217728355314544 -0.012451685715175546 0 -0.031614281182223911 -0.012190479879900025 0 -0.031341654706557857 -0.011725012743866855 0 -0.031788396625039947 -0.01161053872170221 0 -0.031341654706557857 -0.011725012743866855 0 -0.030462834303250506 -0.011540018496675873 0 -0.031341654706557857 -0.011725012743866855 0 -0.030405834767425571 -0.011385162661469293 0 -0.030462834303250506 -0.011540018496675873 0 -0.031614281182223911 -0.012190479879900025 0 -0.031341654706557857 -0.011725012743866855 0 -0.030405834767425571 -0.011385162661469293 0 -0.031614281182223911 -0.012190479879900025 0 -0.030405834767425571 -0.011385162661469293 0 -0.028991779249351195 -0.010322387621733943 0 -0.028856418253619835 -0.011860019296486451 0 -0.030462834303250506 -0.011540018496675873 0 -0.028958143817884471 -0.011348536791049149 0 -0.030405834767425571 -0.011385162661469293 0 -0.030462834303250506 -0.011540018496675873 0 -0.028958143817884471 -0.011348536791049149 0 -0.030569893586941968 -0.011706839789636598 0 -0.031788396625039947 -0.01161053872170221 0 -0.030462834303250506 -0.011540018496675873 0 -0.030569893586941968 -0.011706839789636598 0 -0.028856418253619835 -0.011860019296486451 0 -0.030462834303250506 -0.011540018496675873 0 -0.02689928584616209 -0.011071344959451028 0 -0.028958143817884471 -0.011348536791049149 0 -0.028991779249351195 -0.010322387621733943 0 -0.027330160950585391 -0.011831071513139012 0 -0.02689928584616209 -0.011071344959451028 0 -0.028958143817884471 -0.011348536791049149 0 -0.030405834767425571 -0.011385162661469293 0 -0.028958143817884471 -0.011348536791049149 0 -0.028991779249351195 -0.010322387621733943 0 -0.024225842564509065 -0.0093955192533368512 0 -0.025378439074949594 -0.010330336934795618 0 -0.026304990597871586 -0.0087320449670108668 0 -0.025911562712152541 -0.014673329744778583 0 -0.028521876893947151 -0.01297591172477789 0 -0.026190777375416602 -0.010280763684837225 0 -0.028521876893947151 -0.01297591172477789 0 -0.027915124015536485 -0.019671965041352133 0 -0.02808298071497084 -0.018488536275877043 0 -0.029632230559210913 -0.01916197639200426 0 -0.02808298071497084 -0.018488536275877043 0 -0.029632230559210913 -0.01916197639200426 0 -0.029487775566825199 -0.017977457258974795 0 -0.02808298071497084 -0.018488536275877043 0 -0.029487775566825199 -0.017977457258974795 0 -0.028673410733252198 -0.017367198082827263 0 -0.028521876893947151 -0.01297591172477789 0 -0.031438077431907241 -0.015856318148248227 0 -0.031809127271385088 -0.011740371577283358 0 -0.028521876893947151 -0.01297591172477789 0 -0.029632230559210913 -0.01916197639200426 0 -0.029487775566825199 -0.017977457258974795 0 -0.030858268723438796 -0.017673473259920483 0 -0.031614281182223911 -0.012190479879900025 0 -0.030114898529474094 -0.013343011707850655 0 -0.031896314492187043 -0.012614447361191133 0 -0.029487775566825199 -0.017977457258974795 0 -0.030858268723438796 -0.017673473259920483 0 -0.029968755333254236 -0.016222732231882038 0 -0.029487775566825199 -0.017977457258974795 0 -0.028673410733252198 -0.017367198082827263 0 -0.029968755333254236 -0.016222732231882038 0 -0.028483601453162335 -0.016226933529093792 0 -0.029438858290074959 -0.015536346828583623 0 -0.029968755333254236 -0.016222732231882038 0 -0.028673410733252198 -0.017367198082827263 0 -0.028483601453162335 -0.016226933529093792 0 -0.029968755333254236 -0.016222732231882038 0 -0.028483601453162335 -0.016226933529093792 0 -0.029438858290074959 -0.015536346828583623 0 -0.028736701499805561 -0.015429944482018981 0 -0.029438858290074959 -0.015536346828583623 0 -0.028736701499805561 -0.015429944482018981 0 -0.029677350711522502 -0.014811133379311812 0 -0.029438858290074959 -0.015536346828583623 0 -0.031492811707139377 -0.014561948454722952 0 -0.029677350711522502 -0.014811133379311812 0 -0.029438858290074959 -0.015536346828583623 0 -0.029968755333254236 -0.016222732231882038 0 -0.031492811707139377 -0.014561948454722952 0 -0.030858268723438796 -0.017673473259920483 0 -0.029968755333254236 -0.016222732231882038 0 -0.032589189676579845 -0.014624794290166341 0 -0.031438077431907241 -0.015856318148248227 0 -0.032440641430762522 -0.014413362780522406 0 -0.034102734066123588 -0.01383863069481917 0 -0.032824387064233046 -0.013362786819485351 0 -0.032589189676579845 -0.014624794290166341 0 -0.032824387064233046 -0.013362786819485351 0 -0.03220408206036246 -0.013159562564258209 0 -0.032589189676579845 -0.014624794290166341 0 -0.032589189676579845 -0.014624794290166341 0 -0.032717969184695536 -0.014082362885830568 0 -0.033763171611368978 -0.013747666037292557 0 -0.034102734066123588 -0.01383863069481917 0 -0.032589189676579845 -0.014624794290166341 0 -0.033763171611368978 -0.013747666037292557 0 -0.032589189676579845 -0.014624794290166341 0 -0.032717969184695536 -0.014082362885830568 0 -0.031492811707139377 -0.014561948454722952 0 -0.029968755333254236 -0.016222732231882038 0 -0.032589189676579845 -0.014624794290166341 0 -0.031492811707139377 -0.014561948454722952 0 -0.032717969184695536 -0.014082362885830568 0 -0.031492811707139377 -0.014561948454722952 0 -0.03277429198008109 -0.013100711742545269 0 -0.031492811707139377 -0.014561948454722952 0 -0.03277429198008109 -0.013100711742545269 0 -0.031703236311188959 -0.013391116528208812 0 -0.033396183652947706 -0.015213182828605764 0 -0.031621010688925748 -0.015862178699428835 0 -0.032717969184695536 -0.014082362885830568 0 -0.03277429198008109 -0.013100711742545269 0 -0.033763171611368978 -0.013747666037292557 0 -0.034628464168440357 -0.013470823376502433 0 -0.03277429198008109 -0.013100711742545269 0 -0.033763171611368978 -0.013747666037292557 0 -0.035006463946122342 -0.014954276782764026 0 -0.033396183652947706 -0.015213182828605764 0 -0.035591236141071209 -0.016332035295133277 0 -0.034048947942062882 -0.017243111635408617 0 -0.034831837393414396 -0.016301547540623976 0 -0.035591236141071209 -0.016332035295133277 0 -0.034831837393414396 -0.016301547540623976 0 -0.035094671253581532 -0.015933668822345953 0 -0.031621010688925748 -0.015862178699428835 0 -0.031982613911930885 -0.016028314084166544 0 -0.029312247951038151 -0.015218584099920593 0 -0.029575823969805331 -0.015476730162010559 0 -0.029627999565895159 -0.015812203135915939 0 -0.034048947942062882 -0.017243111635408617 0 -0.033184159807509932 -0.017437457035819642 0 -0.0344519629079005 -0.015926791020017747 0 -0.034048947942062882 -0.017243111635408617 0 -0.034831837393414396 -0.016301547540623976 0 -0.0344519629079005 -0.015926791020017747 0 -0.029312247951038151 -0.015218584099920593 0 -0.029575823969805331 -0.015476730162010559 0 -0.029515597930652556 -0.015221856037895574 0 -0.029575823969805331 -0.015476730162010559 0 -0.029231763126370297 -0.015289808460097301 0 -0.029515597930652556 -0.015221856037895574 0 -0.028505848840314478 -0.015327842946275757 0 -0.029231763126370297 -0.015289808460097301 0 -0.02934269086383369 -0.015409112752488678 0 -0.029575823969805331 -0.015476730162010559 0 -0.029231763126370297 -0.015289808460097301 0 -0.02934269086383369 -0.015409112752488678 0 -0.028505848840314478 -0.015327842946275757 0 -0.028589009695987468 -0.015377753796539642 0 -0.029231763126370297 -0.015289808460097301 0 -0.028589009695987468 -0.015377753796539642 0 -0.029231763126370297 -0.015289808460097301 0 -0.028736701499805561 -0.015429944482018981 0 -0.029231763126370297 -0.015289808460097301 0 -0.028736701499805561 -0.015429944482018981 0 -0.029677350711522502 -0.014811133379311812 0 -0.031492811707139377 -0.014561948454722952 0 -0.031703236311188959 -0.013391116528208812 0 -0.029677350711522502 -0.014811133379311812 0 -0.031621010688925748 -0.015862178699428835 0 -0.029729582807184612 -0.014814961471956037 0 -0.029312247951038151 -0.015218584099920593 0 -0.029677350711522502 -0.014811133379311812 0 -0.029515597930652556 -0.015221856037895574 0 -0.029231763126370297 -0.015289808460097301 0 -0.029677350711522502 -0.014811133379311812 0 -0.029515597930652556 -0.015221856037895574 0 -0.02989098578447107 -0.01591670774383571 0 -0.030498837363132816 -0.017006073794987728 0 -0.030147523480430191 -0.016357424485847295 0 -0.029780139369676897 -0.015691750440975535 0 -0.02989098578447107 -0.01591670774383571 0 -0.030147523480430191 -0.016357424485847295 0 -0.029602143061716758 -0.015264121435854148 0 -0.029780139369676897 -0.015691750440975535 0 -0.02934269086383369 -0.015409112752488678 0 -0.029602143061716758 -0.015264121435854148 0 -0.029780139369676897 -0.015691750440975535 0 -0.030147523480430191 -0.016357424485847295 0 -0.029780139369676897 -0.015691750440975535 0 -0.02934269086383369 -0.015409112752488678 0 -0.02989098578447107 -0.01591670774383571 0 -0.029575823969805331 -0.015476730162010559 0 -0.02934269086383369 -0.015409112752488678 0 -0.02989098578447107 -0.01591670774383571 0 -0.029575823969805331 -0.015476730162010559 0 -0.02989098578447107 -0.01591670774383571 0 -0.029627999565895159 -0.015812203135915939 0 -0.0344519629079005 -0.015926791020017747 0 -0.035094671253581532 -0.015933668822345953 0 -0.03497466247172857 -0.015981580053604887 0 -0.034831837393414396 -0.016301547540623976 0 -0.0344519629079005 -0.015926791020017747 0 -0.035094671253581532 -0.015933668822345953 0 -0.035094671253581532 -0.015933668822345953 0 -0.03497466247172857 -0.015981580053604887 0 -0.035225591166998235 -0.015986424348800463 0 -0.02989098578447107 -0.01591670774383571 0 -0.029627999565895159 -0.015812203135915939 0 -0.030498837363132816 -0.017006073794987728 0 -0.031982613911930885 -0.016028314084166544 0 -0.032768518734295135 -0.016337091407871603 0 -0.030498837363132816 -0.017006073794987728 0 -0.033286940474956499 -0.016599756347651519 0 -0.03071436552797371 -0.017327175726672042 0 -0.030498837363132816 -0.017006073794987728 0 -0.03071436552797371 -0.017327175726672042 0 -0.030147523480430191 -0.016357424485847295 0 -0.03497466247172857 -0.015981580053604887 0 -0.034678238818738646 -0.016257833152706149 0 -0.035225591166998235 -0.015986424348800463 0 -0.03497466247172857 -0.015981580053604887 0 -0.033286940474956499 -0.016599756347651519 0 -0.034678238818738646 -0.016257833152706149 0 -0.032768518734295135 -0.016337091407871603 0 -0.033249661449228071 -0.016385785220002558 0 -0.033286940474956499 -0.016599756347651519 0 -0.033542539253340768 -0.016394265826762709 0 -0.030860275829550275 -0.019005852158930608 0 -0.033286940474956499 -0.016599756347651519 0 -0.033542539253340768 -0.016394265826762709 0 -0.034678238818738646 -0.016257833152706149 0 -0.031402431950544776 -0.022522783384944085 0 -0.031665174381545945 -0.0222191196469506 0 -0.031388212109502822 -0.021299516373635335 0 -0.031402431950544776 -0.022522783384944085 0 -0.031665174381545945 -0.0222191196469506 0 -0.03220228104195965 -0.022788572929434089 0 -0.031665174381545945 -0.0222191196469506 0 -0.03191180275613488 -0.022153863801079685 0 -0.03220228104195965 -0.022788572929434089 0 -0.032686088506855712 -0.019470464314063487 0 -0.031293285877176717 -0.019150099749174095 0 -0.033286940474956499 -0.016599756347651519 0 -0.03071436552797371 -0.017327175726672042 0 -0.030860275829550275 -0.019005852158930608 0 -0.03071436552797371 -0.017327175726672042 0 -0.030637312977120051 -0.017771134195673881 0 -0.030860275829550275 -0.019005852158930608 0 -0.03071436552797371 -0.017327175726672042 0 -0.030147523480430191 -0.016357424485847295 0 -0.030637312977120051 -0.017771134195673881 0 -0.029602143061716758 -0.015264121435854148 0 -0.030452710418974051 -0.016395958384030622 0 -0.030147523480430191 -0.016357424485847295 0 -0.030452710418974051 -0.016395958384030622 0 -0.030147523480430191 -0.016357424485847295 0 -0.030637312977120051 -0.017771134195673881 0 -0.030452710418974051 -0.016395958384030622 0 -0.030637312977120051 -0.017771134195673881 0 -0.030895998039173599 -0.019021418007487252 0 -0.030637312977120051 -0.017771134195673881 0 -0.030895998039173599 -0.019021418007487252 0 -0.031117793916597913 -0.019795938221665373 0 -0.030637312977120051 -0.017771134195673881 0 -0.031117793916597913 -0.019795938221665373 0 -0.030860275829550275 -0.019005852158930608 0 -0.031117793916597913 -0.019795938221665373 0 -0.031398018270660258 -0.0209512851168333 0 -0.030860275829550275 -0.019005852158930608 0 -0.031117793916597913 -0.019795938221665373 0 -0.031478711481502407 -0.020979347110478757 0 -0.031398018270660258 -0.0209512851168333 0 -0.031117793916597913 -0.019795938221665373 0 -0.031478711481502407 -0.020979347110478757 0 -0.031314916933483788 -0.020534433351516425 0 -0.031478711481502407 -0.020979347110478757 0 -0.031314916933483788 -0.020534433351516425 0 -0.031754231755581543 -0.021536209910401581 0 -0.030895998039173599 -0.019021418007487252 0 -0.031117793916597913 -0.019795938221665373 0 -0.031314916933483788 -0.020534433351516425 0 -0.031259071170053186 -0.020361764141607435 0 -0.030895998039173599 -0.019021418007487252 0 -0.031314916933483788 -0.020534433351516425 0 -0.031259071170053186 -0.020361764141607435 0 -0.031314916933483788 -0.020534433351516425 0 -0.031575047212456318 -0.021206701873476577 0 -0.031883466900258332 -0.021835958502306213 0 -0.031693032447350507 -0.021489619240195983 0 -0.031821687396972824 -0.021688253234058496 0 -0.031693032447350507 -0.021489619240195983 0 -0.031575047212456318 -0.021206701873476577 0 -0.031821687396972824 -0.021688253234058496 0 -0.031575047212456318 -0.021206701873476577 0 -0.031754231755581543 -0.021536209910401581 0 -0.031930420736277526 -0.021852526524094758 0 -0.031575047212456318 -0.021206701873476577 0 -0.031821687396972824 -0.021688253234058496 0 -0.031930420736277526 -0.021852526524094758 0 -0.031314916933483788 -0.020534433351516425 0 -0.031575047212456318 -0.021206701873476577 0 -0.031754231755581543 -0.021536209910401581 0 -0.031478711481502407 -0.020979347110478757 0 -0.031754231755581543 -0.021536209910401581 0 -0.031807398498707125 -0.021552421933770046 0 -0.031754231755581543 -0.021536209910401581 0 -0.032085512924448209 -0.022044919139194069 0 -0.032056160345948832 -0.02193202131840331 0 -0.031754231755581543 -0.021536209910401581 0 -0.032056160345948832 -0.02193202131840331 0 -0.031807398498707125 -0.021552421933770046 0 -0.031754231755581543 -0.021536209910401581 0 -0.032085512924448209 -0.022044919139194069 0 -0.031930420736277526 -0.021852526524094758 0 -0.032085512924448209 -0.022044919139194069 0 -0.032181072141581606 -0.022225758292722546 0 -0.031930420736277526 -0.021852526524094758 0 -0.032085512924448209 -0.022044919139194069 0 -0.032056160345948832 -0.02193202131840331 0 -0.032249618336892175 -0.022211969091112942 0 -0.032056160345948832 -0.02193202131840331 0 -0.032249618336892175 -0.022211969091112942 0 -0.032318425849131027 -0.022187251147957159 0 -0.032085512924448209 -0.022044919139194069 0 -0.032249618336892175 -0.022211969091112942 0 -0.032352245537085773 -0.022424885207406143 0 -0.032249618336892175 -0.022211969091112942 0 -0.032352245537085773 -0.022424885207406143 0 -0.032465732945179009 -0.022467155579109197 0 -0.032085512924448209 -0.022044919139194069 0 -0.032352245537085773 -0.022424885207406143 0 -0.032181072141581606 -0.022225758292722546 0 -0.032352245537085773 -0.022424885207406143 0 -0.032181072141581606 -0.022225758292722546 0 -0.032388832202699523 -0.022536886004256584 0 -0.032181072141581606 -0.022225758292722546 0 -0.032219903683339067 -0.022304018776618906 0 -0.032022710925176681 -0.022013972855319447 0 -0.032181072141581606 -0.022225758292722546 0 -0.032219903683339067 -0.022304018776618906 0 -0.032388832202699523 -0.022536886004256584 0 -0.0320782856260549 -0.022128899085717121 0 -0.032219903683339067 -0.022304018776618906 0 -0.032022710925176681 -0.022013972855319447 0 -0.0320782856260549 -0.022128899085717121 0 -0.032219903683339067 -0.022304018776618906 0 -0.032281678655239732 -0.022412681717829386 0 -0.0320782856260549 -0.022128899085717121 0 -0.031883466900258332 -0.021835958502306213 0 -0.032022710925176681 -0.022013972855319447 0 -0.031883466900258332 -0.021835958502306213 0 -0.031821687396972824 -0.021688253234058496 0 -0.032022710925176681 -0.022013972855319447 0 -0.031821687396972824 -0.021688253234058496 0 -0.032022710925176681 -0.022013972855319447 0 -0.031930420736277526 -0.021852526524094758 0 -0.032181072141581606 -0.022225758292722546 0 -0.032022710925176681 -0.022013972855319447 0 -0.031930420736277526 -0.021852526524094758 0 -0.032776695996664752 -0.022382422646901944 0 -0.032941830398288054 -0.022342027866366857 0 -0.033082850299587484 -0.022576860443653229 0 -0.032776695996664752 -0.022382422646901944 0 -0.032941830398288054 -0.022342027866366857 0 -0.032429299259342875 -0.022129400337798436 0 -0.032941830398288054 -0.022342027866366857 0 -0.033382847433208546 -0.022579289010636661 0 -0.033578139126256276 -0.022533925233032194 0 -0.033382847433208546 -0.022579289010636661 0 -0.033082850299587484 -0.022576860443653229 0 -0.033420758657071226 -0.022746470447591881 0 -0.032941830398288054 -0.022342027866366857 0 -0.033382847433208546 -0.022579289010636661 0 -0.033082850299587484 -0.022576860443653229 0 -0.033382847433208546 -0.022579289010636661 0 -0.033837204700387334 -0.022736987649694118 0 -0.033420758657071226 -0.022746470447591881 0 -0.033082850299587484 -0.022576860443653229 0 -0.032680130568588726 -0.022495030532401886 0 -0.033016648732084895 -0.022703675512787503 0 -0.032776695996664752 -0.022382422646901944 0 -0.033082850299587484 -0.022576860443653229 0 -0.032680130568588726 -0.022495030532401886 0 -0.032680130568588726 -0.022495030532401886 0 -0.032465732945179009 -0.022467155579109197 0 -0.032318425849131027 -0.022187251147957159 0 -0.032249618336892175 -0.022211969091112942 0 -0.032465732945179009 -0.022467155579109197 0 -0.032318425849131027 -0.022187251147957159 0 -0.032056160345948832 -0.02193202131840331 0 -0.032318425849131027 -0.022187251147957159 0 -0.032106865550412408 -0.021875457501277104 0 -0.032318425849131027 -0.022187251147957159 0 -0.032429299259342875 -0.022129400337798436 0 -0.032106865550412408 -0.021875457501277104 0 -0.032680130568588726 -0.022495030532401886 0 -0.032318425849131027 -0.022187251147957159 0 -0.032429299259342875 -0.022129400337798436 0 -0.032776695996664752 -0.022382422646901944 0 -0.032680130568588726 -0.022495030532401886 0 -0.032429299259342875 -0.022129400337798436 0 -0.032429299259342875 -0.022129400337798436 0 -0.03206333288489948 -0.021750653081398976 0 -0.032473102917408646 -0.022031820775325537 0 -0.032429299259342875 -0.022129400337798436 0 -0.032106865550412408 -0.021875457501277104 0 -0.03206333288489948 -0.021750653081398976 0 -0.032056160345948832 -0.02193202131840331 0 -0.032106865550412408 -0.021875457501277104 0 -0.031807398498707125 -0.021552421933770046 0 -0.031807398498707125 -0.021552421933770046 0 -0.03206333288489948 -0.021750653081398976 0 -0.031705938330852834 -0.021367809103506826 0 -0.032106865550412408 -0.021875457501277104 0 -0.031807398498707125 -0.021552421933770046 0 -0.03206333288489948 -0.021750653081398976 0 -0.03244129580149039 -0.021934684316359688 0 -0.032473102917408646 -0.022031820775325537 0 -0.032947192714790317 -0.022217070684525837 0 -0.03206333288489948 -0.021750653081398976 0 -0.03244129580149039 -0.021934684316359688 0 -0.032473102917408646 -0.022031820775325537 0 -0.03206333288489948 -0.021750653081398976 0 -0.03244129580149039 -0.021934684316359688 0 -0.031927831663405556 -0.021572897883402331 0 -0.032941830398288054 -0.022342027866366857 0 -0.032473102917408646 -0.022031820775325537 0 -0.032947192714790317 -0.022217070684525837 0 -0.032941830398288054 -0.022342027866366857 0 -0.032429299259342875 -0.022129400337798436 0 -0.032473102917408646 -0.022031820775325537 0 -0.032941830398288054 -0.022342027866366857 0 -0.032947192714790317 -0.022217070684525837 0 -0.033578139126256276 -0.022533925233032194 0 -0.03244129580149039 -0.021934684316359688 0 -0.032429183816179277 -0.021881604734775847 0 -0.033035277440671015 -0.022175206564448251 0 -0.03244129580149039 -0.021934684316359688 0 -0.032947192714790317 -0.022217070684525837 0 -0.033035277440671015 -0.022175206564448251 0 -0.032429183816179277 -0.021881604734775847 0 -0.032775213762633031 -0.022050376727073773 0 -0.033035277440671015 -0.022175206564448251 0 -0.032429183816179277 -0.021881604734775847 0 -0.032381572830700159 -0.021873318052918599 0 -0.032775213762633031 -0.022050376727073773 0 -0.032429183816179277 -0.021881604734775847 0 -0.031927831663405556 -0.021572897883402331 0 -0.032118315834115868 -0.021692104686628109 0 -0.03244129580149039 -0.021934684316359688 0 -0.032429183816179277 -0.021881604734775847 0 -0.031927831663405556 -0.021572897883402331 0 -0.032118315834115868 -0.021692104686628109 0 -0.031735130810060207 -0.021390905693531741 0 -0.031996832380216861 -0.021678336668273183 0 -0.031735130810060207 -0.021390905693531741 0 -0.031996832380216861 -0.021678336668273183 0 -0.031460534622166254 -0.021186267999958753 0 -0.031927831663405556 -0.021572897883402331 0 -0.032118315834115868 -0.021692104686628109 0 -0.031735130810060207 -0.021390905693531741 0 -0.032381572830700159 -0.021873318052918599 0 -0.031996832380216861 -0.021678336668273183 0 -0.032631281234038571 -0.022074851427038945 0 -0.032118315834115868 -0.021692104686628109 0 -0.032381572830700159 -0.021873318052918599 0 -0.031996832380216861 -0.021678336668273183 0 -0.032429183816179277 -0.021881604734775847 0 -0.032118315834115868 -0.021692104686628109 0 -0.032381572830700159 -0.021873318052918599 0 -0.031478711481502407 -0.020979347110478757 0 -0.031807398498707125 -0.021552421933770046 0 -0.031705938330852834 -0.021367809103506826 0 -0.031478711481502407 -0.020979347110478757 0 -0.031705938330852834 -0.021367809103506826 0 -0.031398018270660258 -0.0209512851168333 0 -0.03206333288489948 -0.021750653081398976 0 -0.031927831663405556 -0.021572897883402331 0 -0.031705938330852834 -0.021367809103506826 0 -0.031927831663405556 -0.021572897883402331 0 -0.031705938330852834 -0.021367809103506826 0 -0.031398018270660258 -0.0209512851168333 0 -0.031735130810060207 -0.021390905693531741 0 -0.031398018270660258 -0.0209512851168333 0 -0.031460534622166254 -0.021186267999958753 0 -0.031927831663405556 -0.021572897883402331 0 -0.031735130810060207 -0.021390905693531741 0 -0.031398018270660258 -0.0209512851168333 0 -0.031402431950544776 -0.022522783384944085 0 -0.030860275829550275 -0.019005852158930608 0 -0.031388212109502822 -0.021299516373635335 0 -0.030860275829550275 -0.019005852158930608 0 -0.031460534622166254 -0.021186267999958753 0 -0.031388212109502822 -0.021299516373635335 0 -0.031398018270660258 -0.0209512851168333 0 -0.030860275829550275 -0.019005852158930608 0 -0.031460534622166254 -0.021186267999958753 0 -0.031996832380216861 -0.021678336668273183 0 -0.032362101156853798 -0.022096095923801577 0 -0.032631281234038571 -0.022074851427038945 0 -0.031928227687035945 -0.021837576090731628 0 -0.031996832380216861 -0.021678336668273183 0 -0.031656660194222995 -0.021504327117651434 0 -0.031928227687035945 -0.021837576090731628 0 -0.032175884252958427 -0.022176815659514876 0 -0.032362101156853798 -0.022096095923801577 0 -0.031928227687035945 -0.021837576090731628 0 -0.031996832380216861 -0.021678336668273183 0 -0.032362101156853798 -0.022096095923801577 0 -0.031996832380216861 -0.021678336668273183 0 -0.031460534622166254 -0.021186267999958753 0 -0.031656660194222995 -0.021504327117651434 0 -0.031460534622166254 -0.021186267999958753 0 -0.031656660194222995 -0.021504327117651434 0 -0.031388212109502822 -0.021299516373635335 0 -0.031656660194222995 -0.021504327117651434 0 -0.031388212109502822 -0.021299516373635335 0 -0.031691352314970188 -0.021757233531414923 0 -0.031665174381545945 -0.0222191196469506 0 -0.031388212109502822 -0.021299516373635335 0 -0.031691352314970188 -0.021757233531414923 0 -0.031665174381545945 -0.0222191196469506 0 -0.031691352314970188 -0.021757233531414923 0 -0.03191180275613488 -0.022153863801079685 0 -0.031928227687035945 -0.021837576090731628 0 -0.031656660194222995 -0.021504327117651434 0 -0.031691352314970188 -0.021757233531414923 0 -0.031928227687035945 -0.021837576090731628 0 -0.031691352314970188 -0.021757233531414923 0 -0.03191180275613488 -0.022153863801079685 0 -0.031928227687035945 -0.021837576090731628 0 -0.03191180275613488 -0.022153863801079685 0 -0.032175884252958427 -0.022176815659514876 0 -0.03191180275613488 -0.022153863801079685 0 -0.032256115464905831 -0.022487409711202062 0 -0.032175884252958427 -0.022176815659514876 0 -0.032256115464905831 -0.022487409711202062 0 -0.032532941043601223 -0.022410785049397808 0 -0.032892774611462838 -0.022862697410074399 0 -0.03191180275613488 -0.022153863801079685 0 -0.032256115464905831 -0.022487409711202062 0 -0.03220228104195965 -0.022788572929434089 0 -0.032256115464905831 -0.022487409711202062 0 -0.032175884252958427 -0.022176815659514876 0 -0.032532941043601223 -0.022410785049397808 0 -0.032175884252958427 -0.022176815659514876 0 -0.032532941043601223 -0.022410785049397808 0 -0.032362101156853798 -0.022096095923801577 0 -0.032532941043601223 -0.022410785049397808 0 -0.032892774611462838 -0.022862697410074399 0 -0.032987758098660669 -0.02245363903890036 0 -0.032892774611462838 -0.022862697410074399 0 -0.032987758098660669 -0.02245363903890036 0 -0.033512917703049747 -0.022807869648654656 0 -0.032987758098660669 -0.02245363903890036 0 -0.033736036227299274 -0.022610072351909084 0 -0.03328436426537805 -0.022337598341042424 0 -0.032987758098660669 -0.02245363903890036 0 -0.032362101156853798 -0.022096095923801577 0 -0.032631281234038571 -0.022074851427038945 0 -0.032532941043601223 -0.022410785049397808 0 -0.032987758098660669 -0.02245363903890036 0 -0.032362101156853798 -0.022096095923801577 0 -0.033783873589388176 -0.023270627338538165 0 -0.034182362229918578 -0.022898387076023565 0 -0.034654123510620666 -0.023309256196352643 0 -0.032892774611462838 -0.022862697410074399 0 -0.033783873589388176 -0.023270627338538165 0 -0.033512917703049747 -0.022807869648654656 0 -0.033783873589388176 -0.023270627338538165 0 -0.033512917703049747 -0.022807869648654656 0 -0.034182362229918578 -0.022898387076023565 0 -0.032987758098660669 -0.02245363903890036 0 -0.033512917703049747 -0.022807869648654656 0 -0.033736036227299274 -0.022610072351909084 0 -0.033512917703049747 -0.022807869648654656 0 -0.033736036227299274 -0.022610072351909084 0 -0.034182362229918578 -0.022898387076023565 0 -0.034182362229918578 -0.022898387076023565 0 -0.034488468486301598 -0.02267628877384829 0 -0.034894002066522975 -0.022937947543795318 0 -0.033736036227299274 -0.022610072351909084 0 -0.034182362229918578 -0.022898387076023565 0 -0.034488468486301598 -0.02267628877384829 0 -0.033736036227299274 -0.022610072351909084 0 -0.034036150678256522 -0.022477686719310143 0 -0.03328436426537805 -0.022337598341042424 0 -0.033736036227299274 -0.022610072351909084 0 -0.034488468486301598 -0.02267628877384829 0 -0.034036150678256522 -0.022477686719310143 0 -0.034488468486301598 -0.02267628877384829 0 -0.034036150678256522 -0.022477686719310143 0 -0.035012057934038741 -0.022649768099913797 0 -0.032631281234038571 -0.022074851427038945 0 -0.03328436426537805 -0.022337598341042424 0 -0.032775213762633031 -0.022050376727073773 0 -0.032381572830700159 -0.021873318052918599 0 -0.032631281234038571 -0.022074851427038945 0 -0.032775213762633031 -0.022050376727073773 0 -0.032987758098660669 -0.02245363903890036 0 -0.032631281234038571 -0.022074851427038945 0 -0.03328436426537805 -0.022337598341042424 0 -0.034036150678256522 -0.022477686719310143 0 -0.033375036144517575 -0.022280753973157773 0 -0.033955396060489591 -0.022469183733801339 0 -0.034036150678256522 -0.022477686719310143 0 -0.03328436426537805 -0.022337598341042424 0 -0.033375036144517575 -0.022280753973157773 0 -0.03328436426537805 -0.022337598341042424 0 -0.033375036144517575 -0.022280753973157773 0 -0.032775213762633031 -0.022050376727073773 0 -0.033375036144517575 -0.022280753973157773 0 -0.032775213762633031 -0.022050376727073773 0 -0.033035277440671015 -0.022175206564448251 0 -0.032947192714790317 -0.022217070684525837 0 -0.033035277440671015 -0.022175206564448251 0 -0.033528940482849136 -0.022405485971572738 0 -0.033035277440671015 -0.022175206564448251 0 -0.033528940482849136 -0.022405485971572738 0 -0.033955396060489591 -0.022469183733801339 0 -0.032947192714790317 -0.022217070684525837 0 -0.033528940482849136 -0.022405485971572738 0 -0.033578139126256276 -0.022533925233032194 0 -0.033528940482849136 -0.022405485971572738 0 -0.033955396060489591 -0.022469183733801339 0 -0.034181784330673391 -0.022630260982350055 0 -0.033375036144517575 -0.022280753973157773 0 -0.033035277440671015 -0.022175206564448251 0 -0.033955396060489591 -0.022469183733801339 0 -0.034036150678256522 -0.022477686719310143 0 -0.033955396060489591 -0.022469183733801339 0 -0.034829208461881624 -0.022642574406232054 0 -0.034036150678256522 -0.022477686719310143 0 -0.034829208461881624 -0.022642574406232054 0 -0.035012057934038741 -0.022649768099913797 0 -0.034829208461881624 -0.022642574406232054 0 -0.034848193554211995 -0.022733179884303175 0 -0.035545207453897949 -0.022863824600765244 0 -0.033955396060489591 -0.022469183733801339 0 -0.034829208461881624 -0.022642574406232054 0 -0.034848193554211995 -0.022733179884303175 0 -0.033955396060489591 -0.022469183733801339 0 -0.034848193554211995 -0.022733179884303175 0 -0.034181784330673391 -0.022630260982350055 0 -0.034848193554211995 -0.022733179884303175 0 -0.034980043283573896 -0.0228526217576994 0 -0.034181784330673391 -0.022630260982350055 0 -0.034848193554211995 -0.022733179884303175 0 -0.035476508336387401 -0.022939439891811717 0 -0.035545207453897949 -0.022863824600765244 0 -0.034848193554211995 -0.022733179884303175 0 -0.035476508336387401 -0.022939439891811717 0 -0.034980043283573896 -0.0228526217576994 0 -0.035476508336387401 -0.022939439891811717 0 -0.035905225572178741 -0.023098816396975391 0 -0.035751377528034804 -0.023028115245124971 0 -0.035476508336387401 -0.022939439891811717 0 -0.034980043283573896 -0.0228526217576994 0 -0.035751377528034804 -0.023028115245124971 0 -0.034980043283573896 -0.0228526217576994 0 -0.034302645043295457 -0.022774136023866402 0 -0.035325848059755846 -0.022820069170725297 0 -0.034302645043295457 -0.022774136023866402 0 -0.033837204700387334 -0.022736987649694118 0 -0.033578139126256276 -0.022533925233032194 0 -0.034302645043295457 -0.022774136023866402 0 -0.033837204700387334 -0.022736987649694118 0 -0.034284074222260298 -0.022844793913861065 0 -0.033382847433208546 -0.022579289010636661 0 -0.033837204700387334 -0.022736987649694118 0 -0.033578139126256276 -0.022533925233032194 0 -0.033528940482849136 -0.022405485971572738 0 -0.033578139126256276 -0.022533925233032194 0 -0.034181784330673391 -0.022630260982350055 0 -0.034980043283573896 -0.0228526217576994 0 -0.034302645043295457 -0.022774136023866402 0 -0.034181784330673391 -0.022630260982350055 0 -0.034302645043295457 -0.022774136023866402 0 -0.033578139126256276 -0.022533925233032194 0 -0.034181784330673391 -0.022630260982350055 0 -0.035238703916436798 -0.023683223281808746 0 -0.034331355064202901 -0.025740193217815472 0 -0.034569968890591808 -0.025265391668439423 0 -0.035925791688882915 -0.023124277508071649 0 -0.036040138228151768 -0.022742184518084293 0 -0.035238703916436798 -0.023683223281808746 0 -0.035925791688882915 -0.023124277508071649 0 -0.035238703916436798 -0.023683223281808746 0 -0.036486307493741044 -0.023358976289398922 0 -0.035055209337750214 -0.023726435440380028 0 -0.035354516725131367 -0.024439824351646506 0 -0.034687153021540483 -0.024873081372326959 0 -0.035238703916436798 -0.023683223281808746 0 -0.034321553905540064 -0.025095962458547703 0 -0.034687153021540483 -0.024873081372326959 0 -0.035238703916436798 -0.023683223281808746 0 -0.034569968890591808 -0.025265391668439423 0 -0.035905225572178741 -0.023098816396975391 0 -0.035925791688882915 -0.023124277508071649 0 -0.036486307493741044 -0.023358976289398922 0 -0.035905225572178741 -0.023098816396975391 0 -0.036486307493741044 -0.023358976289398922 0 -0.035751377528034804 -0.023028115245124971 0 -0.035905225572178741 -0.023098816396975391 0 -0.035545207453897949 -0.022863824600765244 0 -0.035925791688882915 -0.023124277508071649 0 -0.035476508336387401 -0.022939439891811717 0 -0.035905225572178741 -0.023098816396975391 0 -0.035545207453897949 -0.022863824600765244 0 -0.035545207453897949 -0.022863824600765244 0 -0.035925791688882915 -0.023124277508071649 0 -0.035602048073005557 -0.022752574647678967 0 -0.034829208461881624 -0.022642574406232054 0 -0.035545207453897949 -0.022863824600765244 0 -0.035602048073005557 -0.022752574647678967 0 -0.034829208461881624 -0.022642574406232054 0 -0.035602048073005557 -0.022752574647678967 0 -0.035012057934038741 -0.022649768099913797 0 -0.035602048073005557 -0.022752574647678967 0 -0.035012057934038741 -0.022649768099913797 0 -0.035637677248525901 -0.022713383332102353 0 -0.035602048073005557 -0.022752574647678967 0 -0.036040138228151768 -0.022742184518084293 0 -0.035637677248525901 -0.022713383332102353 0 -0.035925791688882915 -0.023124277508071649 0 -0.035602048073005557 -0.022752574647678967 0 -0.036040138228151768 -0.022742184518084293 0 -0.036040138228151768 -0.022742184518084293 0 -0.03656701722312479 -0.022936877015608474 0 -0.038312518566257441 -0.022739404189761454 0 -0.036040138228151768 -0.022742184518084293 0 -0.03656701722312479 -0.022936877015608474 0 -0.035637677248525901 -0.022713383332102353 0 -0.03656701722312479 -0.022936877015608474 0 -0.035637677248525901 -0.022713383332102353 0 -0.035634523116367764 -0.022966291517592101 0 -0.035012057934038741 -0.022649768099913797 0 -0.035137343014538233 -0.022737046154424644 0 -0.035637677248525901 -0.022713383332102353 0 -0.034488468486301598 -0.02267628877384829 0 -0.035012057934038741 -0.022649768099913797 0 -0.035137343014538233 -0.022737046154424644 0 -0.035137343014538233 -0.022737046154424644 0 -0.035637677248525901 -0.022713383332102353 0 -0.035634523116367764 -0.022966291517592101 0 -0.035137343014538233 -0.022737046154424644 0 -0.035634523116367764 -0.022966291517592101 0 -0.034894002066522975 -0.022937947543795318 0 -0.034488468486301598 -0.02267628877384829 0 -0.035137343014538233 -0.022737046154424644 0 -0.034894002066522975 -0.022937947543795318 0 -0.034182362229918578 -0.022898387076023565 0 -0.034894002066522975 -0.022937947543795318 0 -0.034654123510620666 -0.023309256196352643 0 -0.034894002066522975 -0.022937947543795318 0 -0.035390619214655784 -0.023255394685813807 0 -0.034654123510620666 -0.023309256196352643 0 -0.035634523116367764 -0.022966291517592101 0 -0.034894002066522975 -0.022937947543795318 0 -0.035390619214655784 -0.023255394685813807 0 -0.035390619214655784 -0.023255394685813807 0 -0.036315136916891554 -0.023429509298318284 0 -0.035375136990959441 -0.02374423003315761 0 -0.035390619214655784 -0.023255394685813807 0 -0.034654123510620666 -0.023309256196352643 0 -0.035375136990959441 -0.02374423003315761 0 -0.03656701722312479 -0.022936877015608474 0 -0.036315136916891554 -0.023429509298318284 0 -0.037942831044462333 -0.023322410501653821 0 -0.035634523116367764 -0.022966291517592101 0 -0.035390619214655784 -0.023255394685813807 0 -0.036315136916891554 -0.023429509298318284 0 -0.03656701722312479 -0.022936877015608474 0 -0.035634523116367764 -0.022966291517592101 0 -0.036315136916891554 -0.023429509298318284 0 -0.036315136916891554 -0.023429509298318284 0 -0.036164424712454374 -0.024267253092207591 0 -0.037475239285048111 -0.023951629323112806 0 -0.036315136916891554 -0.023429509298318284 0 -0.036164424712454374 -0.024267253092207591 0 -0.035375136990959441 -0.02374423003315761 0 -0.037421196935797166 -0.016003776648059811 0 -0.037249824994664393 -0.015808944626897706 0 -0.037817367828102195 -0.016410231473379618 0 -0.036164424712454374 -0.024267253092207591 0 -0.034697300259188213 -0.025199463572144178 0 -0.038018633124624557 -0.025123115277639746 0 -0.037421196935797166 -0.016003776648059811 0 -0.037585466655430375 -0.016218370949294215 0 -0.037817367828102195 -0.016410231473379618 0 -0.036507838930505 -0.018393255405582534 0 -0.037717346505389548 -0.021040936486716507 0 -0.037421196935797166 -0.016003776648059811 0 -0.037302890806608299 -0.015967437186792961 0 -0.037063414350802973 -0.015909436645946514 0 -0.037421196935797166 -0.016003776648059811 0 -0.037585466655430375 -0.016218370949294215 0 -0.037302890806608299 -0.015967437186792961 0 -0.037378077549471887 -0.015729023865043067 0 -0.036698807851248967 -0.015986264031998734 0 -0.037063414350802973 -0.015909436645946514 0 -0.037421196935797166 -0.016003776648059811 0 -0.037378077549471887 -0.015729023865043067 0 -0.037063414350802973 -0.015909436645946514 0 -0.037037683782541242 -0.016877732483468993 0 -0.036507838930505 -0.018393255405582534 0 -0.036507838930505 -0.018393255405582534 0 -0.037282875441929132 -0.016330687169831524 0 -0.036164424712454374 -0.024267253092207591 0 -0.034697300259188213 -0.025199463572144178 0 -0.035135094522573282 -0.02426757545368162 0 -0.034697300259188213 -0.025199463572144178 0 -0.035135094522573282 -0.02426757545368162 0 -0.034424218242777978 -0.023955157552020094 0 -0.035135094522573282 -0.02426757545368162 0 -0.035375136990959441 -0.02374423003315761 0 -0.034424218242777978 -0.023955157552020094 0 -0.036164424712454374 -0.024267253092207591 0 -0.035135094522573282 -0.02426757545368162 0 -0.035375136990959441 -0.02374423003315761 0 -0.034654123510620666 -0.023309256196352643 0 -0.035375136990959441 -0.02374423003315761 0 -0.034424218242777978 -0.023955157552020094 0 -0.034697300259188213 -0.025199463572144178 0 -0.034424218242777978 -0.023955157552020094 0 -0.033004578482011923 -0.024049409066417914 0 -0.033783873589388176 -0.023270627338538165 0 -0.034424218242777978 -0.023955157552020094 0 -0.033004578482011923 -0.024049409066417914 0 -0.033783873589388176 -0.023270627338538165 0 -0.034654123510620666 -0.023309256196352643 0 -0.034424218242777978 -0.023955157552020094 0 -0.032892774611462838 -0.022862697410074399 0 -0.033783873589388176 -0.023270627338538165 0 -0.033004578482011923 -0.024049409066417914 0 -0.032686088506855712 -0.019470464314063487 0 -0.03463148972139498 -0.020199838488864082 0 -0.031402431950544776 -0.022522783384944085 0 -0.033004578482011923 -0.024049409066417914 0 -0.03220228104195965 -0.022788572929434089 0 -0.033542539253340768 -0.016394265826762709 0 -0.036249147137810814 -0.015632623449934758 0 -0.034678238818738646 -0.016257833152706149 0 -0.032256115464905831 -0.022487409711202062 0 -0.032892774611462838 -0.022862697410074399 0 -0.03220228104195965 -0.022788572929434089 0 -0.032892774611462838 -0.022862697410074399 0 -0.033004578482011923 -0.024049409066417914 0 -0.03220228104195965 -0.022788572929434089 0 -0.036249147137810814 -0.015632623449934758 0 -0.034678238818738646 -0.016257833152706149 0 -0.035849138545580292 -0.016078094824934164 0 -0.034678238818738646 -0.016257833152706149 0 -0.035849138545580292 -0.016078094824934164 0 -0.035225591166998235 -0.015986424348800463 0 -0.036249147137810814 -0.015632623449934758 0 -0.035849138545580292 -0.016078094824934164 0 -0.036698807851248967 -0.015986264031998734 0 -0.036507838930505 -0.018393255405582534 0 -0.03463148972139498 -0.020199838488864082 0 -0.037483968583487313 -0.016345188835091607 0 -0.036249147137810814 -0.015632623449934758 0 -0.036698807851248967 -0.015986264031998734 0 -0.035849138545580292 -0.016078094824934164 0 -0.036398835337900302 -0.015916395836302683 0 -0.035859474161981188 -0.015827243561077887 0 -0.035849138545580292 -0.016078094824934164 0 -0.036698807851248967 -0.015986264031998734 0 -0.036398835337900302 -0.015916395836302683 0 -0.035849138545580292 -0.016078094824934164 0 -0.035225591166998235 -0.015986424348800463 0 -0.035859474161981188 -0.015827243561077887 0 -0.035094671253581532 -0.015933668822345953 0 -0.035225591166998235 -0.015986424348800463 0 -0.035859474161981188 -0.015827243561077887 0 -0.036216838860297244 -0.014969211181931168 0 -0.035591236141071209 -0.016332035295133277 0 -0.035859474161981188 -0.015827243561077887 0 -0.035591236141071209 -0.016332035295133277 0 -0.035094671253581532 -0.015933668822345953 0 -0.035859474161981188 -0.015827243561077887 0 -0.036216838860297244 -0.014969211181931168 0 -0.036398835337900302 -0.015916395836302683 0 -0.035859474161981188 -0.015827243561077887 0 -0.036216838860297244 -0.014969211181931168 0 -0.036398835337900302 -0.015916395836302683 0 -0.036850162054627461 -0.015688070898226204 0 -0.036216838860297244 -0.014969211181931168 0 -0.037034824788558116 -0.01523682773779214 0 -0.036850162054627461 -0.015688070898226204 0 -0.037429684150894288 -0.014855139251337135 0 -0.037034824788558116 -0.01523682773779214 0 -0.037665655844263513 -0.015893949182932979 0 -0.037034824788558116 -0.01523682773779214 0 -0.037238562694103576 -0.015765080878744807 0 -0.037665655844263513 -0.015893949182932979 0 -0.037034824788558116 -0.01523682773779214 0 -0.037238562694103576 -0.015765080878744807 0 -0.036850162054627461 -0.015688070898226204 0 -0.037238562694103576 -0.015765080878744807 0 -0.037302890806608299 -0.015967437186792961 0 -0.036850162054627461 -0.015688070898226204 0 -0.037238562694103576 -0.015765080878744807 0 -0.037539000527573897 -0.016097483447740819 0 -0.037665655844263513 -0.015893949182932979 0 -0.037238562694103576 -0.015765080878744807 0 -0.037539000527573897 -0.016097483447740819 0 -0.037302890806608299 -0.015967437186792961 0 -0.037585466655430375 -0.016218370949294215 0 -0.037539000527573897 -0.016097483447740819 0 -0.037302890806608299 -0.015967437186792961 0 -0.037302890806608299 -0.015967437186792961 0 -0.037063414350802973 -0.015909436645946514 0 -0.036850162054627461 -0.015688070898226204 0 -0.036698807851248967 -0.015986264031998734 0 -0.036398835337900302 -0.015916395836302683 0 -0.037063414350802973 -0.015909436645946514 0 -0.036398835337900302 -0.015916395836302683 0 -0.037063414350802973 -0.015909436645946514 0 -0.036850162054627461 -0.015688070898226204 0 -0.038144305635902612 -0.01669291737253344 0 -0.038235057576346869 -0.017267465058009891 0 -0.038727542767087779 -0.01769400332690306 0 -0.038144305635902612 -0.01669291737253344 0 -0.037902114867260778 -0.016591853905358479 0 -0.038727542767087779 -0.01769400332690306 0 -0.037539000527573897 -0.016097483447740819 0 -0.037902114867260778 -0.016591853905358479 0 -0.037665655844263513 -0.015893949182932979 0 -0.038144305635902612 -0.01669291737253344 0 -0.037902114867260778 -0.016591853905358479 0 -0.037665655844263513 -0.015893949182932979 0 -0.037585466655430375 -0.016218370949294215 0 -0.037539000527573897 -0.016097483447740819 0 -0.037902114867260778 -0.016591853905358479 0 -0.037429684150894288 -0.014855139251337135 0 -0.037665655844263513 -0.015893949182932979 0 -0.0379456294031549 -0.015546431001894304 0 -0.038144305635902612 -0.01669291737253344 0 -0.037665655844263513 -0.015893949182932979 0 -0.0379456294031549 -0.015546431001894304 0 -0.038144305635902612 -0.01669291737253344 0 -0.038180691301559044 -0.016171163038821133 0 -0.038235057576346869 -0.017267465058009891 0 -0.038144305635902612 -0.01669291737253344 0 -0.0379456294031549 -0.015546431001894304 0 -0.038180691301559044 -0.016171163038821133 0 -0.037922220678117166 -0.015040212447055713 0 -0.0379456294031549 -0.015546431001894304 0 -0.038180691301559044 -0.016171163038821133 0 -0.037922220678117166 -0.015040212447055713 0 -0.038180691301559044 -0.016171163038821133 0 -0.03782523508892674 -0.016103333087947959 0 -0.038180691301559044 -0.016171163038821133 0 -0.038349979127290622 -0.016494320378122686 0 -0.03782523508892674 -0.016103333087947959 0 -0.043043656326887753 -0.013310218172235429 0 -0.045211165820643058 -0.013459403664569323 0 -0.038349979127290622 -0.016494320378122686 0 -0.038959758011000691 -0.016685539045011289 0 -0.038235057576346869 -0.017267465058009891 0 -0.042388107204836135 -0.015372067802144942 0 -0.038050912283388541 -0.016834800947286621 0 -0.038349979127290622 -0.016494320378122686 0 -0.038959758011000691 -0.016685539045011289 0 -0.037765841583213174 -0.016160495164209313 0 -0.038180691301559044 -0.016171163038821133 0 -0.038349979127290622 -0.016494320378122686 0 -0.038235057576346869 -0.017267465058009891 0 -0.047443705910510406 -0.012938381089707495 0 -0.047667270119302121 -0.013273397377690038 0 -0.047515412758712974 -0.013367811949068168 0 -0.038321279647793104 -0.019377134120876684 0 -0.040142053926663444 -0.020604523026380453 0 -0.038948275791447419 -0.018574716457419323 0 -0.047678984671144967 -0.013410035869726488 0 -0.047667270119302121 -0.013273397377690038 0 -0.047515412758712974 -0.013367811949068168 0 -0.042388107204836135 -0.015372067802144942 0 -0.044017898851957109 -0.016803501470699204 0 -0.042388107204836135 -0.015372067802144942 0 -0.045211165820643058 -0.013459403664569323 0 -0.040142053926663444 -0.020604523026380453 0 -0.040640899583662363 -0.019450174966783581 0 -0.041981708416842262 -0.020392724470162361 0 -0.040142053926663444 -0.020604523026380453 0 -0.040640899583662363 -0.019450174966783581 0 -0.038948275791447419 -0.018574716457419323 0 -0.040640899583662363 -0.019450174966783581 0 -0.038948275791447419 -0.018574716457419323 0 -0.039639661211223275 -0.018575874559108318 0 -0.038235057576346869 -0.017267465058009891 0 -0.038948275791447419 -0.018574716457419323 0 -0.038727542767087779 -0.01769400332690306 0 -0.038321279647793104 -0.019377134120876684 0 -0.038235057576346869 -0.017267465058009891 0 -0.038948275791447419 -0.018574716457419323 0 -0.038948275791447419 -0.018574716457419323 0 -0.038727542767087779 -0.01769400332690306 0 -0.039639661211223275 -0.018575874559108318 0 -0.038727542767087779 -0.01769400332690306 0 -0.039639661211223275 -0.018575874559108318 0 -0.039406389278604244 -0.017539514718180341 0 -0.039639661211223275 -0.018575874559108318 0 -0.041019052258988553 -0.019324554781554364 0 -0.039406389278604244 -0.017539514718180341 0 -0.040640899583662363 -0.019450174966783581 0 -0.039639661211223275 -0.018575874559108318 0 -0.041019052258988553 -0.019324554781554364 0 -0.040437393518888656 -0.023543062208356513 0 -0.041649559145414065 -0.021977026618909878 0 -0.041580702618588955 -0.020555929206281971 0 -0.039783651933224327 -0.020551904988467141 0 -0.041191219048639725 -0.020580806712288225 0 -0.041019052258988553 -0.019324554781554364 0 -0.039406389278604244 -0.017539514718180341 0 -0.041580702618588955 -0.020555929206281971 0 -0.040437393518888656 -0.023543062208356513 0 -0.038803981441142277 -0.023782036048879247 0 -0.039644693065528383 -0.023149846188326058 0 -0.040437393518888656 -0.023543062208356513 0 -0.038018633124624557 -0.025123115277639746 0 -0.038803981441142277 -0.023782036048879247 0 -0.039783651933224327 -0.020551904988467141 0 -0.037717346505389548 -0.021040936486716507 0 -0.037902114867260778 -0.016591853905358479 0 -0.038727542767087779 -0.01769400332690306 0 -0.037817367828102195 -0.016410231473379618 0 -0.038727542767087779 -0.01769400332690306 0 -0.039406389278604244 -0.017539514718180341 0 -0.037817367828102195 -0.016410231473379618 0 -0.037585466655430375 -0.016218370949294215 0 -0.037902114867260778 -0.016591853905358479 0 -0.037817367828102195 -0.016410231473379618 0 -0.036164424712454374 -0.024267253092207591 0 -0.038018633124624557 -0.025123115277639746 0 -0.037475239285048111 -0.023951629323112806 0 -0.038018633124624557 -0.025123115277639746 0 -0.038803981441142277 -0.023782036048879247 0 -0.037475239285048111 -0.023951629323112806 0 -0.036315136916891554 -0.023429509298318284 0 -0.037475239285048111 -0.023951629323112806 0 -0.037942831044462333 -0.023322410501653821 0 -0.038803981441142277 -0.023782036048879247 0 -0.037475239285048111 -0.023951629323112806 0 -0.037942831044462333 -0.023322410501653821 0 -0.038803981441142277 -0.023782036048879247 0 -0.037942831044462333 -0.023322410501653821 0 -0.039644693065528383 -0.023149846188326058 0 -0.039644693065528383 -0.023149846188326058 0 -0.038312518566257441 -0.022739404189761454 0 -0.040603493604476702 -0.023044840099630062 0 -0.037942831044462333 -0.023322410501653821 0 -0.039644693065528383 -0.023149846188326058 0 -0.038312518566257441 -0.022739404189761454 0 -0.03656701722312479 -0.022936877015608474 0 -0.037942831044462333 -0.023322410501653821 0 -0.038312518566257441 -0.022739404189761454 0 -0.036040138228151768 -0.022742184518084293 0 -0.038312518566257441 -0.022739404189761454 0 -0.035238703916436798 -0.023683223281808746 0 -0.038267671413143634 -0.023197625859959461 0 -0.037567850909700461 -0.023913156521883378 0 -0.038312518566257441 -0.022739404189761454 0 -0.034245468852695769 -0.024180078436447219 0 -0.035238703916436798 -0.023683223281808746 0 -0.038312518566257441 -0.022739404189761454 0 -0.040603493604476702 -0.023044840099630062 0 -0.040789908165518904 -0.023358375044412183 0 -0.040789908165518904 -0.023358375044412183 0 -0.04150022955880707 -0.024574034600097779 0 -0.041108287000545675 -0.023759660992627642 0 -0.040603493604476702 -0.023044840099630062 0 -0.040789908165518904 -0.023358375044412183 0 -0.04133302971470048 -0.023745688431885265 0 -0.041093128116676467 -0.023491422026193556 0 -0.041307335918360132 -0.024430020629403401 0 -0.040789908165518904 -0.023358375044412183 0 -0.041087124256665927 -0.02349394278448709 0 -0.041108287000545675 -0.023759660992627642 0 -0.038312518566257441 -0.022739404189761454 0 -0.040789908165518904 -0.023358375044412183 0 -0.041087124256665927 -0.02349394278448709 0 -0.034245468852695769 -0.024180078436447219 0 -0.035238703916436798 -0.023683223281808746 0 -0.034321553905540064 -0.025095962458547703 0 -0.04133302971470048 -0.023745688431885265 0 -0.041326005617944112 -0.023570849581251819 0 -0.041648680194538698 -0.024826283968348004 0 -0.041326005617944112 -0.023570849581251819 0 -0.041179877680075069 -0.024132830410169608 0 -0.041648680194538698 -0.024826283968348004 0 -0.040789908165518904 -0.023358375044412183 0 -0.04133302971470048 -0.023745688431885265 0 -0.041736797707261276 -0.024137978511893272 0 -0.040603493604476702 -0.023044840099630062 0 -0.041326005617944112 -0.023570849581251819 0 -0.041026184198604543 -0.022725850970341608 0 -0.040603493604476702 -0.023044840099630062 0 -0.04133302971470048 -0.023745688431885265 0 -0.041326005617944112 -0.023570849581251819 0 -0.041326005617944112 -0.023570849581251819 0 -0.041425371498769931 -0.022953440199871642 0 -0.041179877680075069 -0.024132830410169608 0 -0.040437393518888656 -0.023543062208356513 0 -0.041026184198604543 -0.022725850970341608 0 -0.041649559145414065 -0.021977026618909878 0 -0.041326005617944112 -0.023570849581251819 0 -0.041425371498769931 -0.022953440199871642 0 -0.041026184198604543 -0.022725850970341608 0 -0.041425371498769931 -0.022953440199871642 0 -0.041026184198604543 -0.022725850970341608 0 -0.041649559145414065 -0.021977026618909878 0 -0.040437393518888656 -0.023543062208356513 0 -0.039644693065528383 -0.023149846188326058 0 -0.041026184198604543 -0.022725850970341608 0 -0.039644693065528383 -0.023149846188326058 0 -0.040603493604476702 -0.023044840099630062 0 -0.041026184198604543 -0.022725850970341608 0 -0.041649559145414065 -0.021977026618909878 0 -0.041841939148047895 -0.021083003835389583 0 -0.041580702618588955 -0.020555929206281971 0 -0.041649559145414065 -0.021977026618909878 0 -0.041841939148047895 -0.021083003835389583 0 -0.041146671054935732 -0.022280675643416521 0 -0.041841939148047895 -0.021083003835389583 0 -0.041146671054935732 -0.022280675643416521 0 -0.043455979568115352 -0.020050940912560673 0 -0.044724913783063022 -0.020396490337573736 0 -0.046521136752738321 -0.020516386923421004 0 -0.043455979568115352 -0.020050940912560673 0 -0.043958070237417067 -0.021560730562205737 0 -0.043555793086745134 -0.020438303988957688 0 -0.044724913783063022 -0.020396490337573736 0 -0.046521136752738321 -0.020516386923421004 0 -0.047261604346843733 -0.021918158553364261 0 -0.046704462391147838 -0.020336724736449138 0 -0.048950444905135393 -0.021659252229409974 0 -0.048741813715660109 -0.020030624865580184 0 -0.05084971903375609 -0.02159135522609534 0 -0.049893133115774264 -0.02075740489573065 0 -0.041425371498769931 -0.022953440199871642 0 -0.041146671054935732 -0.022280675643416521 0 -0.041179877680075069 -0.024132830410169608 0 -0.043958070237417067 -0.021560730562205737 0 -0.044921896506015385 -0.0229758403363149 0 -0.041425371498769931 -0.022953440199871642 0 -0.041649559145414065 -0.021977026618909878 0 -0.041146671054935732 -0.022280675643416521 0 -0.046521136752738321 -0.020516386923421004 0 -0.048681290728399045 -0.021670514730535075 0 -0.047261604346843733 -0.021918158553364261 0 -0.048681290728399045 -0.021670514730535075 0 -0.047261604346843733 -0.021918158553364261 0 -0.050010163922738195 -0.0232605143468478 0 -0.05084971903375609 -0.02159135522609534 0 -0.050450375527724696 -0.023190578659880608 0 -0.050010163922738195 -0.0232605143468478 0 -0.048950444905135393 -0.021659252229409974 0 -0.049871993762106444 -0.023002773739418825 0 -0.048681290728399045 -0.021670514730535075 0 -0.050010163922738195 -0.0232605143468478 0 -0.049689211242655684 -0.022186692973552975 0 -0.044921896506015385 -0.0229758403363149 0 -0.045782549531411872 -0.023287444975209796 0 -0.049998982266575349 -0.02482885889978138 0 -0.050450375527724696 -0.023190578659880608 0 -0.050600589000440413 -0.024300401685293536 0 -0.049998982266575349 -0.02482885889978138 0 -0.050450375527724696 -0.023190578659880608 0 -0.049999040745812164 -0.02208607878901753 0 -0.050450375527724696 -0.023190578659880608 0 -0.050600589000440413 -0.024300401685293536 0 -0.050010163922738195 -0.0232605143468478 0 -0.05084971903375609 -0.02159135522609534 0 -0.050450375527724696 -0.023190578659880608 0 -0.05032090114642887 -0.021734814304042713 0 -0.050450375527724696 -0.023190578659880608 0 -0.05032090114642887 -0.021734814304042713 0 -0.049999040745812164 -0.02208607878901753 0 -0.049999040745812164 -0.02208607878901753 0 -0.050286420697124849 -0.020987977262231998 0 -0.049999046107541086 -0.019344524542864224 0 -0.05032090114642887 -0.021734814304042713 0 -0.049999040745812164 -0.02208607878901753 0 -0.050286420697124849 -0.020987977262231998 0 -0.05084971903375609 -0.02159135522609534 0 -0.05032090114642887 -0.021734814304042713 0 -0.049893133115774264 -0.02075740489573065 0 -0.05032090114642887 -0.021734814304042713 0 -0.050286420697124849 -0.020987977262231998 0 -0.049893133115774264 -0.02075740489573065 0 -0.050286420697124849 -0.020987977262231998 0 -0.049893133115774264 -0.02075740489573065 0 -0.050444364902396052 -0.019912816871082911 0 -0.048741813715660109 -0.020030624865580184 0 -0.049893133115774264 -0.02075740489573065 0 -0.04600755764933482 -0.019840151710441865 0 -0.049668923975939763 -0.02042356002178922 0 -0.048593687343761634 -0.018926171399981491 0 -0.049893133115774264 -0.02075740489573065 0 -0.050444364902396052 -0.019912816871082911 0 -0.051241398646285304 -0.018269173440386755 0 -0.050286420697124849 -0.020987977262231998 0 -0.049999046107541086 -0.019344524542864224 0 -0.050444364902396052 -0.019912816871082911 0 -0.049999046107541086 -0.019344524542864224 0 -0.050444364902396052 -0.019912816871082911 0 -0.051241398646285304 -0.018269173440386755 0 -0.049999046107541086 -0.019344524542864224 0 -0.049999958281651422 -0.016601440153202744 0 -0.051241398646285304 -0.018269173440386755 0 -0.049999958281651422 -0.016601440153202744 0 -0.051071005346779608 -0.01604084250258761 0 -0.051241398646285304 -0.018269173440386755 0 -0.048955064734138243 -0.017976882239451666 0 -0.048593687343761634 -0.018926171399981491 0 -0.048955064734138243 -0.017976882239451666 0 -0.049693451951012657 -0.016310126125230206 0 -0.049999958281651422 -0.016601440153202744 0 -0.051071005346779608 -0.01604084250258761 0 -0.050971889804476922 -0.015516516654146842 0 -0.045355396553815583 -0.020265532332749973 0 -0.04600755764933482 -0.019840151710441865 0 -0.044473624572800678 -0.019913887366870157 0 -0.045355396553815583 -0.020265532332749973 0 -0.04442786803947673 -0.020326851206637898 0 -0.044473624572800678 -0.019913887366870157 0 -0.048741813715660109 -0.020030624865580184 0 -0.04600755764933482 -0.019840151710441865 0 -0.044473624572800678 -0.019913887366870157 0 -0.044724913783063022 -0.020396490337573736 0 -0.043455979568115352 -0.020050940912560673 0 -0.044473624572800678 -0.019913887366870157 0 -0.046704462391147838 -0.020336724736449138 0 -0.0448800310201889 -0.020116303025194449 0 -0.043455979568115352 -0.020050940912560673 0 -0.044473624572800678 -0.019913887366870157 0 -0.042759165658181351 -0.019965766596452432 0 -0.043455979568115352 -0.020050940912560673 0 -0.041580702618588955 -0.020555929206281971 0 -0.042759165658181351 -0.019965766596452432 0 -0.041841939148047895 -0.021083003835389583 0 -0.043455979568115352 -0.020050940912560673 0 -0.041580702618588955 -0.020555929206281971 0 -0.041019052258988553 -0.019324554781554364 0 -0.041580702618588955 -0.020555929206281971 0 -0.042759165658181351 -0.019965766596452432 0 -0.041019052258988553 -0.019324554781554364 0 -0.042759165658181351 -0.019965766596452432 0 -0.0419239621212339 -0.019844743745817066 0 -0.042759165658181351 -0.019965766596452432 0 -0.04291528792372179 -0.020260990018767903 0 -0.0419239621212339 -0.019844743745817066 0 -0.040640899583662363 -0.019450174966783581 0 -0.041019052258988553 -0.019324554781554364 0 -0.0419239621212339 -0.019844743745817066 0 -0.044473624572800678 -0.019913887366870157 0 -0.042759165658181351 -0.019965766596452432 0 -0.043747672556500243 -0.020227569439375166 0 -0.042759165658181351 -0.019965766596452432 0 -0.043747672556500243 -0.020227569439375166 0 -0.04291528792372179 -0.020260990018767903 0 -0.04442786803947673 -0.020326851206637898 0 -0.044473624572800678 -0.019913887366870157 0 -0.043747672556500243 -0.020227569439375166 0 -0.04442786803947673 -0.020326851206637898 0 -0.043747672556500243 -0.020227569439375166 0 -0.043744682347086207 -0.020578398345832617 0 -0.043747672556500243 -0.020227569439375166 0 -0.043744682347086207 -0.020578398345832617 0 -0.04291528792372179 -0.020260990018767903 0 -0.043744682347086207 -0.020578398345832617 0 -0.04291528792372179 -0.020260990018767903 0 -0.04315534224008765 -0.020947379170709216 0 -0.04291528792372179 -0.020260990018767903 0 -0.04315534224008765 -0.020947379170709216 0 -0.041981708416842262 -0.020392724470162361 0 -0.043744682347086207 -0.020578398345832617 0 -0.04315534224008765 -0.020947379170709216 0 -0.044014959477622607 -0.021376166803646877 0 -0.040640899583662363 -0.019450174966783581 0 -0.0419239621212339 -0.019844743745817066 0 -0.041981708416842262 -0.020392724470162361 0 -0.04291528792372179 -0.020260990018767903 0 -0.0419239621212339 -0.019844743745817066 0 -0.041981708416842262 -0.020392724470162361 0 -0.047443705910510406 -0.012938381089707495 0 -0.047515412758712974 -0.013367811949068168 0 -0.047068934636171809 -0.013265470921786184 0 -0.044017898851957109 -0.016803501470699204 0 -0.044618860978935235 -0.017805244073782981 0 -0.040142053926663444 -0.020604523026380453 0 -0.041981708416842262 -0.020392724470162361 0 -0.042806542279396009 -0.021951791716569431 0 -0.044672470334646497 -0.022311817947834496 0 -0.042806542279396009 -0.021951791716569431 0 -0.044014959477622607 -0.021376166803646877 0 -0.047464587885126037 -0.015030774586117301 0 -0.044618860978935235 -0.017805244073782981 0 -0.04315534224008765 -0.020947379170709216 0 -0.042806542279396009 -0.021951791716569431 0 -0.044014959477622607 -0.021376166803646877 0 -0.04315534224008765 -0.020947379170709216 0 -0.041981708416842262 -0.020392724470162361 0 -0.042806542279396009 -0.021951791716569431 0 -0.047464587885126037 -0.015030774586117301 0 -0.047726338024671168 -0.01851356641391361 0 -0.051374577098771253 -0.012550071562579897 0 -0.05020431151605792 -0.013667334088481795 0 -0.050791988630180765 -0.014847759061292773 0 -0.044672470334646497 -0.022311817947834496 0 -0.044014959477622607 -0.021376166803646877 0 -0.044958138748914765 -0.021087678763355537 0 -0.050521202908105807 -0.012331638710203985 0 -0.051374577098771253 -0.012550071562579897 0 -0.05020431151605792 -0.013667334088481795 0 -0.049816187504990964 -0.012546476918855106 0 -0.05020431151605792 -0.013667334088481795 0 -0.048931623286417869 -0.013048553103779665 0 -0.049999996280129022 -0.011973463521581221 0 -0.0502491728217608 -0.012800184589761192 0 -0.050000006936260818 -0.013858484223356013 0 -0.049816187504990964 -0.012546476918855106 0 -0.050521202908105807 -0.012331638710203985 0 -0.05020431151605792 -0.013667334088481795 0 -0.050264960775073766 -0.012803698179416387 0 -0.049999893210574298 -0.013858662874279877 0 -0.050971889804476922 -0.015516516654146842 0 -0.05020431151605792 -0.013667334088481795 0 -0.048931623286417869 -0.013048553103779665 0 -0.049909759293860274 -0.016512431118288717 0 -0.049982833113797705 -0.012862569850299276 0 -0.049999990482727748 -0.013857977882246858 0 -0.049982833113797705 -0.012862569850299276 0 -0.049693451951012657 -0.016310126125230206 0 -0.05020431151605792 -0.013667334088481795 0 -0.049909759293860274 -0.016512431118288717 0 -0.050791988630180765 -0.014847759061292773 0 -0.049999958281651422 -0.016601440153202744 0 -0.049999893210574298 -0.013858662874279877 0 -0.050971889804476922 -0.015516516654146842 0 -0.048955064734138243 -0.017976882239451666 0 -0.047726338024671168 -0.01851356641391361 0 -0.050105444131297486 -0.01717761808009112 0 -0.049909759293860274 -0.016512431118288717 0 -0.050791988630180765 -0.014847759061292773 0 -0.045355396553815583 -0.020265532332749973 0 -0.04442786803947673 -0.020326851206637898 0 -0.044518492397026328 -0.020722053165066607 0 -0.045355396553815583 -0.020265532332749973 0 -0.044518492397026328 -0.020722053165066607 0 -0.044958138748914765 -0.021087678763355537 0 -0.04442786803947673 -0.020326851206637898 0 -0.043744682347086207 -0.020578398345832617 0 -0.044518492397026328 -0.020722053165066607 0 -0.044014959477622607 -0.021376166803646877 0 -0.044518492397026328 -0.020722053165066607 0 -0.044958138748914765 -0.021087678763355537 0 -0.043744682347086207 -0.020578398345832617 0 -0.044014959477622607 -0.021376166803646877 0 -0.044518492397026328 -0.020722053165066607 0 -0.049690587597108239 -0.035394280691972591 0 -0.04999728613992014 -0.036902345974312106 0 -0.04999802973369067 -0.032770591933722767 0 -0.049690587597108239 -0.035394280691972591 0 -0.049409631982336583 -0.03489122364915067 0 -0.049354026356378193 -0.036433417469620692 0 -0.049690587597108239 -0.035394280691972591 0 -0.049409631982336583 -0.03489122364915067 0 -0.049674130155921759 -0.033833606196873908 0 -0.049690587597108239 -0.035394280691972591 0 -0.04999728613992014 -0.036902345974312106 0 -0.049354026356378193 -0.036433417469620692 0 -0.04999728613992014 -0.036902345974312106 0 -0.049354026356378193 -0.036433417469620692 0 -0.049303690237781347 -0.038075595457672987 0 -0.049354026356378193 -0.036433417469620692 0 -0.049015829175354686 -0.037136911220654656 0 -0.049303690237781347 -0.038075595457672987 0 -0.049354026356378193 -0.036433417469620692 0 -0.049015829175354686 -0.037136911220654656 0 -0.048866509309157834 -0.036461700473780306 0 -0.049354026356378193 -0.036433417469620692 0 -0.048866509309157834 -0.036461700473780306 0 -0.049049491029773615 -0.035665254087166358 0 -0.049015829175354686 -0.037136911220654656 0 -0.048866509309157834 -0.036461700473780306 0 -0.048506946140862053 -0.036965537630223831 0 -0.04831119586832567 -0.036409080212927478 0 -0.047800101776217248 -0.036592977246695378 0 -0.048506946140862053 -0.036965537630223831 0 -0.048866509309157834 -0.036461700473780306 0 -0.04831119586832567 -0.036409080212927478 0 -0.048506946140862053 -0.036965537630223831 0 -0.048866509309157834 -0.036461700473780306 0 -0.04831119586832567 -0.036409080212927478 0 -0.048651196569298449 -0.036037501204596617 0 -0.04831119586832567 -0.036409080212927478 0 -0.047785235440614221 -0.036388418862147248 0 -0.047800101776217248 -0.036592977246695378 0 -0.048605482836031111 -0.035653866710076025 0 -0.048971217660746906 -0.035049322970983961 0 -0.047881780665947671 -0.035830221639357174 0 -0.04831119586832567 -0.036409080212927478 0 -0.048156703786797123 -0.036088210483589442 0 -0.047785235440614221 -0.036388418862147248 0 -0.04831119586832567 -0.036409080212927478 0 -0.048156703786797123 -0.036088210483589442 0 -0.048651196569298449 -0.036037501204596617 0 -0.048156703786797123 -0.036088210483589442 0 -0.048651196569298449 -0.036037501204596617 0 -0.048605482836031111 -0.035653866710076025 0 -0.048156703786797123 -0.036088210483589442 0 -0.048605482836031111 -0.035653866710076025 0 -0.047881780665947671 -0.035830221639357174 0 -0.048156703786797123 -0.036088210483589442 0 -0.047881780665947671 -0.035830221639357174 0 -0.047737933401504062 -0.036311858002498608 0 -0.049409631982336583 -0.03489122364915067 0 -0.049354026356378193 -0.036433417469620692 0 -0.049049491029773615 -0.035665254087166358 0 -0.048651196569298449 -0.036037501204596617 0 -0.048605482836031111 -0.035653866710076025 0 -0.049049491029773615 -0.035665254087166358 0 -0.048866509309157834 -0.036461700473780306 0 -0.048651196569298449 -0.036037501204596617 0 -0.049049491029773615 -0.035665254087166358 0 -0.048605482836031111 -0.035653866710076025 0 -0.049049491029773615 -0.035665254087166358 0 -0.048971217660746906 -0.035049322970983961 0 -0.049409631982336583 -0.03489122364915067 0 -0.049049491029773615 -0.035665254087166358 0 -0.048971217660746906 -0.035049322970983961 0 -0.047614767949782658 -0.033567279657929952 0 -0.049427229457454903 -0.033598023462404654 0 -0.049409631982336583 -0.03489122364915067 0 -0.048971217660746906 -0.035049322970983961 0 -0.049447967295232459 -0.033555200045803882 0 -0.048971217660746906 -0.035049322970983961 0 -0.047881780665947671 -0.035830221639357174 0 -0.049447967295232459 -0.033555200045803882 0 -0.047614767949782658 -0.033567279657929952 0 -0.050500096211175349 -0.031567684192167871 0 -0.048814554698740284 -0.031532005821088706 0 -0.049109574871941244 -0.032849547720017497 0 -0.049447967295232459 -0.033555200045803882 0 -0.047972326278393269 -0.029921380080466398 0 -0.047036983600032264 -0.031839904807693775 0 -0.046974260101732619 -0.029335889262572641 0 -0.046574351630266242 -0.030592262582929818 0 -0.045298180929463812 -0.034290357172865014 0 -0.047972326278393269 -0.029921380080466398 0 -0.047036983600032264 -0.031839904807693775 0 -0.05042523295490086 -0.032562564383164537 0 -0.047614767949782658 -0.033567279657929952 0 -0.045298180929463812 -0.034290357172865014 0 -0.047036983600032264 -0.031839904807693775 0 -0.05042523295490086 -0.032562564383164537 0 -0.046338506485712125 -0.03390935558363134 0 -0.047036983600032264 -0.031839904807693775 0 -0.046338506485712125 -0.03390935558363134 0 -0.043860122929545435 -0.032664969975555382 0 -0.049917501163916952 -0.032471230213945407 0 -0.046084865809356342 -0.033310918131761708 0 -0.047972326278393269 -0.029921380080466398 0 -0.05042523295490086 -0.032562564383164537 0 -0.051304038733654099 -0.0326547371960021 0 -0.05042523295490086 -0.032562564383164537 0 -0.051304038733654099 -0.0326547371960021 0 -0.046682627046736494 -0.034050550991719504 0 -0.050500096211175349 -0.031567684192167871 0 -0.05016317817326213 -0.031953503675698262 0 -0.049618432551687582 -0.033057187552820923 0 -0.049313590936040257 -0.032971456630109114 0 -0.049952819380443249 -0.031530241257580346 0 -0.050500096211175349 -0.031567684192167871 0 -0.050301862011815732 -0.030713551147762301 0 -0.049618432551687582 -0.033057187552820923 0 -0.04980194236086917 -0.032861441435471497 0 -0.049952819380443249 -0.031530241257580346 0 -0.049290740554579285 -0.032844610450595127 0 -0.049313590936040257 -0.032971456630109114 0 -0.049952819380443249 -0.031530241257580346 0 -0.049109574871941244 -0.032849547720017497 0 -0.049313590936040257 -0.032971456630109114 0 -0.049447967295232459 -0.033555200045803882 0 -0.049618432551687582 -0.033057187552820923 0 -0.049313590936040257 -0.032971456630109114 0 -0.049447967295232459 -0.033555200045803882 0 -0.049618432551687582 -0.033057187552820923 0 -0.049674130155921759 -0.033833606196873908 0 -0.04980194236086917 -0.032861441435471497 0 -0.049618432551687582 -0.033057187552820923 0 -0.049447967295232459 -0.033555200045803882 0 -0.049674130155921759 -0.033833606196873908 0 -0.049409631982336583 -0.03489122364915067 0 -0.049447967295232459 -0.033555200045803882 0 -0.049674130155921759 -0.033833606196873908 0 -0.049690587597108239 -0.035394280691972591 0 -0.049674130155921759 -0.033833606196873908 0 -0.04999802973369067 -0.032770591933722767 0 -0.049674130155921759 -0.033833606196873908 0 -0.04999802973369067 -0.032770591933722767 0 -0.04980194236086917 -0.032861441435471497 0 -0.04999802973369067 -0.032770591933722767 0 -0.04980194236086917 -0.032861441435471497 0 -0.049952819380443249 -0.031530241257580346 0 -0.049999864622143064 -0.029705706727828348 0 -0.050301862011815732 -0.030713551147762301 0 -0.04999802973369067 -0.032770591933722767 0 -0.049999007781859978 -0.029706878986212503 0 -0.049952819380443249 -0.031530241257580346 0 -0.05000019454674947 -0.029703786541526337 0 -0.051002829001925182 -0.030129809822630534 0 -0.050663070698589323 -0.029260952067889253 0 -0.051002829001925182 -0.030129809822630534 0 -0.050852576971042174 -0.029536079796810194 0 -0.050663070698589323 -0.029260952067889253 0 -0.05127298078959043 -0.030196421746210584 0 -0.051002829001925182 -0.030129809822630534 0 -0.050852576971042174 -0.029536079796810194 0 -0.050852576971042174 -0.029536079796810194 0 -0.050663070698589323 -0.029260952067889253 0 -0.050584489650418035 -0.029011686970045549 0 -0.05000019454674947 -0.029703786541526337 0 -0.050663070698589323 -0.029260952067889253 0 -0.049999520127665377 -0.027575228392276278 0 -0.04999995173780615 -0.027567150940490032 0 -0.050756528074785021 -0.024912871352282456 0 -0.050600589000440413 -0.024300401685293536 0 -0.050663070698589323 -0.029260952067889253 0 -0.049999520127665377 -0.027575228392276278 0 -0.050584489650418035 -0.029011686970045549 0 -0.049999680324803689 -0.027571962577636978 0 -0.050251971166171056 -0.026972761147905921 0 -0.050756528074785021 -0.024912871352282456 0 -0.050600589000440413 -0.024300401685293536 0 -0.050534624381744248 -0.023270413802578608 0 -0.049998982266575349 -0.02482885889978138 0 -0.04999995173780615 -0.027567150940490032 0 -0.050600589000440413 -0.024300401685293536 0 -0.050010163922738195 -0.0232605143468478 0 -0.050534624381744248 -0.023270413802578608 0 -0.05004371612004406 -0.022671670252837988 0 -0.050010163922738195 -0.0232605143468478 0 -0.05004371612004406 -0.022671670252837988 0 -0.049689211242655684 -0.022186692973552975 0 -0.050600589000440413 -0.024300401685293536 0 -0.050010163922738195 -0.0232605143468478 0 -0.050534624381744248 -0.023270413802578608 0 -0.050251971166171056 -0.026972761147905921 0 -0.051160623236673072 -0.02622610336399616 0 -0.051160623236673072 -0.02622610336399616 0 -0.04585301778177709 -0.028358088097709667 0 -0.050534624381744248 -0.023270413802578608 0 -0.05004371612004406 -0.022671670252837988 0 -0.050036666661850367 -0.022367189596637825 0 -0.046682627046736494 -0.034050550991719504 0 -0.044068808262910014 -0.034160340533809591 0 -0.043078185064688003 -0.035536931382810374 0 -0.050271242466601841 -0.029538817178674272 0 -0.050561740305206999 -0.029466473444338521 0 -0.049734256882974122 -0.029568618630545152 0 -0.048772323740697981 -0.03240055865409882 0 -0.04585301778177709 -0.028358088097709667 0 -0.050852576971042174 -0.029536079796810194 0 -0.050271242466601841 -0.029538817178674272 0 -0.050561740305206999 -0.029466473444338521 0 -0.050852576971042174 -0.029536079796810194 0 -0.050584489650418035 -0.029011686970045549 0 -0.050271242466601841 -0.029538817178674272 0 -0.050500096211175349 -0.031567684192167871 0 -0.048772323740697981 -0.03240055865409882 0 -0.05127298078959043 -0.030196421746210584 0 -0.050852576971042174 -0.029536079796810194 0 -0.050561740305206999 -0.029466473444338521 0 -0.05042523295490086 -0.032562564383164537 0 -0.046682627046736494 -0.034050550991719504 0 -0.04565686844967385 -0.032725188471627135 0 -0.046682627046736494 -0.034050550991719504 0 -0.04565686844967385 -0.032725188471627135 0 -0.044068808262910014 -0.034160340533809591 0 -0.04565686844967385 -0.032725188471627135 0 -0.042396486084254496 -0.033783243601733924 0 -0.044068808262910014 -0.034160340533809591 0 -0.046338506485712125 -0.03390935558363134 0 -0.042305746641037048 -0.033625277544331811 0 -0.043860122929545435 -0.032664969975555382 0 -0.046084865809356342 -0.033310918131761708 0 -0.042502004703519773 -0.033622016938921605 0 -0.041523725329931933 -0.0324231710710755 0 -0.042305746641037048 -0.033625277544331811 0 -0.040525544232638634 -0.032250213529808266 0 -0.041523725329931933 -0.0324231710710755 0 -0.042305746641037048 -0.033625277544331811 0 -0.043860122929545435 -0.032664969975555382 0 -0.042305746641037048 -0.033625277544331811 0 -0.039599905544226127 -0.031621206736999599 0 -0.040525544232638634 -0.032250213529808266 0 -0.042502004703519773 -0.033622016938921605 0 -0.04042074648392905 -0.032460890384284194 0 -0.042281970853229447 -0.034624795102714032 0 -0.041437827093606626 -0.034674172853173903 0 -0.041258544540318763 -0.03405883800687165 0 -0.042396486084254496 -0.033783243601733924 0 -0.042281970853229447 -0.034624795102714032 0 -0.041258544540318763 -0.03405883800687165 0 -0.042281970853229447 -0.034624795102714032 0 -0.043078185064688003 -0.035536931382810374 0 -0.041437827093606626 -0.034674172853173903 0 -0.042281970853229447 -0.034624795102714032 0 -0.044068808262910014 -0.034160340533809591 0 -0.043078185064688003 -0.035536931382810374 0 -0.042396486084254496 -0.033783243601733924 0 -0.042281970853229447 -0.034624795102714032 0 -0.044068808262910014 -0.034160340533809591 0 -0.05004371612004406 -0.022671670252837988 0 -0.050036666661850367 -0.022367189596637825 0 -0.049974444467439698 -0.022306993790199594 0 -0.043199672054879699 -0.024584992858202079 0 -0.042917040419902283 -0.02471772776587508 0 -0.042214691452908307 -0.024230956985927098 0 -0.04585301778177709 -0.028358088097709667 0 -0.04471733140725441 -0.02478331573441293 0 -0.042917040419902283 -0.02471772776587508 0 -0.042214691452908307 -0.024230956985927098 0 -0.042340658973082194 -0.024553422419795221 0 -0.042917040419902283 -0.02471772776587508 0 -0.042340658973082194 -0.024553422419795221 0 -0.04150022955880707 -0.024574034600097779 0 -0.04471733140725441 -0.02478331573441293 0 -0.041307335918360132 -0.024430020629403401 0 -0.04585301778177709 -0.028358088097709667 0 -0.041441545205289657 -0.029443383971518543 0 -0.042214691452908307 -0.024230956985927098 0 -0.041934025711660369 -0.024445969559248472 0 -0.041684541373327555 -0.024365285206548435 0 -0.042214691452908307 -0.024230956985927098 0 -0.041934025711660369 -0.024445969559248472 0 -0.042340658973082194 -0.024553422419795221 0 -0.041934025711660369 -0.024445969559248472 0 -0.04150022955880707 -0.024574034600097779 0 -0.041684541373327555 -0.024365285206548435 0 -0.041934025711660369 -0.024445969559248472 0 -0.042340658973082194 -0.024553422419795221 0 -0.04150022955880707 -0.024574034600097779 0 -0.04133302971470048 -0.023745688431885265 0 -0.041736797707261276 -0.024137978511893272 0 -0.041648680194538698 -0.024826283968348004 0 -0.04471733140725441 -0.02478331573441293 0 -0.045782549531411872 -0.023287444975209796 0 -0.05004371612004406 -0.022671670252837988 0 -0.049974444467439698 -0.022306993790199594 0 -0.049689211242655684 -0.022186692973552975 0 -0.042300064455434307 -0.024826122991467529 0 -0.041736797707261276 -0.024137978511893272 0 -0.041648680194538698 -0.024826283968348004 0 -0.041087124256665927 -0.02349394278448709 0 -0.041346512480645851 -0.024118734877046268 0 -0.041668887205696122 -0.024359504264195128 0 -0.034245468852695769 -0.024180078436447219 0 -0.033680386715694385 -0.026622422577412271 0 -0.032679258059488077 -0.028290607029407396 0 -0.034245468852695769 -0.024180078436447219 0 -0.033680386715694385 -0.026622422577412271 0 -0.034321553905540064 -0.025095962458547703 0 -0.037567850909700461 -0.023913156521883378 0 -0.038142013805839141 -0.026980880828863452 0 -0.033680386715694385 -0.026622422577412271 0 -0.034321553905540064 -0.025095962458547703 0 -0.034086602187829967 -0.026038149980402523 0 -0.041087124256665927 -0.02349394278448709 0 -0.041108287000545675 -0.023759660992627642 0 -0.041346512480645851 -0.024118734877046268 0 -0.04150022955880707 -0.024574034600097779 0 -0.041346512480645851 -0.024118734877046268 0 -0.041684541373327555 -0.024365285206548435 0 -0.04150022955880707 -0.024574034600097779 0 -0.041108287000545675 -0.023759660992627642 0 -0.041346512480645851 -0.024118734877046268 0 -0.042214691452908307 -0.024230956985927098 0 -0.041684541373327555 -0.024365285206548435 0 -0.041710000117682153 -0.024255948398388655 0 -0.041346512480645851 -0.024118734877046268 0 -0.041578009751729719 -0.024296731067262541 0 -0.041684541373327555 -0.024365285206548435 0 -0.041441545205289657 -0.029443383971518543 0 -0.041589633875248208 -0.029598520455894249 0 -0.041578009751729719 -0.024296731067262541 0 -0.041684541373327555 -0.024365285206548435 0 -0.041710000117682153 -0.024255948398388655 0 -0.039429785043019111 -0.030095974466136644 0 -0.040574692029946485 -0.027905986713581663 0 -0.03983877163690825 -0.0305290130522392 0 -0.041589633875248208 -0.029598520455894249 0 -0.038142013805839141 -0.026980880828863452 0 -0.041578009751729719 -0.024296731067262541 0 -0.041710000117682153 -0.024255948398388655 0 -0.041668887205696122 -0.024359504264195128 0 -0.041346512480645851 -0.024118734877046268 0 -0.041578009751729719 -0.024296731067262541 0 -0.041668887205696122 -0.024359504264195128 0 -0.033680386715694385 -0.026622422577412271 0 -0.033295026565627453 -0.027634425274342782 0 -0.032679258059488077 -0.028290607029407396 0 -0.033680386715694385 -0.026622422577412271 0 -0.033295026565627453 -0.027634425274342782 0 -0.033692934451990772 -0.027413578188498114 0 -0.037474801315193672 -0.027299681461930139 0 -0.038142013805839141 -0.026980880828863452 0 -0.033295026565627453 -0.027634425274342782 0 -0.033117946243246682 -0.028275939407622422 0 -0.032679258059488077 -0.028290607029407396 0 -0.033295026565627453 -0.027634425274342782 0 -0.033117946243246682 -0.028275939407622422 0 -0.033692934451990772 -0.027413578188498114 0 -0.033117946243246682 -0.028275939407622422 0 -0.032900909668793603 -0.028675608300472999 0 -0.034098622256315554 -0.02887985354933098 0 -0.032900909668793603 -0.028675608300472999 0 -0.033709352446504325 -0.03126365010643635 0 -0.034098622256315554 -0.02887985354933098 0 -0.038142013805839141 -0.026980880828863452 0 -0.036900921072780604 -0.031037700129114595 0 -0.040290033278201291 -0.030603651836495792 0 -0.03983877163690825 -0.0305290130522392 0 -0.039948018210909063 -0.031470663052800517 0 -0.040574692029946485 -0.027905986713581663 0 -0.040290033278201291 -0.030603651836495792 0 -0.03983877163690825 -0.0305290130522392 0 -0.041437827093606626 -0.034674172853173903 0 -0.041195893197584953 -0.033606646672391313 0 -0.041258544540318763 -0.03405883800687165 0 -0.041589633875248208 -0.029598520455894249 0 -0.04042074648392905 -0.032460890384284194 0 -0.039429785043019111 -0.030095974466136644 0 -0.03983877163690825 -0.0305290130522392 0 -0.039599905544226127 -0.031621206736999599 0 -0.03983877163690825 -0.0305290130522392 0 -0.039599905544226127 -0.031621206736999599 0 -0.039948018210909063 -0.031470663052800517 0 -0.039599905544226127 -0.031621206736999599 0 -0.039948018210909063 -0.031470663052800517 0 -0.040525544232638634 -0.032250213529808266 0 -0.041523725329931933 -0.0324231710710755 0 -0.040525544232638634 -0.032250213529808266 0 -0.04009903364900639 -0.031993247398265971 0 -0.039948018210909063 -0.031470663052800517 0 -0.040525544232638634 -0.032250213529808266 0 -0.04009903364900639 -0.031993247398265971 0 -0.040290033278201291 -0.030603651836495792 0 -0.04009903364900639 -0.031993247398265971 0 -0.039380515234875201 -0.031717804169691957 0 -0.036900921072780604 -0.031037700129114595 0 -0.037138114617884105 -0.031692988476166514 0 -0.040290033278201291 -0.030603651836495792 0 -0.039948018210909063 -0.031470663052800517 0 -0.04009903364900639 -0.031993247398265971 0 -0.04009903364900639 -0.031993247398265971 0 -0.039380515234875201 -0.031717804169691957 0 -0.040110621061786901 -0.03184805112183401 0 -0.039380515234875201 -0.031717804169691957 0 -0.040110621061786901 -0.03184805112183401 0 -0.037196541242240734 -0.03224618856853944 0 -0.040110621061786901 -0.03184805112183401 0 -0.0392419327006404 -0.030899162119575906 0 -0.037196541242240734 -0.03224618856853944 0 -0.040110621061786901 -0.03184805112183401 0 -0.041255762852276362 -0.031985010723132007 0 -0.0426867259721075 -0.031272940827703925 0 -0.040110621061786901 -0.03184805112183401 0 -0.042505060716513256 -0.030219846074151169 0 -0.0392419327006404 -0.030899162119575906 0 -0.04009903364900639 -0.031993247398265971 0 -0.040110621061786901 -0.03184805112183401 0 -0.041255762852276362 -0.031985010723132007 0 -0.041523725329931933 -0.0324231710710755 0 -0.04009903364900639 -0.031993247398265971 0 -0.041255762852276362 -0.031985010723132007 0 -0.041523725329931933 -0.0324231710710755 0 -0.042764173568537435 -0.031964020226871268 0 -0.041255762852276362 -0.031985010723132007 0 -0.041523725329931933 -0.0324231710710755 0 -0.042764173568537435 -0.031964020226871268 0 -0.043860122929545435 -0.032664969975555382 0 -0.042764173568537435 -0.031964020226871268 0 -0.044417215220178011 -0.031469309445565613 0 -0.0426867259721075 -0.031272940827703925 0 -0.042764173568537435 -0.031964020226871268 0 -0.041255762852276362 -0.031985010723132007 0 -0.0426867259721075 -0.031272940827703925 0 -0.042764173568537435 -0.031964020226871268 0 -0.043860122929545435 -0.032664969975555382 0 -0.044417215220178011 -0.031469309445565613 0 -0.047036983600032264 -0.031839904807693775 0 -0.043860122929545435 -0.032664969975555382 0 -0.044417215220178011 -0.031469309445565613 0 -0.044417215220178011 -0.031469309445565613 0 -0.045254652615914263 -0.030232924960023718 0 -0.0426867259721075 -0.031272940827703925 0 -0.047036983600032264 -0.031839904807693775 0 -0.044417215220178011 -0.031469309445565613 0 -0.045254652615914263 -0.030232924960023718 0 -0.044611456850319628 -0.036101590042057201 0 -0.047479526107171696 -0.036313288650354665 0 -0.049105985443617182 -0.038580279708450467 0 -0.040110621061786901 -0.03184805112183401 0 -0.0426867259721075 -0.031272940827703925 0 -0.042505060716513256 -0.030219846074151169 0 -0.045254652615914263 -0.030232924960023718 0 -0.0426867259721075 -0.031272940827703925 0 -0.042505060716513256 -0.030219846074151169 0 -0.04141864161438065 -0.038949605160880155 0 -0.040438469533412305 -0.039742142286676024 0 -0.040044630282424623 -0.037897830938493825 0 -0.04141864161438065 -0.038949605160880155 0 -0.040438469533412305 -0.039742142286676024 0 -0.042563113226140072 -0.039815319913752409 0 -0.045298180929463812 -0.034290357172865014 0 -0.04131991347452036 -0.03510671643183632 0 -0.042948733152428316 -0.040857605207056037 0 -0.040438469533412305 -0.039742142286676024 0 -0.042563113226140072 -0.039815319913752409 0 -0.047614767949782658 -0.033567279657929952 0 -0.046463473547458951 -0.037862193422709418 0 -0.045298180929463812 -0.034290357172865014 0 -0.046463473547458951 -0.037862193422709418 0 -0.048156703786797123 -0.036088210483589442 0 -0.047737933401504062 -0.036311858002498608 0 -0.047785235440614221 -0.036388418862147248 0 -0.047737933401504062 -0.036311858002498608 0 -0.047785235440614221 -0.036388418862147248 0 -0.046419414752967236 -0.036273971153852766 0 -0.047785235440614221 -0.036388418862147248 0 -0.047800101776217248 -0.036592977246695378 0 -0.046419414752967236 -0.036273971153852766 0 -0.046463473547458951 -0.037862193422709418 0 -0.044115895532719988 -0.037110146152751662 0 -0.042364613160515867 -0.038390113376865466 0 -0.040044630282424623 -0.037897830938493825 0 -0.041119770003574307 -0.037022525496055066 0 -0.04141864161438065 -0.038949605160880155 0 -0.042563113226140072 -0.039815319913752409 0 -0.042364613160515867 -0.038390113376865466 0 -0.04141864161438065 -0.038949605160880155 0 -0.042364613160515867 -0.038390113376865466 0 -0.040044630282424623 -0.037897830938493825 0 -0.040044630282424623 -0.037897830938493825 0 -0.039178056671716727 -0.036560362694838186 0 -0.041119770003574307 -0.037022525496055066 0 -0.040044630282424623 -0.037897830938493825 0 -0.039178056671716727 -0.036560362694838186 0 -0.037603105665833331 -0.036282455887403357 0 -0.039178056671716727 -0.036560362694838186 0 -0.037603105665833331 -0.036282455887403357 0 -0.037060957039308534 -0.035630444535622433 0 -0.040044630282424623 -0.037897830938493825 0 -0.037603105665833331 -0.036282455887403357 0 -0.037724709276456186 -0.037889890134651064 0 -0.037603105665833331 -0.036282455887403357 0 -0.037724709276456186 -0.037889890134651064 0 -0.036259069504437053 -0.033901479141236306 0 -0.040438469533412305 -0.039742142286676024 0 -0.040044630282424623 -0.037897830938493825 0 -0.037724709276456186 -0.037889890134651064 0 -0.04131991347452036 -0.03510671643183632 0 -0.038771592864330413 -0.034433354726415281 0 -0.036259069504437053 -0.033901479141236306 0 -0.035636046636519418 -0.033550901048952482 0 -0.035610816401354294 -0.032343283626264464 0 -0.0392419327006404 -0.030899162119575906 0 -0.036259069504437053 -0.033901479141236306 0 -0.037196541242240734 -0.03224618856853944 0 -0.036259069504437053 -0.033901479141236306 0 -0.035610816401354294 -0.032343283626264464 0 -0.037196541242240734 -0.03224618856853944 0 -0.038771592864330413 -0.034433354726415281 0 -0.03677705260915231 -0.034020691349341263 0 -0.037603105665833331 -0.036282455887403357 0 -0.036259069504437053 -0.033901479141236306 0 -0.037060957039308534 -0.035630444535622433 0 -0.036259069504437053 -0.033901479141236306 0 -0.036005458616130567 -0.034561211492610738 0 -0.037060957039308534 -0.035630444535622433 0 -0.036259069504437053 -0.033901479141236306 0 -0.036005458616130567 -0.034561211492610738 0 -0.035636046636519418 -0.033550901048952482 0 -0.036005458616130567 -0.034561211492610738 0 -0.035636046636519418 -0.033550901048952482 0 -0.035602393183489789 -0.034834305534555424 0 -0.035636046636519418 -0.033550901048952482 0 -0.034969907345188143 -0.03290122171445805 0 -0.035384327534042984 -0.03407014830370015 0 -0.035636046636519418 -0.033550901048952482 0 -0.035384327534042984 -0.03407014830370015 0 -0.035602393183489789 -0.034834305534555424 0 -0.035636046636519418 -0.033550901048952482 0 -0.035616518235973803 -0.032238213009666665 0 -0.034969907345188143 -0.03290122171445805 0 -0.035636046636519418 -0.033550901048952482 0 -0.035616518235973803 -0.032238213009666665 0 -0.035610816401354294 -0.032343283626264464 0 -0.035616518235973803 -0.032238213009666665 0 -0.035542621659569125 -0.030717983307711583 0 -0.035610816401354294 -0.032343283626264464 0 -0.035616518235973803 -0.032238213009666665 0 -0.03625533399667167 -0.030624727621134322 0 -0.034969907345188143 -0.03290122171445805 0 -0.035616518235973803 -0.032238213009666665 0 -0.03625533399667167 -0.030624727621134322 0 -0.035542621659569125 -0.030717983307711583 0 -0.034202414082325529 -0.030937974399166481 0 -0.03333207120435977 -0.028987251096459062 0 -0.03625533399667167 -0.030624727621134322 0 -0.035542621659569125 -0.030717983307711583 0 -0.036030454895315402 -0.028450582973010376 0 -0.035542621659569125 -0.030717983307711583 0 -0.035199765641350807 -0.030944845250154746 0 -0.035610816401354294 -0.032343283626264464 0 -0.035199765641350807 -0.030944845250154746 0 -0.035610816401354294 -0.032343283626264464 0 -0.035608902159534578 -0.032102106898310591 0 -0.037138114617884105 -0.031692988476166514 0 -0.037167895998371898 -0.031974850989442 0 -0.035610816401354294 -0.032343283626264464 0 -0.037196541242240734 -0.03224618856853944 0 -0.035608902159534578 -0.032102106898310591 0 -0.034941430965071636 -0.032163034365585964 0 -0.037196541242240734 -0.03224618856853944 0 -0.035608902159534578 -0.032102106898310591 0 -0.034941430965071636 -0.032163034365585964 0 -0.035608902159534578 -0.032102106898310591 0 -0.034631422167213932 -0.031138407620192082 0 -0.035199765641350807 -0.030944845250154746 0 -0.035608902159534578 -0.032102106898310591 0 -0.034631422167213932 -0.031138407620192082 0 -0.033709352446504325 -0.03126365010643635 0 -0.034631422167213932 -0.031138407620192082 0 -0.034753962898502272 -0.029592752566825271 0 -0.033709352446504325 -0.03126365010643635 0 -0.034941430965071636 -0.032163034365585964 0 -0.034631422167213932 -0.031138407620192082 0 -0.035199765641350807 -0.030944845250154746 0 -0.034753962898502272 -0.029592752566825271 0 -0.035148329991103858 -0.029109091184750087 0 -0.035199765641350807 -0.030944845250154746 0 -0.034631422167213932 -0.031138407620192082 0 -0.034753962898502272 -0.029592752566825271 0 -0.034753962898502272 -0.029592752566825271 0 -0.034742880153046565 -0.028025309827902804 0 -0.035148329991103858 -0.029109091184750087 0 -0.034753962898502272 -0.029592752566825271 0 -0.034742880153046565 -0.028025309827902804 0 -0.034559647237730265 -0.028303514511828266 0 -0.033709352446504325 -0.03126365010643635 0 -0.034753962898502272 -0.029592752566825271 0 -0.034098622256315554 -0.02887985354933098 0 -0.034753962898502272 -0.029592752566825271 0 -0.034098622256315554 -0.02887985354933098 0 -0.034559647237730265 -0.028303514511828266 0 -0.033117946243246682 -0.028275939407622422 0 -0.034098622256315554 -0.02887985354933098 0 -0.034058902283771703 -0.027922952852278828 0 -0.033117946243246682 -0.028275939407622422 0 -0.034058902283771703 -0.027922952852278828 0 -0.033692934451990772 -0.027413578188498114 0 -0.034058902283771703 -0.027922952852278828 0 -0.034076461205644004 -0.027176282917073368 0 -0.033692934451990772 -0.027413578188498114 0 -0.034076461205644004 -0.027176282917073368 0 -0.033692934451990772 -0.027413578188498114 0 -0.034161299286236159 -0.026478720829311526 0 -0.034058902283771703 -0.027922952852278828 0 -0.034424066070282824 -0.027724522323047437 0 -0.034472755679853098 -0.026708816400416995 0 -0.034058902283771703 -0.027922952852278828 0 -0.034076461205644004 -0.027176282917073368 0 -0.034472755679853098 -0.026708816400416995 0 -0.034098622256315554 -0.02887985354933098 0 -0.034424066070282824 -0.027724522323047437 0 -0.034559647237730265 -0.028303514511828266 0 -0.034098622256315554 -0.02887985354933098 0 -0.034058902283771703 -0.027922952852278828 0 -0.034424066070282824 -0.027724522323047437 0 -0.034424066070282824 -0.027724522323047437 0 -0.034559647237730265 -0.028303514511828266 0 -0.034498393356626224 -0.027339458243965914 0 -0.034498393356626224 -0.027339458243965914 0 -0.034472755679853098 -0.026708816400416995 0 -0.034071725028237236 -0.026455235035179121 0 -0.034742880153046565 -0.028025309827902804 0 -0.034498393356626224 -0.027339458243965914 0 -0.034464930228721574 -0.027170090489295112 0 -0.034742880153046565 -0.028025309827902804 0 -0.034559647237730265 -0.028303514511828266 0 -0.034498393356626224 -0.027339458243965914 0 -0.034424066070282824 -0.027724522323047437 0 -0.034498393356626224 -0.027339458243965914 0 -0.034472755679853098 -0.026708816400416995 0 -0.034331355064202901 -0.025740193217815472 0 -0.034569968890591808 -0.025265391668439423 0 -0.034407354839174099 -0.026142212873584834 0 -0.034569968890591808 -0.025265391668439423 0 -0.034472755679853098 -0.026708816400416995 0 -0.034071725028237236 -0.026455235035179121 0 -0.034382385081191465 -0.025464579900573336 0 -0.034408583738459043 -0.026240486205464229 0 -0.034569968890591808 -0.025265391668439423 0 -0.034472755679853098 -0.026708816400416995 0 -0.034434498106985456 -0.025979840848570412 0 -0.034569968890591808 -0.025265391668439423 0 -0.034480992625560307 -0.025546771879724674 0 -0.034434498106985456 -0.025979840848570412 0 -0.034687153021540483 -0.024873081372326959 0 -0.034569968890591808 -0.025265391668439423 0 -0.034480992625560307 -0.025546771879724674 0 -0.034687153021540483 -0.024873081372326959 0 -0.034321553905540064 -0.025095962458547703 0 -0.034480992625560307 -0.025546771879724674 0 -0.034321553905540064 -0.025095962458547703 0 -0.034480992625560307 -0.025546771879724674 0 -0.034086602187829967 -0.026038149980402523 0 -0.034076461205644004 -0.027176282917073368 0 -0.034161299286236159 -0.026478720829311526 0 -0.034472755679853098 -0.026708816400416995 0 -0.034480992625560307 -0.025546771879724674 0 -0.034161299286236159 -0.026478720829311526 0 -0.034434498106985456 -0.025979840848570412 0 -0.033680386715694385 -0.026622422577412271 0 -0.034086602187829967 -0.026038149980402523 0 -0.034161299286236159 -0.026478720829311526 0 -0.034480992625560307 -0.025546771879724674 0 -0.034086602187829967 -0.026038149980402523 0 -0.034161299286236159 -0.026478720829311526 0 -0.033680386715694385 -0.026622422577412271 0 -0.033692934451990772 -0.027413578188498114 0 -0.034161299286236159 -0.026478720829311526 0 -0.034161299286236159 -0.026478720829311526 0 -0.034472755679853098 -0.026708816400416995 0 -0.034434498106985456 -0.025979840848570412 0 -0.034284074222260298 -0.022844793913861065 0 -0.035325848059755846 -0.022820069170725297 0 -0.034247711242571685 -0.023087003111178436 0 -0.035297116529257905 -0.022909444158439995 0 -0.034778281559738902 -0.022630545994943008 0 -0.035325848059755846 -0.022820069170725297 0 -0.035815855745392651 -0.022458539928153408 0 -0.035181640381804435 -0.022107648230432125 0 -0.033832334848992958 -0.022900295366863905 0 -0.034247711242571685 -0.023087003111178436 0 -0.03361561837140993 -0.023019359969901121 0 -0.033832334848992958 -0.022900295366863905 0 -0.034284074222260298 -0.022844793913861065 0 -0.034247711242571685 -0.023087003111178436 0 -0.033837204700387334 -0.022736987649694118 0 -0.033832334848992958 -0.022900295366863905 0 -0.034284074222260298 -0.022844793913861065 0 -0.034302645043295457 -0.022774136023866402 0 -0.034284074222260298 -0.022844793913861065 0 -0.035325848059755846 -0.022820069170725297 0 -0.035325848059755846 -0.022820069170725297 0 -0.035751377528034804 -0.023028115245124971 0 -0.035815855745392651 -0.022458539928153408 0 -0.036486307493741044 -0.023358976289398922 0 -0.035751377528034804 -0.023028115245124971 0 -0.035815855745392651 -0.022458539928153408 0 -0.035354516725131367 -0.024439824351646506 0 -0.034968647366296665 -0.0242876820739273 0 -0.034980043283573896 -0.0228526217576994 0 -0.035325848059755846 -0.022820069170725297 0 -0.035751377528034804 -0.023028115245124971 0 -0.034331355064202901 -0.025740193217815472 0 -0.034407354839174099 -0.026142212873584834 0 -0.034317288692023572 -0.026297216802887238 0 -0.034408583738459043 -0.026240486205464229 0 -0.032897137959467658 -0.027130396608624943 0 -0.034071725028237236 -0.026455235035179121 0 -0.034464930228721574 -0.027170090489295112 0 -0.034185572338367581 -0.026726773404686405 0 -0.034407354839174099 -0.026142212873584834 0 -0.034317288692023572 -0.026297216802887238 0 -0.034313551204279875 -0.026216202702576238 0 -0.034498393356626224 -0.027339458243965914 0 -0.034071725028237236 -0.026455235035179121 0 -0.034464930228721574 -0.027170090489295112 0 -0.034742880153046565 -0.028025309827902804 0 -0.034464930228721574 -0.027170090489295112 0 -0.034912111603792269 -0.027821835291616553 0 -0.034464930228721574 -0.027170090489295112 0 -0.034185572338367581 -0.026726773404686405 0 -0.034912111603792269 -0.027821835291616553 0 -0.034317288692023572 -0.026297216802887238 0 -0.033621928125075869 -0.025855844063131544 0 -0.031675538808717103 -0.025108280053611442 0 -0.035815855745392651 -0.022458539928153408 0 -0.035181640381804435 -0.022107648230432125 0 -0.034667336165715532 -0.021303358789780426 0 -0.030680502380290568 -0.027558384798043175 0 -0.031058853171045422 -0.028004147212882413 0 -0.031327318765866197 -0.027865133703268513 0 -0.034968647366296665 -0.0242876820739273 0 -0.033254638933883231 -0.023540410060405612 0 -0.032094354891089021 -0.026777606222633265 0 -0.032336300912784145 -0.025598051989699638 0 -0.030399136710049197 -0.027378003375789915 0 -0.030680502380290568 -0.027558384798043175 0 -0.030915420470824326 -0.028186473929392063 0 -0.034317288692023572 -0.026297216802887238 0 -0.034313551204279875 -0.026216202702576238 0 -0.033621928125075869 -0.025855844063131544 0 -0.032897137959467658 -0.027130396608624943 0 -0.032094354891089021 -0.026777606222633265 0 -0.030680502380290568 -0.027558384798043175 0 -0.030915420470824326 -0.028186473929392063 0 -0.031058853171045422 -0.028004147212882413 0 -0.032897137959467658 -0.027130396608624943 0 -0.03333207120435977 -0.028987251096459062 0 -0.030915420470824326 -0.028186473929392063 0 -0.031058853171045422 -0.028004147212882413 0 -0.031325448791515817 -0.028351210678781887 0 -0.034185572338367581 -0.026726773404686405 0 -0.034912111603792269 -0.027821835291616553 0 -0.036030454895315402 -0.028450582973010376 0 -0.030399136710049197 -0.027378003375789915 0 -0.030915420470824326 -0.028186473929392063 0 -0.030854568831469358 -0.02949623697570164 0 -0.030915420470824326 -0.028186473929392063 0 -0.030854568831469358 -0.02949623697570164 0 -0.031325448791515817 -0.028351210678781887 0 -0.034912111603792269 -0.027821835291616553 0 -0.035148329991103858 -0.029109091184750087 0 -0.036030454895315402 -0.028450582973010376 0 -0.034742880153046565 -0.028025309827902804 0 -0.034912111603792269 -0.027821835291616553 0 -0.035148329991103858 -0.029109091184750087 0 -0.035542621659569125 -0.030717983307711583 0 -0.035148329991103858 -0.029109091184750087 0 -0.036030454895315402 -0.028450582973010376 0 -0.035542621659569125 -0.030717983307711583 0 -0.035199765641350807 -0.030944845250154746 0 -0.035148329991103858 -0.029109091184750087 0 -0.032130505348941983 -0.031456701769106803 0 -0.030854568831469358 -0.02949623697570164 0 -0.031900906800650414 -0.029572997244441807 0 -0.030854568831469358 -0.02949623697570164 0 -0.031900906800650414 -0.029572997244441807 0 -0.03166831516279154 -0.028723007809275038 0 -0.031900906800650414 -0.029572997244441807 0 -0.032031562179758763 -0.028525929731597399 0 -0.032666540507038398 -0.029688628319582713 0 -0.031795243867089547 -0.028271981862217858 0 -0.03166831516279154 -0.028723007809275038 0 -0.032031562179758763 -0.028525929731597399 0 -0.031900906800650414 -0.029572997244441807 0 -0.03166831516279154 -0.028723007809275038 0 -0.032031562179758763 -0.028525929731597399 0 -0.03249820018991189 -0.028476663717316966 0 -0.031791964978129569 -0.027765757477650286 0 -0.032993415322630691 -0.027569746942104463 0 -0.03249820018991189 -0.028476663717316966 0 -0.032031562179758763 -0.028525929731597399 0 -0.032666540507038398 -0.029688628319582713 0 -0.03249820018991189 -0.028476663717316966 0 -0.032031562179758763 -0.028525929731597399 0 -0.031791964978129569 -0.027765757477650286 0 -0.031795243867089547 -0.028271981862217858 0 -0.032031562179758763 -0.028525929731597399 0 -0.031791964978129569 -0.027765757477650286 0 -0.03202971555872753 -0.027751543440151075 0 -0.03280750879104477 -0.02765568771049674 0 -0.03219201685356117 -0.027345843106363205 0 -0.032545488458138358 -0.027017005685179969 0 -0.032993415322630691 -0.027569746942104463 0 -0.031900176906852526 -0.027265100274161506 0 -0.03219201685356117 -0.027345843106363205 0 -0.032545488458138358 -0.027017005685179969 0 -0.03315694712416882 -0.02444068929329293 0 -0.03328564673829764 -0.024188603443245853 0 -0.033133846099884387 -0.024800870689225124 0 -0.033384958410571139 -0.024925409574429878 0 -0.033871720365287156 -0.024552193874159318 0 -0.03328564673829764 -0.024188603443245853 0 -0.033133846099884387 -0.024800870689225124 0 -0.033111884724233112 -0.025737354908497219 0 -0.034026559158528244 -0.023399026064253915 0 -0.033871720365287156 -0.024552193874159318 0 -0.034702104483556158 -0.022452928921642658 0 -0.034628968470366228 -0.022403984237814041 0 -0.034825010922292517 -0.022521183750823751 0 -0.031900176906852526 -0.027265100274161506 0 -0.032545488458138358 -0.027017005685179969 0 -0.032699319359718225 -0.026469890219945301 0 -0.03315694712416882 -0.02444068929329293 0 -0.033133846099884387 -0.024800870689225124 0 -0.033097342426459675 -0.024566853316499892 0 -0.031795243867089547 -0.028271981862217858 0 -0.031791964978129569 -0.027765757477650286 0 -0.031594824258377438 -0.028106656501949545 0 -0.03202971555872753 -0.027751543440151075 0 -0.032336300912784145 -0.025598051989699638 0 -0.031900176906852526 -0.027265100274161506 0 -0.03219201685356117 -0.027345843106363205 0 -0.030964869108834166 -0.028245973268713687 0 -0.033384958410571139 -0.024925409574429878 0 -0.032336300912784145 -0.025598051989699638 0 -0.03328564673829764 -0.024188603443245853 0 -0.033319324325848894 -0.023898873655228713 0 -0.033625988640042057 -0.02339226782960338 0 -0.034702104483556158 -0.022452928921642658 0 -0.034628968470366228 -0.022403984237814041 0 -0.034231097818668142 -0.022270557113587351 0 -0.033359281880332409 -0.023696734751603971 0 -0.03327643932644278 -0.02378102141617899 0 -0.033210734621612698 -0.023641643634632645 0 -0.033359281880332409 -0.023696734751603971 0 -0.03327643932644278 -0.02378102141617899 0 -0.033319324325848894 -0.023898873655228713 0 -0.033319324325848894 -0.023898873655228713 0 -0.033217491136957496 -0.023887632386073474 0 -0.033203841876231606 -0.024100372267533619 0 -0.03327643932644278 -0.02378102141617899 0 -0.033319324325848894 -0.023898873655228713 0 -0.033217491136957496 -0.023887632386073474 0 -0.033217491136957496 -0.023887632386073474 0 -0.03313633030152198 -0.023797307738235639 0 -0.033210734621612698 -0.023641643634632645 0 -0.03327643932644278 -0.02378102141617899 0 -0.033217491136957496 -0.023887632386073474 0 -0.033210734621612698 -0.023641643634632645 0 -0.03328564673829764 -0.024188603443245853 0 -0.033319324325848894 -0.023898873655228713 0 -0.033203841876231606 -0.024100372267533619 0 -0.03315694712416882 -0.02444068929329293 0 -0.03328564673829764 -0.024188603443245853 0 -0.033194571992902364 -0.024256706755970608 0 -0.03328564673829764 -0.024188603443245853 0 -0.033194571992902364 -0.024256706755970608 0 -0.033203841876231606 -0.024100372267533619 0 -0.033194571992902364 -0.024256706755970608 0 -0.033137932178763721 -0.024211964061743519 0 -0.033203841876231606 -0.024100372267533619 0 -0.03315694712416882 -0.02444068929329293 0 -0.033194571992902364 -0.024256706755970608 0 -0.033137932178763721 -0.024211964061743519 0 -0.033137932178763721 -0.024211964061743519 0 -0.033128487326296301 -0.023993542590364816 0 -0.033086032611517997 -0.024067614010078796 0 -0.033137932178763721 -0.024211964061743519 0 -0.033203841876231606 -0.024100372267533619 0 -0.033128487326296301 -0.023993542590364816 0 -0.033217491136957496 -0.023887632386073474 0 -0.03313633030152198 -0.023797307738235639 0 -0.033128487326296301 -0.023993542590364816 0 -0.033217491136957496 -0.023887632386073474 0 -0.033203841876231606 -0.024100372267533619 0 -0.033128487326296301 -0.023993542590364816 0 -0.03313633030152198 -0.023797307738235639 0 -0.033128487326296301 -0.023993542590364816 0 -0.033054841571072267 -0.023827224720550169 0 -0.033128487326296301 -0.023993542590364816 0 -0.033086032611517997 -0.024067614010078796 0 -0.033054841571072267 -0.023827224720550169 0 -0.033086032611517997 -0.024067614010078796 0 -0.033038185820259629 -0.024051163147799186 0 -0.033054841571072267 -0.023827224720550169 0 -0.033086032611517997 -0.024067614010078796 0 -0.033038185820259629 -0.024051163147799186 0 -0.033088822430677969 -0.024274605081852814 0 -0.03315694712416882 -0.02444068929329293 0 -0.033088822430677969 -0.024274605081852814 0 -0.033097342426459675 -0.024566853316499892 0 -0.033137932178763721 -0.024211964061743519 0 -0.033086032611517997 -0.024067614010078796 0 -0.033088822430677969 -0.024274605081852814 0 -0.03315694712416882 -0.02444068929329293 0 -0.033137932178763721 -0.024211964061743519 0 -0.033088822430677969 -0.024274605081852814 0 -0.030854568831469358 -0.02949623697570164 0 -0.03166831516279154 -0.028723007809275038 0 -0.031325448791515817 -0.028351210678781887 0 -0.03166831516279154 -0.028723007809275038 0 -0.031325448791515817 -0.028351210678781887 0 -0.031594824258377438 -0.028106656501949545 0 -0.031795243867089547 -0.028271981862217858 0 -0.03166831516279154 -0.028723007809275038 0 -0.031594824258377438 -0.028106656501949545 0 -0.031791964978129569 -0.027765757477650286 0 -0.031594824258377438 -0.028106656501949545 0 -0.031327318765866197 -0.027865133703268513 0 -0.034026559158528244 -0.023399026064253915 0 -0.033254638933883231 -0.023540410060405612 0 -0.034628968470366228 -0.022403984237814041 0 -0.034231097818668142 -0.022270557113587351 0 -0.034058967072297677 -0.022152420836679558 0 -0.031325448791515817 -0.028351210678781887 0 -0.031594824258377438 -0.028106656501949545 0 -0.031327318765866197 -0.027865133703268513 0 -0.033359281880332409 -0.023696734751603971 0 -0.033319324325848894 -0.023898873655228713 0 -0.033625988640042057 -0.02339226782960338 0 -0.032336300912784145 -0.025598051989699638 0 -0.033254638933883231 -0.023540410060405612 0 -0.031058853171045422 -0.028004147212882413 0 -0.031325448791515817 -0.028351210678781887 0 -0.031327318765866197 -0.027865133703268513 0 -0.033621928125075869 -0.025855844063131544 0 -0.031343121669500297 -0.0248427543773556 0 -0.031675538808717103 -0.025108280053611442 0 -0.033625988640042057 -0.02339226782960338 0 -0.033738810586144807 -0.0231974391977624 0 -0.033516965982457056 -0.023316537902434958 0 -0.034247711242571685 -0.023087003111178436 0 -0.033625988640042057 -0.02339226782960338 0 -0.033738810586144807 -0.0231974391977624 0 -0.034778281559738902 -0.022630545994943008 0 -0.033254638933883231 -0.023540410060405612 0 -0.034247711242571685 -0.023087003111178436 0 -0.033738810586144807 -0.0231974391977624 0 -0.03361561837140993 -0.023019359969901121 0 -0.033738810586144807 -0.0231974391977624 0 -0.03345866884862319 -0.023192041434824756 0 -0.033516965982457056 -0.023316537902434958 0 -0.033738810586144807 -0.0231974391977624 0 -0.03345866884862319 -0.023192041434824756 0 -0.03361561837140993 -0.023019359969901121 0 -0.033232694765038866 -0.023202389888480782 0 -0.033046505872727526 -0.023019867468148183 0 -0.033266583615712955 -0.023034032488914259 0 -0.03345866884862319 -0.023192041434824756 0 -0.033232694765038866 -0.023202389888480782 0 -0.033266583615712955 -0.023034032488914259 0 -0.03345866884862319 -0.023192041434824756 0 -0.03361561837140993 -0.023019359969901121 0 -0.033266583615712955 -0.023034032488914259 0 -0.033232694765038866 -0.023202389888480782 0 -0.033362286455782153 -0.023349878990972198 0 -0.033209827923365659 -0.023378266043296264 0 -0.03345866884862319 -0.023192041434824756 0 -0.033232694765038866 -0.023202389888480782 0 -0.033362286455782153 -0.023349878990972198 0 -0.033362286455782153 -0.023349878990972198 0 -0.033314119190858395 -0.023495276635797317 0 -0.033209827923365659 -0.023378266043296264 0 -0.033359281880332409 -0.023696734751603971 0 -0.033625988640042057 -0.02339226782960338 0 -0.033430822339506533 -0.023450911181799414 0 -0.033362286455782153 -0.023349878990972198 0 -0.033314119190858395 -0.023495276635797317 0 -0.033430822339506533 -0.023450911181799414 0 -0.033362286455782153 -0.023349878990972198 0 -0.033516965982457056 -0.023316537902434958 0 -0.033430822339506533 -0.023450911181799414 0 -0.03345866884862319 -0.023192041434824756 0 -0.033362286455782153 -0.023349878990972198 0 -0.033516965982457056 -0.023316537902434958 0 -0.033625988640042057 -0.02339226782960338 0 -0.033516965982457056 -0.023316537902434958 0 -0.033430822339506533 -0.023450911181799414 0 -0.033359281880332409 -0.023696734751603971 0 -0.033314119190858395 -0.023495276635797317 0 -0.033430822339506533 -0.023450911181799414 0 -0.033359281880332409 -0.023696734751603971 0 -0.033314119190858395 -0.023495276635797317 0 -0.033210734621612698 -0.023641643634632645 0 -0.03313633030152198 -0.023797307738235639 0 -0.033210734621612698 -0.023641643634632645 0 -0.033091673476089163 -0.023642662577194024 0 -0.033210734621612698 -0.023641643634632645 0 -0.033089747129670811 -0.023420187265020584 0 -0.033209827923365659 -0.023378266043296264 0 -0.033210734621612698 -0.023641643634632645 0 -0.033089747129670811 -0.023420187265020584 0 -0.033091673476089163 -0.023642662577194024 0 -0.033314119190858395 -0.023495276635797317 0 -0.033210734621612698 -0.023641643634632645 0 -0.033209827923365659 -0.023378266043296264 0 -0.033054841571072267 -0.023827224720550169 0 -0.032995232339545842 -0.023514825525645142 0 -0.032961038595223022 -0.023712781106227633 0 -0.033038185820259629 -0.024051163147799186 0 -0.033054841571072267 -0.023827224720550169 0 -0.032961038595223022 -0.023712781106227633 0 -0.033054841571072267 -0.023827224720550169 0 -0.033091673476089163 -0.023642662577194024 0 -0.032995232339545842 -0.023514825525645142 0 -0.03313633030152198 -0.023797307738235639 0 -0.033054841571072267 -0.023827224720550169 0 -0.033091673476089163 -0.023642662577194024 0 -0.033089747129670811 -0.023420187265020584 0 -0.033091673476089163 -0.023642662577194024 0 -0.032995232339545842 -0.023514825525645142 0 -0.032995232339545842 -0.023514825525645142 0 -0.032876963165833502 -0.023342869276781374 0 -0.032961038595223022 -0.023712781106227633 0 -0.032995232339545842 -0.023514825525645142 0 -0.032876963165833502 -0.023342869276781374 0 -0.032941309315676154 -0.0232598787628517 0 -0.033089747129670811 -0.023420187265020584 0 -0.032995232339545842 -0.023514825525645142 0 -0.032941309315676154 -0.0232598787628517 0 -0.032941309315676154 -0.0232598787628517 0 -0.032806111228377809 -0.02310272276270833 0 -0.032877565347949507 -0.022995008187735751 0 -0.032941309315676154 -0.0232598787628517 0 -0.033058786669366375 -0.02321103072306727 0 -0.032877565347949507 -0.022995008187735751 0 -0.032876963165833502 -0.023342869276781374 0 -0.032941309315676154 -0.0232598787628517 0 -0.032806111228377809 -0.02310272276270833 0 -0.033232694765038866 -0.023202389888480782 0 -0.033209827923365659 -0.023378266043296264 0 -0.033058786669366375 -0.02321103072306727 0 -0.033089747129670811 -0.023420187265020584 0 -0.032941309315676154 -0.0232598787628517 0 -0.033058786669366375 -0.02321103072306727 0 -0.033089747129670811 -0.023420187265020584 0 -0.033209827923365659 -0.023378266043296264 0 -0.033058786669366375 -0.02321103072306727 0 -0.033232694765038866 -0.023202389888480782 0 -0.033058786669366375 -0.02321103072306727 0 -0.033046505872727526 -0.023019867468148183 0 -0.033046505872727526 -0.023019867468148183 0 -0.032877565347949507 -0.022995008187735751 0 -0.032849388358280898 -0.022759135981011567 0 -0.033046505872727526 -0.023019867468148183 0 -0.032849388358280898 -0.022759135981011567 0 -0.033092485154844094 -0.022879225296620856 0 -0.033058786669366375 -0.02321103072306727 0 -0.033046505872727526 -0.023019867468148183 0 -0.032877565347949507 -0.022995008187735751 0 -0.032877565347949507 -0.022995008187735751 0 -0.032675458136062673 -0.022703139999241333 0 -0.032849388358280898 -0.022759135981011567 0 -0.032877565347949507 -0.022995008187735751 0 -0.032731381540088478 -0.022894580140553716 0 -0.032675458136062673 -0.022703139999241333 0 -0.032806111228377809 -0.02310272276270833 0 -0.032877565347949507 -0.022995008187735751 0 -0.032731381540088478 -0.022894580140553716 0 -0.032680130568588726 -0.022495030532401886 0 -0.032465732945179009 -0.022467155579109197 0 -0.032675458136062673 -0.022703139999241333 0 -0.032731381540088478 -0.022894580140553716 0 -0.032675458136062673 -0.022703139999241333 0 -0.032581742128914001 -0.022705211997191919 0 -0.032465732945179009 -0.022467155579109197 0 -0.032675458136062673 -0.022703139999241333 0 -0.032581742128914001 -0.022705211997191919 0 -0.032680130568588726 -0.022495030532401886 0 -0.032675458136062673 -0.022703139999241333 0 -0.032849388358280898 -0.022759135981011567 0 -0.032680130568588726 -0.022495030532401886 0 -0.032849388358280898 -0.022759135981011567 0 -0.033016648732084895 -0.022703675512787503 0 -0.032849388358280898 -0.022759135981011567 0 -0.033016648732084895 -0.022703675512787503 0 -0.033092485154844094 -0.022879225296620856 0 -0.033082850299587484 -0.022576860443653229 0 -0.033016648732084895 -0.022703675512787503 0 -0.033420758657071226 -0.022746470447591881 0 -0.033016648732084895 -0.022703675512787503 0 -0.033420758657071226 -0.022746470447591881 0 -0.033318059936960652 -0.022884165548490591 0 -0.033016648732084895 -0.022703675512787503 0 -0.033092485154844094 -0.022879225296620856 0 -0.033318059936960652 -0.022884165548490591 0 -0.033832334848992958 -0.022900295366863905 0 -0.033420758657071226 -0.022746470447591881 0 -0.033318059936960652 -0.022884165548490591 0 -0.033837204700387334 -0.022736987649694118 0 -0.033832334848992958 -0.022900295366863905 0 -0.033420758657071226 -0.022746470447591881 0 -0.033832334848992958 -0.022900295366863905 0 -0.03361561837140993 -0.023019359969901121 0 -0.033318059936960652 -0.022884165548490591 0 -0.03361561837140993 -0.023019359969901121 0 -0.033266583615712955 -0.023034032488914259 0 -0.033318059936960652 -0.022884165548490591 0 -0.033046505872727526 -0.023019867468148183 0 -0.033266583615712955 -0.023034032488914259 0 -0.033092485154844094 -0.022879225296620856 0 -0.033266583615712955 -0.023034032488914259 0 -0.033092485154844094 -0.022879225296620856 0 -0.033318059936960652 -0.022884165548490591 0 -0.032492414034493183 -0.022718884593680121 0 -0.032388832202699523 -0.022536886004256584 0 -0.032596213863500693 -0.022887042204487215 0 -0.03259130613949917 -0.02289140568064113 0 -0.032498904086918266 -0.022734969099704034 0 -0.032394766319020912 -0.022563198871547171 0 -0.032492414034493183 -0.022718884593680121 0 -0.03259130613949917 -0.02289140568064113 0 -0.032394766319020912 -0.022563198871547171 0 -0.03259130613949917 -0.02289140568064113 0 -0.032596213863500693 -0.022887042204487215 0 -0.032733642392538169 -0.023181458488891395 0 -0.032492414034493183 -0.022718884593680121 0 -0.03259130613949917 -0.02289140568064113 0 -0.032596213863500693 -0.022887042204487215 0 -0.03259130613949917 -0.02289140568064113 0 -0.032498904086918266 -0.022734969099704034 0 -0.032686328907184765 -0.023065216739808148 0 -0.032498904086918266 -0.022734969099704034 0 -0.032689261316320439 -0.023061749127750938 0 -0.032424058071571817 -0.022628576694321417 0 -0.032498904086918266 -0.022734969099704034 0 -0.032424058071571817 -0.022628576694321417 0 -0.032281678655239732 -0.022412681717829386 0 -0.032219903683339067 -0.022304018776618906 0 -0.032394766319020912 -0.022563198871547171 0 -0.032281678655239732 -0.022412681717829386 0 -0.032498904086918266 -0.022734969099704034 0 -0.032394766319020912 -0.022563198871547171 0 -0.032281678655239732 -0.022412681717829386 0 -0.032219903683339067 -0.022304018776618906 0 -0.032394766319020912 -0.022563198871547171 0 -0.032388832202699523 -0.022536886004256584 0 -0.032492414034493183 -0.022718884593680121 0 -0.032394766319020912 -0.022563198871547171 0 -0.032388832202699523 -0.022536886004256584 0 -0.032352245537085773 -0.022424885207406143 0 -0.032388832202699523 -0.022536886004256584 0 -0.032544650884932691 -0.02275215789544013 0 -0.032352245537085773 -0.022424885207406143 0 -0.032581742128914001 -0.022705211997191919 0 -0.032544650884932691 -0.02275215789544013 0 -0.032352245537085773 -0.022424885207406143 0 -0.032465732945179009 -0.022467155579109197 0 -0.032581742128914001 -0.022705211997191919 0 -0.032731381540088478 -0.022894580140553716 0 -0.032581742128914001 -0.022705211997191919 0 -0.032678455190154568 -0.022938333337467587 0 -0.032581742128914001 -0.022705211997191919 0 -0.032678455190154568 -0.022938333337467587 0 -0.032544650884932691 -0.02275215789544013 0 -0.032678455190154568 -0.022938333337467587 0 -0.032544650884932691 -0.02275215789544013 0 -0.032692622521149191 -0.02306559880682205 0 -0.032806111228377809 -0.02310272276270833 0 -0.032731381540088478 -0.022894580140553716 0 -0.032678455190154568 -0.022938333337467587 0 -0.032388832202699523 -0.022536886004256584 0 -0.032544650884932691 -0.02275215789544013 0 -0.032596213863500693 -0.022887042204487215 0 -0.032544650884932691 -0.02275215789544013 0 -0.032596213863500693 -0.022887042204487215 0 -0.032692622521149191 -0.02306559880682205 0 -0.032596213863500693 -0.022887042204487215 0 -0.032692622521149191 -0.02306559880682205 0 -0.032733642392538169 -0.023181458488891395 0 -0.032692622521149191 -0.02306559880682205 0 -0.032804472614370868 -0.023351754125918448 0 -0.032733642392538169 -0.023181458488891395 0 -0.032692622521149191 -0.02306559880682205 0 -0.032804472614370868 -0.023351754125918448 0 -0.032779088653585101 -0.023206496485371059 0 -0.032804472614370868 -0.023351754125918448 0 -0.032856702030365392 -0.023490382097862618 0 -0.032733642392538169 -0.023181458488891395 0 -0.032876963165833502 -0.023342869276781374 0 -0.032806111228377809 -0.02310272276270833 0 -0.032779088653585101 -0.023206496485371059 0 -0.032806111228377809 -0.02310272276270833 0 -0.032678455190154568 -0.022938333337467587 0 -0.032779088653585101 -0.023206496485371059 0 -0.032678455190154568 -0.022938333337467587 0 -0.032692622521149191 -0.02306559880682205 0 -0.032779088653585101 -0.023206496485371059 0 -0.032804472614370868 -0.023351754125918448 0 -0.032779088653585101 -0.023206496485371059 0 -0.032872511258096218 -0.023509187606541661 0 -0.032876963165833502 -0.023342869276781374 0 -0.032779088653585101 -0.023206496485371059 0 -0.032872511258096218 -0.023509187606541661 0 -0.032876963165833502 -0.023342869276781374 0 -0.032872511258096218 -0.023509187606541661 0 -0.032961038595223022 -0.023712781106227633 0 -0.032872511258096218 -0.023509187606541661 0 -0.032943510303227952 -0.023803857231839559 0 -0.032897205183271591 -0.023640846294230307 0 -0.032872511258096218 -0.023509187606541661 0 -0.032943510303227952 -0.023803857231839559 0 -0.032961038595223022 -0.023712781106227633 0 -0.032943510303227952 -0.023803857231839559 0 -0.032961038595223022 -0.023712781106227633 0 -0.032999634620703593 -0.024044930374003525 0 -0.032804472614370868 -0.023351754125918448 0 -0.032856702030365392 -0.023490382097862618 0 -0.032897205183271591 -0.023640846294230307 0 -0.032804472614370868 -0.023351754125918448 0 -0.032872511258096218 -0.023509187606541661 0 -0.032897205183271591 -0.023640846294230307 0 -0.032943510303227952 -0.023803857231839559 0 -0.032897205183271591 -0.023640846294230307 0 -0.032967370719995531 -0.023904444848707872 0 -0.032897205183271591 -0.023640846294230307 0 -0.032967370719995531 -0.023904444848707872 0 -0.032976026953988061 -0.023850319002720333 0 -0.032856702030365392 -0.023490382097862618 0 -0.032897205183271591 -0.023640846294230307 0 -0.032976026953988061 -0.023850319002720333 0 -0.032856702030365392 -0.023490382097862618 0 -0.032976026953988061 -0.023850319002720333 0 -0.032890944804156497 -0.023506544245369583 0 -0.032976026953988061 -0.023850319002720333 0 -0.032890944804156497 -0.023506544245369583 0 -0.03308357387133988 -0.024045993425232757 0 -0.032856702030365392 -0.023490382097862618 0 -0.032890944804156497 -0.023506544245369583 0 -0.032733642392538169 -0.023181458488891395 0 -0.032890944804156497 -0.023506544245369583 0 -0.032733642392538169 -0.023181458488891395 0 -0.032686328907184765 -0.023065216739808148 0 -0.03259130613949917 -0.02289140568064113 0 -0.032733642392538169 -0.023181458488891395 0 -0.032686328907184765 -0.023065216739808148 0 -0.032890944804156497 -0.023506544245369583 0 -0.032689261316320439 -0.023061749127750938 0 -0.032686328907184765 -0.023065216739808148 0 -0.032498904086918266 -0.022734969099704034 0 -0.032689261316320439 -0.023061749127750938 0 -0.032686328907184765 -0.023065216739808148 0 -0.032890944804156497 -0.023506544245369583 0 -0.032689261316320439 -0.023061749127750938 0 -0.03297661141009714 -0.02365016866393619 0 -0.032890944804156497 -0.023506544245369583 0 -0.03297661141009714 -0.02365016866393619 0 -0.03308357387133988 -0.024045993425232757 0 -0.03297661141009714 -0.02365016866393619 0 -0.03308357387133988 -0.024045993425232757 0 -0.033263447333384939 -0.024401904817378847 0 -0.03308357387133988 -0.024045993425232757 0 -0.03321620150801291 -0.024597442350169866 0 -0.033263447333384939 -0.024401904817378847 0 -0.032976026953988061 -0.023850319002720333 0 -0.03308357387133988 -0.024045993425232757 0 -0.033087091080029184 -0.024227007742391903 0 -0.03308357387133988 -0.024045993425232757 0 -0.033087091080029184 -0.024227007742391903 0 -0.03321620150801291 -0.024597442350169866 0 -0.033087091080029184 -0.024227007742391903 0 -0.03321620150801291 -0.024597442350169866 0 -0.033124399455729446 -0.02453904383492983 0 -0.03321620150801291 -0.024597442350169866 0 -0.033380458313290381 -0.025082958305635325 0 -0.033263447333384939 -0.024401904817378847 0 -0.03321620150801291 -0.024597442350169866 0 -0.033124399455729446 -0.02453904383492983 0 -0.033243399308887485 -0.025150854046451902 0 -0.03321620150801291 -0.024597442350169866 0 -0.033380458313290381 -0.025082958305635325 0 -0.033243399308887485 -0.025150854046451902 0 -0.033380458313290381 -0.025082958305635325 0 -0.033263447333384939 -0.024401904817378847 0 -0.033640463482394002 -0.025609264903645287 0 -0.033088822430677969 -0.024274605081852814 0 -0.03305255456871533 -0.024322927497690341 0 -0.033097342426459675 -0.024566853316499892 0 -0.03305255456871533 -0.024322927497690341 0 -0.033066671958673334 -0.024604328059272727 0 -0.033097342426459675 -0.024566853316499892 0 -0.033038185820259629 -0.024051163147799186 0 -0.033088822430677969 -0.024274605081852814 0 -0.03305255456871533 -0.024322927497690341 0 -0.033038185820259629 -0.024051163147799186 0 -0.03305255456871533 -0.024322927497690341 0 -0.032999634620703593 -0.024044930374003525 0 -0.033038185820259629 -0.024051163147799186 0 -0.032961038595223022 -0.023712781106227633 0 -0.032999634620703593 -0.024044930374003525 0 -0.032943510303227952 -0.023803857231839559 0 -0.032999634620703593 -0.024044930374003525 0 -0.03299922544505976 -0.024089329711224891 0 -0.032999634620703593 -0.024044930374003525 0 -0.03303760557708231 -0.024360117156879486 0 -0.03299922544505976 -0.024089329711224891 0 -0.03303760557708231 -0.024360117156879486 0 -0.033077414979691459 -0.02473282228170837 0 -0.033066671958673334 -0.024604328059272727 0 -0.03305255456871533 -0.024322927497690341 0 -0.032999634620703593 -0.024044930374003525 0 -0.03303760557708231 -0.024360117156879486 0 -0.03305255456871533 -0.024322927497690341 0 -0.03303760557708231 -0.024360117156879486 0 -0.033066671958673334 -0.024604328059272727 0 -0.033062989742588852 -0.024434357951865181 0 -0.03299922544505976 -0.024089329711224891 0 -0.033034644981616124 -0.02415614076713089 0 -0.03303760557708231 -0.024360117156879486 0 -0.033062989742588852 -0.024434357951865181 0 -0.03299922544505976 -0.024089329711224891 0 -0.03303760557708231 -0.024360117156879486 0 -0.033062989742588852 -0.024434357951865181 0 -0.033077414979691459 -0.02473282228170837 0 -0.032943510303227952 -0.023803857231839559 0 -0.032967370719995531 -0.023904444848707872 0 -0.03299922544505976 -0.024089329711224891 0 -0.032967370719995531 -0.023904444848707872 0 -0.03299922544505976 -0.024089329711224891 0 -0.033034644981616124 -0.02415614076713089 0 -0.032976026953988061 -0.023850319002720333 0 -0.033087091080029184 -0.024227007742391903 0 -0.033034644981616124 -0.02415614076713089 0 -0.032967370719995531 -0.023904444848707872 0 -0.032976026953988061 -0.023850319002720333 0 -0.033034644981616124 -0.02415614076713089 0 -0.033062989742588852 -0.024434357951865181 0 -0.033034644981616124 -0.02415614076713089 0 -0.033124399455729446 -0.02453904383492983 0 -0.033087091080029184 -0.024227007742391903 0 -0.033034644981616124 -0.02415614076713089 0 -0.033124399455729446 -0.02453904383492983 0 -0.033124399455729446 -0.02453904383492983 0 -0.033243399308887485 -0.025150854046451902 0 -0.033122592191193539 -0.024804476521030037 0 -0.033062989742588852 -0.024434357951865181 0 -0.033124399455729446 -0.02453904383492983 0 -0.033122592191193539 -0.024804476521030037 0 -0.033243399308887485 -0.025150854046451902 0 -0.033124095111304819 -0.025139293269842707 0 -0.033122592191193539 -0.024804476521030037 0 -0.033243399308887485 -0.025150854046451902 0 -0.033124095111304819 -0.025139293269842707 0 -0.033158912336457042 -0.025509431320138318 0 -0.033124095111304819 -0.025139293269842707 0 -0.033158912336457042 -0.025509431320138318 0 -0.033049248230433204 -0.025479846006082687 0 -0.033124095111304819 -0.025139293269842707 0 -0.033049248230433204 -0.025479846006082687 0 -0.033079220164507761 -0.025065450920482707 0 -0.033124095111304819 -0.025139293269842707 0 -0.033077414979691459 -0.02473282228170837 0 -0.033079220164507761 -0.025065450920482707 0 -0.033124095111304819 -0.025139293269842707 0 -0.033122592191193539 -0.024804476521030037 0 -0.033077414979691459 -0.02473282228170837 0 -0.033062989742588852 -0.024434357951865181 0 -0.033122592191193539 -0.024804476521030037 0 -0.033077414979691459 -0.02473282228170837 0 -0.033077414979691459 -0.02473282228170837 0 -0.033066671958673334 -0.024604328059272727 0 -0.033081421044149253 -0.024902883660567844 0 -0.033066671958673334 -0.024604328059272727 0 -0.033081421044149253 -0.024902883660567844 0 -0.033092682807696241 -0.024795290272888251 0 -0.033081421044149253 -0.024902883660567844 0 -0.033094301361318509 -0.025125284620015662 0 -0.033092682807696241 -0.024795290272888251 0 -0.033077414979691459 -0.02473282228170837 0 -0.033081421044149253 -0.024902883660567844 0 -0.033079220164507761 -0.025065450920482707 0 -0.033049248230433204 -0.025479846006082687 0 -0.033079220164507761 -0.025065450920482707 0 -0.033094301361318509 -0.025125284620015662 0 -0.033049248230433204 -0.025479846006082687 0 -0.033094301361318509 -0.025125284620015662 0 -0.033111884724233112 -0.025737354908497219 0 -0.033081421044149253 -0.024902883660567844 0 -0.033079220164507761 -0.025065450920482707 0 -0.033094301361318509 -0.025125284620015662 0 -0.033094301361318509 -0.025125284620015662 0 -0.033133846099884387 -0.024800870689225124 0 -0.033111884724233112 -0.025737354908497219 0 -0.033094301361318509 -0.025125284620015662 0 -0.033133846099884387 -0.024800870689225124 0 -0.033092682807696241 -0.024795290272888251 0 -0.033066671958673334 -0.024604328059272727 0 -0.033092682807696241 -0.024795290272888251 0 -0.033097342426459675 -0.024566853316499892 0 -0.033133846099884387 -0.024800870689225124 0 -0.033092682807696241 -0.024795290272888251 0 -0.033097342426459675 -0.024566853316499892 0 -0.032545488458138358 -0.027017005685179969 0 -0.032887517763036125 -0.026922541015155198 0 -0.032993415322630691 -0.027569746942104463 0 -0.032545488458138358 -0.027017005685179969 0 -0.032699319359718225 -0.026469890219945301 0 -0.032926758262090787 -0.026191628980897677 0 -0.033049248230433204 -0.025479846006082687 0 -0.033111884724233112 -0.025737354908497219 0 -0.032926758262090787 -0.026191628980897677 0 -0.033871720365287156 -0.024552193874159318 0 -0.033893678230371128 -0.024667170420771413 0 -0.032545488458138358 -0.027017005685179969 0 -0.032926758262090787 -0.026191628980897677 0 -0.032887517763036125 -0.026922541015155198 0 -0.032926758262090787 -0.026191628980897677 0 -0.03324215754089932 -0.025804910289970267 0 -0.033245452633964709 -0.026830819786870748 0 -0.032926758262090787 -0.026191628980897677 0 -0.032887517763036125 -0.026922541015155198 0 -0.033245452633964709 -0.026830819786870748 0 -0.033158912336457042 -0.025509431320138318 0 -0.032926758262090787 -0.026191628980897677 0 -0.03324215754089932 -0.025804910289970267 0 -0.033158912336457042 -0.025509431320138318 0 -0.033049248230433204 -0.025479846006082687 0 -0.032926758262090787 -0.026191628980897677 0 -0.033243399308887485 -0.025150854046451902 0 -0.03324215754089932 -0.025804910289970267 0 -0.033427264758446852 -0.025873954817276567 0 -0.033243399308887485 -0.025150854046451902 0 -0.033158912336457042 -0.025509431320138318 0 -0.03324215754089932 -0.025804910289970267 0 -0.03324215754089932 -0.025804910289970267 0 -0.033245452633964709 -0.026830819786870748 0 -0.033427264758446852 -0.025873954817276567 0 -0.033245452633964709 -0.026830819786870748 0 -0.032993415322630691 -0.027569746942104463 0 -0.03344705223991018 -0.027962687262341548 0 -0.033245452633964709 -0.026830819786870748 0 -0.033658473264858699 -0.026940068277431888 0 -0.03344705223991018 -0.027962687262341548 0 -0.032887517763036125 -0.026922541015155198 0 -0.033245452633964709 -0.026830819786870748 0 -0.032993415322630691 -0.027569746942104463 0 -0.033380458313290381 -0.025082958305635325 0 -0.033640463482394002 -0.025609264903645287 0 -0.033427264758446852 -0.025873954817276567 0 -0.033380458313290381 -0.025082958305635325 0 -0.033243399308887485 -0.025150854046451902 0 -0.033427264758446852 -0.025873954817276567 0 -0.033640463482394002 -0.025609264903645287 0 -0.033427264758446852 -0.025873954817276567 0 -0.033658473264858699 -0.026940068277431888 0 -0.033245452633964709 -0.026830819786870748 0 -0.033427264758446852 -0.025873954817276567 0 -0.033658473264858699 -0.026940068277431888 0 -0.033640463482394002 -0.025609264903645287 0 -0.033658473264858699 -0.026940068277431888 0 -0.034095787114644616 -0.027235625153013629 0 -0.034095787114644616 -0.027235625153013629 0 -0.034825344318125125 -0.029797046183054676 0 -0.034622254064399748 -0.027203409767733472 0 -0.034095787114644616 -0.027235625153013629 0 -0.033944274112207205 -0.02837708546879367 0 -0.034825344318125125 -0.029797046183054676 0 -0.033658473264858699 -0.026940068277431888 0 -0.034095787114644616 -0.027235625153013629 0 -0.033944274112207205 -0.02837708546879367 0 -0.033658473264858699 -0.026940068277431888 0 -0.033944274112207205 -0.02837708546879367 0 -0.03344705223991018 -0.027962687262341548 0 -0.033944274112207205 -0.02837708546879367 0 -0.034825344318125125 -0.029797046183054676 0 -0.034108040621380897 -0.029679840648287284 0 -0.034825344318125125 -0.029797046183054676 0 -0.034547105912905024 -0.030585372716931195 0 -0.034108040621380897 -0.029679840648287284 0 -0.034150239447890016 -0.030555864096566718 0 -0.033679233745858135 -0.029881748627078895 0 -0.033801490400400279 -0.030963903981529109 0 -0.034150239447890016 -0.030555864096566718 0 -0.033801490400400279 -0.030963903981529109 0 -0.03428299376382906 -0.03131575640513401 0 -0.034150239447890016 -0.030555864096566718 0 -0.034547105912905024 -0.030585372716931195 0 -0.034108040621380897 -0.029679840648287284 0 -0.034108040621380897 -0.029679840648287284 0 -0.033679233745858135 -0.029881748627078895 0 -0.033652632650552711 -0.028969037673121388 0 -0.034150239447890016 -0.030555864096566718 0 -0.034108040621380897 -0.029679840648287284 0 -0.033679233745858135 -0.029881748627078895 0 -0.033679233745858135 -0.029881748627078895 0 -0.033652632650552711 -0.028969037673121388 0 -0.033146774648578604 -0.02896983202164501 0 -0.033944274112207205 -0.02837708546879367 0 -0.034108040621380897 -0.029679840648287284 0 -0.033652632650552711 -0.028969037673121388 0 -0.033944274112207205 -0.02837708546879367 0 -0.033652632650552711 -0.028969037673121388 0 -0.03344705223991018 -0.027962687262341548 0 -0.032993415322630691 -0.027569746942104463 0 -0.03344705223991018 -0.027962687262341548 0 -0.033146774648578604 -0.02896983202164501 0 -0.033652632650552711 -0.028969037673121388 0 -0.03344705223991018 -0.027962687262341548 0 -0.033146774648578604 -0.02896983202164501 0 -0.03249820018991189 -0.028476663717316966 0 -0.032993415322630691 -0.027569746942104463 0 -0.033146774648578604 -0.02896983202164501 0 -0.03249820018991189 -0.028476663717316966 0 -0.033146774648578604 -0.02896983202164501 0 -0.032666540507038398 -0.029688628319582713 0 -0.033679233745858135 -0.029881748627078895 0 -0.033146774648578604 -0.02896983202164501 0 -0.033348688004319567 -0.030136883013247507 0 -0.033146774648578604 -0.02896983202164501 0 -0.032666540507038398 -0.029688628319582713 0 -0.033348688004319567 -0.030136883013247507 0 -0.032130505348941983 -0.031456701769106803 0 -0.032666540507038398 -0.029688628319582713 0 -0.033467821920675933 -0.031332460985652989 0 -0.032130505348941983 -0.031456701769106803 0 -0.031900906800650414 -0.029572997244441807 0 -0.032666540507038398 -0.029688628319582713 0 -0.032130505348941983 -0.031456701769106803 0 -0.033467821920675933 -0.031332460985652989 0 -0.034969907345188143 -0.03290122171445805 0 -0.034202414082325529 -0.030937974399166481 0 -0.034846252433333495 -0.0326242012533981 0 -0.032666540507038398 -0.029688628319582713 0 -0.033467821920675933 -0.031332460985652989 0 -0.033348688004319567 -0.030136883013247507 0 -0.033679233745858135 -0.029881748627078895 0 -0.033348688004319567 -0.030136883013247507 0 -0.033801490400400279 -0.030963903981529109 0 -0.033467821920675933 -0.031332460985652989 0 -0.033348688004319567 -0.030136883013247507 0 -0.033801490400400279 -0.030963903981529109 0 -0.033467821920675933 -0.031332460985652989 0 -0.033801490400400279 -0.030963903981529109 0 -0.034213362065877169 -0.031897923379354119 0 -0.034213362065877169 -0.031897923379354119 0 -0.03428299376382906 -0.03131575640513401 0 -0.034675056109707628 -0.032100750971395267 0 -0.033801490400400279 -0.030963903981529109 0 -0.034213362065877169 -0.031897923379354119 0 -0.03428299376382906 -0.03131575640513401 0 -0.034213362065877169 -0.031897923379354119 0 -0.034870062612179675 -0.032864888066431328 0 -0.034675056109707628 -0.032100750971395267 0 -0.033467821920675933 -0.031332460985652989 0 -0.034213362065877169 -0.031897923379354119 0 -0.034969907345188143 -0.03290122171445805 0 -0.034213362065877169 -0.031897923379354119 0 -0.034969907345188143 -0.03290122171445805 0 -0.034870062612179675 -0.032864888066431328 0 -0.034969907345188143 -0.03290122171445805 0 -0.034870062612179675 -0.032864888066431328 0 -0.035384327534042984 -0.03407014830370015 0 -0.034870062612179675 -0.032864888066431328 0 -0.035334608281416754 -0.033487129046762501 0 -0.035384327534042984 -0.03407014830370015 0 -0.034870062612179675 -0.032864888066431328 0 -0.034675056109707628 -0.032100750971395267 0 -0.035334608281416754 -0.033487129046762501 0 -0.035260730442789177 -0.032777587646999673 0 -0.034275725186814342 -0.031275152777327869 0 -0.035334608281416754 -0.033487129046762501 0 -0.034464814618894377 -0.031365297362849355 0 -0.035149054069685021 -0.033218939218610667 0 -0.034675056109707628 -0.032100750971395267 0 -0.034847015361111969 -0.031755910355015904 0 -0.035334608281416754 -0.033487129046762501 0 -0.035260730442789177 -0.032777587646999673 0 -0.034938671273613359 -0.031762270803052106 0 -0.034275725186814342 -0.031275152777327869 0 -0.035260730442789177 -0.032777587646999673 0 -0.034938671273613359 -0.031762270803052106 0 -0.03569042047649424 -0.033145417799674143 0 -0.034938671273613359 -0.031762270803052106 0 -0.03569042047649424 -0.033145417799674143 0 -0.035547023420004244 -0.032323662815249163 0 -0.035310159498499444 -0.032371172106982572 0 -0.025318912876150904 -0.037996832001380626 0 -0.035310159498499444 -0.032371172106982572 0 -0.034464814618894377 -0.031365297362849355 0 -0.03500936404232783 -0.031666537867021831 0 -0.034309911334013156 -0.031237569721967638 0 -0.034601737824111023 -0.030265276151394783 0 -0.034825344318125125 -0.029797046183054676 0 -0.034547105912905024 -0.030585372716931195 0 -0.034847015361111969 -0.031755910355015904 0 -0.033648097734510225 -0.02887220511659248 0 -0.034309911334013156 -0.031237569721967638 0 -0.034601737824111023 -0.030265276151394783 0 -0.03426312652020129 -0.029298285986460226 0 -0.034464814618894377 -0.031365297362849355 0 -0.034547105912905024 -0.030585372716931195 0 -0.034580247355830727 -0.031165873426999335 0 -0.034847015361111969 -0.031755910355015904 0 -0.034150239447890016 -0.030555864096566718 0 -0.034547105912905024 -0.030585372716931195 0 -0.034580247355830727 -0.031165873426999335 0 -0.034150239447890016 -0.030555864096566718 0 -0.034580247355830727 -0.031165873426999335 0 -0.03428299376382906 -0.03131575640513401 0 -0.034580247355830727 -0.031165873426999335 0 -0.03428299376382906 -0.03131575640513401 0 -0.03456029981278641 -0.03159293664601967 0 -0.03428299376382906 -0.03131575640513401 0 -0.034675056109707628 -0.032100750971395267 0 -0.03456029981278641 -0.03159293664601967 0 -0.034675056109707628 -0.032100750971395267 0 -0.03456029981278641 -0.03159293664601967 0 -0.034847015361111969 -0.031755910355015904 0 -0.034580247355830727 -0.031165873426999335 0 -0.03456029981278641 -0.03159293664601967 0 -0.034847015361111969 -0.031755910355015904 0 -0.036599738737036577 -0.035276000793089686 0 -0.036654130634967613 -0.034722561375552637 0 -0.037702303219802565 -0.038127458493230605 0 -0.036599738737036577 -0.035276000793089686 0 -0.036654130634967613 -0.034722561375552637 0 -0.035949610261495409 -0.034043937720714117 0 -0.036599738737036577 -0.035276000793089686 0 -0.035949610261495409 -0.034043937720714117 0 -0.036213314221896657 -0.035086407401920754 0 -0.036599738737036577 -0.035276000793089686 0 -0.036792997190640241 -0.0362067428603286 0 -0.036213314221896657 -0.035086407401920754 0 -0.018197835528698608 -0.045559863539406283 0 -0.017360905852331725 -0.045051636954738322 0 -0.016442891282480887 -0.044847480204793469 0 -0.018197835528698608 -0.045559863539406283 0 -0.018409913741323908 -0.04505024312935442 0 -0.017360905852331725 -0.045051636954738322 0 -0.036654130634967613 -0.034722561375552637 0 -0.03569042047649424 -0.033145417799674143 0 -0.035949610261495409 -0.034043937720714117 0 -0.036654130634967613 -0.034722561375552637 0 -0.03569042047649424 -0.033145417799674143 0 -0.035547023420004244 -0.032323662815249163 0 -0.018197835528698608 -0.045559863539406283 0 -0.016442891282480887 -0.044847480204793469 0 -0.015332177134350736 -0.044228314795855116 0 -0.027371330309997749 -0.040239183012253543 0 -0.025318912876150904 -0.037996832001380626 0 -0.035949610261495409 -0.034043937720714117 0 -0.035334608281416754 -0.033487129046762501 0 -0.036213314221896657 -0.035086407401920754 0 -0.035260730442789177 -0.032777587646999673 0 -0.03569042047649424 -0.033145417799674143 0 -0.035949610261495409 -0.034043937720714117 0 -0.035260730442789177 -0.032777587646999673 0 -0.035949610261495409 -0.034043937720714117 0 -0.035334608281416754 -0.033487129046762501 0 -0.035334608281416754 -0.033487129046762501 0 -0.036025043156196583 -0.035507015956487711 0 -0.036213314221896657 -0.035086407401920754 0 -0.035334608281416754 -0.033487129046762501 0 -0.035384327534042984 -0.03407014830370015 0 -0.036025043156196583 -0.035507015956487711 0 -0.035384327534042984 -0.03407014830370015 0 -0.036025043156196583 -0.035507015956487711 0 -0.035777518413143458 -0.035808771436762539 0 -0.036025043156196583 -0.035507015956487711 0 -0.036432043681239291 -0.037358814025233777 0 -0.035777518413143458 -0.035808771436762539 0 -0.036025043156196583 -0.035507015956487711 0 -0.036213314221896657 -0.035086407401920754 0 -0.036534656878990178 -0.036375241575256539 0 -0.036025043156196583 -0.035507015956487711 0 -0.036534656878990178 -0.036375241575256539 0 -0.036432043681239291 -0.037358814025233777 0 -0.036792997190640241 -0.0362067428603286 0 -0.036213314221896657 -0.035086407401920754 0 -0.036534656878990178 -0.036375241575256539 0 -0.036534656878990178 -0.036375241575256539 0 -0.037284790039208558 -0.037561992874054706 0 -0.036759162272537199 -0.037732337352964947 0 -0.036792997190640241 -0.0362067428603286 0 -0.036534656878990178 -0.036375241575256539 0 -0.037284790039208558 -0.037561992874054706 0 -0.037284790039208558 -0.037561992874054706 0 -0.036759162272537199 -0.037732337352964947 0 -0.036791838544057986 -0.03963483208200775 0 -0.037496972092286009 -0.037920725106005346 0 -0.036997485164679496 -0.040512456277154066 0 -0.036534656878990178 -0.036375241575256539 0 -0.036759162272537199 -0.037732337352964947 0 -0.036432043681239291 -0.037358814025233777 0 -0.037284790039208558 -0.037561992874054706 0 -0.037451568618958472 -0.040084037952130211 0 -0.037702303219802565 -0.038127458493230605 0 -0.036759162272537199 -0.037732337352964947 0 -0.036432043681239291 -0.037358814025233777 0 -0.036791838544057986 -0.03963483208200775 0 -0.036432043681239291 -0.037358814025233777 0 -0.036791838544057986 -0.03963483208200775 0 -0.035935873620194174 -0.038347831386217682 0 -0.037134457523650626 -0.041582878797409323 0 -0.037721191351160407 -0.042326608040408234 0 -0.037525323454178992 -0.043043427902477976 0 -0.037134457523650626 -0.041582878797409323 0 -0.037451568618958472 -0.040084037952130211 0 -0.037721191351160407 -0.042326608040408234 0 -0.037451568618958472 -0.040084037952130211 0 -0.037702303219802565 -0.038127458493230605 0 -0.037721191351160407 -0.042326608040408234 0 -0.02111237826249529 -0.044387078182251898 0 -0.031309320198104673 -0.044139165044009963 0 -0.029413942324253192 -0.040622750798817872 0 -0.031309320198104673 -0.044139165044009963 0 -0.020878089720504485 -0.042945242540269608 0 -0.021167157573178663 -0.043953637112900373 0 -0.02445232356161325 -0.040653267848752707 0 -0.037284790039208558 -0.037561992874054706 0 -0.037134457523650626 -0.041582878797409323 0 -0.037451568618958472 -0.040084037952130211 0 -0.024033141483282262 -0.044836444102038811 0 -0.023099215823179933 -0.045925570556342499 0 -0.027234999028704774 -0.044748120043842876 0 -0.021908163702618399 -0.04494360981774187 0 -0.019992345092725825 -0.043829696180319344 0 -0.023046296579065009 -0.044144708348906388 0 -0.024033141483282262 -0.044836444102038811 0 -0.021908163702618399 -0.04494360981774187 0 -0.023046296579065009 -0.044144708348906388 0 -0.021908163702618399 -0.04494360981774187 0 -0.023099215823179933 -0.045925570556342499 0 -0.020313226086782241 -0.045069103111425771 0 -0.024033141483282262 -0.044836444102038811 0 -0.021908163702618399 -0.04494360981774187 0 -0.023099215823179933 -0.045925570556342499 0 -0.036599738737036577 -0.035276000793089686 0 -0.036792997190640241 -0.0362067428603286 0 -0.037702303219802565 -0.038127458493230605 0 -0.027371330309997749 -0.040239183012253543 0 -0.029413942324253192 -0.040622750798817872 0 -0.02111237826249529 -0.044387078182251898 0 -0.019262039433260426 -0.044964981139885792 0 -0.020878089720504485 -0.042945242540269608 0 -0.021167157573178663 -0.043953637112900373 0 -0.018409913741323908 -0.04505024312935442 0 -0.018197835528698608 -0.045559863539406283 0 -0.021167157573178663 -0.043953637112900373 0 -0.018409913741323908 -0.04505024312935442 0 -0.036792997190640241 -0.0362067428603286 0 -0.037284790039208558 -0.037561992874054706 0 -0.037702303219802565 -0.038127458493230605 0 -0.018409913741323908 -0.04505024312935442 0 -0.020313226086782241 -0.045069103111425771 0 -0.01795629530704166 -0.04480967118937796 0 -0.023099215823179933 -0.045925570556342499 0 -0.018409913741323908 -0.04505024312935442 0 -0.020313226086782241 -0.045069103111425771 0 -0.018409913741323908 -0.04505024312935442 0 -0.017360905852331725 -0.045051636954738322 0 -0.01795629530704166 -0.04480967118937796 0 -0.020313226086782241 -0.045069103111425771 0 -0.019992345092725825 -0.043829696180319344 0 -0.01795629530704166 -0.04480967118937796 0 -0.021908163702618399 -0.04494360981774187 0 -0.020313226086782241 -0.045069103111425771 0 -0.019992345092725825 -0.043829696180319344 0 -0.019992345092725825 -0.043829696180319344 0 -0.020817967205932299 -0.042210394696251409 0 -0.02375298415859179 -0.041924290599861344 0 -0.019992345092725825 -0.043829696180319344 0 -0.020817967205932299 -0.042210394696251409 0 -0.018581446808642155 -0.042650733402364707 0 -0.023046296579065009 -0.044144708348906388 0 -0.025100654911362166 -0.042747887366073455 0 -0.024872291508086977 -0.044119341000051271 0 -0.020253656906406497 -0.044187917535368049 0 -0.024272213994200081 -0.041703823864661989 0 -0.019992345092725825 -0.043829696180319344 0 -0.023046296579065009 -0.044144708348906388 0 -0.025100654911362166 -0.042747887366073455 0 -0.024033141483282262 -0.044836444102038811 0 -0.023046296579065009 -0.044144708348906388 0 -0.024872291508086977 -0.044119341000051271 0 -0.02226661479765988 -0.041318029484503797 0 -0.020968127297856624 -0.040405524884785229 0 -0.024107728742208942 -0.040263785988461379 0 -0.02275303559970545 -0.047704306205883951 0 -0.025366161567677483 -0.046298494930594923 0 -0.020817967205932299 -0.042210394696251409 0 -0.02375298415859179 -0.041924290599861344 0 -0.02226661479765988 -0.041318029484503797 0 -0.02375298415859179 -0.041924290599861344 0 -0.02226661479765988 -0.041318029484503797 0 -0.024107728742208942 -0.040263785988461379 0 -0.02275303559970545 -0.047704306205883951 0 -0.019065493237596619 -0.044133390101588586 0 -0.020817967205932299 -0.042210394696251409 0 -0.020968127297856624 -0.040405524884785229 0 -0.018581446808642155 -0.042650733402364707 0 -0.020817967205932299 -0.042210394696251409 0 -0.02226661479765988 -0.041318029484503797 0 -0.020968127297856624 -0.040405524884785229 0 -0.02275303559970545 -0.047704306205883951 0 -0.025918097543057971 -0.051353213479522271 0 -0.023465385063982037 -0.052085410594972764 0 -0.023569302752693526 -0.050895972713568785 0 -0.025692231487361047 -0.050442134064087582 0 -0.023569302752693526 -0.050895972713568785 0 -0.022872358435279107 -0.050010090489831217 0 -0.022078497255957077 -0.050805051464318012 0 -0.023465385063982037 -0.052085410594972764 0 -0.023569302752693526 -0.050895972713568785 0 -0.022078497255957077 -0.050805051464318012 0 -0.025241433826995657 -0.049534341475876494 0 -0.022872358435279107 -0.050010090489831217 0 -0.022565940711071635 -0.049803907858712533 0 -0.024334845360308912 -0.050238023111849162 0 -0.025241433826995657 -0.049534341475876494 0 -0.022872358435279107 -0.050010090489831217 0 -0.023569302752693526 -0.050895972713568785 0 -0.024334845360308912 -0.050238023111849162 0 -0.022872358435279107 -0.050010090489831217 0 -0.023569302752693526 -0.050895972713568785 0 -0.024334845360308912 -0.050238023111849162 0 -0.025692231487361047 -0.050442134064087582 0 -0.024166600705803239 -0.052577523519129178 0 -0.026943569990171445 -0.052496328199312485 0 -0.026336912584122803 -0.050899866547887328 0 -0.026943569990171445 -0.052496328199312485 0 -0.026336912584122803 -0.050899866547887328 0 -0.02816198837512341 -0.051047292867535628 0 -0.025692231487361047 -0.050442134064087582 0 -0.028064548942142588 -0.049996840483961108 0 -0.025241433826995657 -0.049534341475876494 0 -0.026336912584122803 -0.050899866547887328 0 -0.028213447434410305 -0.049998633906756157 0 -0.02816198837512341 -0.051047292867535628 0 -0.025918097543057971 -0.051353213479522271 0 -0.028213669937957406 -0.049999150531017299 0 -0.028064514225883498 -0.050000040264415846 0 -0.025590871915376314 -0.050366289313593951 0 -0.025692231487361047 -0.050442134064087582 0 -0.028064548942142588 -0.049996840483961108 0 -0.028214417562067287 -0.050002403501205675 0 -0.028065387771018264 -0.050000456975866171 0 -0.025237978292889093 -0.049999794053070895 0 -0.026142051640539569 -0.051090391891800181 0 -0.025237978292889093 -0.049999794053070895 0 -0.026142051640539569 -0.051090391891800181 0 -0.023701777350851036 -0.051769749852456214 0 -0.025590871915376314 -0.050366289313593951 0 -0.023289520523682713 -0.05100213150638315 0 -0.024334845360308912 -0.050238023111849162 0 -0.025692231487361047 -0.050442134064087582 0 -0.025241433826995657 -0.049534341475876494 0 -0.030322906992665349 -0.04999990132549148 0 -0.031926815865410046 -0.050050893987520037 0 -0.031350930471138024 -0.050351946008556109 0 -0.02976007858132582 -0.050711620528179527 0 -0.030322906992665349 -0.04999990132549148 0 -0.031350930471138024 -0.050351946008556109 0 -0.02976007858132582 -0.050711620528179527 0 -0.030322906992665349 -0.04999990132549148 0 -0.029128053780022953 -0.050417098781967415 0 -0.030322906992665349 -0.04999990132549148 0 -0.028213447434410305 -0.049998633906756157 0 -0.029128053780022953 -0.050417098781967415 0 -0.028213447434410305 -0.049998633906756157 0 -0.029128053780022953 -0.050417098781967415 0 -0.02816198837512341 -0.051047292867535628 0 -0.02976007858132582 -0.050711620528179527 0 -0.029128053780022953 -0.050417098781967415 0 -0.02816198837512341 -0.051047292867535628 0 -0.026943569990171445 -0.052496328199312485 0 -0.02816198837512341 -0.051047292867535628 0 -0.029595708918616164 -0.052142233481026354 0 -0.025366161567677483 -0.046298494930594923 0 -0.028717091662832865 -0.046239637274817967 0 -0.02976007858132582 -0.050711620528179527 0 -0.02816198837512341 -0.051047292867535628 0 -0.029595708918616164 -0.052142233481026354 0 -0.029370349599351826 -0.044554979088602474 0 -0.029168880952694636 -0.044334593295751658 0 -0.030203126116336208 -0.045976562421382136 0 -0.02976007858132582 -0.050711620528179527 0 -0.029595708918616164 -0.052142233481026354 0 -0.031350930471138024 -0.050351946008556109 0 -0.030721162292851576 -0.050617432415052586 0 -0.031329533370798197 -0.050532246898998011 0 -0.031350930471138024 -0.050351946008556109 0 -0.028717091662832865 -0.046239637274817967 0 -0.030759044257443011 -0.051250341249358844 0 -0.028717091662832865 -0.046239637274817967 0 -0.030601793678498385 -0.048137410052043014 0 -0.029016862013518815 -0.043724040382148194 0 -0.029370349599351826 -0.044554979088602474 0 -0.030203126116336208 -0.045976562421382136 0 -0.029016862013518815 -0.043724040382148194 0 -0.02860976487461564 -0.044132663976342142 0 -0.027463645395651819 -0.043782808955435112 0 -0.029370349599351826 -0.044554979088602474 0 -0.02860976487461564 -0.044132663976342142 0 -0.029168880952694636 -0.044334593295751658 0 -0.029016862013518815 -0.043724040382148194 0 -0.029370349599351826 -0.044554979088602474 0 -0.02860976487461564 -0.044132663976342142 0 -0.02860976487461564 -0.044132663976342142 0 -0.027842615271934761 -0.04413816258846058 0 -0.029168880952694636 -0.044334593295751658 0 -0.02860976487461564 -0.044132663976342142 0 -0.027842615271934761 -0.04413816258846058 0 -0.027463645395651819 -0.043782808955435112 0 -0.02375298415859179 -0.041924290599861344 0 -0.024107728742208942 -0.040263785988461379 0 -0.02647774344435247 -0.040297759543563676 0 -0.025100654911362166 -0.042747887366073455 0 -0.029016862013518815 -0.043724040382148194 0 -0.027463645395651819 -0.043782808955435112 0 -0.025100654911362166 -0.042747887366073455 0 -0.027463645395651819 -0.043782808955435112 0 -0.026306409038897235 -0.043846460033459322 0 -0.024272213994200081 -0.041703823864661989 0 -0.028717091662832865 -0.046239637274817967 0 -0.024033141483282262 -0.044836444102038811 0 -0.027234999028704774 -0.044748120043842876 0 -0.024872291508086977 -0.044119341000051271 0 -0.025100654911362166 -0.042747887366073455 0 -0.026306409038897235 -0.043846460033459322 0 -0.024872291508086977 -0.044119341000051271 0 -0.027842615271934761 -0.04413816258846058 0 -0.027463645395651819 -0.043782808955435112 0 -0.026306409038897235 -0.043846460033459322 0 -0.027842615271934761 -0.04413816258846058 0 -0.026306409038897235 -0.043846460033459322 0 -0.027234999028704774 -0.044748120043842876 0 -0.026306409038897235 -0.043846460033459322 0 -0.027234999028704774 -0.044748120043842876 0 -0.024872291508086977 -0.044119341000051271 0 -0.031309320198104673 -0.044139165044009963 0 -0.032249900049645966 -0.047672325941294891 0 -0.037721191351160407 -0.042326608040408234 0 -0.037525323454178992 -0.043043427902477976 0 -0.037769589998933428 -0.044199196442000363 0 -0.035802792738337856 -0.048950768993255039 0 -0.035228503763918652 -0.050016034639835512 0 -0.03502681610807569 -0.049848076302275592 0 -0.031309320198104673 -0.044139165044009963 0 -0.037324724658729588 -0.047067286829503389 0 -0.027842615271934761 -0.04413816258846058 0 -0.027234999028704774 -0.044748120043842876 0 -0.029168880952694636 -0.044334593295751658 0 -0.037525323454178992 -0.043043427902477976 0 -0.037634927487773286 -0.043899630413114177 0 -0.037523065256601366 -0.043999706552796954 0 -0.037727009703205874 -0.044273392268797097 0 -0.037634927487773286 -0.043899630413114177 0 -0.037523065256601366 -0.043999706552796954 0 -0.037727009703205874 -0.044273392268797097 0 -0.037634927487773286 -0.043899630413114177 0 -0.037769589998933428 -0.044199196442000363 0 -0.037525323454178992 -0.043043427902477976 0 -0.037634927487773286 -0.043899630413114177 0 -0.037769589998933428 -0.044199196442000363 0 -0.037523065256601366 -0.043999706552796954 0 -0.037948946861147179 -0.044883851069233684 0 -0.037650165887762849 -0.045189170603886747 0 -0.03705575668604006 -0.043292040505183878 0 -0.037427232837177311 -0.044946640918108197 0 -0.037727009703205874 -0.044273392268797097 0 -0.037523065256601366 -0.043999706552796954 0 -0.037948946861147179 -0.044883851069233684 0 -0.037324724658729588 -0.047067286829503389 0 -0.036371784662139139 -0.048544850938497641 0 -0.03502681610807569 -0.049848076302275592 0 -0.034858064916719424 -0.050429734077653887 0 -0.034748039466354533 -0.05069937075589831 0 -0.037948946861147179 -0.044883851069233684 0 -0.037769589998933428 -0.044199196442000363 0 -0.038470101872886332 -0.046181864043809071 0 -0.037948946861147179 -0.044883851069233684 0 -0.038470101872886332 -0.046181864043809071 0 -0.037650165887762849 -0.045189170603886747 0 -0.037727009703205874 -0.044273392268797097 0 -0.037948946861147179 -0.044883851069233684 0 -0.037769589998933428 -0.044199196442000363 0 -0.035228503763918652 -0.050016034639835512 0 -0.034985249148603834 -0.050226104427509147 0 -0.03481992865271432 -0.050471507419865613 0 -0.035228503763918652 -0.050016034639835512 0 -0.03502681610807569 -0.049848076302275592 0 -0.034985249148603834 -0.050226104427509147 0 -0.03502681610807569 -0.049848076302275592 0 -0.034985249148603834 -0.050226104427509147 0 -0.034858064916719424 -0.050429734077653887 0 -0.029168880952694636 -0.044334593295751658 0 -0.030203126116336208 -0.045976562421382136 0 -0.031389759886975781 -0.048439281067774273 0 -0.032249900049645966 -0.047672325941294891 0 -0.033278368716434685 -0.049080044922342511 0 -0.031329533370798197 -0.050532246898998011 0 -0.031350930471138024 -0.050351946008556109 0 -0.031759186905072137 -0.049849605574835434 0 -0.030601793678498385 -0.048137410052043014 0 -0.031147940207362008 -0.048601211612580165 0 -0.030203126116336208 -0.045976562421382136 0 -0.031389759886975781 -0.048439281067774273 0 -0.031752789930094304 -0.048733990421407851 0 -0.031329533370798197 -0.050532246898998011 0 -0.031752789930094304 -0.048733990421407851 0 -0.031759186905072137 -0.049849605574835434 0 -0.034985249148603834 -0.050226104427509147 0 -0.034858064916719424 -0.050429734077653887 0 -0.03481992865271432 -0.050471507419865613 0 -0.034858064916719424 -0.050429734077653887 0 -0.034748039466354533 -0.05069937075589831 0 -0.034791910879489185 -0.050504321584803689 0 -0.034858064916719424 -0.050429734077653887 0 -0.03481992865271432 -0.050471507419865613 0 -0.034791910879489185 -0.050504321584803689 0 -0.034748039466354533 -0.05069937075589831 0 -0.034791910879489185 -0.050504321584803689 0 -0.03491384473634216 -0.050206736332168538 0 -0.03481992865271432 -0.050471507419865613 0 -0.034791910879489185 -0.050504321584803689 0 -0.03491384473634216 -0.050206736332168538 0 -0.032431726404004046 -0.049998061331440344 0 -0.032327625711367644 -0.049721155841800091 0 -0.034537950921256486 -0.050001208896067538 0 -0.03481992865271432 -0.050471507419865613 0 -0.03491384473634216 -0.050206736332168538 0 -0.034544756345064133 -0.04999798975476593 0 -0.031752789930094304 -0.048733990421407851 0 -0.032327625711367644 -0.049721155841800091 0 -0.034537950921256486 -0.050001208896067538 0 -0.031389759886975781 -0.048439281067774273 0 -0.031752789930094304 -0.048733990421407851 0 -0.034537950921256486 -0.050001208896067538 0 -0.033278368716434685 -0.049080044922342511 0 -0.034540531192848049 -0.049999465698068422 0 -0.032431726404004046 -0.049998061331440344 0 -0.031926815865410046 -0.050050893987520037 0 -0.032327625711367644 -0.049721155841800091 0 -0.030322906992665349 -0.04999990132549148 0 -0.032431726404004046 -0.049998061331440344 0 -0.031926815865410046 -0.050050893987520037 0 -0.031926815865410046 -0.050050893987520037 0 -0.031350930471138024 -0.050351946008556109 0 -0.031759186905072137 -0.049849605574835434 0 -0.031752789930094304 -0.048733990421407851 0 -0.031991130890062426 -0.049512163393466625 0 -0.032327625711367644 -0.049721155841800091 0 -0.031926815865410046 -0.050050893987520037 0 -0.031759186905072137 -0.049849605574835434 0 -0.031991130890062426 -0.049512163393466625 0 -0.031752789930094304 -0.048733990421407851 0 -0.031759186905072137 -0.049849605574835434 0 -0.031991130890062426 -0.049512163393466625 0 -0.031926815865410046 -0.050050893987520037 0 -0.031991130890062426 -0.049512163393466625 0 -0.032327625711367644 -0.049721155841800091 0 -0.037110069923818122 -0.049998520045986081 0 -0.036902793843235727 -0.049676054407434986 0 -0.037885442536893986 -0.049181936562948655 0 -0.037110069923818122 -0.049998520045986081 0 -0.036902793843235727 -0.049676054407434986 0 -0.034544756345064133 -0.04999798975476593 0 -0.03491384473634216 -0.050206736332168538 0 -0.036902793843235727 -0.049676054407434986 0 -0.034544756345064133 -0.04999798975476593 0 -0.034748039466354533 -0.05069937075589831 0 -0.03491384473634216 -0.050206736332168538 0 -0.036902793843235727 -0.049676054407434986 0 -0.038470101872886332 -0.046181864043809071 0 -0.036902793843235727 -0.049676054407434986 0 -0.037574777259445774 -0.047127415761316023 0 -0.036371784662139139 -0.048544850938497641 0 -0.036826158843305229 -0.049505527923556461 0 -0.036902793843235727 -0.049676054407434986 0 -0.037546044491211593 -0.048343234128200456 0 -0.037885442536893986 -0.049181936562948655 0 -0.037574777259445774 -0.047127415761316023 0 -0.037546044491211593 -0.048343234128200456 0 -0.038113993774169595 -0.047361645798013115 0 -0.036902793843235727 -0.049676054407434986 0 -0.037574777259445774 -0.047127415761316023 0 -0.037546044491211593 -0.048343234128200456 0 -0.037546044491211593 -0.048343234128200456 0 -0.038113993774169595 -0.047361645798013115 0 -0.037885442536893986 -0.049181936562948655 0 -0.037574777259445774 -0.047127415761316023 0 -0.037650165887762849 -0.045189170603886747 0 -0.038113993774169595 -0.047361645798013115 0 -0.037650165887762849 -0.045189170603886747 0 -0.038573983842673382 -0.045421782272499753 0 -0.038113993774169595 -0.047361645798013115 0 -0.038470101872886332 -0.046181864043809071 0 -0.037574777259445774 -0.047127415761316023 0 -0.037650165887762849 -0.045189170603886747 0 -0.036646371379621047 -0.042507778678633965 0 -0.037650165887762849 -0.045189170603886747 0 -0.036851980729195107 -0.043426552068939382 0 -0.037650165887762849 -0.045189170603886747 0 -0.037742669090225223 -0.044535447154715843 0 -0.036851980729195107 -0.043426552068939382 0 -0.037650165887762849 -0.045189170603886747 0 -0.037742669090225223 -0.044535447154715843 0 -0.038573983842673382 -0.045421782272499753 0 -0.037742669090225223 -0.044535447154715843 0 -0.037418076069013699 -0.044489711925836249 0 -0.036851980729195107 -0.043426552068939382 0 -0.037742669090225223 -0.044535447154715843 0 -0.037418076069013699 -0.044489711925836249 0 -0.038768432362407144 -0.045002890794111156 0 -0.037418076069013699 -0.044489711925836249 0 -0.036094778415302065 -0.043564293124383903 0 -0.038478058432989508 -0.046474464582189644 0 -0.036136535749118535 -0.035259551113822833 0 -0.03719633552063651 -0.035260991556926247 0 -0.038539633201705711 -0.034104880126194302 0 -0.036422124032975789 -0.039379413457571545 0 -0.038659628743222554 -0.040264474501701022 0 -0.037418076069013699 -0.044489711925836249 0 -0.036094778415302065 -0.043564293124383903 0 -0.036851980729195107 -0.043426552068939382 0 -0.036094778415302065 -0.043564293124383903 0 -0.036851980729195107 -0.043426552068939382 0 -0.036122714083405297 -0.041733338919337927 0 -0.036646371379621047 -0.042507778678633965 0 -0.036122714083405297 -0.041733338919337927 0 -0.036335539716610452 -0.040693923798393372 0 -0.036646371379621047 -0.042507778678633965 0 -0.036851980729195107 -0.043426552068939382 0 -0.036122714083405297 -0.041733338919337927 0 -0.036997485164679496 -0.040512456277154066 0 -0.03705575668604006 -0.043292040505183878 0 -0.036791838544057986 -0.03963483208200775 0 -0.036646371379621047 -0.042507778678633965 0 -0.036335539716610452 -0.040693923798393372 0 -0.037134457523650626 -0.041582878797409323 0 -0.037525323454178992 -0.043043427902477976 0 -0.037523065256601366 -0.043999706552796954 0 -0.036791838544057986 -0.03963483208200775 0 -0.036335539716610452 -0.040693923798393372 0 -0.035935873620194174 -0.038347831386217682 0 -0.036122714083405297 -0.041733338919337927 0 -0.036335539716610452 -0.040693923798393372 0 -0.035935873620194174 -0.038347831386217682 0 -0.036136535749118535 -0.035259551113822833 0 -0.035935873620194174 -0.038347831386217682 0 -0.035599325799585801 -0.03584649998451378 0 -0.036422124032975789 -0.039379413457571545 0 -0.036314344116823404 -0.038515448375820695 0 -0.036094778415302065 -0.043564293124383903 0 -0.036122714083405297 -0.041733338919337927 0 -0.035935873620194174 -0.038347831386217682 0 -0.036432043681239291 -0.037358814025233777 0 -0.035935873620194174 -0.038347831386217682 0 -0.035777518413143458 -0.035808771436762539 0 -0.035935873620194174 -0.038347831386217682 0 -0.035599325799585801 -0.03584649998451378 0 -0.035777518413143458 -0.035808771436762539 0 -0.035599325799585801 -0.03584649998451378 0 -0.035777518413143458 -0.035808771436762539 0 -0.035602393183489789 -0.034834305534555424 0 -0.035384327534042984 -0.03407014830370015 0 -0.035777518413143458 -0.035808771436762539 0 -0.035602393183489789 -0.034834305534555424 0 -0.035599325799585801 -0.03584649998451378 0 -0.035602393183489789 -0.034834305534555424 0 -0.036098953197353824 -0.035336703412773111 0 -0.036005458616130567 -0.034561211492610738 0 -0.035602393183489789 -0.034834305534555424 0 -0.036098953197353824 -0.035336703412773111 0 -0.036098953197353824 -0.035336703412773111 0 -0.037060957039308534 -0.035630444535622433 0 -0.038319737295269773 -0.034313866027599539 0 -0.036005458616130567 -0.034561211492610738 0 -0.036098953197353824 -0.035336703412773111 0 -0.037060957039308534 -0.035630444535622433 0 -0.036330157256324491 -0.035353981348170298 0 -0.038635537322742212 -0.035309182225396335 0 -0.036098953197353824 -0.035336703412773111 0 -0.03719633552063651 -0.035260991556926247 0 -0.038874394877661214 -0.036212258141173854 0 -0.036136535749118535 -0.035259551113822833 0 -0.035599325799585801 -0.03584649998451378 0 -0.036098953197353824 -0.035336703412773111 0 -0.036136535749118535 -0.035259551113822833 0 -0.036098953197353824 -0.035336703412773111 0 -0.03719633552063651 -0.035260991556926247 0 -0.038319737295269773 -0.034313866027599539 0 -0.043130765842759024 -0.03559653561774255 0 -0.044433190555330369 -0.034332732460707019 0 -0.04107631396280919 -0.034951174023811322 0 -0.038874394877661214 -0.036212258141173854 0 -0.043661806745525257 -0.035362896728480635 0 -0.038319737295269773 -0.034313866027599539 0 -0.039930088324807433 -0.035850138908870004 0 -0.043130765842759024 -0.03559653561774255 0 -0.038635537322742212 -0.035309182225396335 0 -0.044060626468935944 -0.034629665470872012 0 -0.04107631396280919 -0.034951174023811322 0 -0.038874394877661214 -0.036212258141173854 0 -0.038539633201705711 -0.034104880126194302 0 -0.03719633552063651 -0.035260991556926247 0 -0.038874394877661214 -0.036212258141173854 0 -0.038539633201705711 -0.034104880126194302 0 -0.039178056671716727 -0.036560362694838186 0 -0.037060957039308534 -0.035630444535622433 0 -0.039930088324807433 -0.035850138908870004 0 -0.037060957039308534 -0.035630444535622433 0 -0.038319737295269773 -0.034313866027599539 0 -0.039930088324807433 -0.035850138908870004 0 -0.039930088324807433 -0.035850138908870004 0 -0.041119770003574307 -0.037022525496055066 0 -0.043130765842759024 -0.03559653561774255 0 -0.039178056671716727 -0.036560362694838186 0 -0.039930088324807433 -0.035850138908870004 0 -0.041119770003574307 -0.037022525496055066 0 -0.044115895532719988 -0.037110146152751662 0 -0.043179623335896193 -0.035494484285101546 0 -0.046419414752967236 -0.036273971153852766 0 -0.043130765842759024 -0.03559653561774255 0 -0.045797406550942998 -0.036164724713598224 0 -0.042364613160515867 -0.038390113376865466 0 -0.041119770003574307 -0.037022525496055066 0 -0.043130765842759024 -0.03559653561774255 0 -0.046419414752967236 -0.036273971153852766 0 -0.047579205862454413 -0.036863607508181011 0 -0.045797406550942998 -0.036164724713598224 0 -0.047800101776217248 -0.036592977246695378 0 -0.046419414752967236 -0.036273971153852766 0 -0.047579205862454413 -0.036863607508181011 0 -0.047579205862454413 -0.036863607508181011 0 -0.04801277940201195 -0.037355920523760078 0 -0.048365118699640608 -0.037482862559117106 0 -0.047579205862454413 -0.036863607508181011 0 -0.04801277940201195 -0.037355920523760078 0 -0.047048348714991174 -0.036656397894386045 0 -0.047048348714991174 -0.036656397894386045 0 -0.045797406550942998 -0.036164724713598224 0 -0.046097887013025612 -0.035916439739801645 0 -0.047579205862454413 -0.036863607508181011 0 -0.047048348714991174 -0.036656397894386045 0 -0.045797406550942998 -0.036164724713598224 0 -0.047048348714991174 -0.036656397894386045 0 -0.046890990674200134 -0.0365436673271105 0 -0.046097887013025612 -0.035916439739801645 0 -0.04801277940201195 -0.037355920523760078 0 -0.047048348714991174 -0.036656397894386045 0 -0.047999010456043448 -0.037564792627993955 0 -0.047048348714991174 -0.036656397894386045 0 -0.046890990674200134 -0.0365436673271105 0 -0.047999010456043448 -0.037564792627993955 0 -0.043130765842759024 -0.03559653561774255 0 -0.045797406550942998 -0.036164724713598224 0 -0.044433190555330369 -0.034332732460707019 0 -0.045797406550942998 -0.036164724713598224 0 -0.046097887013025612 -0.035916439739801645 0 -0.044433190555330369 -0.034332732460707019 0 -0.046890990674200134 -0.0365436673271105 0 -0.046097887013025612 -0.035916439739801645 0 -0.044433190555330369 -0.034332732460707019 0 -0.043297675442387121 -0.047364212585002737 0 -0.045275980262325315 -0.045509130087802524 0 -0.046738456965582618 -0.044816108352939026 0 -0.043661806745525257 -0.035362896728480635 0 -0.043364748196298847 -0.033968744567737789 0 -0.048236152106235018 -0.034183974409228039 0 -0.043297675442387121 -0.047364212585002737 0 -0.045275980262325315 -0.045509130087802524 0 -0.044207615255834679 -0.045747138571067256 0 -0.043297675442387121 -0.047364212585002737 0 -0.044207615255834679 -0.045747138571067256 0 -0.042882997750605306 -0.046095337618196362 0 -0.043297675442387121 -0.047364212585002737 0 -0.046738456965582618 -0.044816108352939026 0 -0.047825260190127304 -0.04434356236462398 0 -0.043273830061773988 -0.040616269058674 0 -0.047826486915611019 -0.038711109289460144 0 -0.046890990674200134 -0.0365436673271105 0 -0.044433190555330369 -0.034332732460707019 0 -0.048758159572034367 -0.038158907440216869 0 -0.044060626468935944 -0.034629665470872012 0 -0.047826486915611019 -0.038711109289460144 0 -0.046890990674200134 -0.0365436673271105 0 -0.047999010456043448 -0.037564792627993955 0 -0.048758159572034367 -0.038158907440216869 0 -0.045275980262325315 -0.045509130087802524 0 -0.046738456965582618 -0.044816108352939026 0 -0.046367873298812139 -0.044642989388628179 0 -0.046738456965582618 -0.044816108352939026 0 -0.046367873298812139 -0.044642989388628179 0 -0.047493985261022137 -0.043987242009063919 0 -0.046738456965582618 -0.044816108352939026 0 -0.047461636843733765 -0.044183537576802594 0 -0.047493985261022137 -0.043987242009063919 0 -0.046738456965582618 -0.044816108352939026 0 -0.047461636843733765 -0.044183537576802594 0 -0.047825260190127304 -0.04434356236462398 0 -0.047110442529224868 -0.044225722898277184 0 -0.045991520745112299 -0.044667005071173875 0 -0.047510581261187214 -0.044326916026213505 0 -0.047110442529224868 -0.044225722898277184 0 -0.046367873298812139 -0.044642989388628179 0 -0.047493985261022137 -0.043987242009063919 0 -0.045275980262325315 -0.045509130087802524 0 -0.046367873298812139 -0.044642989388628179 0 -0.04525062020278435 -0.045085233474178366 0 -0.046367873298812139 -0.044642989388628179 0 -0.04525062020278435 -0.045085233474178366 0 -0.045991520745112299 -0.044667005071173875 0 -0.047110442529224868 -0.044225722898277184 0 -0.046367873298812139 -0.044642989388628179 0 -0.045991520745112299 -0.044667005071173875 0 -0.044207615255834679 -0.045747138571067256 0 -0.042882997750605306 -0.046095337618196362 0 -0.044052440541389688 -0.045234142232485924 0 -0.044207615255834679 -0.045747138571067256 0 -0.04525062020278435 -0.045085233474178366 0 -0.044052440541389688 -0.045234142232485924 0 -0.045275980262325315 -0.045509130087802524 0 -0.044207615255834679 -0.045747138571067256 0 -0.04525062020278435 -0.045085233474178366 0 -0.04525062020278435 -0.045085233474178366 0 -0.044052440541389688 -0.045234142232485924 0 -0.045991520745112299 -0.044667005071173875 0 -0.042882997750605306 -0.046095337618196362 0 -0.040812942668032162 -0.045989468936932794 0 -0.040228224143264622 -0.044972111190618121 0 -0.042882997750605306 -0.046095337618196362 0 -0.044052440541389688 -0.045234142232485924 0 -0.040228224143264622 -0.044972111190618121 0 -0.043297675442387121 -0.047364212585002737 0 -0.042882997750605306 -0.046095337618196362 0 -0.040812942668032162 -0.045989468936932794 0 -0.04107631396280919 -0.034951174023811322 0 -0.043364748196298847 -0.033968744567737789 0 -0.038539633201705711 -0.034104880126194302 0 -0.043273830061773988 -0.040616269058674 0 -0.038659628743222554 -0.040264474501701022 0 -0.043297675442387121 -0.047364212585002737 0 -0.040812942668032162 -0.045989468936932794 0 -0.038478058432989508 -0.046474464582189644 0 -0.04107631396280919 -0.034951174023811322 0 -0.043661806745525257 -0.035362896728480635 0 -0.043364748196298847 -0.033968744567737789 0 -0.040812942668032162 -0.045989468936932794 0 -0.038478058432989508 -0.046474464582189644 0 -0.038768432362407144 -0.045002890794111156 0 -0.037418076069013699 -0.044489711925836249 0 -0.038478058432989508 -0.046474464582189644 0 -0.038768432362407144 -0.045002890794111156 0 -0.040812942668032162 -0.045989468936932794 0 -0.038768432362407144 -0.045002890794111156 0 -0.040228224143264622 -0.044972111190618121 0 -0.038768432362407144 -0.045002890794111156 0 -0.038573983842673382 -0.045421782272499753 0 -0.040228224143264622 -0.044972111190618121 0 -0.037742669090225223 -0.044535447154715843 0 -0.038768432362407144 -0.045002890794111156 0 -0.038573983842673382 -0.045421782272499753 0 -0.040418482903580182 -0.045376284892124051 0 -0.041356708421135563 -0.046162462843373449 0 -0.038573983842673382 -0.045421782272499753 0 -0.040228224143264622 -0.044972111190618121 0 -0.038464885243172549 -0.047209502620179374 0 -0.044052440541389688 -0.045234142232485924 0 -0.040228224143264622 -0.044972111190618121 0 -0.044457200099684346 -0.044698711351744531 0 -0.040228224143264622 -0.044972111190618121 0 -0.044417495649560997 -0.044770312900096761 0 -0.044457200099684346 -0.044698711351744531 0 -0.038464885243172549 -0.047209502620179374 0 -0.038113993774169595 -0.047361645798013115 0 -0.038644348497959356 -0.048748549864446537 0 -0.038573983842673382 -0.045421782272499753 0 -0.038464885243172549 -0.047209502620179374 0 -0.038113993774169595 -0.047361645798013115 0 -0.038113993774169595 -0.047361645798013115 0 -0.037885442536893986 -0.049181936562948655 0 -0.038644348497959356 -0.048748549864446537 0 -0.038464885243172549 -0.047209502620179374 0 -0.038644348497959356 -0.048748549864446537 0 -0.039424208457208544 -0.049469505636873683 0 -0.038644348497959356 -0.048748549864446537 0 -0.039677178556371151 -0.049998472690621049 0 -0.039424208457208544 -0.049469505636873683 0 -0.037885442536893986 -0.049181936562948655 0 -0.038644348497959356 -0.048748549864446537 0 -0.039677178556371151 -0.049998472690621049 0 -0.037110069923818122 -0.049998520045986081 0 -0.037885442536893986 -0.049181936562948655 0 -0.039677178556371151 -0.049998472690621049 0 -0.042263267446342817 -0.049989828994377636 0 -0.045251906063117797 -0.045734182493074822 0 -0.047161240015544635 -0.045935114138777267 0 -0.042263267446342817 -0.049989828994377636 0 -0.044909844660589046 -0.047316426546896578 0 -0.045251906063117797 -0.045734182493074822 0 -0.039677178556371151 -0.049998472690621049 0 -0.042243408303430784 -0.04999924939262345 0 -0.039424208457208544 -0.049469505636873683 0 -0.042247153084102124 -0.049998916278707825 0 -0.042168342067567539 -0.048148967094629951 0 -0.041356708421135563 -0.046162462843373449 0 -0.042168342067567539 -0.048148967094629951 0 -0.044417495649560997 -0.044770312900096761 0 -0.044909844660589046 -0.047316426546896578 0 -0.045251906063117797 -0.045734182493074822 0 -0.044417495649560997 -0.044770312900096761 0 -0.045251906063117797 -0.045734182493074822 0 -0.044457200099684346 -0.044698711351744531 0 -0.045251906063117797 -0.045734182493074822 0 -0.044457200099684346 -0.044698711351744531 0 -0.045991520745112299 -0.044667005071173875 0 -0.044052440541389688 -0.045234142232485924 0 -0.044457200099684346 -0.044698711351744531 0 -0.045991520745112299 -0.044667005071173875 0 -0.045251906063117797 -0.045734182493074822 0 -0.045991520745112299 -0.044667005071173875 0 -0.047161240015544635 -0.045935114138777267 0 -0.042263267446342817 -0.049989828994377636 0 -0.049993053310766082 -0.04999728452805912 0 -0.047161240015544635 -0.045935114138777267 0 -0.049993053310766082 -0.04999728452805912 0 -0.047161240015544635 -0.045935114138777267 0 -0.049995068254610475 -0.042480512435435887 0 -0.045991520745112299 -0.044667005071173875 0 -0.047161240015544635 -0.045935114138777267 0 -0.047510581261187214 -0.044326916026213505 0 -0.049995068254610475 -0.042480512435435887 0 -0.048629863012805301 -0.04246546808357464 0 -0.04863759241015464 -0.04007837254411846 0 -0.047161240015544635 -0.045935114138777267 0 -0.049995068254610475 -0.042480512435435887 0 -0.048629863012805301 -0.04246546808357464 0 -0.047161240015544635 -0.045935114138777267 0 -0.048629863012805301 -0.04246546808357464 0 -0.047510581261187214 -0.044326916026213505 0 -0.048629863012805301 -0.04246546808357464 0 -0.047510581261187214 -0.044326916026213505 0 -0.048133595528958149 -0.042566473197497325 0 -0.047510581261187214 -0.044326916026213505 0 -0.047783593288826538 -0.043684401778256284 0 -0.048133595528958149 -0.042566473197497325 0 -0.047110442529224868 -0.044225722898277184 0 -0.047510581261187214 -0.044326916026213505 0 -0.047783593288826538 -0.043684401778256284 0 -0.047110442529224868 -0.044225722898277184 0 -0.047783593288826538 -0.043684401778256284 0 -0.047493985261022137 -0.043987242009063919 0 -0.047831312003624317 -0.043809378688342462 0 -0.047493985261022137 -0.043987242009063919 0 -0.048213650264936243 -0.043135344010575692 0 -0.047461636843733765 -0.044183537576802594 0 -0.047831312003624317 -0.043809378688342462 0 -0.047493985261022137 -0.043987242009063919 0 -0.047461636843733765 -0.044183537576802594 0 -0.047831312003624317 -0.043809378688342462 0 -0.047825260190127304 -0.04434356236462398 0 -0.047783593288826538 -0.043684401778256284 0 -0.047493985261022137 -0.043987242009063919 0 -0.048213650264936243 -0.043135344010575692 0 -0.047831312003624317 -0.043809378688342462 0 -0.048213650264936243 -0.043135344010575692 0 -0.048174180351326097 -0.043492219697855126 0 -0.047783593288826538 -0.043684401778256284 0 -0.048213650264936243 -0.043135344010575692 0 -0.048133595528958149 -0.042566473197497325 0 -0.048213650264936243 -0.043135344010575692 0 -0.048133595528958149 -0.042566473197497325 0 -0.048440525087906 -0.041184565367116094 0 -0.04839292042189592 -0.039918734388768667 0 -0.048440525087906 -0.041184565367116094 0 -0.048650197006792531 -0.038961112603885087 0 -0.048133595528958149 -0.042566473197497325 0 -0.04839292042189592 -0.039918734388768667 0 -0.048440525087906 -0.041184565367116094 0 -0.048440525087906 -0.041184565367116094 0 -0.048706149854580161 -0.039057540600336865 0 -0.048758159572034367 -0.038158907440216869 0 -0.048440525087906 -0.041184565367116094 0 -0.048090075229287446 -0.044218604560630717 0 -0.048174180351326097 -0.043492219697855126 0 -0.047528232977476235 -0.0398561147579558 0 -0.047826486915611019 -0.038711109289460144 0 -0.048213650264936243 -0.043135344010575692 0 -0.048440525087906 -0.041184565367116094 0 -0.048174180351326097 -0.043492219697855126 0 -0.048650197006792531 -0.038961112603885087 0 -0.048706149854580161 -0.039057540600336865 0 -0.048542132205579139 -0.038261300417495293 0 -0.048440525087906 -0.041184565367116094 0 -0.048650197006792531 -0.038961112603885087 0 -0.048706149854580161 -0.039057540600336865 0 -0.047999010456043448 -0.037564792627993955 0 -0.048542132205579139 -0.038261300417495293 0 -0.048758159572034367 -0.038158907440216869 0 -0.048706149854580161 -0.039057540600336865 0 -0.048542132205579139 -0.038261300417495293 0 -0.048758159572034367 -0.038158907440216869 0 -0.047826486915611019 -0.038711109289460144 0 -0.047706781465259349 -0.038966513241434873 0 -0.047831312003624317 -0.043809378688342462 0 -0.047825260190127304 -0.04434356236462398 0 -0.048174180351326097 -0.043492219697855126 0 -0.048629863012805301 -0.04246546808357464 0 -0.048331113102982742 -0.041306991761401964 0 -0.04863759241015464 -0.04007837254411846 0 -0.048629863012805301 -0.04246546808357464 0 -0.048133595528958149 -0.042566473197497325 0 -0.048331113102982742 -0.041306991761401964 0 -0.04839292042189592 -0.039918734388768667 0 -0.048331113102982742 -0.041306991761401964 0 -0.04863759241015464 -0.04007837254411846 0 -0.048133595528958149 -0.042566473197497325 0 -0.04839292042189592 -0.039918734388768667 0 -0.048331113102982742 -0.041306991761401964 0 -0.04863759241015464 -0.04007837254411846 0 -0.048816017203844389 -0.037912948314412449 0 -0.049303690237781347 -0.038075595457672987 0 -0.04863759241015464 -0.04007837254411846 0 -0.048565827621529944 -0.038460895814332083 0 -0.048816017203844389 -0.037912948314412449 0 -0.04839292042189592 -0.039918734388768667 0 -0.04863759241015464 -0.04007837254411846 0 -0.048565827621529944 -0.038460895814332083 0 -0.04801277940201195 -0.037355920523760078 0 -0.047999010456043448 -0.037564792627993955 0 -0.048532693672274772 -0.03812930618290776 0 -0.047999010456043448 -0.037564792627993955 0 -0.048542132205579139 -0.038261300417495293 0 -0.048532693672274772 -0.03812930618290776 0 -0.048650197006792531 -0.038961112603885087 0 -0.048542132205579139 -0.038261300417495293 0 -0.048532693672274772 -0.03812930618290776 0 -0.04839292042189592 -0.039918734388768667 0 -0.048650197006792531 -0.038961112603885087 0 -0.048532693672274772 -0.03812930618290776 0 -0.04839292042189592 -0.039918734388768667 0 -0.048532693672274772 -0.03812930618290776 0 -0.048565827621529944 -0.038460895814332083 0 -0.048565827621529944 -0.038460895814332083 0 -0.048365118699640608 -0.037482862559117106 0 -0.048816017203844389 -0.037912948314412449 0 -0.048532693672274772 -0.03812930618290776 0 -0.048565827621529944 -0.038460895814332083 0 -0.048365118699640608 -0.037482862559117106 0 -0.04801277940201195 -0.037355920523760078 0 -0.048532693672274772 -0.03812930618290776 0 -0.048365118699640608 -0.037482862559117106 0 -0.047579205862454413 -0.036863607508181011 0 -0.048365118699640608 -0.037482862559117106 0 -0.048506946140862053 -0.036965537630223831 0 -0.048365118699640608 -0.037482862559117106 0 -0.048506946140862053 -0.036965537630223831 0 -0.048816017203844389 -0.037912948314412449 0 -0.047800101776217248 -0.036592977246695378 0 -0.047579205862454413 -0.036863607508181011 0 -0.048506946140862053 -0.036965537630223831 0 -0.049015829175354686 -0.037136911220654656 0 -0.048816017203844389 -0.037912948314412449 0 -0.049303690237781347 -0.038075595457672987 0 -0.049015829175354686 -0.037136911220654656 0 -0.048506946140862053 -0.036965537630223831 0 -0.048816017203844389 -0.037912948314412449 0 -0.04999728613992014 -0.036902345974312106 0 -0.049995068254610475 -0.042480512435435887 0 -0.049303690237781347 -0.038075595457672987 0 -0.049995068254610475 -0.042480512435435887 0 -0.04863759241015464 -0.04007837254411846 0 -0.049303690237781347 -0.038075595457672987 0 -0.015556312117309106 -0.032043260395686841 0 -0.016588335563676032 -0.035080824235500761 0 -0.013764868283744288 -0.033184809027121037 0 -0.012393420549928263 -0.03164733967881337 0 -0.012068606803760807 -0.035237361084111664 0 -0.01879186916199254 -0.031883105390844046 0 -0.018565203200885377 -0.0337669916036916 0 -0.020958041240232171 -0.035565050982870022 0 -0.013764868283744288 -0.033184809027121037 0 -0.012393420549928263 -0.03164733967881337 0 -0.014020110875450678 -0.029607243838538848 0 -0.013764868283744288 -0.033184809027121037 0 -0.015003516598373722 -0.030253990121773149 0 -0.014020110875450678 -0.029607243838538848 0 -0.01879186916199254 -0.031883105390844046 0 -0.016842420046757758 -0.031703584833225835 0 -0.014694763167033919 -0.028861256436635219 0 -0.01879186916199254 -0.031883105390844046 0 -0.016842420046757758 -0.031703584833225835 0 -0.018565203200885377 -0.0337669916036916 0 -0.016842420046757758 -0.031703584833225835 0 -0.015392026424004101 -0.032507730914269561 0 -0.017682463239420885 -0.033898542017249809 0 -0.017668177410244894 -0.031505771860711129 0 -0.017682463239420885 -0.033898542017249809 0 -0.0169447063008571 -0.034261712336220163 0 -0.016491934051385385 -0.031831420837518033 0 -0.017473559879278695 -0.03362818249476468 0 -0.016842420046757758 -0.031703584833225835 0 -0.017682463239420885 -0.033898542017249809 0 -0.018565203200885377 -0.0337669916036916 0 -0.017682463239420885 -0.033898542017249809 0 -0.018565203200885377 -0.0337669916036916 0 -0.018785348304752005 -0.036176733723708318 0 -0.018785348304752005 -0.036176733723708318 0 -0.020053458484725003 -0.03746782684197654 0 -0.020958041240232171 -0.035565050982870022 0 -0.018565203200885377 -0.0337669916036916 0 -0.018785348304752005 -0.036176733723708318 0 -0.020958041240232171 -0.035565050982870022 0 -0.018785348304752005 -0.036176733723708318 0 -0.017550497762859964 -0.036377271851781079 0 -0.01792193882062789 -0.038342929045205955 0 -0.017682463239420885 -0.033898542017249809 0 -0.018785348304752005 -0.036176733723708318 0 -0.017550497762859964 -0.036377271851781079 0 -0.018785348304752005 -0.036176733723708318 0 -0.018898569342782848 -0.038842428303757205 0 -0.01792193882062789 -0.038342929045205955 0 -0.018898569342782848 -0.038842428303757205 0 -0.01792193882062789 -0.038342929045205955 0 -0.017946284865042954 -0.04004080078703303 0 -0.018785348304752005 -0.036176733723708318 0 -0.018898569342782848 -0.038842428303757205 0 -0.020053458484725003 -0.03746782684197654 0 -0.018816259062085925 -0.038768417826509124 0 -0.02076212283691161 -0.039528758497686653 0 -0.018898569342782848 -0.038842428303757205 0 -0.020053458484725003 -0.03746782684197654 0 -0.020401182237177153 -0.038704160884295284 0 -0.020053458484725003 -0.03746782684197654 0 -0.020813327054574421 -0.037679023557333921 0 -0.020401182237177153 -0.038704160884295284 0 -0.016588335563676032 -0.035080824235500761 0 -0.016339152163072024 -0.040406239601639339 0 -0.020813327054574421 -0.037679023557333921 0 -0.021880519132670775 -0.038948998298319257 0 -0.020401182237177153 -0.038704160884295284 0 -0.020053458484725003 -0.03746782684197654 0 -0.020813327054574421 -0.037679023557333921 0 -0.020958041240232171 -0.035565050982870022 0 -0.012808439538285523 -0.037126739510025805 0 -0.012068606803760807 -0.035237361084111664 0 -0.012277508624756159 -0.038595064035334532 0 -0.020813327054574421 -0.037679023557333921 0 -0.020958041240232171 -0.035565050982870022 0 -0.021880519132670775 -0.038948998298319257 0 -0.013764868283744288 -0.033184809027121037 0 -0.012068606803760807 -0.035237361084111664 0 -0.014333969854909796 -0.03603524440398715 0 -0.012808439538285523 -0.037126739510025805 0 -0.012068606803760807 -0.035237361084111664 0 -0.014333969854909796 -0.03603524440398715 0 -0.012808439538285523 -0.037126739510025805 0 -0.014333969854909796 -0.03603524440398715 0 -0.012549460849439057 -0.03865368134264608 0 -0.014298428445195979 -0.036555758723364515 0 -0.014128868851469686 -0.041034888400184953 0 -0.01406328169727921 -0.03791742216054575 0 -0.014057837075751752 -0.035749768782326934 0 -0.014759442792825822 -0.038190353632463925 0 -0.015389310064668666 -0.036509781912849426 0 -0.015733383221846149 -0.038314579822265708 0 -0.014759442792825822 -0.038190353632463925 0 -0.014057837075751752 -0.035749768782326934 0 -0.015389310064668666 -0.036509781912849426 0 -0.014759442792825822 -0.038190353632463925 0 -0.013764868283744288 -0.033184809027121037 0 -0.014333969854909796 -0.03603524440398715 0 -0.015419795566050833 -0.033504790722880935 0 -0.014298428445195979 -0.036555758723364515 0 -0.014657733878593331 -0.03475124134953754 0 0.0017846701316111839 -0.043556227590029042 0 0.0014544753004118868 -0.043684562918992267 0 -0.00027470461939190486 -0.043920900839448662 0 0.0017846701316111839 -0.043556227590029042 0 0.001479731408987445 -0.043204436342553602 0 0.0014544753004118868 -0.043684562918992267 0 0.001479731408987445 -0.043204436342553602 0 0.0014544753004118868 -0.043684562918992267 0 0.0015106940612315128 -0.043605071480590368 0 0.0014544753004118868 -0.043684562918992267 0 0.0012237784308157102 -0.0436665733234839 0 0.0015106940612315128 -0.043605071480590368 0 -0.0081301201953213123 -0.039915589178472093 0 -0.0087353744268954415 -0.039580742243805575 0 -0.017277831064816264 -0.036788035999332377 0 -0.015389310064668666 -0.036509781912849426 0 -0.015733383221846149 -0.038314579822265708 0 -0.017277831064816264 -0.036788035999332377 0 -0.015389310064668666 -0.036509781912849426 0 -0.016675273732585188 -0.034518945855243059 0 -0.017277831064816264 -0.036788035999332377 0 -0.016675273732585188 -0.034518945855243059 0 -0.01936419543200827 -0.034472498962904732 0 -0.016675273732585188 -0.034518945855243059 0 -0.018051274331721132 -0.031948448717514469 0 -0.01936419543200827 -0.034472498962904732 0 -0.016675273732585188 -0.034518945855243059 0 -0.014810928559731647 -0.032873039329355272 0 -0.018051274331721132 -0.031948448717514469 0 -0.015389310064668666 -0.036509781912849426 0 -0.016675273732585188 -0.034518945855243059 0 -0.014810928559731647 -0.032873039329355272 0 -0.016111561273049749 -0.031553989528140293 0 -0.016953968492083863 -0.029750815996140875 0 -0.016136967435703378 -0.030168303222614792 0 -0.016111561273049749 -0.031553989528140293 0 -0.015316995009924042 -0.029588619702765977 0 -0.016136967435703378 -0.030168303222614792 0 -0.015849582312949279 -0.031860628431329557 0 -0.015241839367658975 -0.030899614394106458 0 -0.014810928559731647 -0.032873039329355272 0 -0.018051274331721132 -0.031948448717514469 0 -0.016566020184061791 -0.029253881064103912 0 -0.014514657560675838 -0.034548801396766811 0 -0.015241839367658975 -0.030899614394106458 0 -0.010120882609194351 -0.036671571999343212 0 -0.0085554689270116117 -0.034031953379881394 0 -0.011017825709247765 -0.033214167719540562 0 -0.013764868283744288 -0.033184809027121037 0 -0.015419795566050833 -0.033504790722880935 0 -0.014648562313628799 -0.03136374918466215 0 -0.013736631580007999 -0.032972475585991763 0 -0.014770332799512533 -0.030856796053887543 0 -0.015419795566050833 -0.033504790722880935 0 -0.016111561273049749 -0.031553989528140293 0 -0.014648562313628799 -0.03136374918466215 0 -0.014657733878593331 -0.03475124134953754 0 -0.015849582312949279 -0.031860628431329557 0 -0.014057837075751752 -0.035749768782326934 0 -0.015389310064668666 -0.036509781912849426 0 -0.014810928559731647 -0.032873039329355272 0 -0.016111561273049749 -0.031553989528140293 0 -0.014648562313628799 -0.03136374918466215 0 -0.015316995009924042 -0.029588619702765977 0 -0.015003516598373722 -0.030253990121773149 0 -0.014875145556053685 -0.028152464165457768 0 -0.014010291591576617 -0.027928058983111449 0 -0.015003516598373722 -0.030253990121773149 0 -0.014010291591576617 -0.027928058983111449 0 -0.014020110875450678 -0.029607243838538848 0 -0.014770332799512533 -0.030856796053887543 0 -0.014995500433219025 -0.028948291821653285 0 -0.014875145556053685 -0.028152464165457768 0 -0.014010291591576617 -0.027928058983111449 0 -0.013979489809932136 -0.026368646871641074 0 -0.014875145556053685 -0.028152464165457768 0 -0.01481054297586318 -0.026225035722580937 0 -0.013979489809932136 -0.026368646871641074 0 -0.014010291591576617 -0.027928058983111449 0 -0.01337646624827272 -0.026028305301404427 0 -0.013979489809932136 -0.026368646871641074 0 -0.015241839367658975 -0.030899614394106458 0 -0.012208682769212669 -0.030005908206757352 0 -0.016844814611360465 -0.029815932925110283 0 -0.017255968806086191 -0.028450932197023531 0 -0.01803651186635136 -0.028079158670077608 0 -0.016844814611360465 -0.029815932925110283 0 -0.016877141270876871 -0.028421580119817817 0 -0.017255968806086191 -0.028450932197023531 0 -0.016844814611360465 -0.029815932925110283 0 -0.016499678263903569 -0.029082826549850126 0 -0.016877141270876871 -0.028421580119817817 0 -0.015241839367658975 -0.030899614394106458 0 -0.015816362908558441 -0.029805444008212285 0 -0.015316995009924042 -0.029588619702765977 0 -0.016499678263903569 -0.029082826549850126 0 -0.016191157767988448 -0.028475594593332682 0 -0.015316995009924042 -0.029588619702765977 0 -0.016499678263903569 -0.029082826549850126 0 -0.016136967435703378 -0.030168303222614792 0 -0.016953968492083863 -0.029750815996140875 0 -0.016499678263903569 -0.029082826549850126 0 -0.016136967435703378 -0.030168303222614792 0 -0.014995500433219025 -0.028948291821653285 0 -0.015832167615122857 -0.026740534487256842 0 -0.015316995009924042 -0.029588619702765977 0 -0.015928517318204039 -0.027645071729287977 0 -0.016191157767988448 -0.028475594593332682 0 -0.015928517318204039 -0.027645071729287977 0 -0.016191157767988448 -0.028475594593332682 0 -0.016604810396451727 -0.027817092016464765 0 -0.017242835524300788 -0.027482647050007327 0 -0.017046234443117859 -0.025320261918554583 0 -0.01803651186635136 -0.028079158670077608 0 -0.016877141270876871 -0.028421580119817817 0 -0.016604810396451727 -0.027817092016464765 0 -0.017242835524300788 -0.027482647050007327 0 -0.016499678263903569 -0.029082826549850126 0 -0.016191157767988448 -0.028475594593332682 0 -0.016877141270876871 -0.028421580119817817 0 -0.016191157767988448 -0.028475594593332682 0 -0.016877141270876871 -0.028421580119817817 0 -0.016604810396451727 -0.027817092016464765 0 -0.015928517318204039 -0.027645071729287977 0 -0.016604810396451727 -0.027817092016464765 0 -0.016846891920658847 -0.027003567159249231 0 -0.016604810396451727 -0.027817092016464765 0 -0.016846891920658847 -0.027003567159249231 0 -0.017242835524300788 -0.027482647050007327 0 -0.016877141270876871 -0.028421580119817817 0 -0.017242835524300788 -0.027482647050007327 0 -0.017255968806086191 -0.028450932197023531 0 -0.017242835524300788 -0.027482647050007327 0 -0.017255968806086191 -0.028450932197023531 0 -0.01803651186635136 -0.028079158670077608 0 -0.015928517318204039 -0.027645071729287977 0 -0.016846891920658847 -0.027003567159249231 0 -0.017046234443117859 -0.025320261918554583 0 -0.01481054297586318 -0.026225035722580937 0 -0.015535972072585051 -0.024259901114890351 0 -0.014335923299635126 -0.024662146227325522 0 -0.015832167615122857 -0.026740534487256842 0 -0.013664093207011514 -0.025195108610781849 0 -0.016846891920658847 -0.027003567159249231 0 -0.017242835524300788 -0.027482647050007327 0 -0.017046234443117859 -0.025320261918554583 0 -0.01481054297586318 -0.026225035722580937 0 -0.013967440704904877 -0.02529668109190426 0 -0.013979489809932136 -0.026368646871641074 0 -0.01481054297586318 -0.026225035722580937 0 -0.013967440704904877 -0.02529668109190426 0 -0.014335923299635126 -0.024662146227325522 0 -0.013967440704904877 -0.02529668109190426 0 -0.014335923299635126 -0.024662146227325522 0 -0.013281003643279341 -0.023661243061199603 0 -0.014335923299635126 -0.024662146227325522 0 -0.013281003643279341 -0.023661243061199603 0 -0.01377209731043744 -0.023141084800080459 0 -0.011541221032982267 -0.022320995957754903 0 -0.013664093207011514 -0.025195108610781849 0 -0.013822407882791429 -0.021727731017756415 0 -0.015535972072585051 -0.024259901114890351 0 -0.01377209731043744 -0.023141084800080459 0 -0.0094992802655470485 -0.022705837695073658 0 -0.0095450109251409426 -0.025615133448624851 0 -0.010080337070383839 -0.024940736829995543 0 -0.015535972072585051 -0.024259901114890351 0 -0.014335923299635126 -0.024662146227325522 0 -0.01377209731043744 -0.023141084800080459 0 -0.01337646624827272 -0.026028305301404427 0 -0.013979489809932136 -0.026368646871641074 0 -0.013207401279163058 -0.024831820367669774 0 -0.013967440704904877 -0.02529668109190426 0 -0.013979489809932136 -0.026368646871641074 0 -0.013207401279163058 -0.024831820367669774 0 -0.013967440704904877 -0.02529668109190426 0 -0.013281003643279341 -0.023661243061199603 0 -0.013207401279163058 -0.024831820367669774 0 -0.012154010000724736 -0.022560589002326756 0 -0.013281003643279341 -0.023661243061199603 0 -0.013207401279163058 -0.024831820367669774 0 -0.012154010000724736 -0.022560589002326756 0 -0.013207401279163058 -0.024831820367669774 0 -0.012697734212115225 -0.024795809190385636 0 -0.01337646624827272 -0.026028305301404427 0 -0.013207401279163058 -0.024831820367669774 0 -0.012697734212115225 -0.024795809190385636 0 -0.012902575197916323 -0.025700411169139566 0 -0.012697734212115225 -0.024795809190385636 0 -0.013609920731141393 -0.026940807833219116 0 -0.01337646624827272 -0.026028305301404427 0 -0.012697734212115225 -0.024795809190385636 0 -0.013609920731141393 -0.026940807833219116 0 -0.012902575197916323 -0.025700411169139566 0 -0.013609920731141393 -0.026940807833219116 0 -0.013631912696779113 -0.027033988072469598 0 -0.013609920731141393 -0.026940807833219116 0 -0.014255606419447257 -0.028163538369881402 0 -0.013631912696779113 -0.027033988072469598 0 -0.014010291591576617 -0.027928058983111449 0 -0.01337646624827272 -0.026028305301404427 0 -0.013609920731141393 -0.026940807833219116 0 -0.014010291591576617 -0.027928058983111449 0 -0.013609920731141393 -0.026940807833219116 0 -0.014694763167033919 -0.028861256436635219 0 -0.013609920731141393 -0.026940807833219116 0 -0.014694763167033919 -0.028861256436635219 0 -0.014255606419447257 -0.028163538369881402 0 -0.012393420549928263 -0.03164733967881337 0 -0.014694763167033919 -0.028861256436635219 0 -0.014020110875450678 -0.029607243838538848 0 -0.015556312117309106 -0.032043260395686841 0 -0.014845912952236617 -0.029283117503849886 0 -0.014010291591576617 -0.027928058983111449 0 -0.014694763167033919 -0.028861256436635219 0 -0.014020110875450678 -0.029607243838538848 0 -0.016842420046757758 -0.031703584833225835 0 -0.015392026424004101 -0.032507730914269561 0 -0.015225671684559502 -0.029915893150174816 0 -0.015392026424004101 -0.032507730914269561 0 -0.015225671684559502 -0.029915893150174816 0 -0.013940822685419569 -0.030833182338680286 0 -0.016842420046757758 -0.031703584833225835 0 -0.014694763167033919 -0.028861256436635219 0 -0.015225671684559502 -0.029915893150174816 0 -0.014694763167033919 -0.028861256436635219 0 -0.015225671684559502 -0.029915893150174816 0 -0.014255606419447257 -0.028163538369881402 0 -0.015225671684559502 -0.029915893150174816 0 -0.014198267320408593 -0.029013939827829197 0 -0.014255606419447257 -0.028163538369881402 0 -0.015225671684559502 -0.029915893150174816 0 -0.014198267320408593 -0.029013939827829197 0 -0.013940822685419569 -0.030833182338680286 0 -0.014198267320408593 -0.029013939827829197 0 -0.014255606419447257 -0.028163538369881402 0 -0.013823315530273996 -0.027539287985564601 0 -0.014198267320408593 -0.029013939827829197 0 -0.013823315530273996 -0.027539287985564601 0 -0.013144284752732218 -0.029118755056434117 0 -0.014255606419447257 -0.028163538369881402 0 -0.013631912696779113 -0.027033988072469598 0 -0.013823315530273996 -0.027539287985564601 0 -0.013234101415873428 -0.0231456997783713 0 -0.01446730084788515 -0.024236286408341499 0 -0.012902575197916323 -0.025700411169139566 0 -0.013631912696779113 -0.027033988072469598 0 -0.013823315530273996 -0.027539287985564601 0 -0.016348347189920995 -0.021411839643411985 0 -0.016094700659626891 -0.020336988401147799 0 -0.017547163786932909 -0.021063929760545812 0 -0.017995501768377959 -0.021501669027785712 0 -0.017547163786932909 -0.021063929760545812 0 -0.018794788067735015 -0.021423116323869167 0 -0.016094700659626891 -0.020336988401147799 0 -0.017547163786932909 -0.021063929760545812 0 -0.018320759424942833 -0.021594003156593222 0 -0.017547163786932909 -0.021063929760545812 0 -0.018320759424942833 -0.021594003156593222 0 -0.018794788067735015 -0.021423116323869167 0 -0.01446730084788515 -0.024236286408341499 0 -0.0176381409549612 -0.024263746888365016 0 -0.023763710646299157 -0.019197754562084786 0 -0.023334661454362325 -0.01990698790926828 0 -0.022270944606437474 -0.022587970588840968 0 -0.023763710646299157 -0.019197754562084786 0 -0.023334661454362325 -0.01990698790926828 0 -0.02365152383449283 -0.019368808912232159 0 -0.023763710646299157 -0.019197754562084786 0 -0.02365152383449283 -0.019368808912232159 0 -0.023249943603735675 -0.019461906473512508 0 -0.0176381409549612 -0.024263746888365016 0 -0.021404410620340489 -0.019959867632645237 0 -0.02365152383449283 -0.019368808912232159 0 -0.023249943603735675 -0.019461906473512508 0 -0.023895467158568717 -0.020240795489231325 0 -0.0252081621759268 -0.020665558976781274 0 -0.023895467158568717 -0.020240795489231325 0 -0.025333540669450049 -0.02017797066991521 0 -0.02365152383449283 -0.019368808912232159 0 -0.023895467158568717 -0.020240795489231325 0 -0.025333540669450049 -0.02017797066991521 0 -0.0252081621759268 -0.020665558976781274 0 -0.025333540669450049 -0.02017797066991521 0 -0.027200149453153039 -0.020564932882523038 0 -0.025333540669450049 -0.02017797066991521 0 -0.027200149453153039 -0.020564932882523038 0 -0.026540132314122972 -0.020128809363232053 0 -0.02365152383449283 -0.019368808912232159 0 -0.025333540669450049 -0.02017797066991521 0 -0.026540132314122972 -0.020128809363232053 0 -0.0252081621759268 -0.020665558976781274 0 -0.026625388182163732 -0.020880288920118735 0 -0.027200149453153039 -0.020564932882523038 0 -0.027939061287117845 -0.021057407903877993 0 -0.026625388182163732 -0.020880288920118735 0 -0.027200149453153039 -0.020564932882523038 0 -0.027939061287117845 -0.021057407903877993 0 -0.027200149453153039 -0.020564932882523038 0 -0.029019324538790799 -0.02107109902302965 0 -0.027200149453153039 -0.020564932882523038 0 -0.028876780113720298 -0.020856164549030411 0 -0.029019324538790799 -0.02107109902302965 0 -0.027200149453153039 -0.020564932882523038 0 -0.028106627959847065 -0.020494270972514959 0 -0.026540132314122972 -0.020128809363232053 0 -0.027200149453153039 -0.020564932882523038 0 -0.028876780113720298 -0.020856164549030411 0 -0.028106627959847065 -0.020494270972514959 0 -0.028106627959847065 -0.020494270972514959 0 -0.028451230262900088 -0.020301580126823298 0 -0.029459899035457301 -0.020973422044371359 0 -0.028876780113720298 -0.020856164549030411 0 -0.029459899035457301 -0.020973422044371359 0 -0.029878808843549577 -0.02123423305593208 0 -0.028876780113720298 -0.020856164549030411 0 -0.028106627959847065 -0.020494270972514959 0 -0.029459899035457301 -0.020973422044371359 0 -0.028106627959847065 -0.020494270972514959 0 -0.026540132314122972 -0.020128809363232053 0 -0.028451230262900088 -0.020301580126823298 0 -0.023738098081525327 -0.019689289184947577 0 -0.024697748108970883 -0.021099814848347415 0 -0.02365152383449283 -0.019368808912232159 0 -0.026540132314122972 -0.020128809363232053 0 -0.028451230262900088 -0.020301580126823298 0 -0.023334661454362325 -0.01990698790926828 0 -0.02365152383449283 -0.019368808912232159 0 -0.021245093676803689 -0.021414677427392562 0 -0.024152602031534347 -0.018980690325495566 0 -0.020429538957880394 -0.026110681067591637 0 -0.021245093676803689 -0.021414677427392562 0 -0.023261819995801774 -0.023115314240452475 0 -0.019840442419568585 -0.027532589593301373 0 -0.023334661454362325 -0.01990698790926828 0 -0.021245093676803689 -0.021414677427392562 0 -0.023261819995801774 -0.023115314240452475 0 -0.028451230262900088 -0.020301580126823298 0 -0.030481166514233507 -0.021595932278130715 0 -0.031981001251641078 -0.022661830239204872 0 -0.024697748108970883 -0.021099814848347415 0 -0.023906919888367652 -0.026559735159160321 0 -0.029459899035457301 -0.020973422044371359 0 -0.030481166514233507 -0.021595932278130715 0 -0.030732414931611867 -0.021717157429648495 0 -0.028451230262900088 -0.020301580126823298 0 -0.029459899035457301 -0.020973422044371359 0 -0.030481166514233507 -0.021595932278130715 0 -0.019155716951686587 -0.029349037921825388 0 -0.015796052908656214 -0.031392260977809817 0 -0.019201301150974858 -0.033696695068586364 0 -0.021245093676803689 -0.021414677427392562 0 -0.019840442419568585 -0.027532589593301373 0 -0.015856468167838738 -0.03040314955064078 0 -0.019656767814832925 -0.028241979677519076 0 -0.015997822600688421 -0.031060189788767213 0 -0.019840442419568585 -0.027532589593301373 0 -0.015796052908656214 -0.031392260977809817 0 -0.015856468167838738 -0.03040314955064078 0 -0.014399305377768594 -0.029796509981339925 0 -0.014933395288147229 -0.032445244697037433 0 -0.015385006437282394 -0.030921207700936034 0 -0.014399305377768594 -0.029796509981339925 0 -0.014933395288147229 -0.032445244697037433 0 -0.013755660664119995 -0.034083844383233641 0 -0.022709505896257746 -0.027054362776711111 0 -0.019155716951686587 -0.029349037921825388 0 -0.019201301150974858 -0.033696695068586364 0 -0.020429538957880394 -0.026110681067591637 0 -0.016164336979591194 -0.034406513178000739 0 -0.020429538957880394 -0.026110681067591637 0 -0.019656767814832925 -0.028241979677519076 0 -0.014933395288147229 -0.032445244697037433 0 -0.015385006437282394 -0.030921207700936034 0 -0.015849654345851404 -0.033034681884901169 0 -0.015385006437282394 -0.030921207700936034 0 -0.016561076125170864 -0.031487274612994637 0 -0.016059816813988912 -0.029752567603273664 0 -0.015385006437282394 -0.030921207700936034 0 -0.016561076125170864 -0.031487274612994637 0 -0.015849654345851404 -0.033034681884901169 0 -0.016491934051385385 -0.031831420837518033 0 -0.015595694047892903 -0.030630435946516758 0 -0.017668177410244894 -0.031505771860711129 0 -0.016561076125170864 -0.031487274612994637 0 -0.017192450463049454 -0.029401917741472529 0 -0.016561076125170864 -0.031487274612994637 0 -0.017192450463049454 -0.029401917741472529 0 -0.016059816813988912 -0.029752567603273664 0 -0.0176381409549612 -0.024263746888365016 0 -0.015595694047892903 -0.030630435946516758 0 -0.014198267320408593 -0.029013939827829197 0 -0.013144284752732218 -0.029118755056434117 0 -0.013940822685419569 -0.030833182338680286 0 -0.016554323961891555 -0.027617829708195252 0 -0.017192450463049454 -0.029401917741472529 0 -0.016059816813988912 -0.029752567603273664 0 -0.014399305377768594 -0.029796509981339925 0 -0.015385006437282394 -0.030921207700936034 0 -0.016059816813988912 -0.029752567603273664 0 -0.016554323961891555 -0.027617829708195252 0 -0.014399305377768594 -0.029796509981339925 0 -0.016059816813988912 -0.029752567603273664 0 -0.0176381409549612 -0.024263746888365016 0 -0.020429538957880394 -0.026110681067591637 0 -0.032689261316320439 -0.023061749127750938 0 -0.03297661141009714 -0.02365016866393619 0 -0.032767857407725871 -0.0232333932815776 0 -0.032767857407725871 -0.0232333932815776 0 -0.03237536218188912 -0.02270042902197697 0 -0.032718516025943438 -0.023277796673968919 0 -0.032767857407725871 -0.0232333932815776 0 -0.032445621842909833 -0.022688966032211863 0 -0.03237536218188912 -0.02270042902197697 0 -0.032689261316320439 -0.023061749127750938 0 -0.032767857407725871 -0.0232333932815776 0 -0.032445621842909833 -0.022688966032211863 0 -0.032445621842909833 -0.022688966032211863 0 -0.032424058071571817 -0.022628576694321417 0 -0.032243680786427954 -0.022400205470629413 0 -0.032689261316320439 -0.023061749127750938 0 -0.032445621842909833 -0.022688966032211863 0 -0.032424058071571817 -0.022628576694321417 0 -0.032424058071571817 -0.022628576694321417 0 -0.032281678655239732 -0.022412681717829386 0 -0.032243680786427954 -0.022400205470629413 0 -0.03206598131124893 -0.022181153536634014 0 -0.032281678655239732 -0.022412681717829386 0 -0.032243680786427954 -0.022400205470629413 0 -0.03206598131124893 -0.022181153536634014 0 -0.032243680786427954 -0.022400205470629413 0 -0.032108973524537301 -0.022311412785141278 0 -0.031817477859240439 -0.022035819332772641 0 -0.03206598131124893 -0.022181153536634014 0 -0.032108973524537301 -0.022311412785141278 0 -0.032445621842909833 -0.022688966032211863 0 -0.032108973524537301 -0.022311412785141278 0 -0.03237536218188912 -0.02270042902197697 0 -0.032445621842909833 -0.022688966032211863 0 -0.032243680786427954 -0.022400205470629413 0 -0.032108973524537301 -0.022311412785141278 0 -0.032108973524537301 -0.022311412785141278 0 -0.031768368104567915 -0.022177477303350419 0 -0.03237536218188912 -0.02270042902197697 0 -0.032108973524537301 -0.022311412785141278 0 -0.03169270389138451 -0.022049106064019119 0 -0.031768368104567915 -0.022177477303350419 0 -0.031817477859240439 -0.022035819332772641 0 -0.032108973524537301 -0.022311412785141278 0 -0.03169270389138451 -0.022049106064019119 0 -0.03169270389138451 -0.022049106064019119 0 -0.031768368104567915 -0.022177477303350419 0 -0.031129692622937584 -0.021826520418147255 0 -0.031479077002234922 -0.021939845630512139 0 -0.03169270389138451 -0.022049106064019119 0 -0.031129692622937584 -0.021826520418147255 0 -0.031768368104567915 -0.022177477303350419 0 -0.03237536218188912 -0.02270042902197697 0 -0.032107898268527342 -0.022552096522552242 0 -0.03237536218188912 -0.02270042902197697 0 -0.032107898268527342 -0.022552096522552242 0 -0.032718516025943438 -0.023277796673968919 0 -0.032107898268527342 -0.022552096522552242 0 -0.03120755853508753 -0.021917641223492462 0 -0.032019370829502292 -0.022608436781612319 0 -0.03120755853508753 -0.021917641223492462 0 -0.031001015415644838 -0.021846998939024684 0 -0.032019370829502292 -0.022608436781612319 0 -0.031768368104567915 -0.022177477303350419 0 -0.032107898268527342 -0.022552096522552242 0 -0.03120755853508753 -0.021917641223492462 0 -0.031768368104567915 -0.022177477303350419 0 -0.03120755853508753 -0.021917641223492462 0 -0.030772667028539695 -0.021688815269859812 0 -0.031768368104567915 -0.022177477303350419 0 -0.031129692622937584 -0.021826520418147255 0 -0.030772667028539695 -0.021688815269859812 0 -0.030141675753287515 -0.021643323615867363 0 -0.031129692622937584 -0.021826520418147255 0 -0.030772667028539695 -0.021688815269859812 0 -0.03120755853508753 -0.021917641223492462 0 -0.030772667028539695 -0.021688815269859812 0 -0.030141540582668384 -0.02144619095179294 0 -0.030772667028539695 -0.021688815269859812 0 -0.030141540582668384 -0.02144619095179294 0 -0.02941449753247407 -0.021346513994401562 0 -0.030141675753287515 -0.021643323615867363 0 -0.030772667028539695 -0.021688815269859812 0 -0.02941449753247407 -0.021346513994401562 0 -0.028428789650856542 -0.0214658035037503 0 -0.027939061287117845 -0.021057407903877993 0 -0.02941449753247407 -0.021346513994401562 0 -0.027939061287117845 -0.021057407903877993 0 -0.02941449753247407 -0.021346513994401562 0 -0.029019324538790799 -0.02107109902302965 0 -0.030141540582668384 -0.02144619095179294 0 -0.02941449753247407 -0.021346513994401562 0 -0.029019324538790799 -0.02107109902302965 0 -0.030141540582668384 -0.02144619095179294 0 -0.029019324538790799 -0.02107109902302965 0 -0.030183348863416008 -0.0214121316199706 0 -0.028876780113720298 -0.020856164549030411 0 -0.029019324538790799 -0.02107109902302965 0 -0.030183348863416008 -0.0214121316199706 0 -0.03120755853508753 -0.021917641223492462 0 -0.030141540582668384 -0.02144619095179294 0 -0.030183348863416008 -0.0214121316199706 0 -0.030183348863416008 -0.0214121316199706 0 -0.031001015415644838 -0.021846998939024684 0 -0.029878808843549577 -0.02123423305593208 0 -0.03120755853508753 -0.021917641223492462 0 -0.030183348863416008 -0.0214121316199706 0 -0.031001015415644838 -0.021846998939024684 0 -0.028876780113720298 -0.020856164549030411 0 -0.030183348863416008 -0.0214121316199706 0 -0.029878808843549577 -0.02123423305593208 0 -0.029459899035457301 -0.020973422044371359 0 -0.029878808843549577 -0.02123423305593208 0 -0.030732414931611867 -0.021717157429648495 0 -0.031001015415644838 -0.021846998939024684 0 -0.029878808843549577 -0.02123423305593208 0 -0.030732414931611867 -0.021717157429648495 0 -0.031001015415644838 -0.021846998939024684 0 -0.030732414931611867 -0.021717157429648495 0 -0.031600864283094991 -0.022343671711710741 0 -0.030732414931611867 -0.021717157429648495 0 -0.031600864283094991 -0.022343671711710741 0 -0.031391671810634167 -0.022217058824398277 0 -0.031600864283094991 -0.022343671711710741 0 -0.031391671810634167 -0.022217058824398277 0 -0.031874759099170057 -0.022644460098284434 0 -0.030732414931611867 -0.021717157429648495 0 -0.031391671810634167 -0.022217058824398277 0 -0.031241288302711501 -0.022106924105305712 0 -0.030481166514233507 -0.021595932278130715 0 -0.030732414931611867 -0.021717157429648495 0 -0.031241288302711501 -0.022106924105305712 0 -0.031241288302711501 -0.022106924105305712 0 -0.031981001251641078 -0.022661830239204872 0 -0.031715015784790704 -0.022499436403704425 0 -0.030481166514233507 -0.021595932278130715 0 -0.031241288302711501 -0.022106924105305712 0 -0.031981001251641078 -0.022661830239204872 0 -0.031981001251641078 -0.022661830239204872 0 -0.032203893985752456 -0.023023771194977411 0 -0.033059424107087849 -0.024202365216215119 0 -0.031981001251641078 -0.022661830239204872 0 -0.032203893985752456 -0.023023771194977411 0 -0.031715015784790704 -0.022499436403704425 0 -0.031391671810634167 -0.022217058824398277 0 -0.031241288302711501 -0.022106924105305712 0 -0.031715015784790704 -0.022499436403704425 0 -0.032203893985752456 -0.023023771194977411 0 -0.031715015784790704 -0.022499436403704425 0 -0.031874759099170057 -0.022644460098284434 0 -0.031391671810634167 -0.022217058824398277 0 -0.031715015784790704 -0.022499436403704425 0 -0.031874759099170057 -0.022644460098284434 0 -0.032203893985752456 -0.023023771194977411 0 -0.031874759099170057 -0.022644460098284434 0 -0.032334770859025412 -0.02310759558247057 0 -0.032334770859025412 -0.02310759558247057 0 -0.033300242750026174 -0.024526341677950477 0 -0.033059424107087849 -0.024202365216215119 0 -0.032203893985752456 -0.023023771194977411 0 -0.032334770859025412 -0.02310759558247057 0 -0.033059424107087849 -0.024202365216215119 0 -0.032334770859025412 -0.02310759558247057 0 -0.032019370829502292 -0.022608436781612319 0 -0.032771535931839832 -0.023589967304393358 0 -0.031600864283094991 -0.022343671711710741 0 -0.032334770859025412 -0.02310759558247057 0 -0.032019370829502292 -0.022608436781612319 0 -0.031600864283094991 -0.022343671711710741 0 -0.031874759099170057 -0.022644460098284434 0 -0.032334770859025412 -0.02310759558247057 0 -0.031001015415644838 -0.021846998939024684 0 -0.031600864283094991 -0.022343671711710741 0 -0.032019370829502292 -0.022608436781612319 0 -0.032019370829502292 -0.022608436781612319 0 -0.032718516025943438 -0.023277796673968919 0 -0.032771535931839832 -0.023589967304393358 0 -0.032107898268527342 -0.022552096522552242 0 -0.032019370829502292 -0.022608436781612319 0 -0.032718516025943438 -0.023277796673968919 0 -0.032718516025943438 -0.023277796673968919 0 -0.032771535931839832 -0.023589967304393358 0 -0.03338137947296816 -0.02448836320142667 0 -0.032334770859025412 -0.02310759558247057 0 -0.032771535931839832 -0.023589967304393358 0 -0.033300242750026174 -0.024526341677950477 0 -0.032771535931839832 -0.023589967304393358 0 -0.033300242750026174 -0.024526341677950477 0 -0.03338137947296816 -0.02448836320142667 0 -0.033300242750026174 -0.024526341677950477 0 -0.03338137947296816 -0.02448836320142667 0 -0.03387613941848433 -0.025702636516406311 0 -0.033640463482394002 -0.025609264903645287 0 -0.034095787114644616 -0.027235625153013629 0 -0.03387613941848433 -0.025702636516406311 0 -0.033640463482394002 -0.025609264903645287 0 -0.03338137947296816 -0.02448836320142667 0 -0.03387613941848433 -0.025702636516406311 0 -0.033263447333384939 -0.024401904817378847 0 -0.033640463482394002 -0.025609264903645287 0 -0.03338137947296816 -0.02448836320142667 0 -0.033263447333384939 -0.024401904817378847 0 -0.03338137947296816 -0.02448836320142667 0 -0.033051922898987229 -0.023808010705250598 0 -0.032718516025943438 -0.023277796673968919 0 -0.03338137947296816 -0.02448836320142667 0 -0.033051922898987229 -0.023808010705250598 0 -0.032767857407725871 -0.0232333932815776 0 -0.032718516025943438 -0.023277796673968919 0 -0.033051922898987229 -0.023808010705250598 0 -0.03297661141009714 -0.02365016866393619 0 -0.032767857407725871 -0.0232333932815776 0 -0.033051922898987229 -0.023808010705250598 0 -0.03297661141009714 -0.02365016866393619 0 -0.033263447333384939 -0.024401904817378847 0 -0.033051922898987229 -0.023808010705250598 0 -0.033648097734510225 -0.02887220511659248 0 -0.034108023392974106 -0.028211134287218456 0 -0.033359895608214368 -0.026445676437864302 0 -0.034108023392974106 -0.028211134287218456 0 -0.033359895608214368 -0.026445676437864302 0 -0.03388142163009409 -0.026255416436814824 0 -0.03426312652020129 -0.029298285986460226 0 -0.033916096776685715 -0.026823667434803477 0 -0.033300242750026174 -0.024526341677950477 0 -0.03387613941848433 -0.025702636516406311 0 -0.034622254064399748 -0.027203409767733472 0 -0.033555339901898407 -0.024998856157598722 0 -0.033916096776685715 -0.026823667434803477 0 -0.034095787114644616 -0.027235625153013629 0 -0.03387613941848433 -0.025702636516406311 0 -0.034622254064399748 -0.027203409767733472 0 -0.033300242750026174 -0.024526341677950477 0 -0.033359895608214368 -0.026445676437864302 0 -0.03388142163009409 -0.026255416436814824 0 -0.033300242750026174 -0.024526341677950477 0 -0.03388142163009409 -0.026255416436814824 0 -0.033059424107087849 -0.024202365216215119 0 -0.034108023392974106 -0.028211134287218456 0 -0.03388142163009409 -0.026255416436814824 0 -0.035040363227898448 -0.02920932355666106 0 -0.03388142163009409 -0.026255416436814824 0 -0.034076697598945813 -0.025773131352942544 0 -0.035040363227898448 -0.02920932355666106 0 -0.023778889868250604 -0.031417788179172242 0 -0.024650602277834617 -0.034882529066940234 0 -0.03388142163009409 -0.026255416436814824 0 -0.034076697598945813 -0.025773131352942544 0 -0.033059424107087849 -0.024202365216215119 0 -0.015796052908656214 -0.031392260977809817 0 -0.013550597899025529 -0.037041739517699214 0 -0.015845287089208182 -0.035390447841254634 0 -0.031981001251641078 -0.022661830239204872 0 -0.034076697598945813 -0.025773131352942544 0 -0.033059424107087849 -0.024202365216215119 0 -0.015796052908656214 -0.031392260977809817 0 -0.015856468167838738 -0.03040314955064078 0 -0.013550597899025529 -0.037041739517699214 0 -0.023906919888367652 -0.026559735159160321 0 -0.023778889868250604 -0.031417788179172242 0 -0.013550597899025529 -0.037041739517699214 0 -0.015845287089208182 -0.035390447841254634 0 -0.01518409042418326 -0.038641025720904644 0 -0.013550597899025529 -0.037041739517699214 0 -0.01518409042418326 -0.038641025720904644 0 -0.014854343040831861 -0.040785978132584853 0 -0.01518409042418326 -0.038641025720904644 0 -0.014854343040831861 -0.040785978132584853 0 -0.015418323737915372 -0.040219747767582373 0 -0.014854343040831861 -0.040785978132584853 0 -0.015374847183309597 -0.042850437197623381 0 -0.015504482010004643 -0.041988481390473176 0 -0.014854343040831861 -0.040785978132584853 0 -0.015418323737915372 -0.040219747767582373 0 -0.015504482010004643 -0.041988481390473176 0 -0.014854343040831861 -0.040785978132584853 0 -0.014054475323545545 -0.040690555943561219 0 -0.015057583272401547 -0.042402553623184236 0 -0.014854343040831861 -0.040785978132584853 0 -0.015057583272401547 -0.042402553623184236 0 -0.015374847183309597 -0.042850437197623381 0 -0.013550597899025529 -0.037041739517699214 0 -0.014854343040831861 -0.040785978132584853 0 -0.014054475323545545 -0.040690555943561219 0 -0.014054475323545545 -0.040690555943561219 0 -0.015057583272401547 -0.042402553623184236 0 -0.015871068712276917 -0.043540746110879013 0 -0.024650602277834617 -0.034882529066940234 0 -0.025318912876150904 -0.037996832001380626 0 -0.03500936404232783 -0.031666537867021831 0 -0.034601737824111023 -0.030265276151394783 0 -0.03561217938414353 -0.032246452145500912 0 -0.035040363227898448 -0.02920932355666106 0 -0.034601737824111023 -0.030265276151394783 0 -0.03561217938414353 -0.032246452145500912 0 -0.033648097734510225 -0.02887220511659248 0 -0.034108023392974106 -0.028211134287218456 0 -0.034601737824111023 -0.030265276151394783 0 -0.034108023392974106 -0.028211134287218456 0 -0.035040363227898448 -0.02920932355666106 0 -0.034601737824111023 -0.030265276151394783 0 -0.016055662130332361 -0.035047239918025747 0 -0.0169447063008571 -0.034261712336220163 0 -0.016409387692682575 -0.037119699066297467 0 -0.016055662130332361 -0.035047239918025747 0 -0.015222195311744628 -0.036793839421649731 0 -0.016409387692682575 -0.037119699066297467 0 -0.017682463239420885 -0.033898542017249809 0 -0.0169447063008571 -0.034261712336220163 0 -0.017550497762859964 -0.036377271851781079 0 -0.0169447063008571 -0.034261712336220163 0 -0.016409387692682575 -0.037119699066297467 0 -0.017550497762859964 -0.036377271851781079 0 -0.017668177410244894 -0.031505771860711129 0 -0.016561076125170864 -0.031487274612994637 0 -0.0169447063008571 -0.034261712336220163 0 -0.016561076125170864 -0.031487274612994637 0 -0.0169447063008571 -0.034261712336220163 0 -0.015849654345851404 -0.033034681884901169 0 -0.016055662130332361 -0.035047239918025747 0 -0.0169447063008571 -0.034261712336220163 0 -0.015849654345851404 -0.033034681884901169 0 -0.016055662130332361 -0.035047239918025747 0 -0.015849654345851404 -0.033034681884901169 0 -0.015175765566778701 -0.034316127652441131 0 -0.014933395288147229 -0.032445244697037433 0 -0.015849654345851404 -0.033034681884901169 0 -0.015175765566778701 -0.034316127652441131 0 -0.015175765566778701 -0.034316127652441131 0 -0.013755660664119995 -0.034083844383233641 0 -0.015222195311744628 -0.036793839421649731 0 -0.014933395288147229 -0.032445244697037433 0 -0.015175765566778701 -0.034316127652441131 0 -0.013755660664119995 -0.034083844383233641 0 -0.015796052908656214 -0.031392260977809817 0 -0.015845287089208182 -0.035390447841254634 0 -0.019201301150974858 -0.033696695068586364 0 -0.01518409042418326 -0.038641025720904644 0 -0.013755660664119995 -0.034083844383233641 0 -0.015222195311744628 -0.036793839421649731 0 -0.015400877940819208 -0.037923039718906579 0 -0.016164336979591194 -0.034406513178000739 0 -0.015845287089208182 -0.035390447841254634 0 -0.01518409042418326 -0.038641025720904644 0 -0.019201301150974858 -0.033696695068586364 0 -0.016055662130332361 -0.035047239918025747 0 -0.015175765566778701 -0.034316127652441131 0 -0.015222195311744628 -0.036793839421649731 0 -0.015222195311744628 -0.036793839421649731 0 -0.015604108316452637 -0.03892654042419226 0 -0.016409387692682575 -0.037119699066297467 0 -0.015604108316452637 -0.03892654042419226 0 -0.016402096280745505 -0.039688664293955227 0 -0.016409387692682575 -0.037119699066297467 0 -0.01518409042418326 -0.038641025720904644 0 -0.015604108316452637 -0.03892654042419226 0 -0.015418323737915372 -0.040219747767582373 0 -0.01518409042418326 -0.038641025720904644 0 -0.015222195311744628 -0.036793839421649731 0 -0.015604108316452637 -0.03892654042419226 0 -0.015604108316452637 -0.03892654042419226 0 -0.015418323737915372 -0.040219747767582373 0 -0.015823086718402966 -0.041187464948175836 0 -0.015418323737915372 -0.040219747767582373 0 -0.015823086718402966 -0.041187464948175836 0 -0.015504482010004643 -0.041988481390473176 0 -0.015823086718402966 -0.041187464948175836 0 -0.016402096280745505 -0.039688664293955227 0 -0.016399800680481573 -0.041614206231922773 0 -0.015604108316452637 -0.03892654042419226 0 -0.015823086718402966 -0.041187464948175836 0 -0.016402096280745505 -0.039688664293955227 0 -0.016402096280745505 -0.039688664293955227 0 -0.017215576153684117 -0.038821386819368094 0 -0.017096540503595159 -0.040845019428695568 0 -0.016402096280745505 -0.039688664293955227 0 -0.016409387692682575 -0.037119699066297467 0 -0.017215576153684117 -0.038821386819368094 0 -0.016409387692682575 -0.037119699066297467 0 -0.017550497762859964 -0.036377271851781079 0 -0.017215576153684117 -0.038821386819368094 0 -0.017550497762859964 -0.036377271851781079 0 -0.01792193882062789 -0.038342929045205955 0 -0.017215576153684117 -0.038821386819368094 0 -0.017215576153684117 -0.038821386819368094 0 -0.017946284865042954 -0.04004080078703303 0 -0.017096540503595159 -0.040845019428695568 0 -0.01792193882062789 -0.038342929045205955 0 -0.017215576153684117 -0.038821386819368094 0 -0.017946284865042954 -0.04004080078703303 0 -0.017946284865042954 -0.04004080078703303 0 -0.017901621842500361 -0.042129801914992451 0 -0.019073589172498601 -0.041128214504681321 0 -0.017946284865042954 -0.04004080078703303 0 -0.017901621842500361 -0.042129801914992451 0 -0.017096540503595159 -0.040845019428695568 0 -0.017901621842500361 -0.042129801914992451 0 -0.017584612788588128 -0.044515896302329966 0 -0.018996173176162475 -0.043055072770998355 0 -0.017901621842500361 -0.042129801914992451 0 -0.016976408404208734 -0.042785264044583785 0 -0.017584612788588128 -0.044515896302329966 0 -0.016976408404208734 -0.042785264044583785 0 -0.017584612788588128 -0.044515896302329966 0 -0.016783177176125517 -0.044582439848912823 0 -0.016976408404208734 -0.042785264044583785 0 -0.01646462964341569 -0.043414855674947003 0 -0.016783177176125517 -0.044582439848912823 0 -0.017901621842500361 -0.042129801914992451 0 -0.016976408404208734 -0.042785264044583785 0 -0.017096540503595159 -0.040845019428695568 0 -0.016402096280745505 -0.039688664293955227 0 -0.017096540503595159 -0.040845019428695568 0 -0.016399800680481573 -0.041614206231922773 0 -0.016976408404208734 -0.042785264044583785 0 -0.017096540503595159 -0.040845019428695568 0 -0.016399800680481573 -0.041614206231922773 0 -0.015823086718402966 -0.041187464948175836 0 -0.016399800680481573 -0.041614206231922773 0 -0.016023922561624864 -0.043369259666999803 0 -0.015823086718402966 -0.041187464948175836 0 -0.016023922561624864 -0.043369259666999803 0 -0.015504482010004643 -0.041988481390473176 0 -0.016023922561624864 -0.043369259666999803 0 -0.01646462964341569 -0.043414855674947003 0 -0.016471401230330723 -0.045505913853260825 0 -0.016399800680481573 -0.041614206231922773 0 -0.016023922561624864 -0.043369259666999803 0 -0.01646462964341569 -0.043414855674947003 0 -0.016976408404208734 -0.042785264044583785 0 -0.016399800680481573 -0.041614206231922773 0 -0.01646462964341569 -0.043414855674947003 0 -0.01646462964341569 -0.043414855674947003 0 -0.016471401230330723 -0.045505913853260825 0 -0.016783177176125517 -0.044582439848912823 0 -0.016471401230330723 -0.045505913853260825 0 -0.016742376811281181 -0.046641556831154098 0 -0.016783177176125517 -0.044582439848912823 0 -0.016023922561624864 -0.043369259666999803 0 -0.016471401230330723 -0.045505913853260825 0 -0.016281637616680982 -0.045477803430962277 0 -0.016471401230330723 -0.045505913853260825 0 -0.016759717015812806 -0.047114712591252605 0 -0.016953021356996362 -0.047419106604054226 0 -0.016471401230330723 -0.045505913853260825 0 -0.016281637616680982 -0.045477803430962277 0 -0.016953021356996362 -0.047419106604054226 0 -0.016471401230330723 -0.045505913853260825 0 -0.016759717015812806 -0.047114712591252605 0 -0.016742376811281181 -0.046641556831154098 0 -0.016742376811281181 -0.046641556831154098 0 -0.016970623858986417 -0.047863314926755829 0 -0.017584612788588128 -0.044515896302329966 0 -0.016962149091896667 -0.047866360928897789 0 -0.01726620806953446 -0.047295889337993495 0 -0.016970623858986417 -0.047863314926755829 0 -0.015623942867334668 -0.048081792296424751 0 -0.015403555832779938 -0.049609071359957187 0 -0.017584612788588128 -0.044515896302329966 0 -0.019226057975441368 -0.045137625189635655 0 -0.018996173176162475 -0.043055072770998355 0 -0.016970623858986417 -0.047863314926755829 0 -0.017584612788588128 -0.044515896302329966 0 -0.019226057975441368 -0.045137625189635655 0 -0.016742376811281181 -0.046641556831154098 0 -0.017584612788588128 -0.044515896302329966 0 -0.016783177176125517 -0.044582439848912823 0 -0.016486827723041421 -0.044928438023622189 0 -0.016442891282480887 -0.044847480204793469 0 -0.015331305973734768 -0.044270857884571663 0 -0.017360905852331725 -0.045051636954738322 0 -0.016486827723041421 -0.044928438023622189 0 -0.016442891282480887 -0.044847480204793469 0 -0.016442891282480887 -0.044847480204793469 0 -0.015332177134350736 -0.044228314795855116 0 -0.015331305973734768 -0.044270857884571663 0 -0.025318912876150904 -0.037996832001380626 0 -0.014572904736190218 -0.043985800823392665 0 -0.015057583272401547 -0.042402553623184236 0 -0.015821284869129617 -0.043646148048254209 0 -0.015374847183309597 -0.042850437197623381 0 -0.015057583272401547 -0.042402553623184236 0 -0.015871068712276917 -0.043540746110879013 0 -0.015821284869129617 -0.043646148048254209 0 -0.014572904736190218 -0.043985800823392665 0 -0.015917308296888383 -0.044549265322947451 0 -0.015331305973734768 -0.044270857884571663 0 -0.015785622909118568 -0.04478316570948189 0 -0.015634121662908736 -0.044527230521058184 0 -0.016486827723041421 -0.044928438023622189 0 -0.015331305973734768 -0.044270857884571663 0 -0.015785622909118568 -0.04478316570948189 0 -0.016486827723041421 -0.044928438023622189 0 -0.015785622909118568 -0.04478316570948189 0 -0.016481818705376478 -0.044880451038405184 0 -0.015821284869129617 -0.043646148048254209 0 -0.015832466724955967 -0.044274178020591803 0 -0.015374847183309597 -0.042850437197623381 0 -0.015832466724955967 -0.044274178020591803 0 -0.015374847183309597 -0.042850437197623381 0 -0.015761009384675492 -0.043566531052146966 0 -0.015785622909118568 -0.04478316570948189 0 -0.015634121662908736 -0.044527230521058184 0 -0.015796102033256758 -0.045172860078177168 0 -0.015374847183309597 -0.042850437197623381 0 -0.015504482010004643 -0.041988481390473176 0 -0.015761009384675492 -0.043566531052146966 0 -0.016023922561624864 -0.043369259666999803 0 -0.015504482010004643 -0.041988481390473176 0 -0.015761009384675492 -0.043566531052146966 0 -0.016023922561624864 -0.043369259666999803 0 -0.015761009384675492 -0.043566531052146966 0 -0.016281637616680982 -0.045477803430962277 0 -0.015832466724955967 -0.044274178020591803 0 -0.015761009384675492 -0.043566531052146966 0 -0.016281637616680982 -0.045477803430962277 0 -0.016281637616680982 -0.045477803430962277 0 -0.016953021356996362 -0.047419106604054226 0 -0.016716075142271219 -0.046990372610014458 0 -0.016716075142271219 -0.046990372610014458 0 -0.016552994244776978 -0.04672970372630629 0 -0.01718341060790074 -0.047455320889633751 0 -0.016716075142271219 -0.046990372610014458 0 -0.016552994244776978 -0.04672970372630629 0 -0.016222590147556743 -0.045766267660856515 0 -0.016552994244776978 -0.04672970372630629 0 -0.016222590147556743 -0.045766267660856515 0 -0.015796102033256758 -0.045172860078177168 0 -0.015917308296888383 -0.044549265322947451 0 -0.016243954455587146 -0.045282245905819966 0 -0.016281637616680982 -0.045477803430962277 0 -0.016716075142271219 -0.046990372610014458 0 -0.016222590147556743 -0.045766267660856515 0 -0.015634121662908736 -0.044527230521058184 0 -0.016281637616680982 -0.045477803430962277 0 -0.016222590147556743 -0.045766267660856515 0 -0.015634121662908736 -0.044527230521058184 0 -0.016222590147556743 -0.045766267660856515 0 -0.015796102033256758 -0.045172860078177168 0 -0.016118263942629631 -0.045187419911917104 0 -0.016875230685563545 -0.045714398478902095 0 -0.015796102033256758 -0.045172860078177168 0 -0.016481818705376478 -0.044880451038405184 0 -0.016734275531971762 -0.044069099364449291 0 -0.016552994244776978 -0.04672970372630629 0 -0.015796102033256758 -0.045172860078177168 0 -0.016979214786914405 -0.047349366884242294 0 -0.015785622909118568 -0.04478316570948189 0 -0.015796102033256758 -0.045172860078177168 0 -0.016481818705376478 -0.044880451038405184 0 -0.016552994244776978 -0.04672970372630629 0 -0.016979214786914405 -0.047349366884242294 0 -0.01718341060790074 -0.047455320889633751 0 -0.019992345092725825 -0.043829696180319344 0 -0.01795629530704166 -0.04480967118937796 0 -0.018581446808642155 -0.042650733402364707 0 -0.016875230685563545 -0.045714398478902095 0 -0.019065493237596619 -0.044133390101588586 0 -0.016734275531971762 -0.044069099364449291 0 -0.01795629530704166 -0.04480967118937796 0 -0.018581446808642155 -0.042650733402364707 0 -0.016486827723041421 -0.044928438023622189 0 -0.016481818705376478 -0.044880451038405184 0 -0.01795629530704166 -0.04480967118937796 0 -0.017360905852331725 -0.045051636954738322 0 -0.016486827723041421 -0.044928438023622189 0 -0.01795629530704166 -0.04480967118937796 0 -0.016481818705376478 -0.044880451038405184 0 -0.016734275531971762 -0.044069099364449291 0 -0.01795629530704166 -0.04480967118937796 0 -0.021726017402417062 -0.045050810006773537 0 -0.01930711014833373 -0.047246173746321958 0 -0.018351535959606372 -0.046220140717863609 0 -0.023465385063982037 -0.052085410594972764 0 -0.019705104056749682 -0.051694677596346363 0 -0.022078497255957077 -0.050805051464318012 0 -0.02275303559970545 -0.047704306205883951 0 -0.019187579784518252 -0.048995477460650728 0 -0.019705104056749682 -0.051694677596346363 0 -0.020441830066859092 -0.050254025211955489 0 -0.022078497255957077 -0.050805051464318012 0 -0.01718341060790074 -0.047455320889633751 0 -0.018351535959606372 -0.046220140717863609 0 -0.017562976120418836 -0.048751627878083729 0 -0.01930711014833373 -0.047246173746321958 0 -0.01718341060790074 -0.047455320889633751 0 -0.018351535959606372 -0.046220140717863609 0 -0.016979214786914405 -0.047349366884242294 0 -0.01930711014833373 -0.047246173746321958 0 -0.01718341060790074 -0.047455320889633751 0 -0.019705104056749682 -0.051694677596346363 0 -0.018962644983393541 -0.050568549181382295 0 -0.017562976120418836 -0.048751627878083729 0 -0.019187579784518252 -0.048995477460650728 0 -0.01796714587364712 -0.048737078704141554 0 -0.019705104056749682 -0.051694677596346363 0 -0.018962644983393541 -0.050568549181382295 0 -0.020441830066859092 -0.050254025211955489 0 -0.019482829724718542 -0.050825324351211267 0 -0.020942411286102344 -0.050929095753816565 0 -0.018962644983393541 -0.050568549181382295 0 -0.018431709557540137 -0.050016889763879517 0 -0.019962463725772556 -0.050805303239356926 0 -0.018962644983393541 -0.050568549181382295 0 -0.018431709557540137 -0.050016889763879517 0 -0.017562976120418836 -0.048751627878083729 0 -0.016716075142271219 -0.046990372610014458 0 -0.01718341060790074 -0.047455320889633751 0 -0.017562976120418836 -0.048751627878083729 0 -0.016953021356996362 -0.047419106604054226 0 -0.016716075142271219 -0.046990372610014458 0 -0.017562976120418836 -0.048751627878083729 0 -0.016953021356996362 -0.047419106604054226 0 -0.017562976120418836 -0.048751627878083729 0 -0.01758863879397829 -0.048932378328731541 0 -0.018431709557540137 -0.050016889763879517 0 -0.017562976120418836 -0.048751627878083729 0 -0.01758863879397829 -0.048932378328731541 0 -0.018431709557540137 -0.050016889763879517 0 -0.01758863879397829 -0.048932378328731541 0 -0.017749860534118825 -0.049814284997031139 0 -0.019586097312654531 -0.049999879007270646 0 -0.019322877709691814 -0.050309257660425051 0 -0.017749860534118825 -0.049814284997031139 0 -0.018431709557540137 -0.050016889763879517 0 -0.019322877709691814 -0.050309257660425051 0 -0.017749860534118825 -0.049814284997031139 0 -0.01958402725199522 -0.049998711192632612 0 -0.02130572626094741 -0.050425736249766873 0 -0.022410630586160711 -0.049999313279616299 0 -0.019586097312654531 -0.049999879007270646 0 -0.019322877709691814 -0.050309257660425051 0 -0.021354703087381393 -0.050292591500580512 0 -0.019586852669552065 -0.049999862484018262 0 -0.021435859909479056 -0.050542602690617888 0 -0.019322877709691814 -0.050309257660425051 0 -0.019962463725772556 -0.050805303239356926 0 -0.021354703087381393 -0.050292591500580512 0 -0.018431709557540137 -0.050016889763879517 0 -0.019322877709691814 -0.050309257660425051 0 -0.019962463725772556 -0.050805303239356926 0 -0.019962463725772556 -0.050805303239356926 0 -0.0213516960857606 -0.051828544631573853 0 -0.021354703087381393 -0.050292591500580512 0 -0.0213516960857606 -0.051828544631573853 0 -0.021354703087381393 -0.050292591500580512 0 -0.023705966701564905 -0.051764055035543752 0 -0.018962644983393541 -0.050568549181382295 0 -0.019962463725772556 -0.050805303239356926 0 -0.0213516960857606 -0.051828544631573853 0 -0.02130572626094741 -0.050425736249766873 0 -0.022410630586160711 -0.049999313279616299 0 -0.023426242468306577 -0.050467721290534694 0 -0.021435859909479056 -0.050542602690617888 0 -0.023289520523682713 -0.05100213150638315 0 -0.025237978292889093 -0.049999794053070895 0 -0.023426242468306577 -0.050467721290534694 0 -0.023701777350851036 -0.051769749852456214 0 -0.025237978292889093 -0.049999794053070895 0 -0.022410630586160711 -0.049999313279616299 0 -0.023426242468306577 -0.050467721290534694 0 -0.02130572626094741 -0.050425736249766873 0 -0.023426242468306577 -0.050467721290534694 0 -0.023701777350851036 -0.051769749852456214 0 -0.022872358435279107 -0.050010090489831217 0 -0.022568398357528833 -0.049797122263794784 0 -0.022078497255957077 -0.050805051464318012 0 -0.023122772834519204 -0.050882300769250204 0 -0.023289520523682713 -0.05100213150638315 0 -0.020441830066859092 -0.050254025211955489 0 -0.022568398357528833 -0.049797122263794784 0 -0.022078497255957077 -0.050805051464318012 0 -0.020942411286102344 -0.050929095753816565 0 -0.023289520523682713 -0.05100213150638315 0 -0.015819110766791957 -0.048500653165252629 0 -0.016260734393409953 -0.048915215567576983 0 -0.015527122719935975 -0.049653129538044974 0 -0.016638574204639777 -0.048712856323715713 0 -0.015690203331185773 -0.049535767169609043 0 -0.016970623858986417 -0.047863314926755829 0 -0.015819110766791957 -0.048500653165252629 0 -0.015623942867334668 -0.048081792296424751 0 -0.016970623858986417 -0.047863314926755829 0 -0.015819110766791957 -0.048500653165252629 0 -0.016260734393409953 -0.048915215567576983 0 -0.016742376811281181 -0.046641556831154098 0 -0.016970623858986417 -0.047863314926755829 0 -0.016260734393409953 -0.048915215567576983 0 -0.016698320233905117 -0.047321768025880298 0 -0.016638574204639777 -0.048712856323715713 0 -0.016759717015812806 -0.047114712591252605 0 -0.016742376811281181 -0.046641556831154098 0 -0.016260734393409953 -0.048915215567576983 0 -0.016759717015812806 -0.047114712591252605 0 -0.017182470518178221 -0.048259523256792836 0 -0.017090996550029519 -0.048561299963248226 0 -0.016953021356996362 -0.047419106604054226 0 -0.01758863879397829 -0.048932378328731541 0 -0.017182470518178221 -0.048259523256792836 0 -0.016759717015812806 -0.047114712591252605 0 -0.016953021356996362 -0.047419106604054226 0 -0.017182470518178221 -0.048259523256792836 0 -0.017182470518178221 -0.048259523256792836 0 -0.017090996550029519 -0.048561299963248226 0 -0.017749860534118825 -0.049814284997031139 0 -0.01758863879397829 -0.048932378328731541 0 -0.017182470518178221 -0.048259523256792836 0 -0.017749860534118825 -0.049814284997031139 0 -0.017090996550029519 -0.048561299963248226 0 -0.016963782356888172 -0.049831889781649229 0 -0.017749860534118825 -0.049814284997031139 0 -0.017090996550029519 -0.048561299963248226 0 -0.016963782356888172 -0.049831889781649229 0 -0.016001753596324195 -0.049451386054954118 0 -0.019586097312654531 -0.049999879007270646 0 -0.016963782356888172 -0.049831889781649229 0 -0.017749860534118825 -0.049814284997031139 0 -0.019586097312654531 -0.049999879007270646 0 -0.016963782356888172 -0.049831889781649229 0 -0.016791991477069126 -0.049998622590797466 0 -0.016963782356888172 -0.049831889781649229 0 -0.016791991477069126 -0.049998622590797466 0 -0.016001753596324195 -0.049451386054954118 0 -0.016791991477069126 -0.049998622590797466 0 -0.016001753596324195 -0.049451386054954118 0 -0.014000840704009917 -0.049997858114341716 0 -0.015527122719935975 -0.049653129538044974 0 -0.014940130526048855 -0.049402711107091532 0 -0.01399474002013391 -0.050001059450486794 0 -0.015690203331185773 -0.049535767169609043 0 -0.013998508808388217 -0.049999691845447149 0 -0.015819110766791957 -0.048500653165252629 0 -0.014940130526048855 -0.049402711107091532 0 -0.015609354189375837 -0.048756483522187831 0 -0.015819110766791957 -0.048500653165252629 0 -0.015527122719935975 -0.049653129538044974 0 -0.014940130526048855 -0.049402711107091532 0 -0.014940130526048855 -0.049402711107091532 0 -0.013827773189615009 -0.049999136090300753 0 -0.015609354189375837 -0.048756483522187831 0 -0.014940130526048855 -0.049402711107091532 0 -0.013827773189615009 -0.049999136090300753 0 -0.01399474002013391 -0.050001059450486794 0 -0.013822544408062019 -0.049999909640855517 0 -0.013515498493661553 -0.050233196067643052 0 -0.013822233691277856 -0.050000084651591059 0 -0.011056207862442239 -0.049999637207893188 0 -0.011572190797200765 -0.051807923688367744 0 -0.011056207862442239 -0.049999637207893188 0 -0.0093863981115806759 -0.051324190507636244 0 -0.011572190797200765 -0.051807923688367744 0 -0.011056207862442239 -0.049999637207893188 0 -0.0093863981115806759 -0.051324190507636244 0 -0.008290445063304187 -0.049999693826786894 0 -0.0093863981115806759 -0.051324190507636244 0 -0.011572190797200765 -0.051807923688367744 0 -0.0091542329594277265 -0.05330176224432847 0 -0.008290445063304187 -0.049999693826786894 0 -0.0070554849344578278 -0.051814174208541154 0 -0.0055247717006335793 -0.049999535011548045 0 -0.0093863981115806759 -0.051324190507636244 0 -0.008290445063304187 -0.049999693826786894 0 -0.0070554849344578278 -0.051814174208541154 0 -0.0093863981115806759 -0.051324190507636244 0 -0.0070554849344578278 -0.051814174208541154 0 -0.0091542329594277265 -0.05330176224432847 0 -0.0070554849344578278 -0.051814174208541154 0 -0.00701431789597974 -0.053198501558733242 0 -0.004825830295991507 -0.053006838477065978 0 -0.0070554849344578278 -0.051814174208541154 0 -0.00701431789597974 -0.053198501558733242 0 -0.0091542329594277265 -0.05330176224432847 0 -0.00701431789597974 -0.053198501558733242 0 -0.0091542329594277265 -0.05330176224432847 0 -0.006753422722490657 -0.054545214881466651 0 -0.014481780312872951 -0.04766452303926641 0 -0.01181204069071007 -0.048267931339251065 0 -0.012465706084616224 -0.0487792760677647 0 -0.011806557544364115 -0.050498631926514874 0 -0.0091707231698198791 -0.051582259045311031 0 -0.00701431789597974 -0.053198501558733242 0 -0.006753422722490657 -0.054545214881466651 0 -0.004825830295991507 -0.053006838477065978 0 -0.0091707231698198791 -0.051582259045311031 0 -0.0044189278930431321 -0.053536067189177666 0 -0.0066787269059849956 -0.054633919011150445 0 -0.0044897665147843385 -0.054441540686603479 0 -0.0046881355215696039 -0.053171300264124199 0 -0.015819110766791957 -0.048500653165252629 0 -0.014481780312872951 -0.04766452303926641 0 -0.015623942867334668 -0.048081792296424751 0 -0.015819110766791957 -0.048500653165252629 0 -0.015609354189375837 -0.048756483522187831 0 -0.014481780312872951 -0.04766452303926641 0 -0.013515498493661553 -0.050233196067643052 0 -0.011806557544364115 -0.050498631926514874 0 -0.014481780312872951 -0.04766452303926641 0 -0.014391346328454593 -0.048545764957274237 0 -0.012465706084616224 -0.0487792760677647 0 -0.014481780312872951 -0.04766452303926641 0 -0.015623942867334668 -0.048081792296424751 0 -0.014391346328454593 -0.048545764957274237 0 -0.015623942867334668 -0.048081792296424751 0 -0.015403555832779938 -0.049609071359957187 0 -0.014391346328454593 -0.048545764957274237 0 -0.019226057975441368 -0.045137625189635655 0 -0.018996173176162475 -0.043055072770998355 0 -0.020338869017834611 -0.042690579538244421 0 -0.01726620806953446 -0.047295889337993495 0 -0.016971776030834003 -0.047308018105741395 0 -0.015403555832779938 -0.049609071359957187 0 -0.013208744317193153 -0.049606678742651643 0 -0.01359614416375508 -0.05092901838330921 0 -0.013208744317193153 -0.049606678742651643 0 -0.011704105247149861 -0.050457025593635636 0 -0.01359614416375508 -0.05092901838330921 0 -0.013208744317193153 -0.049606678742651643 0 -0.014391346328454593 -0.048545764957274237 0 -0.012465706084616224 -0.0487792760677647 0 -0.015403555832779938 -0.049609071359957187 0 -0.013208744317193153 -0.049606678742651643 0 -0.014391346328454593 -0.048545764957274237 0 -0.013208744317193153 -0.049606678742651643 0 -0.012465706084616224 -0.0487792760677647 0 -0.011513420906056148 -0.049539173022799622 0 -0.011775707492469261 -0.048311350256131029 0 -0.012465706084616224 -0.0487792760677647 0 -0.011513420906056148 -0.049539173022799622 0 -0.0091707231698198791 -0.051582259045311031 0 -0.01130544456659561 -0.049835682335354035 0 -0.0091707231698198791 -0.051582259045311031 0 -0.0067303249548704572 -0.05346738584169803 0 -0.0066787269059849956 -0.054633919011150445 0 -0.0046182001223894001 -0.055623696477414351 0 -0.0044897665147843385 -0.054441540686603479 0 -0.011775707492469261 -0.048311350256131029 0 -0.011513420906056148 -0.049539173022799622 0 -0.0095945228354611858 -0.049609771587429005 0 -0.010450551657000437 -0.05029878134494141 0 -0.011513420906056148 -0.049539173022799622 0 -0.0095945228354611858 -0.049609771587429005 0 -0.013208744317193153 -0.049606678742651643 0 -0.011513420906056148 -0.049539173022799622 0 -0.011704105247149861 -0.050457025593635636 0 -0.010450551657000437 -0.05029878134494141 0 -0.011513420906056148 -0.049539173022799622 0 -0.011704105247149861 -0.050457025593635636 0 -0.011704105247149861 -0.050457025593635636 0 -0.011437693025032223 -0.051205501986993689 0 -0.01359614416375508 -0.05092901838330921 0 -0.011437693025032223 -0.051205501986993689 0 -0.011292966500433663 -0.051969670264848271 0 -0.01359614416375508 -0.05092901838330921 0 -0.011704105247149861 -0.050457025593635636 0 -0.011437693025032223 -0.051205501986993689 0 -0.010787707845244666 -0.050861220468011635 0 -0.011437693025032223 -0.051205501986993689 0 -0.010787707845244666 -0.050861220468011635 0 -0.010477521925661291 -0.051463892026169314 0 -0.011437693025032223 -0.051205501986993689 0 -0.010477521925661291 -0.051463892026169314 0 -0.010971848385007182 -0.051633343281983678 0 -0.010450551657000437 -0.05029878134494141 0 -0.0099600975430850398 -0.050900037485482913 0 -0.0091145759176791442 -0.050545575010071106 0 -0.010450551657000437 -0.05029878134494141 0 -0.010787707845244666 -0.050861220468011635 0 -0.0099600975430850398 -0.050900037485482913 0 -0.010450551657000437 -0.05029878134494141 0 -0.011704105247149861 -0.050457025593635636 0 -0.010787707845244666 -0.050861220468011635 0 -0.010787707845244666 -0.050861220468011635 0 -0.0099600975430850398 -0.050900037485482913 0 -0.010477521925661291 -0.051463892026169314 0 -0.0099600975430850398 -0.050900037485482913 0 -0.0094742468815143862 -0.05136097322317458 0 -0.010477521925661291 -0.051463892026169314 0 -0.012870042270342589 -0.045243230129471242 0 -0.014128868851469686 -0.041034888400184953 0 -0.01406328169727921 -0.03791742216054575 0 -0.014827628542760813 -0.038778486834764841 0 -0.015065623401146287 -0.039036634722985429 0 -0.0094742468815143862 -0.05136097322317458 0 -0.010477521925661291 -0.051463892026169314 0 -0.010853981004525386 -0.052047862008913613 0 -0.011437693025032223 -0.051205501986993689 0 -0.011292966500433663 -0.051969670264848271 0 -0.010971848385007182 -0.051633343281983678 0 -0.010477521925661291 -0.051463892026169314 0 -0.010971848385007182 -0.051633343281983678 0 -0.010853981004525386 -0.052047862008913613 0 -0.011292966500433663 -0.051969670264848271 0 -0.010971848385007182 -0.051633343281983678 0 -0.010853981004525386 -0.052047862008913613 0 -0.014128868851469686 -0.041034888400184953 0 -0.016339152163072024 -0.040406239601639339 0 -0.014857783892958221 -0.04254235006285529 0 -0.014128868851469686 -0.041034888400184953 0 -0.012808439538285523 -0.037126739510025805 0 -0.012549460849439057 -0.03865368134264608 0 -0.012277508624756159 -0.038595064035334532 0 -0.02142622473083115 -0.040578722992987891 0 -0.021387174720850031 -0.040268961767318964 0 -0.020033924142834895 -0.039687008669947746 0 -0.011726720766190924 -0.040381186030063007 0 -0.012179916001944565 -0.039916670365163519 0 -0.011743188055470937 -0.039754424540998361 0 -0.014857783892958221 -0.04254235006285529 0 -0.016339152163072024 -0.040406239601639339 0 -0.020033924142834895 -0.039687008669947746 0 -0.019073589172498601 -0.041128214504681321 0 -0.020338869017834611 -0.042690579538244421 0 -0.016339152163072024 -0.040406239601639339 0 -0.02076212283691161 -0.039528758497686653 0 -0.02142622473083115 -0.040578722992987891 0 -0.020033924142834895 -0.039687008669947746 0 -0.020338869017834611 -0.042690579538244421 0 -0.018898569342782848 -0.038842428303757205 0 -0.017946284865042954 -0.04004080078703303 0 -0.019073589172498601 -0.041128214504681321 0 -0.018898569342782848 -0.038842428303757205 0 -0.020033924142834895 -0.039687008669947746 0 -0.019073589172498601 -0.041128214504681321 0 -0.017901621842500361 -0.042129801914992451 0 -0.019073589172498601 -0.041128214504681321 0 -0.018996173176162475 -0.043055072770998355 0 -0.019073589172498601 -0.041128214504681321 0 -0.018996173176162475 -0.043055072770998355 0 -0.020338869017834611 -0.042690579538244421 0 -0.014857783892958221 -0.04254235006285529 0 -0.016971776030834003 -0.047308018105741395 0 0.00040384531334451007 -0.042742802770692603 0 -0.00027470461939190486 -0.043920900839448662 0 -0.002637913699832962 -0.0424430969439571 0 -0.00097856457366485511 -0.05474061818820776 0 -8.9170068963711032e-05 -0.055306531827067587 0 -0.0029609663246602962 -0.055856925980271421 0 0.00093307898748407102 -0.04904866626564712 0 -0.0066679951183686685 -0.049088374535137258 0 -0.00097856457366485511 -0.05474061818820776 0 -8.9170068963711032e-05 -0.055306531827067587 0 0.00067254486898224582 -0.054227333238652552 0 0.00040384531334451007 -0.042742802770692603 0 0.0012237784308157102 -0.0436665733234839 0 -0.00027470461939190486 -0.043920900839448662 0 0.0014544753004118868 -0.043684562918992267 0 0.0012237784308157102 -0.0436665733234839 0 -0.00027470461939190486 -0.043920900839448662 0 0.00040384531334451007 -0.042742802770692603 0 0.0012237784308157102 -0.0436665733234839 0 0.0015305889981288173 -0.043806398733852538 0 -0.015733383221846149 -0.038314579822265708 0 -0.014759442792825822 -0.038190353632463925 0 -0.0149156732458784 -0.03895495295342348 0 -0.0087353744268954415 -0.039580742243805575 0 -0.0066679951183686685 -0.049088374535137258 0 -0.01406328169727921 -0.03791742216054575 0 -0.014827628542760813 -0.038778486834764841 0 -0.014759442792825822 -0.038190353632463925 0 -0.014827628542760813 -0.038778486834764841 0 -0.014759442792825822 -0.038190353632463925 0 -0.0149156732458784 -0.03895495295342348 0 -0.0091145759176791442 -0.050545575010071106 0 -0.0081560330709304161 -0.050998198059676023 0 -0.0095945228354611858 -0.049609771587429005 0 -0.010464301904467087 -0.051289430459430865 0 -0.0066679951183686685 -0.049088374535137258 0 -0.0099600975430850398 -0.050900037485482913 0 -0.0091145759176791442 -0.050545575010071106 0 -0.0081560330709304161 -0.050998198059676023 0 -0.0099600975430850398 -0.050900037485482913 0 -0.0094742468815143862 -0.05136097322317458 0 -0.008151467388523374 -0.05077914014172908 0 -0.012870042270342589 -0.045243230129471242 0 -0.0066679951183686685 -0.049088374535137258 0 -0.00058265427818747191 -0.055799405012520308 0 -0.0026094353647525283 -0.056796313786404783 0 -0.0020243462243082324 -0.055740732757084049 0 -0.00035592618114072883 -0.055776463291387218 0 -0.0066679951183686685 -0.049088374535137258 0 -0.0026094353647525283 -0.056796313786404783 0 -0.0020243462243082324 -0.055740732757084049 0 -0.0029525742830573327 -0.055808421120321812 0 -0.0020243462243082324 -0.055740732757084049 0 -0.0029525742830573327 -0.055808421120321812 0 -0.0025705747656241721 -0.055097892285930483 0 -0.0020243462243082324 -0.055740732757084049 0 -0.0025705747656241721 -0.055097892285930483 0 -0.0013325735666569079 -0.055153178538271556 0 -0.0029525742830573327 -0.055808421120321812 0 -0.0025705747656241721 -0.055097892285930483 0 -0.0046182001223894001 -0.055623696477414351 0 -0.010450551657000437 -0.05029878134494141 0 -0.0091145759176791442 -0.050545575010071106 0 -0.0095945228354611858 -0.049609771587429005 0 -0.0066679951183686685 -0.049088374535137258 0 -0.0067303249548704572 -0.05346738584169803 0 -0.0026094353647525283 -0.056796313786404783 0 -0.0029525742830573327 -0.055808421120321812 0 -0.0046182001223894001 -0.055623696477414351 0 -0.0025705747656241721 -0.055097892285930483 0 -0.0046182001223894001 -0.055623696477414351 0 -0.0044897665147843385 -0.054441540686603479 0 -0.0025705747656241721 -0.055097892285930483 0 -0.0011288135510868328 -0.054331741389965028 0 -0.0026244860414837748 -0.053880058169162443 0 -0.0025705747656241721 -0.055097892285930483 0 -0.0044897665147843385 -0.054441540686603479 0 -0.0026244860414837748 -0.053880058169162443 0 -0.0011288135510868328 -0.054331741389965028 0 -0.00074481278380393514 -0.053406807083414408 0 -0.0026244860414837748 -0.053880058169162443 0 -0.0025705747656241721 -0.055097892285930483 0 -0.0011288135510868328 -0.054331741389965028 0 -0.0013325735666569079 -0.055153178538271556 0 -0.0011288135510868328 -0.054331741389965028 0 -0.0013325735666569079 -0.055153178538271556 0 -0.00037028502413470507 -0.054664908340433645 0 -0.00058265427818747191 -0.055799405012520308 0 -0.0013325735666569079 -0.055153178538271556 0 -0.00037028502413470507 -0.054664908340433645 0 -0.00058265427818747191 -0.055799405012520308 0 -0.0020243462243082324 -0.055740732757084049 0 -0.0013325735666569079 -0.055153178538271556 0 -0.00035592618114072883 -0.055776463291387218 0 0.00040027486299775008 -0.05433761002894192 0 -0.00058265427818747191 -0.055799405012520308 0 -0.00037028502413470507 -0.054664908340433645 0 0.00067254486898224582 -0.054227333238652552 0 -0.00037028502413470507 -0.054664908340433645 0 0.00018893901742945358 -0.053948440767590054 0 0.00067254486898224582 -0.054227333238652552 0 -0.0011288135510868328 -0.054331741389965028 0 0.00018893901742945358 -0.053948440767590054 0 -0.00074481278380393514 -0.053406807083414408 0 -0.0011288135510868328 -0.054331741389965028 0 -0.00037028502413470507 -0.054664908340433645 0 0.00018893901742945358 -0.053948440767590054 0 0.00018893901742945358 -0.053948440767590054 0 -0.00074481278380393514 -0.053406807083414408 0 0.00087231709270053643 -0.053199018465289107 0 -0.00074481278380393514 -0.053406807083414408 0 -0.00064689572605083586 -0.052196758040491523 0 0.00087231709270053643 -0.053199018465289107 0 -0.00074481278380393514 -0.053406807083414408 0 -0.0021441798328451583 -0.052904156417034873 0 -0.0026244860414837748 -0.053880058169162443 0 -0.00074481278380393514 -0.053406807083414408 0 -0.0021441798328451583 -0.052904156417034873 0 -0.00064689572605083586 -0.052196758040491523 0 -0.0021441798328451583 -0.052904156417034873 0 -0.00064689572605083586 -0.052196758040491523 0 -0.0028064132005734686 -0.051920580478576693 0 -0.0044897665147843385 -0.054441540686603479 0 -0.0026244860414837748 -0.053880058169162443 0 -0.0046881355215696039 -0.053171300264124199 0 -0.0021441798328451583 -0.052904156417034873 0 -0.0026244860414837748 -0.053880058169162443 0 -0.0046881355215696039 -0.053171300264124199 0 -0.0021441798328451583 -0.052904156417034873 0 -0.0046881355215696039 -0.053171300264124199 0 -0.0028064132005734686 -0.051920580478576693 0 -0.0044189278930431321 -0.053536067189177666 0 -0.0029258758436885627 -0.051726637397699268 0 -0.004825830295991507 -0.053006838477065978 0 -0.0049801715549244721 -0.051488590351636596 0 -0.0030040256872796568 -0.051684078904524117 0 -0.0070554849344578278 -0.051814174208541154 0 -0.004825830295991507 -0.053006838477065978 0 -0.0049801715549244721 -0.051488590351636596 0 -0.0049801715549244721 -0.051488590351636596 0 -0.0030040256872796568 -0.051684078904524117 0 -0.0040594008001662877 -0.050805561614222922 0 -0.0030040256872796568 -0.051684078904524117 0 -0.0040594008001662877 -0.050805561614222922 0 -0.0027593355111645659 -0.049999652104221068 0 -0.0040594008001662877 -0.050805561614222922 0 -0.0055247717006335793 -0.049999535011548045 0 -0.0027593355111645659 -0.049999652104221068 0 -0.0070554849344578278 -0.051814174208541154 0 -0.0049801715549244721 -0.051488590351636596 0 -0.0055247717006335793 -0.049999535011548045 0 -0.0049801715549244721 -0.051488590351636596 0 -0.0040594008001662877 -0.050805561614222922 0 -0.0055247717006335793 -0.049999535011548045 0 -0.00064689572605083586 -0.052196758040491523 0 -0.00099204187939970208 -0.050542492080033245 0 0.00038988538440821931 -0.051271516565369955 0 -0.00064689572605083586 -0.052196758040491523 0 -0.0028064132005734686 -0.051920580478576693 0 -0.00099204187939970208 -0.050542492080033245 0 -0.0029258758436885627 -0.051726637397699268 0 -0.0010723129726053263 -0.050585932802385762 0 -0.0030040256872796568 -0.051684078904524117 0 -0.0027593355111645659 -0.049999652104221068 0 -0.00099204187939970208 -0.050542492080033245 0 -0.0027593355111645659 -0.049999652104221068 0 -0.00099204187939970208 -0.050542492080033245 0 6.3445097496694064e-06 -0.049999726421976878 0 -0.00099204187939970208 -0.050542492080033245 0 6.3445097496694064e-06 -0.049999726421976878 0 0.00038988538440821931 -0.051271516565369955 0 6.3445097496694064e-06 -0.049999726421976878 0 0.001221910593566568 -0.050651923627868044 0 0.00038988538440821931 -0.051271516565369955 0 0.001221910593566568 -0.050651923627868044 0 0.00038988538440821931 -0.051271516565369955 0 0.0017912045329740774 -0.051216754654961068 0 6.3445097496694064e-06 -0.049999726421976878 0 0.001221910593566568 -0.050651923627868044 0 0.0027704867217564029 -0.049999965738587976 0 -0.00064689572605083586 -0.052196758040491523 0 0.00038988538440821931 -0.051271516565369955 0 0.0011774060884973746 -0.0521992806903913 0 0.00038988538440821931 -0.051271516565369955 0 0.0017912045329740774 -0.051216754654961068 0 0.0011774060884973746 -0.0521992806903913 0 0.0017912045329740774 -0.051216754654961068 0 0.0023819535376674375 -0.051940547588555895 0 0.0011774060884973746 -0.0521992806903913 0 0.0017912045329740774 -0.051216754654961068 0 0.003085896817021384 -0.051128500144772951 0 0.0023819535376674375 -0.051940547588555895 0 0.0017912045329740774 -0.051216754654961068 0 0.0027704867217564029 -0.049999965738587976 0 0.003085896817021384 -0.051128500144772951 0 0.001221910593566568 -0.050651923627868044 0 0.0017912045329740774 -0.051216754654961068 0 0.0027704867217564029 -0.049999965738587976 0 0.0044469120018816701 -0.050172129442061252 0 0.003085896817021384 -0.051128500144772951 0 0.0031146661312596762 -0.052384118876349611 0 0.0027704867217564029 -0.049999965738587976 0 0.0044469120018816701 -0.050172129442061252 0 0.003085896817021384 -0.051128500144772951 0 0.0027704867217564029 -0.049999965738587976 0 0.0044469120018816701 -0.050172129442061252 0 0.0055389664544436418 -0.049999659177127696 0 0.0055389664544436418 -0.049999659177127696 0 0.0076256165281018921 -0.051232249819776199 0 0.007788432930471989 -0.050731086798312314 0 0.0044469120018816701 -0.050172129442061252 0 0.0055389664544436418 -0.049999659177127696 0 0.0076256165281018921 -0.051232249819776199 0 0.0044523762595465493 -0.050048470128077435 0 0.005299239351433665 -0.051616189492024921 0 0.003085896817021384 -0.051128500144772951 0 0.0031146661312596762 -0.052384118876349611 0 0.0023819535376674375 -0.051940547588555895 0 0.0031146661312596762 -0.052384118876349611 0 0.0023819535376674375 -0.051940547588555895 0 0.0019822712471472973 -0.052808309199692705 0 0.0031146661312596762 -0.052384118876349611 0 0.0021056095755661516 -0.053099272329658755 0 0.0019822712471472973 -0.052808309199692705 0 0.005299239351433665 -0.051616189492024921 0 0.0056774952634993823 -0.05170019283080704 0 0.0031146661312596762 -0.052384118876349611 0 0.0021056095755661516 -0.053099272329658755 0 0.0017632854695104061 -0.053261926988855894 0 0.0021056095755661516 -0.053099272329658755 0 0.0019822712471472973 -0.052808309199692705 0 0.0018420795624365088 -0.053224841278656884 0 0.00087231709270053643 -0.053199018465289107 0 0.0019822712471472973 -0.052808309199692705 0 0.0018420795624365088 -0.053224841278656884 0 -0.00064689572605083586 -0.052196758040491523 0 0.00087231709270053643 -0.053199018465289107 0 0.0011774060884973746 -0.0521992806903913 0 0.00087231709270053643 -0.053199018465289107 0 0.0011774060884973746 -0.0521992806903913 0 0.0019822712471472973 -0.052808309199692705 0 0.0023819535376674375 -0.051940547588555895 0 0.0011774060884973746 -0.0521992806903913 0 0.0019822712471472973 -0.052808309199692705 0 0.01038735250070762 -0.050984393867946183 0 0.011068455995974934 -0.049999680247032954 0 0.01158572713861303 -0.05070127203107324 0 0.01038735250070762 -0.050984393867946183 0 0.011068455995974934 -0.049999680247032954 0 0.0096243119442149441 -0.050722512862865589 0 0.011068455995974934 -0.049999680247032954 0 0.0096243119442149441 -0.050722512862865589 0 0.0083039626592162734 -0.049999347909915594 0 0.01038735250070762 -0.050984393867946183 0 0.0096243119442149441 -0.050722512862865589 0 0.0091945132521215854 -0.051024961604985986 0 0.0096243119442149441 -0.050722512862865589 0 0.007788432930471989 -0.050731086798312314 0 0.0091945132521215854 -0.051024961604985986 0 0.0096243119442149441 -0.050722512862865589 0 0.0083039626592162734 -0.049999347909915594 0 0.007788432930471989 -0.050731086798312314 0 0.0055389664544436418 -0.049999659177127696 0 0.0083039626592162734 -0.049999347909915594 0 0.007788432930471989 -0.050731086798312314 0 0.0076256165281018921 -0.051232249819776199 0 0.007788432930471989 -0.050731086798312314 0 0.0091945132521215854 -0.051024961604985986 0 0.0076256165281018921 -0.051232249819776199 0 0.0098006014982241416 -0.050614732906645837 0 0.0091945132521215854 -0.051024961604985986 0 0.0098006014982241416 -0.050614732906645837 0 0.0097605169227512403 -0.050387429640723326 0 0.010196607778000343 -0.049635968773401977 0 0.0097605169227512403 -0.050387429640723326 0 0.0091945132521215854 -0.051024961604985986 0 0.0097387133585348281 -0.050423019930147257 0 0.0098006014982241416 -0.050614732906645837 0 0.0097605169227512403 -0.050387429640723326 0 0.0091945132521215854 -0.051024961604985986 0 0.01038735250070762 -0.050984393867946183 0 0.0091945132521215854 -0.051024961604985986 0 0.0097387133585348281 -0.050423019930147257 0 0.0097605169227512403 -0.050387429640723326 0 0.0097387133585348281 -0.050423019930147257 0 0.0099011531529663629 -0.049657493054120275 0 0.0097387133585348281 -0.050423019930147257 0 0.0088659797342681632 -0.049422523245557924 0 0.0096316085970912565 -0.05060155206901483 0 0.01038735250070762 -0.050984393867946183 0 0.0097387133585348281 -0.050423019930147257 0 0.0096316085970912565 -0.05060155206901483 0 0.0085381213305502392 -0.047853880190827522 0 0.0095090537421784957 -0.047432624495826595 0 0.0084968712438674657 -0.045946398995642262 0 0.0085381213305502392 -0.047853880190827522 0 0.0094035292663968428 -0.048937499117447956 0 0.0095090537421784957 -0.047432624495826595 0 0.0097387133585348281 -0.050423019930147257 0 0.0094035292663968428 -0.048937499117447956 0 0.0088659797342681632 -0.049422523245557924 0 0.0085381213305502392 -0.047853880190827522 0 0.0094035292663968428 -0.048937499117447956 0 0.0088659797342681632 -0.049422523245557924 0 0.0094035292663968428 -0.048937499117447956 0 0.010254528847543364 -0.048503365659908676 0 0.0099011531529663629 -0.049657493054120275 0 0.0097387133585348281 -0.050423019930147257 0 0.0094035292663968428 -0.048937499117447956 0 0.0099011531529663629 -0.049657493054120275 0 0.0094035292663968428 -0.048937499117447956 0 0.0095090537421784957 -0.047432624495826595 0 0.010254528847543364 -0.048503365659908676 0 0.0095090537421784957 -0.047432624495826595 0 0.010254528847543364 -0.048503365659908676 0 0.010441191326887206 -0.047151671916851476 0 0.010254528847543364 -0.048503365659908676 0 0.010196607778000343 -0.049635968773401977 0 0.01117564852343168 -0.048375124913858647 0 0.010254528847543364 -0.048503365659908676 0 0.01117564852343168 -0.048375124913858647 0 0.010441191326887206 -0.047151671916851476 0 0.010254528847543364 -0.048503365659908676 0 0.0099011531529663629 -0.049657493054120275 0 0.010196607778000343 -0.049635968773401977 0 0.0097605169227512403 -0.050387429640723326 0 0.0099011531529663629 -0.049657493054120275 0 0.010196607778000343 -0.049635968773401977 0 0.0017632854695104061 -0.053261926988855894 0 0.0009643891054959302 -0.052356484137225219 0 -0.00030938052736429118 -0.051876273824627783 0 0.0056774952634993823 -0.05170019283080704 0 0.0055889303583959429 -0.050266775016402587 0 0.0098006014982241416 -0.050614732906645837 0 0.010196607778000343 -0.049635968773401977 0 0.01117564852343168 -0.048375124913858647 0 0.0009643891054959302 -0.052356484137225219 0 -0.00030938052736429118 -0.051876273824627783 0 6.3036451629235933e-05 -0.050976670254259566 0 -0.00041813593112015698 -0.048540110684227401 0 6.3036451629235933e-05 -0.050976670254259566 0 0.0014250952940665718 -0.05195243004040237 0 -0.0016696103661067334 -0.050785683166384855 0 0.0039536640976600987 -0.046207538298836691 0 -0.00030938052736429118 -0.051876273824627783 0 6.3036451629235933e-05 -0.050976670254259566 0 -0.0013248812896160724 -0.049145410733746904 0 -0.00041813593112015698 -0.048540110684227401 0 6.3036451629235933e-05 -0.050976670254259566 0 -0.0028348185489304001 -0.046623928876691624 0 -0.00041813593112015698 -0.048540110684227401 0 -0.00058562063069093147 -0.045210515300569645 0 -0.0028348185489304001 -0.046623928876691624 0 -0.00041813593112015698 -0.048540110684227401 0 -0.00058562063069093147 -0.045210515300569645 0 0.00051016702024654788 -0.046129605861915529 0 -0.00058562063069093147 -0.045210515300569645 0 -0.0028348185489304001 -0.046623928876691624 0 -0.0018064776348986063 -0.044742620172133395 0 -0.0028348185489304001 -0.046623928876691624 0 -0.0018064776348986063 -0.044742620172133395 0 -0.0032652121496520138 -0.044139855550245452 0 0.0039536640976600987 -0.046207538298836691 0 0.0019113283594774048 -0.042905487890096003 0 0.011190821780717883 -0.045354380515813017 0 0.010197525046846612 -0.044994176133641997 0 0.010326656815124478 -0.043740813393901963 0 0.0039536640976600987 -0.046207538298836691 0 0.0090426319932076105 -0.042266483240079603 0 0.011190821780717883 -0.045354380515813017 0 0.01036725187698275 -0.045895273232147024 0 0.010197525046846612 -0.044994176133641997 0 0.01117564852343168 -0.048375124913858647 0 0.011190821780717883 -0.045354380515813017 0 0.010441191326887206 -0.047151671916851476 0 0.011190821780717883 -0.045354380515813017 0 0.010441191326887206 -0.047151671916851476 0 0.01036725187698275 -0.045895273232147024 0 0.0055889303583959429 -0.050266775016402587 0 0.0039536640976600987 -0.046207538298836691 0 0.0095090537421784957 -0.047432624495826595 0 0.010441191326887206 -0.047151671916851476 0 0.0096243074672513994 -0.045842404155139238 0 0.0095090537421784957 -0.047432624495826595 0 0.0096243074672513994 -0.045842404155139238 0 0.0084968712438674657 -0.045946398995642262 0 0.010441191326887206 -0.047151671916851476 0 0.0096243074672513994 -0.045842404155139238 0 0.01036725187698275 -0.045895273232147024 0 0.0096243074672513994 -0.045842404155139238 0 0.010197525046846612 -0.044994176133641997 0 0.0090424152076774827 -0.044140229087223627 0 0.0096243074672513994 -0.045842404155139238 0 0.01036725187698275 -0.045895273232147024 0 0.010197525046846612 -0.044994176133641997 0 0.010197525046846612 -0.044994176133641997 0 0.0090424152076774827 -0.044140229087223627 0 0.010326656815124478 -0.043740813393901963 0 0.0090424152076774827 -0.044140229087223627 0 0.0084968712438674657 -0.045946398995642262 0 0.0075406786234579843 -0.044289518793626866 0 0.0096243074672513994 -0.045842404155139238 0 0.0090424152076774827 -0.044140229087223627 0 0.0084968712438674657 -0.045946398995642262 0 0.0088855744780755724 -0.043738316619967146 0 0.0076429227198627058 -0.044266455264735792 0 0.0085381213305502392 -0.047853880190827522 0 0.0084968712438674657 -0.045946398995642262 0 0.0072541916466444699 -0.046274353219566626 0 0.0012873011415135487 -0.053586594525077698 0 0.0019127362235094325 -0.053029264302418562 0 0.0015430476713146209 -0.054061382374846187 0 0.00067254486898224582 -0.054227333238652552 0 0.0012873011415135487 -0.053586594525077698 0 0.0015430476713146209 -0.054061382374846187 0 0.00018893901742945358 -0.053948440767590054 0 0.00067254486898224582 -0.054227333238652552 0 0.0012873011415135487 -0.053586594525077698 0 0.00018893901742945358 -0.053948440767590054 0 0.00087231709270053643 -0.053199018465289107 0 0.0012873011415135487 -0.053586594525077698 0 0.00087231709270053643 -0.053199018465289107 0 0.0012873011415135487 -0.053586594525077698 0 0.0018420795624365088 -0.053224841278656884 0 0.0012873011415135487 -0.053586594525077698 0 0.0018420795624365088 -0.053224841278656884 0 0.0019127362235094325 -0.053029264302418562 0 0.0018420795624365088 -0.053224841278656884 0 0.0017229324089369021 -0.052834473245791685 0 0.0019127362235094325 -0.053029264302418562 0 0.0021056095755661516 -0.053099272329658755 0 0.0018420795624365088 -0.053224841278656884 0 0.0017229324089369021 -0.052834473245791685 0 0.0017632854695104061 -0.053261926988855894 0 0.0009643891054959302 -0.052356484137225219 0 0.0017229324089369021 -0.052834473245791685 0 0.0021056095755661516 -0.053099272329658755 0 0.0017632854695104061 -0.053261926988855894 0 0.0017229324089369021 -0.052834473245791685 0 0.0009643891054959302 -0.052356484137225219 0 0.0017229324089369021 -0.052834473245791685 0 0.0014250952940665718 -0.05195243004040237 0 0.0009643891054959302 -0.052356484137225219 0 6.3036451629235933e-05 -0.050976670254259566 0 0.0014250952940665718 -0.05195243004040237 0 0.0017229324089369021 -0.052834473245791685 0 0.0014250952940665718 -0.05195243004040237 0 0.0019127362235094325 -0.053029264302418562 0 0.0014250952940665718 -0.05195243004040237 0 0.0019127362235094325 -0.053029264302418562 0 0.0020210127510783193 -0.051981134629086087 0 -0.00041813593112015698 -0.048540110684227401 0 0.0014250952940665718 -0.05195243004040237 0 0.0020210127510783193 -0.051981134629086087 0 -0.00041813593112015698 -0.048540110684227401 0 0.0014968584849131997 -0.04551972986172307 0 0.00051016702024654788 -0.046129605861915529 0 -0.00061739782425267956 -0.048557284959459886 0 0.0015013929540934885 -0.04874985375391136 0 -0.00058562063069093147 -0.045210515300569645 0 0.00051016702024654788 -0.046129605861915529 0 0.00087431486295565112 -0.044895934458977299 0 0.0014968584849131997 -0.04551972986172307 0 0.00051016702024654788 -0.046129605861915529 0 0.00087431486295565112 -0.044895934458977299 0 0.0014968584849131997 -0.04551972986172307 0 0.00087431486295565112 -0.044895934458977299 0 0.0017480267080023425 -0.044181812554301633 0 0.0016494732717166494 -0.04391985648465159 0 0.0015305889981288173 -0.043806398733852538 0 0.0017480267080023425 -0.044181812554301633 0 0.0015305889981288173 -0.043806398733852538 0 0.0016081033323075916 -0.043740306235756678 0 0.0017480267080023425 -0.044181812554301633 0 0.0014968584849131997 -0.04551972986172307 0 0.0016494732717166494 -0.04391985648465159 0 0.0017480267080023425 -0.044181812554301633 0 0.0019127362235094325 -0.053029264302418562 0 0.0020210127510783193 -0.051981134629086087 0 0.0015430476713146209 -0.054061382374846187 0 0.0015013929540934885 -0.04874985375391136 0 0.0012620877025529469 -0.048966923734299145 0 0.00040384531334451007 -0.042742802770692603 0 0.0016494732717166494 -0.04391985648465159 0 0.0015305889981288173 -0.043806398733852538 0 -8.9170068963711032e-05 -0.055306531827067587 0 0.00067254486898224582 -0.054227333238652552 0 0.0015430476713146209 -0.054061382374846187 0 0.00093307898748407102 -0.04904866626564712 0 0.0012620877025529469 -0.048966923734299145 0 0.0012237784308157102 -0.0436665733234839 0 0.0015305889981288173 -0.043806398733852538 0 0.0016081033323075916 -0.043740306235756678 0 0.0012237784308157102 -0.0436665733234839 0 0.0015106940612315128 -0.043605071480590368 0 0.0016081033323075916 -0.043740306235756678 0 0.0015106940612315128 -0.043605071480590368 0 0.0016081033323075916 -0.043740306235756678 0 0.0016353423545060282 -0.043375861778966018 0 0.001479731408987445 -0.043204436342553602 0 0.0015106940612315128 -0.043605071480590368 0 0.0016353423545060282 -0.043375861778966018 0 0.0017480267080023425 -0.044181812554301633 0 0.0026160732145987537 -0.043320808070589682 0 0.0016193243463643668 -0.042965932964278253 0 0.0016353423545060282 -0.043375861778966018 0 0.0017480267080023425 -0.044181812554301633 0 0.0016986110298154227 -0.042774036770792723 0 0.0018419209174627103 -0.044419471197790911 0 0.0015811075916015481 -0.041894427900457575 0 0.0016081033323075916 -0.043740306235756678 0 0.0016353423545060282 -0.043375861778966018 0 0.0017480267080023425 -0.044181812554301633 0 0.0015811075916015481 -0.041894427900457575 0 0.0014399875818027006 -0.040566760457016751 0 0.0026160732145987537 -0.043320808070589682 0 0.0016887511948979737 -0.041213475181586301 0 0.0016193243463643668 -0.042965932964278253 0 0.0026306111431385255 -0.042059306436667936 0 0.0033191287757511445 -0.040890246505789291 0 0.0019430286713148946 -0.039740460292339914 0 0.0014381297214521088 -0.042829911154925918 0 0.0015811075916015481 -0.041894427900457575 0 0.0017846701316111839 -0.043556227590029042 0 0.001479731408987445 -0.043204436342553602 0 0.0011462873199026031 -0.039453184804406183 0 0.001479731408987445 -0.043204436342553602 0 0.00027055372742655382 -0.040794471367366782 0 0.0011462873199026031 -0.039453184804406183 0 -0.0081301201953213123 -0.039915589178472093 0 -0.0066704251056710837 -0.038396686697690405 0 0.001479731408987445 -0.043204436342553602 0 0.0016353423545060282 -0.043375861778966018 0 0.0016986110298154227 -0.042774036770792723 0 0.0015811075916015481 -0.041894427900457575 0 -0.0066704251056710837 -0.038396686697690405 0 -0.014514657560675838 -0.034548801396766811 0 -0.0066704251056710837 -0.038396686697690405 0 -0.010120882609194351 -0.036671571999343212 0 -0.011543550923769732 -0.039137036769449587 0 -0.011938436631754161 -0.036790621419887405 0 0.0026306111431385255 -0.042059306436667936 0 0.0019430286713148946 -0.039740460292339914 0 0.00078475205827935822 -0.039606593767919987 0 -0.011543550923769732 -0.039137036769449587 0 -0.014028646096885004 -0.036300660036663712 0 -0.011938436631754161 -0.036790621419887405 0 0.0033191287757511445 -0.040890246505789291 0 0.0019430286713148946 -0.039740460292339914 0 0.0020508911806503471 -0.037958275403346134 0 -0.0066704251056710837 -0.038396686697690405 0 -0.0062135988747803262 -0.037205248605811078 0 0.0019430286713148946 -0.039740460292339914 0 0.0020508911806503471 -0.037958275403346134 0 0.00097582901429565548 -0.038273559694279362 0 -0.014028646096885004 -0.036300660036663712 0 -0.01216256432739511 -0.034980107212202953 0 -0.011938436631754161 -0.036790621419887405 0 -0.014028646096885004 -0.036300660036663712 0 -0.013737248005893411 -0.033547574981224612 0 -0.016683999946446714 -0.032641177361336357 0 -0.014028646096885004 -0.036300660036663712 0 -0.01216256432739511 -0.034980107212202953 0 -0.013737248005893411 -0.033547574981224612 0 -0.010120882609194351 -0.036671571999343212 0 -0.01216256432739511 -0.034980107212202953 0 -0.011017825709247765 -0.033214167719540562 0 -0.010120882609194351 -0.036671571999343212 0 -0.01216256432739511 -0.034980107212202953 0 -0.011938436631754161 -0.036790621419887405 0 -0.0002448625036989777 -0.036114665264685611 0 0.00014212830290946202 -0.037524251409007198 0 0.0011294798029112215 -0.035615573519813516 0 -0.0010169353400527326 -0.037670945711491703 0 -0.0002448625036989777 -0.036114665264685611 0 -0.0015765290549385087 -0.035301000749632279 0 -0.0010169353400527326 -0.037670945711491703 0 -0.0002448625036989777 -0.036114665264685611 0 0.00014212830290946202 -0.037524251409007198 0 0.00014212830290946202 -0.037524251409007198 0 0.00097582901429565548 -0.038273559694279362 0 0.00052036275267615113 -0.03546170002637225 0 0.0020508911806503471 -0.037958275403346134 0 0.00097582901429565548 -0.038273559694279362 0 0.00052036275267615113 -0.03546170002637225 0 -0.0062135988747803262 -0.037205248605811078 0 -0.0036827770996299279 -0.034300837471956447 0 0.00020807106647532071 -0.037261595210899459 0 -0.0036827770996299279 -0.034300837471956447 0 0.00014212830290946202 -0.037524251409007198 0 0.00097582901429565548 -0.038273559694279362 0 0.00078475205827935822 -0.039606593767919987 0 0.0019430286713148946 -0.039740460292339914 0 0.00097582901429565548 -0.038273559694279362 0 0.00078475205827935822 -0.039606593767919987 0 -0.0010169353400527326 -0.037670945711491703 0 0.00014212830290946202 -0.037524251409007198 0 0.00078475205827935822 -0.039606593767919987 0 -0.00063336837120433836 -0.038133632163024435 0 0.0014399875818027006 -0.040566760457016751 0 -7.8217185723771852e-05 -0.038646745967780734 0 0.0016887511948979737 -0.041213475181586301 0 -0.00032179733246237276 -0.040777183858470172 0 -2.0384935344097243e-06 -0.042396169113473832 0 0.00075103308289125898 -0.042791374549149087 0 0.0016193243463643668 -0.042965932964278253 0 0.00075103308289125898 -0.042791374549149087 0 0.0010174377191914858 -0.043730940150921466 0 -0.00070102219707077933 -0.043365963122709211 0 0.0010480508924990625 -0.042697856693809336 0 -0.0018770098865506532 -0.04386394645632416 0 4.4398232420403958e-05 -0.041647824882048573 0 0.0015567032044420267 -0.042816813071099982 0 -2.0384935344097243e-06 -0.042396169113473832 0 0.00075103308289125898 -0.042791374549149087 0 -0.0009425757992726747 -0.043651825970577617 0 0.0016887511948979737 -0.041213475181586301 0 -0.00032179733246237276 -0.040777183858470172 0 0.0016193243463643668 -0.042965932964278253 0 0.00075103308289125898 -0.042791374549149087 0 0.0016193243463643668 -0.042965932964278253 0 0.0010174377191914858 -0.043730940150921466 0 0.0017480267080023425 -0.044181812554301633 0 0.0016193243463643668 -0.042965932964278253 0 0.0010174377191914858 -0.043730940150921466 0 0.00087431486295565112 -0.044895934458977299 0 0.0017480267080023425 -0.044181812554301633 0 0.0010174377191914858 -0.043730940150921466 0 0.00087431486295565112 -0.044895934458977299 0 0.0010174377191914858 -0.043730940150921466 0 -0.00070102219707077933 -0.043365963122709211 0 -0.00058562063069093147 -0.045210515300569645 0 -0.0018064776348986063 -0.044742620172133395 0 -0.00070102219707077933 -0.043365963122709211 0 -0.00058562063069093147 -0.045210515300569645 0 0.00087431486295565112 -0.044895934458977299 0 -0.00070102219707077933 -0.043365963122709211 0 0.0087356445907883912 -0.04252641885156222 0 0.0085532349806088058 -0.041689108931205837 0 0.0082853751035409824 -0.041799434771254432 0 0.0019113283594774048 -0.042905487890096003 0 -0.0018770098865506532 -0.04386394645632416 0 -0.0018064776348986063 -0.044742620172133395 0 -0.0032652121496520138 -0.044139855550245452 0 -0.00070102219707077933 -0.043365963122709211 0 -0.0027932362198333531 -0.044413992482202909 0 -0.0021912058268327567 -0.043169785302310693 0 -0.0009425757992726747 -0.043651825970577617 0 -0.0027932362198333531 -0.044413992482202909 0 -0.0021912058268327567 -0.043169785302310693 0 -0.0033252597736591056 -0.042559546698229062 0 -0.0021912058268327567 -0.043169785302310693 0 -0.0024975115720283496 -0.042326701569057809 0 -0.0033252597736591056 -0.042559546698229062 0 -0.0021912058268327567 -0.043169785302310693 0 -0.0024975115720283496 -0.042326701569057809 0 -0.0015355776033953567 -0.04262636845442247 0 -2.0384935344097243e-06 -0.042396169113473832 0 -0.0015355776033953567 -0.04262636845442247 0 -0.0009425757992726747 -0.043651825970577617 0 -0.0021912058268327567 -0.043169785302310693 0 -0.0015355776033953567 -0.04262636845442247 0 -0.0009425757992726747 -0.043651825970577617 0 0.0087105886962764705 -0.043462409826701874 0 0.0074849647771579233 -0.042253277120630733 0 0.0075406786234579843 -0.044289518793626866 0 0.0087105886962764705 -0.043462409826701874 0 0.0074849647771579233 -0.042253277120630733 0 0.0087083936351147941 -0.042305571028455752 0 0.0074849647771579233 -0.042253277120630733 0 0.0087083936351147941 -0.042305571028455752 0 0.0085786687375699749 -0.040593614985490335 0 0.007970270020619924 -0.040194160572890339 0 0.0076478506985622917 -0.040326182895210831 0 0.0076839710755259834 -0.039013365154919093 0 0.0087083936351147941 -0.042305571028455752 0 0.010030274587529255 -0.042890735817284781 0 0.0085786687375699749 -0.040593614985490335 0 0.0090426319932076105 -0.042266483240079603 0 0.0076328733049483531 -0.039765809799979901 0 0.0088855744780755724 -0.043738316619967146 0 0.0090426319932076105 -0.042266483240079603 0 0.0087105886962764705 -0.043462409826701874 0 0.0087083936351147941 -0.042305571028455752 0 0.010030274587529255 -0.042890735817284781 0 0.0019113283594774048 -0.042905487890096003 0 0.0090426319932076105 -0.042266483240079603 0 0.0076478506985622917 -0.040326182895210831 0 0.0076839710755259834 -0.039013365154919093 0 0.0069251426483426205 -0.039213751659059715 0 0.0076839710755259834 -0.039013365154919093 0 0.0069251426483426205 -0.039213751659059715 0 0.006909496024053309 -0.038373359462734971 0 0.0019113283594774048 -0.042905487890096003 0 0.0023559631679993722 -0.040859771309039714 0 0.0074849647771579233 -0.042253277120630733 0 0.0085786687375699749 -0.040593614985490335 0 0.006087585569222731 -0.040659314403553387 0 0.006909496024053309 -0.038373359462734971 0 0.0063935030635935064 -0.037293942733297621 0 0.0062384167410585566 -0.038180196715428501 0 0.0069251426483426205 -0.039213751659059715 0 0.006909496024053309 -0.038373359462734971 0 0.0062384167410585566 -0.038180196715428501 0 0.0076328733049483531 -0.039765809799979901 0 0.0063932240719488794 -0.038349764579589517 0 0.00037247342140108255 -0.038771182046928074 0 -0.0024590210133669634 -0.039924529539935083 0 0.0023559631679993722 -0.040859771309039714 0 0.00037247342140108255 -0.038771182046928074 0 0.0076839710755259834 -0.039013365154919093 0 0.006909496024053309 -0.038373359462734971 0 0.0073755137148149999 -0.037853602313124249 0 -0.0024975115720283496 -0.042326701569057809 0 -0.0033252597736591056 -0.042559546698229062 0 -0.0038843016543317426 -0.040810443385140942 0 -0.001384106484994672 -0.037629887074074136 0 -0.0010616172840583918 -0.036995225460508804 0 -0.0016347543189224633 -0.037735679059913603 0 -0.001384106484994672 -0.037629887074074136 0 -0.0010616172840583918 -0.036995225460508804 0 3.4587240018445839e-05 -0.037573142585591926 0 0.00037247342140108255 -0.038771182046928074 0 -0.00030465419599670873 -0.037001427516086448 0 0.006909496024053309 -0.038373359462734971 0 0.0073755137148149999 -0.037853602313124249 0 0.0063935030635935064 -0.037293942733297621 0 -0.00022941746595284715 -0.036698425101008479 0 3.4587240018445839e-05 -0.037573142585591926 0 0.0015832430183569952 -0.036576228162741156 0 0.00037247342140108255 -0.038771182046928074 0 0.0045439176782358214 -0.037058477432962582 0 3.4587240018445839e-05 -0.037573142585591926 0 0.0017311442963730262 -0.037559910742017456 0 0.0015832430183569952 -0.036576228162741156 0 -0.00032179733246237276 -0.040777183858470172 0 -0.0011117440645006563 -0.038956298881315896 0 -0.0020115399497175486 -0.038344807168877115 0 -7.8217185723771852e-05 -0.038646745967780734 0 -0.00032179733246237276 -0.040777183858470172 0 -0.0011117440645006563 -0.038956298881315896 0 4.4398232420403958e-05 -0.041647824882048573 0 -0.0024590210133669634 -0.039924529539935083 0 -2.0384935344097243e-06 -0.042396169113473832 0 -0.0015355776033953567 -0.04262636845442247 0 -0.0020213374992284002 -0.041588578358308079 0 -7.8217185723771852e-05 -0.038646745967780734 0 -0.0011117440645006563 -0.038956298881315896 0 -0.0018206686069307345 -0.037977206083641031 0 -0.0011117440645006563 -0.038956298881315896 0 -0.0020115399497175486 -0.038344807168877115 0 -0.0018206686069307345 -0.037977206083641031 0 -0.0024975115720283496 -0.042326701569057809 0 -0.0038843016543317426 -0.040810443385140942 0 -0.0020213374992284002 -0.041588578358308079 0 -0.0024975115720283496 -0.042326701569057809 0 -0.0015355776033953567 -0.04262636845442247 0 -0.0020213374992284002 -0.041588578358308079 0 -0.0010616172840583918 -0.036995225460508804 0 -0.0020115399497175486 -0.038344807168877115 0 -0.0016347543189224633 -0.037735679059913603 0 -0.0020115399497175486 -0.038344807168877115 0 -0.0016347543189224633 -0.037735679059913603 0 -0.0018206686069307345 -0.037977206083641031 0 -0.003010751523059854 -0.036514019521431247 0 -0.0018148469600003346 -0.037842665819575884 0 -0.0045604658184969053 -0.035526289017963064 0 -0.0022605715335017474 -0.036195613627379809 0 -0.0018206686069307345 -0.037977206083641031 0 -0.001384106484994672 -0.037629887074074136 0 -0.0016347543189224633 -0.037735679059913603 0 -0.0018206686069307345 -0.037977206083641031 0 -0.0010169353400527326 -0.037670945711491703 0 -0.003199562951282678 -0.03570017275183629 0 -0.0015765290549385087 -0.035301000749632279 0 -0.00063336837120433836 -0.038133632163024435 0 -0.0027625928344961258 -0.035912175293325008 0 -7.8217185723771852e-05 -0.038646745967780734 0 -0.0022605715335017474 -0.036195613627379809 0 -0.0018206686069307345 -0.037977206083641031 0 -0.0015765290549385087 -0.035301000749632279 0 -0.0019603879446804099 -0.033572652053415836 0 -1.0343522983787772e-05 -0.033949172265178004 0 -0.0015765290549385087 -0.035301000749632279 0 -0.0029165617558937593 -0.034194126258251953 0 -0.0019603879446804099 -0.033572652053415836 0 -0.003199562951282678 -0.03570017275183629 0 -0.0015765290549385087 -0.035301000749632279 0 -0.0029165617558937593 -0.034194126258251953 0 -0.003199562951282678 -0.03570017275183629 0 -0.0040332041645991306 -0.033610206582365923 0 -0.0029165617558937593 -0.034194126258251953 0 -0.003199562951282678 -0.03570017275183629 0 -0.0040332041645991306 -0.033610206582365923 0 -0.0051718375764425199 -0.033641794591765903 0 -0.0027625928344961258 -0.035912175293325008 0 -0.0050743013636525168 -0.03388401831222345 0 -0.0040332041645991306 -0.033610206582365923 0 -0.0029165617558937593 -0.034194126258251953 0 -0.0034089506549736591 -0.033132063862037403 0 -0.0029165617558937593 -0.034194126258251953 0 -0.0034089506549736591 -0.033132063862037403 0 -0.0019603879446804099 -0.033572652053415836 0 -0.0034089506549736591 -0.033132063862037403 0 -0.0048083419235132943 -0.032014365539887624 0 -0.0033620253980795717 -0.03064200289519653 0 -0.0034089506549736591 -0.033132063862037403 0 -0.0023475846271175859 -0.032154555251338791 0 -0.0033620253980795717 -0.03064200289519653 0 -0.0040332041645991306 -0.033610206582365923 0 -0.0034089506549736591 -0.033132063862037403 0 -0.0048083419235132943 -0.032014365539887624 0 -0.0023475846271175859 -0.032154555251338791 0 -0.0012182484674307743 -0.032464826080712515 0 -0.0019569424347448392 -0.030889616454134312 0 -0.0023475846271175859 -0.032154555251338791 0 -0.0012182484674307743 -0.032464826080712515 0 -0.0019603879446804099 -0.033572652053415836 0 -0.0034089506549736591 -0.033132063862037403 0 -0.0023475846271175859 -0.032154555251338791 0 -0.0019603879446804099 -0.033572652053415836 0 0.00092167114631875051 -0.038331134338563451 0 3.4587240018445839e-05 -0.037573142585591926 0 0.0017311442963730262 -0.037559910742017456 0 -0.0066561438196096594 -0.03285076112132812 0 -0.0051718375764425199 -0.033641794591765903 0 -0.0058558715663085924 -0.032119278339313065 0 -0.003010751523059854 -0.036514019521431247 0 -0.0023354879439326523 -0.036110351217130854 0 -0.0045604658184969053 -0.035526289017963064 0 -0.0022605715335017474 -0.036195613627379809 0 -0.0051718375764425199 -0.033641794591765903 0 -0.0045604658184969053 -0.035526289017963064 0 -0.0066561438196096594 -0.03285076112132812 0 -0.0051718375764425199 -0.033641794591765903 0 -0.001384106484994672 -0.037629887074074136 0 0.00092167114631875051 -0.038331134338563451 0 3.4587240018445839e-05 -0.037573142585591926 0 -0.0040332041645991306 -0.033610206582365923 0 -0.0051718375764425199 -0.033641794591765903 0 -0.0048083419235132943 -0.032014365539887624 0 -0.0048083419235132943 -0.032014365539887624 0 -0.0058558715663085924 -0.032119278339313065 0 -0.0059558385035485533 -0.030651874414248222 0 -0.0051718375764425199 -0.033641794591765903 0 -0.0048083419235132943 -0.032014365539887624 0 -0.0058558715663085924 -0.032119278339313065 0 -0.0058558715663085924 -0.032119278339313065 0 -0.0066929849114509303 -0.031248842993904815 0 -0.0059558385035485533 -0.030651874414248222 0 -0.0066929849114509303 -0.031248842993904815 0 -0.0059558385035485533 -0.030651874414248222 0 -0.0066957288301160911 -0.03026878604718251 0 -0.0066561438196096594 -0.03285076112132812 0 -0.0058558715663085924 -0.032119278339313065 0 -0.0066929849114509303 -0.031248842993904815 0 -0.0064025819193434131 -0.029316520072747196 0 -0.0059558385035485533 -0.030651874414248222 0 -0.0058141216621517096 -0.028623998876322478 0 -0.0064025819193434131 -0.029316520072747196 0 -0.0059558385035485533 -0.030651874414248222 0 -0.0066957288301160911 -0.03026878604718251 0 -0.0059558385035485533 -0.030651874414248222 0 -0.0049074583903863335 -0.030305744218278273 0 -0.0058141216621517096 -0.028623998876322478 0 -0.0048083419235132943 -0.032014365539887624 0 -0.0059558385035485533 -0.030651874414248222 0 -0.0049074583903863335 -0.030305744218278273 0 -0.0048083419235132943 -0.032014365539887624 0 -0.0049074583903863335 -0.030305744218278273 0 -0.0033620253980795717 -0.03064200289519653 0 -0.0049074583903863335 -0.030305744218278273 0 -0.0058141216621517096 -0.028623998876322478 0 -0.0040369221648754146 -0.029003306157268906 0 -0.0058141216621517096 -0.028623998876322478 0 -0.0029144539021497117 -0.026906244234684844 0 -0.0058809900694660657 -0.023951275327237537 0 -0.0058141216621517096 -0.028623998876322478 0 -0.0061898757323940396 -0.028398815666228368 0 -0.0057865125601689379 -0.027549261840585596 0 -0.0064025819193434131 -0.029316520072747196 0 -0.0058141216621517096 -0.028623998876322478 0 -0.0061898757323940396 -0.028398815666228368 0 -0.0019569424347448392 -0.030889616454134312 0 -0.0023187846044663723 -0.029225286304714666 0 -0.00064132094829269352 -0.029907472638298644 0 -0.0012182484674307743 -0.032464826080712515 0 -0.0019569424347448392 -0.030889616454134312 0 -0.00064132094829269352 -0.029907472638298644 0 -0.0019569424347448392 -0.030889616454134312 0 -0.0033620253980795717 -0.03064200289519653 0 -0.0023187846044663723 -0.029225286304714666 0 -0.0023475846271175859 -0.032154555251338791 0 -0.0019569424347448392 -0.030889616454134312 0 -0.0033620253980795717 -0.03064200289519653 0 -0.0049074583903863335 -0.030305744218278273 0 -0.0033620253980795717 -0.03064200289519653 0 -0.0040369221648754146 -0.029003306157268906 0 -0.0033620253980795717 -0.03064200289519653 0 -0.00305823131347195 -0.028423490351904144 0 -0.0040369221648754146 -0.029003306157268906 0 -0.0033620253980795717 -0.03064200289519653 0 -0.00305823131347195 -0.028423490351904144 0 -0.0023187846044663723 -0.029225286304714666 0 -0.0058141216621517096 -0.028623998876322478 0 -0.0040369221648754146 -0.029003306157268906 0 -0.0029144539021497117 -0.026906244234684844 0 -0.00305823131347195 -0.028423490351904144 0 -0.0040369221648754146 -0.029003306157268906 0 -0.0029144539021497117 -0.026906244234684844 0 -0.00305823131347195 -0.028423490351904144 0 -0.0029144539021497117 -0.026906244234684844 0 -0.0023187846044663723 -0.029225286304714666 0 -0.007404590959612399 -0.024329502822695356 0 -0.0023849509499953986 -0.028149758981735579 0 -0.002680620995737668 -0.024170272612111895 0 -0.0052657816549124201 -0.025025278277567092 0 0.00020131691199438008 -0.02972427253149254 0 -0.0029144539021497117 -0.026906244234684844 0 -0.0023187846044663723 -0.029225286304714666 0 -0.00064132094829269352 -0.029907472638298644 0 -0.0023849509499953986 -0.028149758981735579 0 0.001697280526864506 -0.025996326197256787 0 -0.002680620995737668 -0.024170272612111895 0 -0.0012182484674307743 -0.032464826080712515 0 -0.00064132094829269352 -0.029907472638298644 0 -8.2087495736204503e-05 -0.032377739154658344 0 0.00020131691199438008 -0.02972427253149254 0 -0.005924881432115967 -0.030610255593558008 0 -0.00064132094829269352 -0.029907472638298644 0 0.0017200389429680972 -0.032544735770265343 0 -8.2087495736204503e-05 -0.032377739154658344 0 -0.0023849509499953986 -0.028149758981735579 0 0.0035800892013265451 -0.031046319334350862 0 0.0031837003748931905 -0.032521339551899363 0 -0.0089429297428926784 -0.028665231948403373 0 -0.011905473729520531 -0.026688593020380947 0 -0.014739214483415341 -0.026654431175651628 0 -0.015247389715036436 -0.027620445640896864 0 -0.014559976996498631 -0.027973180641686444 0 -0.0089429297428926784 -0.028665231948403373 0 -0.005924881432115967 -0.030610255593558008 0 -0.0023849509499953986 -0.028149758981735579 0 0.0035800892013265451 -0.031046319334350862 0 0.001697280526864506 -0.025996326197256787 0 -0.0089429297428926784 -0.028665231948403373 0 -0.011744017950308125 -0.023785015416124718 0 -0.0089429297428926784 -0.028665231948403373 0 -0.0043087992840400964 -0.025890736819597748 0 -0.010094451780875979 -0.028064662186606588 0 -0.011384261532042384 -0.024701990327366589 0 -0.0092546142463319041 -0.024400027980528847 0 -0.013678375559795571 -0.023281642632818265 0 -0.011597576384954974 -0.023674084912038536 0 -0.011109594460599793 -0.022283674354268292 0 -0.015080130697656397 -0.026803381729973829 0 -0.013678375559795571 -0.023281642632818265 0 -0.013144152497308144 -0.02575090407402399 0 -0.013678375559795571 -0.023281642632818265 0 -0.012203865011130278 -0.024665426106689845 0 -0.011597576384954974 -0.023674084912038536 0 -0.013678375559795571 -0.023281642632818265 0 -0.012203865011130278 -0.024665426106689845 0 -0.013144152497308144 -0.02575090407402399 0 -0.0094992802655470485 -0.022705837695073658 0 -0.010607557417044632 -0.023631533456289558 0 -0.010080337070383839 -0.024940736829995543 0 -0.010607557417044632 -0.023631533456289558 0 -0.011597576384954974 -0.023674084912038536 0 -0.011109594460599793 -0.022283674354268292 0 -0.010607557417044632 -0.023631533456289558 0 -0.011597576384954974 -0.023674084912038536 0 -0.011148937263093794 -0.024848234571474968 0 -0.012203865011130278 -0.024665426106689845 0 -0.011148937263093794 -0.024848234571474968 0 -0.011952012676412278 -0.026164213622906208 0 -0.012203865011130278 -0.024665426106689845 0 -0.011597576384954974 -0.023674084912038536 0 -0.011148937263093794 -0.024848234571474968 0 -0.011148937263093794 -0.024848234571474968 0 -0.010080337070383839 -0.024940736829995543 0 -0.010743223578269769 -0.026379679126083036 0 -0.010607557417044632 -0.023631533456289558 0 -0.011148937263093794 -0.024848234571474968 0 -0.010080337070383839 -0.024940736829995543 0 -0.013664093207011514 -0.025195108610781849 0 -0.011528799663469879 -0.026111842820744594 0 -0.013664093207011514 -0.025195108610781849 0 -0.012208682769212669 -0.030005908206757352 0 -0.0091346966932238632 -0.025988299815205711 0 -0.010194909360246609 -0.02769390134478121 0 -0.010230796556364845 -0.030966490071552041 0 -0.0091346966932238632 -0.025988299815205711 0 -0.010032931472325977 -0.026260779579274907 0 -0.010194909360246609 -0.02769390134478121 0 -0.0091346966932238632 -0.025988299815205711 0 -0.010080337070383839 -0.024940736829995543 0 -0.010032931472325977 -0.026260779579274907 0 -0.010080337070383839 -0.024940736829995543 0 -0.010032931472325977 -0.026260779579274907 0 -0.010743223578269769 -0.026379679126083036 0 -0.010032931472325977 -0.026260779579274907 0 -0.010743223578269769 -0.026379679126083036 0 -0.010194909360246609 -0.02769390134478121 0 -0.010743223578269769 -0.026379679126083036 0 -0.011952012676412278 -0.026164213622906208 0 -0.011372894773014801 -0.027234409407126996 0 -0.011148937263093794 -0.024848234571474968 0 -0.010743223578269769 -0.026379679126083036 0 -0.011952012676412278 -0.026164213622906208 0 -0.010743223578269769 -0.026379679126083036 0 -0.011372894773014801 -0.027234409407126996 0 -0.010785194276540523 -0.027441740447867752 0 -0.011952012676412278 -0.026164213622906208 0 -0.011372894773014801 -0.027234409407126996 0 -0.012342428536434594 -0.027603244989132046 0 -0.011372894773014801 -0.027234409407126996 0 -0.012342428536434594 -0.027603244989132046 0 -0.012004261230248293 -0.028785895581812139 0 -0.011372894773014801 -0.027234409407126996 0 -0.01083184207364093 -0.028456866870437258 0 -0.012004261230248293 -0.028785895581812139 0 -0.011372894773014801 -0.027234409407126996 0 -0.010785194276540523 -0.027441740447867752 0 -0.01083184207364093 -0.028456866870437258 0 -0.010194909360246609 -0.02769390134478121 0 -0.01083184207364093 -0.028456866870437258 0 -0.010679897746687648 -0.029311950895086081 0 -0.010743223578269769 -0.026379679126083036 0 -0.010785194276540523 -0.027441740447867752 0 -0.010194909360246609 -0.02769390134478121 0 -0.010785194276540523 -0.027441740447867752 0 -0.010194909360246609 -0.02769390134478121 0 -0.01083184207364093 -0.028456866870437258 0 -0.015080130697656397 -0.026803381729973829 0 -0.013144152497308144 -0.02575090407402399 0 -0.013751909893024775 -0.027073987663708988 0 -0.013144152497308144 -0.02575090407402399 0 -0.01297481554888406 -0.02687731612525647 0 -0.013751909893024775 -0.027073987663708988 0 -0.011952012676412278 -0.026164213622906208 0 -0.013144152497308144 -0.02575090407402399 0 -0.01297481554888406 -0.02687731612525647 0 -0.012203865011130278 -0.024665426106689845 0 -0.011952012676412278 -0.026164213622906208 0 -0.013144152497308144 -0.02575090407402399 0 -0.01297481554888406 -0.02687731612525647 0 -0.012342428536434594 -0.027603244989132046 0 -0.013284445652224091 -0.027977610252232964 0 -0.011952012676412278 -0.026164213622906208 0 -0.01297481554888406 -0.02687731612525647 0 -0.012342428536434594 -0.027603244989132046 0 -0.012342428536434594 -0.027603244989132046 0 -0.013284445652224091 -0.027977610252232964 0 -0.012004261230248293 -0.028785895581812139 0 -0.015080130697656397 -0.026803381729973829 0 -0.013751909893024775 -0.027073987663708988 0 -0.014559976996498631 -0.027973180641686444 0 -0.013284445652224091 -0.027977610252232964 0 -0.013751909893024775 -0.027073987663708988 0 -0.014559976996498631 -0.027973180641686444 0 -0.01297481554888406 -0.02687731612525647 0 -0.013284445652224091 -0.027977610252232964 0 -0.013751909893024775 -0.027073987663708988 0 -0.005924881432115967 -0.030610255593558008 0 -0.015541736882299657 -0.027315759681419843 0 -0.015190757445482962 -0.027529992956314819 0 -0.013378955525955543 -0.029326569142888097 0 -0.01359074346884198 -0.031147112730026471 0 -0.015247389715036436 -0.027620445640896864 0 -0.013378955525955543 -0.029326569142888097 0 -0.014559976996498631 -0.027973180641686444 0 -0.013284445652224091 -0.027977610252232964 0 -0.013378955525955543 -0.029326569142888097 0 -0.014559976996498631 -0.027973180641686444 0 -0.013284445652224091 -0.027977610252232964 0 -0.013378955525955543 -0.029326569142888097 0 -0.012004261230248293 -0.028785895581812139 0 -0.013378955525955543 -0.029326569142888097 0 -0.012004261230248293 -0.028785895581812139 0 -0.011998480951598748 -0.03019045752897177 0 -0.011998480951598748 -0.03019045752897177 0 -0.01196760470223796 -0.03172783303976788 0 -0.01359074346884198 -0.031147112730026471 0 -0.013378955525955543 -0.029326569142888097 0 -0.011998480951598748 -0.03019045752897177 0 -0.01359074346884198 -0.031147112730026471 0 -0.010194909360246609 -0.02769390134478121 0 -0.010679897746687648 -0.029311950895086081 0 -0.010230796556364845 -0.030966490071552041 0 -0.010679897746687648 -0.029311950895086081 0 -0.011256344224845538 -0.029297229159783538 0 -0.010876213800313242 -0.03014924652211257 0 -0.011256344224845538 -0.029297229159783538 0 -0.011998480951598748 -0.03019045752897177 0 -0.010876213800313242 -0.03014924652211257 0 -0.01083184207364093 -0.028456866870437258 0 -0.010679897746687648 -0.029311950895086081 0 -0.011256344224845538 -0.029297229159783538 0 -0.01083184207364093 -0.028456866870437258 0 -0.011256344224845538 -0.029297229159783538 0 -0.012004261230248293 -0.028785895581812139 0 -0.011256344224845538 -0.029297229159783538 0 -0.012004261230248293 -0.028785895581812139 0 -0.011998480951598748 -0.03019045752897177 0 -0.011998480951598748 -0.03019045752897177 0 -0.011208613543694169 -0.031262370014417375 0 -0.01196760470223796 -0.03172783303976788 0 -0.011998480951598748 -0.03019045752897177 0 -0.011208613543694169 -0.031262370014417375 0 -0.010876213800313242 -0.03014924652211257 0 -0.010679897746687648 -0.029311950895086081 0 -0.010876213800313242 -0.03014924652211257 0 -0.010230796556364845 -0.030966490071552041 0 -0.011437424430758137 -0.030504119576662825 0 -0.012208682769212669 -0.030005908206757352 0 -0.011208613543694169 -0.031262370014417375 0 -0.010876213800313242 -0.03014924652211257 0 -0.01022386115688278 -0.030959518625573119 0 -0.0085554689270116117 -0.034031953379881394 0 -0.010538963246634808 -0.030888188789455574 0 -0.011017825709247765 -0.033214167719540562 0 -0.012208682769212669 -0.030005908206757352 0 -0.011287370946715137 -0.032783724632283961 0 -0.011208613543694169 -0.031262370014417375 0 -0.01022386115688278 -0.030959518625573119 0 -0.011017825709247765 -0.033214167719540562 0 -0.01196760470223796 -0.03172783303976788 0 -0.011017825709247765 -0.033214167719540562 0 -0.0124761164243293 -0.032935522400196753 0 -0.011208613543694169 -0.031262370014417375 0 -0.01196760470223796 -0.03172783303976788 0 -0.011017825709247765 -0.033214167719540562 0 -0.01216256432739511 -0.034980107212202953 0 -0.011017825709247765 -0.033214167719540562 0 -0.0124761164243293 -0.032935522400196753 0 -0.01359074346884198 -0.031147112730026471 0 -0.013737248005893411 -0.033547574981224612 0 -0.016683999946446714 -0.032641177361336357 0 -0.01196760470223796 -0.03172783303976788 0 -0.01359074346884198 -0.031147112730026471 0 -0.0124761164243293 -0.032935522400196753 0 -0.01359074346884198 -0.031147112730026471 0 -0.0124761164243293 -0.032935522400196753 0 -0.013737248005893411 -0.033547574981224612 0 -0.01216256432739511 -0.034980107212202953 0 -0.0124761164243293 -0.032935522400196753 0 -0.013737248005893411 -0.033547574981224612 0 -0.0002448625036989777 -0.036114665264685611 0 -0.0015765290549385087 -0.035301000749632279 0 -1.0343522983787772e-05 -0.033949172265178004 0 -0.0002448625036989777 -0.036114665264685611 0 0.0011294798029112215 -0.035615573519813516 0 -1.0343522983787772e-05 -0.033949172265178004 0 -0.0036827770996299279 -0.034300837471956447 0 0.00012198694395680498 -0.034704746541154567 0 -0.0012182484674307743 -0.032464826080712515 0 -0.0019603879446804099 -0.033572652053415836 0 -1.0343522983787772e-05 -0.033949172265178004 0 -0.0012603880985640335 -0.032695138906379075 0 0.00012198694395680498 -0.034704746541154567 0 -0.0012182484674307743 -0.032464826080712515 0 -0.00050331507652443528 -0.034363959743861784 0 -8.2087495736204503e-05 -0.032377739154658344 0 -0.015190757445482962 -0.027529992956314819 0 -0.01359074346884198 -0.031147112730026471 0 -0.016683999946446714 -0.032641177361336357 0 0.0017200389429680972 -0.032544735770265343 0 0.00050617821294570234 -0.03624953688382633 0 -0.00050331507652443528 -0.034363959743861784 0 -0.005924881432115967 -0.030610255593558008 0 -0.0036827770996299279 -0.034300837471956447 0 0.0017200389429680972 -0.032544735770265343 0 -0.00050331507652443528 -0.034363959743861784 0 -8.2087495736204503e-05 -0.032377739154658344 0 0.034321796336100628 -0.029133435785303533 0 0.033640982916125599 -0.030785255341252846 0 0.033377768392245384 -0.029102619433794674 0 0.034321796336100628 -0.029133435785303533 0 0.033377768392245384 -0.029102619433794674 0 0.033941019405113265 -0.027911578487448987 0 0.03348456098355989 -0.029913695815896348 0 0.034991084980667657 -0.027303780221402427 0 0.034866365291122248 -0.028885294010390826 0 0.034321796336100628 -0.029133435785303533 0 0.035661811171537106 -0.030132647326596367 0 0.034991084980667657 -0.027303780221402427 0 0.034735784376634743 -0.030299745135487749 0 0.03485098077147001 -0.027527111293851911 0 0.034321796336100628 -0.029133435785303533 0 0.035661811171537106 -0.030132647326596367 0 0.034567425449916589 -0.030311251857922349 0 0.035661811171537106 -0.030132647326596367 0 0.034546216975166855 -0.031391902339314139 0 0.035343731466107177 -0.033398305922871255 0 0.034735784376634743 -0.030299745135487749 0 0.032052497051933672 -0.032872617447725107 0 0.035661811171537106 -0.030132647326596367 0 0.034567425449916589 -0.030311251857922349 0 0.034546216975166855 -0.031391902339314139 0 0.03348456098355989 -0.029913695815896348 0 0.034783219517949243 -0.030866225361262718 0 0.032453812028536935 -0.033985056808183457 0 0.033640982916125599 -0.030785255341252846 0 0.03261102962555619 -0.030680855888826526 0 0.032537425599188971 -0.032692694163087684 0 0.034546216975166855 -0.031391902339314139 0 0.033640982916125599 -0.030785255341252846 0 0.033759428120496031 -0.032458791982819396 0 0.034321796336100628 -0.029133435785303533 0 0.034567425449916589 -0.030311251857922349 0 0.033640982916125599 -0.030785255341252846 0 0.034567425449916589 -0.030311251857922349 0 0.034546216975166855 -0.031391902339314139 0 0.033640982916125599 -0.030785255341252846 0 0.033640982916125599 -0.030785255341252846 0 0.03261102962555619 -0.030680855888826526 0 0.033377768392245384 -0.029102619433794674 0 0.03261102962555619 -0.030680855888826526 0 0.031807758187973989 -0.030660673317736191 0 0.032696723826979135 -0.029177903816948909 0 0.03261102962555619 -0.030680855888826526 0 0.031807758187973989 -0.030660673317736191 0 0.032005224268188956 -0.031942757372484532 0 0.03261102962555619 -0.030680855888826526 0 0.033377768392245384 -0.029102619433794674 0 0.032696723826979135 -0.029177903816948909 0 0.031807758187973989 -0.030660673317736191 0 0.032419592979764413 -0.028110932440831769 0 0.031552766216418039 -0.029119067429088475 0 0.031807758187973989 -0.030660673317736191 0 0.032419592979764413 -0.028110932440831769 0 0.032696723826979135 -0.029177903816948909 0 0.032419592979764413 -0.028110932440831769 0 0.032696723826979135 -0.029177903816948909 0 0.033343981897592773 -0.02746019060080623 0 0.033377768392245384 -0.029102619433794674 0 0.032696723826979135 -0.029177903816948909 0 0.033343981897592773 -0.02746019060080623 0 0.033377768392245384 -0.029102619433794674 0 0.033343981897592773 -0.02746019060080623 0 0.033941019405113265 -0.027911578487448987 0 0.033343981897592773 -0.02746019060080623 0 0.034162989099147133 -0.026636286331685879 0 0.033941019405113265 -0.027911578487448987 0 0.033343981897592773 -0.02746019060080623 0 0.033853616742145237 -0.025689732788085815 0 0.034162989099147133 -0.026636286331685879 0 0.033343981897592773 -0.02746019060080623 0 0.03316484481136376 -0.026195453444884335 0 0.033853616742145237 -0.025689732788085815 0 0.032419592979764413 -0.028110932440831769 0 0.033343981897592773 -0.02746019060080623 0 0.03316484481136376 -0.026195453444884335 0 0.032419592979764413 -0.028110932440831769 0 0.03316484481136376 -0.026195453444884335 0 0.032504737485431125 -0.026552784538268103 0 0.03316484481136376 -0.026195453444884335 0 0.033027143838178528 -0.024979851875301478 0 0.033809630896404957 -0.024719232424213651 0 0.03316484481136376 -0.026195453444884335 0 0.033853616742145237 -0.025689732788085815 0 0.033809630896404957 -0.024719232424213651 0 0.033853616742145237 -0.025689732788085815 0 0.034162989099147133 -0.026636286331685879 0 0.034410699594400525 -0.02524236149276668 0 0.034162989099147133 -0.026636286331685879 0 0.034793027866829133 -0.026029979232861516 0 0.034410699594400525 -0.02524236149276668 0 0.034162989099147133 -0.026636286331685879 0 0.034991084980667657 -0.027303780221402427 0 0.034793027866829133 -0.026029979232861516 0 0.034162989099147133 -0.026636286331685879 0 0.033941019405113265 -0.027911578487448987 0 0.034991084980667657 -0.027303780221402427 0 0.034321796336100628 -0.029133435785303533 0 0.033941019405113265 -0.027911578487448987 0 0.034991084980667657 -0.027303780221402427 0 0.034991084980667657 -0.027303780221402427 0 0.034793027866829133 -0.026029979232861516 0 0.03542805840151883 -0.026048635099839346 0 0.03542805840151883 -0.026048635099839346 0 0.035965288115130417 -0.026354236728439895 0 0.035927130014835502 -0.025754950519420599 0 0.034991084980667657 -0.027303780221402427 0 0.03542805840151883 -0.026048635099839346 0 0.035647783984369859 -0.026959604626141595 0 0.03542805840151883 -0.026048635099839346 0 0.035965288115130417 -0.026354236728439895 0 0.035647783984369859 -0.026959604626141595 0 0.036090978462703899 -0.026737832500936119 0 0.035965288115130417 -0.026354236728439895 0 0.035647783984369859 -0.026959604626141595 0 0.036090978462703899 -0.026737832500936119 0 0.036548456312759207 -0.026508897118436642 0 0.035963006941493382 -0.027218693658039209 0 0.036090978462703899 -0.026737832500936119 0 0.035965288115130417 -0.026354236728439895 0 0.036199278870551167 -0.026395553716602918 0 0.035965288115130417 -0.026354236728439895 0 0.036199278870551167 -0.026395553716602918 0 0.036188730609286263 -0.026011609849378718 0 0.035965288115130417 -0.026354236728439895 0 0.036188730609286263 -0.026011609849378718 0 0.035927130014835502 -0.025754950519420599 0 -0.0079987854872518964 -0.02827842468172756 0 -0.008136424693935192 -0.028735060321243715 0 -0.0081879360838350325 -0.027333379866737346 0 0.036188730609286263 -0.026011609849378718 0 0.036548456312759207 -0.026508897118436642 0 0.036198414893867097 -0.025047551321673679 0 -0.0079987854872518964 -0.02827842468172756 0 -0.0080084392376492536 -0.028612124822473366 0 -0.008136424693935192 -0.028735060321243715 0 -0.0079987854872518964 -0.02827842468172756 0 -0.0077815381616857093 -0.028238908004536902 0 -0.0079173191826545711 -0.027862922184375211 0 -0.0079987854872518964 -0.02827842468172756 0 -0.0078796501610930558 -0.028572866385585202 0 -0.0080084392376492536 -0.028612124822473366 0 -0.0079987854872518964 -0.02827842468172756 0 -0.0077815381616857093 -0.028238908004536902 0 -0.0078796501610930558 -0.028572866385585202 0 -0.0077815381616857093 -0.028238908004536902 0 -0.0078796501610930558 -0.028572866385585202 0 -0.0076341802348310495 -0.028652185581750179 0 -0.0078708738583610181 -0.028882649503845066 0 -0.008136424693935192 -0.028735060321243715 0 -0.0078235030652849865 -0.029232543858363269 0 -0.0078708738583610181 -0.028882649503845066 0 -0.0076341802348310495 -0.028652185581750179 0 -0.0075983014648683712 -0.029111638688074263 0 -0.0078796501610930558 -0.028572866385585202 0 -0.0078708738583610181 -0.028882649503845066 0 -0.0076341802348310495 -0.028652185581750179 0 -0.0078796501610930558 -0.028572866385585202 0 -0.0079780773598236085 -0.028742725287559601 0 -0.0078708738583610181 -0.028882649503845066 0 -0.0078796501610930558 -0.028572866385585202 0 -0.0079780773598236085 -0.028742725287559601 0 -0.0080084392376492536 -0.028612124822473366 0 -0.0079780773598236085 -0.028742725287559601 0 -0.0078708738583610181 -0.028882649503845066 0 -0.008136424693935192 -0.028735060321243715 0 0.036199278870551167 -0.026395553716602918 0 0.036188730609286263 -0.026011609849378718 0 0.036548456312759207 -0.026508897118436642 0 0.036090978462703899 -0.026737832500936119 0 0.036199278870551167 -0.026395553716602918 0 0.036548456312759207 -0.026508897118436642 0 -0.0080084392376492536 -0.028612124822473366 0 -0.0080633125164784412 -0.028702081294222099 0 -0.008136424693935192 -0.028735060321243715 0 -0.0079780773598236085 -0.028742725287559601 0 -0.0080633125164784412 -0.028702081294222099 0 -0.008136424693935192 -0.028735060321243715 0 -0.0079780773598236085 -0.028742725287559601 0 -0.0080084392376492536 -0.028612124822473366 0 -0.0080633125164784412 -0.028702081294222099 0 0.019294085864842783 -0.025911546599739505 0 0.033599105302562937 -0.025949236605563426 0 0.029565656103947558 -0.023571948151952009 0 0.028843272506770202 -0.025358868035350694 0 0.030089767951617375 -0.026078650164063352 0 -0.008136424693935192 -0.028735060321243715 0 -0.0078235030652849865 -0.029232543858363269 0 -0.0078028276984544688 -0.02995433611266585 0 -0.0078235030652849865 -0.029232543858363269 0 -0.0077218293207834488 -0.029547426949294495 0 -0.0078028276984544688 -0.02995433611266585 0 0.019294085864842783 -0.025911546599739505 0 0.0097846842435154752 -0.027630447348694947 0 -0.0078708738583610181 -0.028882649503845066 0 -0.0078235030652849865 -0.029232543858363269 0 -0.0075983014648683712 -0.029111638688074263 0 -0.0078235030652849865 -0.029232543858363269 0 -0.0077218293207834488 -0.029547426949294495 0 -0.0076134486049624691 -0.029452126594832668 0 0.036149980655880029 -0.028150811433267638 0 0.035491540749771906 -0.027632984666190581 0 0.035963006941493382 -0.027218693658039209 0 0.036548456312759207 -0.026508897118436642 0 0.036149980655880029 -0.028150811433267638 0 0.035963006941493382 -0.027218693658039209 0 0.036149980655880029 -0.028150811433267638 0 0.035491540749771906 -0.027632984666190581 0 0.034866365291122248 -0.028885294010390826 0 0.034991084980667657 -0.027303780221402427 0 0.035491540749771906 -0.027632984666190581 0 0.034866365291122248 -0.028885294010390826 0 0.034991084980667657 -0.027303780221402427 0 0.035491540749771906 -0.027632984666190581 0 0.035647783984369859 -0.026959604626141595 0 0.035491540749771906 -0.027632984666190581 0 0.035647783984369859 -0.026959604626141595 0 0.035963006941493382 -0.027218693658039209 0 0.036090978462703899 -0.026737832500936119 0 0.035647783984369859 -0.026959604626141595 0 0.035963006941493382 -0.027218693658039209 0 -0.0064025819193434131 -0.029316520072747196 0 -0.0061898757323940396 -0.028398815666228368 0 -0.0067185748266227986 -0.028719237314210212 0 -0.0061898757323940396 -0.028398815666228368 0 -0.0067185748266227986 -0.028719237314210212 0 -0.0064315905949975764 -0.027864964904430696 0 -0.0067185748266227986 -0.028719237314210212 0 -0.0069865942166847834 -0.028258484545025317 0 -0.0064315905949975764 -0.027864964904430696 0 -0.0067185748266227986 -0.028719237314210212 0 -0.0072394288048040776 -0.028884784641421059 0 -0.0069865942166847834 -0.028258484545025317 0 -0.0067185748266227986 -0.028719237314210212 0 -0.0072394288048040776 -0.028884784641421059 0 -0.0070964447076084444 -0.029683832533985492 0 -0.0072394288048040776 -0.028884784641421059 0 -0.0069865942166847834 -0.028258484545025317 0 -0.0074133353403089955 -0.028221500880547087 0 -0.0077815381616857093 -0.028238908004536902 0 -0.0074133353403089955 -0.028221500880547087 0 -0.0076341802348310495 -0.028652185581750179 0 -0.0072394288048040776 -0.028884784641421059 0 -0.0074133353403089955 -0.028221500880547087 0 -0.0076341802348310495 -0.028652185581750179 0 -0.0072394288048040776 -0.028884784641421059 0 -0.0076341802348310495 -0.028652185581750179 0 -0.0075983014648683712 -0.029111638688074263 0 -0.0075983014648683712 -0.029111638688074263 0 -0.0076134486049624691 -0.029452126594832668 0 -0.0074157403033560934 -0.029408993716292294 0 -0.0078235030652849865 -0.029232543858363269 0 -0.0075983014648683712 -0.029111638688074263 0 -0.0076134486049624691 -0.029452126594832668 0 -0.0077218293207834488 -0.029547426949294495 0 -0.0076134486049624691 -0.029452126594832668 0 -0.0074946482378708771 -0.02989300932383623 0 -0.0074946482378708771 -0.02989300932383623 0 -0.0074157403033560934 -0.029408993716292294 0 -0.0070964447076084444 -0.029683832533985492 0 -0.0072394288048040776 -0.028884784641421059 0 -0.0075983014648683712 -0.029111638688074263 0 -0.0074157403033560934 -0.029408993716292294 0 -0.0072394288048040776 -0.028884784641421059 0 -0.0074157403033560934 -0.029408993716292294 0 -0.0070964447076084444 -0.029683832533985492 0 -0.0076134486049624691 -0.029452126594832668 0 -0.0074946482378708771 -0.02989300932383623 0 -0.0074157403033560934 -0.029408993716292294 0 -0.0074946482378708771 -0.02989300932383623 0 -0.0070964447076084444 -0.029683832533985492 0 -0.0073140739308031472 -0.030228150740492597 0 -0.0070964447076084444 -0.029683832533985492 0 -0.0073140739308031472 -0.030228150740492597 0 -0.0071354842712624883 -0.030509172681673108 0 -0.0070964447076084444 -0.029683832533985492 0 -0.0066957288301160911 -0.03026878604718251 0 -0.0071354842712624883 -0.030509172681673108 0 -0.0064025819193434131 -0.029316520072747196 0 -0.0067185748266227986 -0.028719237314210212 0 -0.0070964447076084444 -0.029683832533985492 0 -0.0064025819193434131 -0.029316520072747196 0 -0.0070964447076084444 -0.029683832533985492 0 -0.0066957288301160911 -0.03026878604718251 0 -0.0066561438196096594 -0.03285076112132812 0 -0.0066929849114509303 -0.031248842993904815 0 -0.0074553755088186844 -0.030834504679782281 0 -0.0023354879439326523 -0.036110351217130854 0 -0.0036930593709249867 -0.032030686405504535 0 -0.0066929849114509303 -0.031248842993904815 0 -0.0071354842712624883 -0.030509172681673108 0 -0.0074553755088186844 -0.030834504679782281 0 -0.0066929849114509303 -0.031248842993904815 0 -0.0066957288301160911 -0.03026878604718251 0 -0.0071354842712624883 -0.030509172681673108 0 -0.0059425253708329335 -0.031802124935881179 0 -0.0036930593709249867 -0.032030686405504535 0 -0.0073140739308031472 -0.030228150740492597 0 -0.0071354842712624883 -0.030509172681673108 0 -0.007507160582614178 -0.030787180960179499 0 -0.0088961750929877886 -0.02900501782258065 0 -0.0036930593709249867 -0.032030686405504535 0 -0.0077218293207834488 -0.029547426949294495 0 -0.0074946482378708771 -0.02989300932383623 0 -0.007507160582614178 -0.030787180960179499 0 -0.0077218293207834488 -0.029547426949294495 0 -0.0063969919204449679 -0.030115740735454078 0 -0.0072725786958760053 -0.030154622868245613 0 -0.0063969919204449679 -0.030115740735454078 0 -0.0072725786958760053 -0.030154622868245613 0 -0.0069787418877725422 -0.030759627784548844 0 -0.0036930593709249867 -0.032030686405504535 0 -0.0024298851813929281 -0.035838534654102631 0 -0.0074946482378708771 -0.02989300932383623 0 -0.0073140739308031472 -0.030228150740492597 0 -0.007507160582614178 -0.030787180960179499 0 -0.0072725786958760053 -0.030154622868245613 0 -0.0069787418877725422 -0.030759627784548844 0 -0.0073501495227871697 -0.030562515802581288 0 0.0045573264217570455 -0.037668328392195735 0 0.0043960533715913432 -0.036950476493120409 0 0.0042236948131301067 -0.036625002278215871 0 -0.0069787418877725422 -0.030759627784548844 0 -0.0073501495227871697 -0.030562515802581288 0 -0.0073532011240604054 -0.031378011779376554 0 -0.0024298851813929281 -0.035838534654102631 0 0.014667807109072683 -0.032515629331336886 0 0.0045573264217570455 -0.037668328392195735 0 0.0043960533715913432 -0.036950476493120409 0 0.0038228141604782443 -0.038005870548134681 0 0.0035281652699321532 -0.039369480149810079 0 0.0045573264217570455 -0.037668328392195735 0 0.0038228141604782443 -0.038005870548134681 0 0.00092167114631875051 -0.038331134338563451 0 0.0035281652699321532 -0.039369480149810079 0 0.002741785942923312 -0.038100995274808716 0 0.0043960533715913432 -0.036950476493120409 0 0.002741785942923312 -0.038100995274808716 0 0.0017311442963730262 -0.037559910742017456 0 0.0035281652699321532 -0.039369480149810079 0 0.0038228141604782443 -0.038005870548134681 0 0.002741785942923312 -0.038100995274808716 0 0.0043960533715913432 -0.036950476493120409 0 0.0038228141604782443 -0.038005870548134681 0 0.002741785942923312 -0.038100995274808716 0 0.00092167114631875051 -0.038331134338563451 0 0.002741785942923312 -0.038100995274808716 0 0.0017311442963730262 -0.037559910742017456 0 0.028843272506770202 -0.025358868035350694 0 0.02885479488713907 -0.026847577080529494 0 0.027450451939838527 -0.027788618747470115 0 0.036149980655880029 -0.028150811433267638 0 0.034866365291122248 -0.028885294010390826 0 0.034783219517949243 -0.030866225361262718 0 0.033599105302562937 -0.025949236605563426 0 0.030748985523193557 -0.029618537626822417 0 0.03348456098355989 -0.029913695815896348 0 0.034866365291122248 -0.028885294010390826 0 0.034783219517949243 -0.030866225361262718 0 0.028843272506770202 -0.025358868035350694 0 0.02885479488713907 -0.026847577080529494 0 0.030089767951617375 -0.026078650164063352 0 -0.0077218293207834488 -0.029547426949294495 0 -0.0072725786958760053 -0.030154622868245613 0 -0.0078028276984544688 -0.02995433611266585 0 -0.0072725786958760053 -0.030154622868245613 0 -0.0078028276984544688 -0.02995433611266585 0 -0.0073501495227871697 -0.030562515802581288 0 0.02885479488713907 -0.026847577080529494 0 0.030089767951617375 -0.026078650164063352 0 0.029088827549654049 -0.028257418321521132 0 0.030089767951617375 -0.026078650164063352 0 0.029088827549654049 -0.028257418321521132 0 0.030609655403634046 -0.030550843790831218 0 -0.0078028276984544688 -0.02995433611266585 0 -0.0073501495227871697 -0.030562515802581288 0 -0.0073532011240604054 -0.031378011779376554 0 0.0097846842435154752 -0.027630447348694947 0 0.014667807109072683 -0.032515629331336886 0 0.029088827549654049 -0.028257418321521132 0 0.028424688265763536 -0.030296916030593334 0 0.030609655403634046 -0.030550843790831218 0 0.030748985523193557 -0.029618537626822417 0 0.032052497051933672 -0.032872617447725107 0 0.027450451939838527 -0.027788618747470115 0 0.028424688265763536 -0.030296916030593334 0 0.025943299093053988 -0.031512092146111219 0 0.029088827549654049 -0.028257418321521132 0 0.027450451939838527 -0.027788618747470115 0 0.028424688265763536 -0.030296916030593334 0 0.02885479488713907 -0.026847577080529494 0 0.029088827549654049 -0.028257418321521132 0 0.027450451939838527 -0.027788618747470115 0 0.028845457549060333 -0.033152598874120746 0 0.028424688265763536 -0.030296916030593334 0 0.025943299093053988 -0.031512092146111219 0 0.030851423585063455 -0.032125129701043753 0 0.014667807109072683 -0.032515629331336886 0 0.029711473204744061 -0.033943302007175186 0 0.032152834176634594 -0.031959739136992599 0 0.031294356760085615 -0.036607551252446364 0 0.028845457549060333 -0.033152598874120746 0 0.028424688265763536 -0.030296916030593334 0 0.030609655403634046 -0.030550843790831218 0 0.014667807109072683 -0.032515629331336886 0 0.017969387057237485 -0.037962869716358733 0 0.029711473204744061 -0.033943302007175186 0 0.031294356760085615 -0.036607551252446364 0 0.029269904419014382 -0.036195726123465131 0 0.028845457549060333 -0.033152598874120746 0 0.027331949593214895 -0.035918069360467056 0 0.025943299093053988 -0.031512092146111219 0 0.027331949593214895 -0.035918069360467056 0 0.028291399316535411 -0.037148559989153125 0 0.026754556181313931 -0.036828619446527759 0 0.029269904419014382 -0.036195726123465131 0 0.027331949593214895 -0.035918069360467056 0 0.028291399316535411 -0.037148559989153125 0 0.030851423585063455 -0.032125129701043753 0 0.026934609177899926 -0.036269393747991131 0 0.029711473204744061 -0.033943302007175186 0 0.029269904419014382 -0.036195726123465131 0 0.027331949593214895 -0.035918069360467056 0 0.0043960533715913432 -0.036950476493120409 0 0.0063935030635935064 -0.037293942733297621 0 0.0051955748786182412 -0.037486768170576369 0 0.0043960533715913432 -0.036950476493120409 0 0.0017311442963730262 -0.037559910742017456 0 0.0015832430183569952 -0.036576228162741156 0 0.0042412691833158649 -0.036937841777389673 0 0.0045439176782358214 -0.037058477432962582 0 0.0063935030635935064 -0.037293942733297621 0 0.0051955748786182412 -0.037486768170576369 0 0.0062384167410585566 -0.038180196715428501 0 0.0051955748786182412 -0.037486768170576369 0 0.0049975273707945859 -0.037997789630980466 0 0.0062384167410585566 -0.038180196715428501 0 0.0042236948131301067 -0.036625002278215871 0 0.0037212681577948894 -0.038578928777602522 0 0.0044967757471884263 -0.03730613381308337 0 0.0043960533715913432 -0.036950476493120409 0 0.0042236948131301067 -0.036625002278215871 0 0.0044967757471884263 -0.03730613381308337 0 0.0051955748786182412 -0.037486768170576369 0 0.0044967757471884263 -0.03730613381308337 0 0.0049975273707945859 -0.037997789630980466 0 0.0043960533715913432 -0.036950476493120409 0 0.0051955748786182412 -0.037486768170576369 0 0.0044967757471884263 -0.03730613381308337 0 0.0037212681577948894 -0.038578928777602522 0 0.0044967757471884263 -0.03730613381308337 0 0.0049975273707945859 -0.037997789630980466 0 0.0037212681577948894 -0.038578928777602522 0 0.0052807469891437437 -0.038896644327202551 0 0.0049975273707945859 -0.037997789630980466 0 0.0052807469891437437 -0.038896644327202551 0 0.0062384167410585566 -0.038180196715428501 0 0.006087585569222731 -0.040659314403553387 0 0.0052807469891437437 -0.038896644327202551 0 0.0049975273707945859 -0.037997789630980466 0 0.0062384167410585566 -0.038180196715428501 0 0.0085786687375699749 -0.040593614985490335 0 0.0062384167410585566 -0.038180196715428501 0 0.006087585569222731 -0.040659314403553387 0 0.0037212681577948894 -0.038578928777602522 0 0.0052807469891437437 -0.038896644327202551 0 0.006087585569222731 -0.040659314403553387 0 0.017969387057237485 -0.037962869716358733 0 0.01688620161426695 -0.040555390061441453 0 0.0037212681577948894 -0.038578928777602522 0 0.006087585569222731 -0.040659314403553387 0 0.0042465197028193338 -0.042220945498076486 0 0.006087585569222731 -0.040659314403553387 0 0.0042465197028193338 -0.042220945498076486 0 0.0059872945130266027 -0.043025666498902174 0 0.0074849647771579233 -0.042253277120630733 0 0.0059872945130266027 -0.043025666498902174 0 0.0075406786234579843 -0.044289518793626866 0 0.0074849647771579233 -0.042253277120630733 0 0.006087585569222731 -0.040659314403553387 0 0.0059872945130266027 -0.043025666498902174 0 0.028429964547745719 -0.038257576420422774 0 0.029471197882831101 -0.039300280816049013 0 0.026754556181313931 -0.036828619446527759 0 0.029155998364754049 -0.038259630985904618 0 0.028429964547745719 -0.038257576420422774 0 0.028291399316535411 -0.037148559989153125 0 0.029155998364754049 -0.038259630985904618 0 0.028429964547745719 -0.038257576420422774 0 0.028739311330988671 -0.038911495426209523 0 0.028429964547745719 -0.038257576420422774 0 0.028291399316535411 -0.037148559989153125 0 0.026754556181313931 -0.036828619446527759 0 0.029269904419014382 -0.036195726123465131 0 0.029155998364754049 -0.038259630985904618 0 0.028291399316535411 -0.037148559989153125 0 0.031294356760085615 -0.036607551252446364 0 0.029269904419014382 -0.036195726123465131 0 0.029155998364754049 -0.038259630985904618 0 0.031294356760085615 -0.036607551252446364 0 0.029647932211957311 -0.039340711576779243 0 0.029155998364754049 -0.038259630985904618 0 0.029647932211957311 -0.039340711576779243 0 0.028542859736836956 -0.039390416758701259 0 0.027539978724448765 -0.040752292117693732 0 0.029647932211957311 -0.039340711576779243 0 0.029155998364754049 -0.038259630985904618 0 0.028542859736836956 -0.039390416758701259 0 0.029155998364754049 -0.038259630985904618 0 0.028542859736836956 -0.039390416758701259 0 0.028739311330988671 -0.038911495426209523 0 0.028429964547745719 -0.038257576420422774 0 0.028739311330988671 -0.038911495426209523 0 0.029471197882831101 -0.039300280816049013 0 0.028542859736836956 -0.039390416758701259 0 0.028739311330988671 -0.038911495426209523 0 0.029471197882831101 -0.039300280816049013 0 0.028542859736836956 -0.039390416758701259 0 0.029471197882831101 -0.039300280816049013 0 0.028720796565371621 -0.039609318603582057 0 0.029471197882831101 -0.039300280816049013 0 0.029686559078833615 -0.039425731697882244 0 0.028720796565371621 -0.039609318603582057 0 0.029471197882831101 -0.039300280816049013 0 0.030360491090054748 -0.038813747234144082 0 0.029686559078833615 -0.039425731697882244 0 0.030360491090054748 -0.038813747234144082 0 0.029686559078833615 -0.039425731697882244 0 0.029752453427381448 -0.039706211069914253 0 0.030360491090054748 -0.038813747234144082 0 0.030531683023624384 -0.038212971119380101 0 0.031261876442909189 -0.037796123869527999 0 0.029471197882831101 -0.039300280816049013 0 0.030360491090054748 -0.038813747234144082 0 0.031261876442909189 -0.037796123869527999 0 0.030360491090054748 -0.038813747234144082 0 0.030531683023624384 -0.038212971119380101 0 0.029752453427381448 -0.039706211069914253 0 0.030531683023624384 -0.038212971119380101 0 0.031519541840058965 -0.036662425971770059 0 0.030901336081445869 -0.036119076671070775 0 0.031519541840058965 -0.036662425971770059 0 0.03194485946056573 -0.034810292664400028 0 0.030901336081445869 -0.036119076671070775 0 0.030531683023624384 -0.038212971119380101 0 0.031519541840058965 -0.036662425971770059 0 0.031261876442909189 -0.037796123869527999 0 0.029471197882831101 -0.039300280816049013 0 0.031261876442909189 -0.037796123869527999 0 0.033324290266899322 -0.036352201895301833 0 0.029651564554823661 -0.03881141734227906 0 0.029707950244777119 -0.036186581827153896 0 0.031519541840058965 -0.036662425971770059 0 0.031261876442909189 -0.037796123869527999 0 0.032056907114959295 -0.036668208695235113 0 0.031519541840058965 -0.036662425971770059 0 0.032056907114959295 -0.036668208695235113 0 0.032496414934066638 -0.035786953231923657 0 0.031261876442909189 -0.037796123869527999 0 0.032056907114959295 -0.036668208695235113 0 0.033324290266899322 -0.036352201895301833 0 0.032056907114959295 -0.036668208695235113 0 0.033324290266899322 -0.036352201895301833 0 0.032496414934066638 -0.035786953231923657 0 0.027331949593214895 -0.035918069360467056 0 0.026754556181313931 -0.036828619446527759 0 0.025943299093053988 -0.031512092146111219 0 0.032496414934066638 -0.035786953231923657 0 0.033046375056919923 -0.033967290223945464 0 0.035343731466107177 -0.033398305922871255 0 0.033324290266899322 -0.036352201895301833 0 0.032496414934066638 -0.035786953231923657 0 0.033611558384781012 -0.03270385611669565 0 0.033271373123432778 -0.035393099924664502 0 0.032052497051933672 -0.032872617447725107 0 0.029707950244777119 -0.036186581827153896 0 0.032052497051933672 -0.032872617447725107 0 0.031519541840058965 -0.036662425971770059 0 0.032496414934066638 -0.035786953231923657 0 0.03194485946056573 -0.034810292664400028 0 0.03194485946056573 -0.034810292664400028 0 0.033046375056919923 -0.033967290223945464 0 0.032537425599188971 -0.032692694163087684 0 0.032496414934066638 -0.035786953231923657 0 0.03194485946056573 -0.034810292664400028 0 0.033046375056919923 -0.033967290223945464 0 0.033640982916125599 -0.030785255341252846 0 0.032537425599188971 -0.032692694163087684 0 0.033759428120496031 -0.032458791982819396 0 0.033046375056919923 -0.033967290223945464 0 0.032537425599188971 -0.032692694163087684 0 0.033759428120496031 -0.032458791982819396 0 0.034546216975166855 -0.031391902339314139 0 0.033759428120496031 -0.032458791982819396 0 0.035343731466107177 -0.033398305922871255 0 0.033046375056919923 -0.033967290223945464 0 0.033759428120496031 -0.032458791982819396 0 0.035343731466107177 -0.033398305922871255 0 0.031807758187973989 -0.030660673317736191 0 0.032005224268188956 -0.031942757372484532 0 0.031297424180647758 -0.033292985700666168 0 0.031807758187973989 -0.030660673317736191 0 0.031297424180647758 -0.033292985700666168 0 0.030948671648597277 -0.031475637607083232 0 0.032537425599188971 -0.032692694163087684 0 0.032005224268188956 -0.031942757372484532 0 0.031297424180647758 -0.033292985700666168 0 0.03261102962555619 -0.030680855888826526 0 0.032537425599188971 -0.032692694163087684 0 0.032005224268188956 -0.031942757372484532 0 0.03194485946056573 -0.034810292664400028 0 0.032537425599188971 -0.032692694163087684 0 0.031297424180647758 -0.033292985700666168 0 0.03194485946056573 -0.034810292664400028 0 0.031297424180647758 -0.033292985700666168 0 0.030901336081445869 -0.036119076671070775 0 0.031297424180647758 -0.033292985700666168 0 0.03022279676668289 -0.03550370068493932 0 0.030371772102868941 -0.033390482382995544 0 0.031297424180647758 -0.033292985700666168 0 0.030948671648597277 -0.031475637607083232 0 0.030371772102868941 -0.033390482382995544 0 0.031297424180647758 -0.033292985700666168 0 0.03022279676668289 -0.03550370068493932 0 0.030901336081445869 -0.036119076671070775 0 0.03022279676668289 -0.03550370068493932 0 0.030901336081445869 -0.036119076671070775 0 0.029982749317650173 -0.038019258373002157 0 0.030531683023624384 -0.038212971119380101 0 0.029982749317650173 -0.038019258373002157 0 0.029398175653985434 -0.040050730807362503 0 0.030531683023624384 -0.038212971119380101 0 0.030901336081445869 -0.036119076671070775 0 0.029982749317650173 -0.038019258373002157 0 0.03022279676668289 -0.03550370068493932 0 0.029982749317650173 -0.038019258373002157 0 0.029421989800642645 -0.03749667543445856 0 0.029982749317650173 -0.038019258373002157 0 0.029421989800642645 -0.03749667543445856 0 0.02882263506910886 -0.040006676503451855 0 0.02882263506910886 -0.040006676503451855 0 0.028188883223912362 -0.042289094283955136 0 0.028102296381966322 -0.04172270046569402 0 0.02882263506910886 -0.040006676503451855 0 0.029398175653985434 -0.040050730807362503 0 0.028188883223912362 -0.042289094283955136 0 0.029982749317650173 -0.038019258373002157 0 0.02882263506910886 -0.040006676503451855 0 0.029398175653985434 -0.040050730807362503 0 0.029398175653985434 -0.040050730807362503 0 0.029752453427381448 -0.039706211069914253 0 0.028816625097262627 -0.041675296103485769 0 0.030531683023624384 -0.038212971119380101 0 0.029398175653985434 -0.040050730807362503 0 0.029752453427381448 -0.039706211069914253 0 0.029398175653985434 -0.040050730807362503 0 0.028816625097262627 -0.041675296103485769 0 0.028188883223912362 -0.042289094283955136 0 0.029752453427381448 -0.039706211069914253 0 0.029428131534931231 -0.040555996322052271 0 0.028816625097262627 -0.041675296103485769 0 0.029686559078833615 -0.039425731697882244 0 0.029428131534931231 -0.040555996322052271 0 0.028720796565371621 -0.039609318603582057 0 0.029686559078833615 -0.039425731697882244 0 0.029752453427381448 -0.039706211069914253 0 0.029428131534931231 -0.040555996322052271 0 0.029428131534931231 -0.040555996322052271 0 0.028816625097262627 -0.041675296103485769 0 0.029995333994603902 -0.041879275717365307 0 0.028816625097262627 -0.041675296103485769 0 0.028197312485453881 -0.043851760760033644 0 0.029995333994603902 -0.041879275717365307 0 0.028816625097262627 -0.041675296103485769 0 0.027523524362833479 -0.044168559602181967 0 0.028188883223912362 -0.042289094283955136 0 0.028816625097262627 -0.041675296103485769 0 0.027523524362833479 -0.044168559602181967 0 0.028197312485453881 -0.043851760760033644 0 0.027523524362833479 -0.044168559602181967 0 0.028197312485453881 -0.043851760760033644 0 0.026363479061704206 -0.046456175097606023 0 0.028197312485453881 -0.043851760760033644 0 0.028719914482467555 -0.045080415744631661 0 0.026363479061704206 -0.046456175097606023 0 0.027523524362833479 -0.044168559602181967 0 0.026253300930418742 -0.046349405537899131 0 0.026363479061704206 -0.046456175097606023 0 0.027271825290695381 -0.044515289942749857 0 0.026876020851477674 -0.045803284337315911 0 0.026253300930418742 -0.046349405537899131 0 0.027523524362833479 -0.044168559602181967 0 0.027271825290695381 -0.044515289942749857 0 0.026253300930418742 -0.046349405537899131 0 0.027271825290695381 -0.044515289942749857 0 0.027621840257183811 -0.043712742040930661 0 0.026876020851477674 -0.045803284337315911 0 0.027271825290695381 -0.044515289942749857 0 0.027621840257183811 -0.043712742040930661 0 0.028188883223912362 -0.042289094283955136 0 0.027621840257183811 -0.043712742040930661 0 0.028188883223912362 -0.042289094283955136 0 0.028102296381966322 -0.04172270046569402 0 0.027523524362833479 -0.044168559602181967 0 0.027271825290695381 -0.044515289942749857 0 0.028188883223912362 -0.042289094283955136 0 0.0084968712438674657 -0.045946398995642262 0 0.0072541916466444699 -0.046274353219566626 0 0.0075406786234579843 -0.044289518793626866 0 0.0072541916466444699 -0.046274353219566626 0 0.0075406786234579843 -0.044289518793626866 0 0.0051884977275465649 -0.045052855575456539 0 0.0059872945130266027 -0.043025666498902174 0 0.0075406786234579843 -0.044289518793626866 0 0.0051884977275465649 -0.045052855575456539 0 0.0042465197028193338 -0.042220945498076486 0 0.0059872945130266027 -0.043025666498902174 0 0.0051884977275465649 -0.045052855575456539 0 0.01688620161426695 -0.040555390061441453 0 0.01648708602860402 -0.04351314655670166 0 0.0072541916466444699 -0.046274353219566626 0 0.0051884977275465649 -0.045052855575456539 0 0.0064941372607565714 -0.047788541413793684 0 0.027845334969944246 -0.042201453113932245 0 0.027539978724448765 -0.040752292117693732 0 0.02500293836206877 -0.04405111154968127 0 0.027539978724448765 -0.040752292117693732 0 0.024707326842628118 -0.042504743844652866 0 0.02500293836206877 -0.04405111154968127 0 0.029647932211957311 -0.039340711576779243 0 0.027845334969944246 -0.042201453113932245 0 0.027539978724448765 -0.040752292117693732 0 0.029428131534931231 -0.040555996322052271 0 0.028720796565371621 -0.039609318603582057 0 0.029995333994603902 -0.041879275717365307 0 0.028459479850503868 -0.040087714580224199 0 0.027346743824900543 -0.042355022865590779 0 0.028542859736836956 -0.039390416758701259 0 0.027539978724448765 -0.040752292117693732 0 0.028720796565371621 -0.039609318603582057 0 0.027539978724448765 -0.040752292117693732 0 0.028720796565371621 -0.039609318603582057 0 0.024707326842628118 -0.042504743844652866 0 0.027346743824900543 -0.042355022865590779 0 0.025406607328282583 -0.045459603563715596 0 0.024707326842628118 -0.042504743844652866 0 0.022153815088944456 -0.045857133278150608 0 0.02500293836206877 -0.04405111154968127 0 0.028197312485453881 -0.043851760760033644 0 0.029995333994603902 -0.041879275717365307 0 0.028719914482467555 -0.045080415744631661 0 0.022153815088944456 -0.045857133278150608 0 0.022402724643040228 -0.04721424494060257 0 0.020081665045033399 -0.048479850422316069 0 0.022153815088944456 -0.045857133278150608 0 0.022402724643040228 -0.04721424494060257 0 0.02500293836206877 -0.04405111154968127 0 0.022402724643040228 -0.04721424494060257 0 0.02500293836206877 -0.04405111154968127 0 0.025265793460120346 -0.045686217150816028 0 0.01648708602860402 -0.04351314655670166 0 0.015852005786034004 -0.04650860774620557 0 0.027845334969944246 -0.042201453113932245 0 0.02500293836206877 -0.04405111154968127 0 0.025265793460120346 -0.045686217150816028 0 0.015852005786034004 -0.04650860774620557 0 0.015148578158612706 -0.04901740368221584 0 0.022402724643040228 -0.04721424494060257 0 0.025265793460120346 -0.045686217150816028 0 0.022063685095951181 -0.048375668922203657 0 0.0064941372607565714 -0.047788541413793684 0 0.0088659797342681632 -0.049422523245557924 0 0.0082654620282387736 -0.05016794088693672 0 0.0085381213305502392 -0.047853880190827522 0 0.0064941372607565714 -0.047788541413793684 0 0.0088659797342681632 -0.049422523245557924 0 0.0085381213305502392 -0.047853880190827522 0 0.0072541916466444699 -0.046274353219566626 0 0.0064941372607565714 -0.047788541413793684 0 0.01038735250070762 -0.050984393867946183 0 0.0096316085970912565 -0.05060155206901483 0 0.010703929609355855 -0.05102817002037055 0 0.0096316085970912565 -0.05060155206901483 0 0.0082654620282387736 -0.05016794088693672 0 0.010703929609355855 -0.05102817002037055 0 0.0088659797342681632 -0.049422523245557924 0 0.0096316085970912565 -0.05060155206901483 0 0.0082654620282387736 -0.05016794088693672 0 0.022402724643040228 -0.04721424494060257 0 0.022063685095951181 -0.048375668922203657 0 0.01980007613578354 -0.049437041750762384 0 0.022063685095951181 -0.048375668922203657 0 0.01980007613578354 -0.049437041750762384 0 0.018303051475281079 -0.050261835547518036 0 0.015148578158612706 -0.04901740368221584 0 0.014467327871820767 -0.050190891365699507 0 0.01980007613578354 -0.049437041750762384 0 0.020081665045033399 -0.048479850422316069 0 0.018270819209624388 -0.050096657114145328 0 0.022402724643040228 -0.04721424494060257 0 0.01980007613578354 -0.049437041750762384 0 0.020081665045033399 -0.048479850422316069 0 0.026086910734837189 -0.047769627212103011 0 0.026363479061704206 -0.046456175097606023 0 0.024263237127206481 -0.048524517257639746 0 0.028719914482467555 -0.045080415744631661 0 0.026086910734837189 -0.047769627212103011 0 0.026363479061704206 -0.046456175097606023 0 0.025406607328282583 -0.045459603563715596 0 0.023043840684238249 -0.048060795272353234 0 0.026086910734837189 -0.047769627212103011 0 0.022175433246679463 -0.049634724962732316 0 0.024263237127206481 -0.048524517257639746 0 0.023043840684238249 -0.048060795272353234 0 0.020169615967375813 -0.049624745443926296 0 0.022175433246679463 -0.049634724962732316 0 0.024263237127206481 -0.048524517257639746 0 0.022231053613886297 -0.049521388823257247 0 0.020096193948642073 -0.049941855806735172 0 0.022175433246679463 -0.049634724962732316 0 0.022231053613886297 -0.049521388823257247 0 0.020096193948642073 -0.049941855806735172 0 0.016877661154982668 -0.049999153188557743 0 0.022175433246679463 -0.049634724962732316 0 0.020096193948642073 -0.049941855806735172 0 0.016877661154982668 -0.049999153188557743 0 0.019448767322412224 -0.049998757220656866 0 0.01687106760404225 -0.04999973485571705 0 0.018270819209624388 -0.050096657114145328 0 0.01753331981705537 -0.050244694446584283 0 0.01687106760404225 -0.04999973485571705 0 0.01753331981705537 -0.050244694446584283 0 0.015354244706549341 -0.049999803624704638 0 0.01687240388363296 -0.04999927560792803 0 0.020169615967375813 -0.049624745443926296 0 0.01980007613578354 -0.049437041750762384 0 0.018270819209624388 -0.050096657114145328 0 0.01753331981705537 -0.050244694446584283 0 0.01980007613578354 -0.049437041750762384 0 0.01753331981705537 -0.050244694446584283 0 0.018303051475281079 -0.050261835547518036 0 0.018303051475281079 -0.050261835547518036 0 0.015354244706549341 -0.049999803624704638 0 0.013838498595190178 -0.049999288701825788 0 0.01753331981705537 -0.050244694446584283 0 0.018303051475281079 -0.050261835547518036 0 0.015354244706549341 -0.049999803624704638 0 0.010703929609355855 -0.05102817002037055 0 0.013829648085939396 -0.049999769929613747 0 0.01158572713861303 -0.05070127203107324 0 0.014467327871820767 -0.050190891365699507 0 0.01383468665252059 -0.049998939859166217 0 0.011068455995974934 -0.049999680247032954 0 0.013829648085939396 -0.049999769929613747 0 0.01158572713861303 -0.05070127203107324 0 0.01038735250070762 -0.050984393867946183 0 0.010703929609355855 -0.05102817002037055 0 0.01158572713861303 -0.05070127203107324 0 0.025956637506386004 -0.047490309465994258 0 0.024508739874611662 -0.048379073299954542 0 0.024623923693838982 -0.04918987346349709 0 0.025956637506386004 -0.047490309465994258 0 0.026253300930418742 -0.046349405537899131 0 0.024508739874611662 -0.048379073299954542 0 0.025956637506386004 -0.047490309465994258 0 0.024623923693838982 -0.04918987346349709 0 0.026703944578678491 -0.048077754792129376 0 0.025956637506386004 -0.047490309465994258 0 0.026876020851477674 -0.045803284337315911 0 0.027014166130484206 -0.04649654953584699 0 0.025956637506386004 -0.047490309465994258 0 0.026876020851477674 -0.045803284337315911 0 0.026253300930418742 -0.046349405537899131 0 0.026253300930418742 -0.046349405537899131 0 0.026363479061704206 -0.046456175097606023 0 0.024508739874611662 -0.048379073299954542 0 0.026363479061704206 -0.046456175097606023 0 0.024263237127206481 -0.048524517257639746 0 0.024508739874611662 -0.048379073299954542 0 0.024263237127206481 -0.048524517257639746 0 0.024508739874611662 -0.048379073299954542 0 0.022231053613886297 -0.049521388823257247 0 0.024508739874611662 -0.048379073299954542 0 0.022635858521087411 -0.049579756761116957 0 0.022231053613886297 -0.049521388823257247 0 0.024508739874611662 -0.048379073299954542 0 0.022635858521087411 -0.049579756761116957 0 0.024623923693838982 -0.04918987346349709 0 0.022635858521087411 -0.049579756761116957 0 0.022231053613886297 -0.049521388823257247 0 0.019448767322412224 -0.049998757220656866 0 0.020096193948642073 -0.049941855806735172 0 0.022231053613886297 -0.049521388823257247 0 0.019448767322412224 -0.049998757220656866 0 0.022635858521087411 -0.049579756761116957 0 0.019448767322412224 -0.049998757220656866 0 0.022022200941363756 -0.049998502067437015 0 0.022635858521087411 -0.049579756761116957 0 0.022022200941363756 -0.049998502067437015 0 0.024623923693838982 -0.04918987346349709 0 0.022022200941363756 -0.049998502067437015 0 0.024623923693838982 -0.04918987346349709 0 0.024595837731895491 -0.049998204610940268 0 0.024623923693838982 -0.04918987346349709 0 0.024595837731895491 -0.049998204610940268 0 0.026247396160531344 -0.049357137299910613 0 0.024595837731895491 -0.049998204610940268 0 0.026247396160531344 -0.049357137299910613 0 0.027168612595823576 -0.049998138548805436 0 0.026247396160531344 -0.049357137299910613 0 0.027168612595823576 -0.049998138548805436 0 0.027901420425630888 -0.048778930198866241 0 0.026247396160531344 -0.049357137299910613 0 0.027901420425630888 -0.048778930198866241 0 0.026703944578678491 -0.048077754792129376 0 0.024623923693838982 -0.04918987346349709 0 0.026247396160531344 -0.049357137299910613 0 0.026703944578678491 -0.048077754792129376 0 0.026703944578678491 -0.048077754792129376 0 0.027014166130484206 -0.04649654953584699 0 0.027903259809684184 -0.046436717232909069 0 0.025956637506386004 -0.047490309465994258 0 0.026703944578678491 -0.048077754792129376 0 0.027014166130484206 -0.04649654953584699 0 0.027901420425630888 -0.048778930198866241 0 0.026703944578678491 -0.048077754792129376 0 0.027903259809684184 -0.046436717232909069 0 0.027014166130484206 -0.04649654953584699 0 0.027903259809684184 -0.046436717232909069 0 0.02768872102900425 -0.04425146638843945 0 0.027903259809684184 -0.046436717232909069 0 0.02768872102900425 -0.04425146638843945 0 0.027921509471734871 -0.043767264593998434 0 0.026876020851477674 -0.045803284337315911 0 0.027014166130484206 -0.04649654953584699 0 0.02768872102900425 -0.04425146638843945 0 0.028152293772531898 -0.044677644653371443 0 0.027903259809684184 -0.046436717232909069 0 0.027921509471734871 -0.043767264593998434 0 0.028152293772531898 -0.044677644653371443 0 0.027903259809684184 -0.046436717232909069 0 0.029211366084311713 -0.047728364598750676 0 0.027901420425630888 -0.048778930198866241 0 0.027903259809684184 -0.046436717232909069 0 0.029211366084311713 -0.047728364598750676 0 0.027901420425630888 -0.048778930198866241 0 0.029211366084311713 -0.047728364598750676 0 0.029745419694323011 -0.049997800326824937 0 0.027168612595823576 -0.049998138548805436 0 0.027901420425630888 -0.048778930198866241 0 0.029745419694323011 -0.049997800326824937 0 0.029211366084311713 -0.047728364598750676 0 0.029745419694323011 -0.049997800326824937 0 0.032304898458918256 -0.049998846139431417 0 0.029211366084311713 -0.047728364598750676 0 0.032304898458918256 -0.049998846139431417 0 0.029321240596140719 -0.047376004465854202 0 0.032317918399675565 -0.050000042424617808 0 0.034656342411612154 -0.050647933514452514 0 0.034990160854066518 -0.04999991052030639 0 0.032304898458918256 -0.049998846139431417 0 0.029321240596140719 -0.047376004465854202 0 0.027006653256304736 -0.049048864225742048 0 0.032318258675969887 -0.050000185472208462 0 0.030207667231726437 -0.049760621212641999 0 0.029321240596140719 -0.047376004465854202 0 0.027006653256304736 -0.049048864225742048 0 0.027102403507708088 -0.046118044756533118 0 0.029321240596140719 -0.047376004465854202 0 0.027102403507708088 -0.046118044756533118 0 0.027896418164372667 -0.044870800656295548 0 0.029211366084311713 -0.047728364598750676 0 0.029321240596140719 -0.047376004465854202 0 0.027896418164372667 -0.044870800656295548 0 0.037072368892528823 -0.050801145748990174 0 0.034990160854066518 -0.04999991052030639 0 0.037663872823394631 -0.049999959468938267 0 0.037131453247369592 -0.051201482876662437 0 0.037072368892528823 -0.050801145748990174 0 0.034656342411612154 -0.050647933514452514 0 0.033824384060942715 -0.04915232767809169 0 0.034396033458844864 -0.050059663099240974 0 0.037308106838910733 -0.05122960045009825 0 0.037072368892528823 -0.050801145748990174 0 0.0378334324287872 -0.050609629085654452 0 0.037072368892528823 -0.050801145748990174 0 0.037663872823394631 -0.049999959468938267 0 0.0378334324287872 -0.050609629085654452 0 0.023820823410507966 -0.047896165931122163 0 0.027006653256304736 -0.049048864225742048 0 0.025665115049810536 -0.047428131832025634 0 0.033824384060942715 -0.04915232767809169 0 0.030207667231726437 -0.049760621212641999 0 0.037072368892528823 -0.050801145748990174 0 0.034656342411612154 -0.050647933514452514 0 0.034990160854066518 -0.04999991052030639 0 0.027102403507708088 -0.046118044756533118 0 0.025665115049810536 -0.047428131832025634 0 0.025668217956782872 -0.045236953556242986 0 0.027006653256304736 -0.049048864225742048 0 0.027102403507708088 -0.046118044756533118 0 0.025665115049810536 -0.047428131832025634 0 0.025665115049810536 -0.047428131832025634 0 0.024416569423935705 -0.0457183516726717 0 0.025668217956782872 -0.045236953556242986 0 0.025665115049810536 -0.047428131832025634 0 0.024587252848505253 -0.047010320271011194 0 0.024416569423935705 -0.0457183516726717 0 0.023820823410507966 -0.047896165931122163 0 0.025665115049810536 -0.047428131832025634 0 0.024587252848505253 -0.047010320271011194 0 0.024587252848505253 -0.047010320271011194 0 0.024416569423935705 -0.0457183516726717 0 0.023600692182730289 -0.045862383524027883 0 0.026191152857588787 -0.046010713176737612 0 0.032596675841524307 -0.045506501524079708 0 0.023820823410507966 -0.047896165931122163 0 0.024587252848505253 -0.047010320271011194 0 0.023600692182730289 -0.045862383524027883 0 0.033824384060942715 -0.04915232767809169 0 0.032596675841524307 -0.045506501524079708 0 0.032596675841524307 -0.045506501524079708 0 0.029829935609440601 -0.041193880607780377 0 0.023558216932837266 -0.045500471828037854 0 0.024807038555718416 -0.044134681084336547 0 0.023640560946086506 -0.04240913242481352 0 0.024416569423935705 -0.0457183516726717 0 0.023558216932837266 -0.045500471828037854 0 0.024807038555718416 -0.044134681084336547 0 0.024416569423935705 -0.0457183516726717 0 0.024807038555718416 -0.044134681084336547 0 0.025668217956782872 -0.045236953556242986 0 0.027102403507708088 -0.046118044756533118 0 0.025668217956782872 -0.045236953556242986 0 0.026191236615517081 -0.044004004326487191 0 0.024807038555718416 -0.044134681084336547 0 0.026191236615517081 -0.044004004326487191 0 0.02530796225597759 -0.042585780231430913 0 0.024807038555718416 -0.044134681084336547 0 0.025668217956782872 -0.045236953556242986 0 0.026191236615517081 -0.044004004326487191 0 0.02530796225597759 -0.042585780231430913 0 0.025331056072746085 -0.040826103351004193 0 0.026339192236992735 -0.042131871578629951 0 0.026191236615517081 -0.044004004326487191 0 0.02530796225597759 -0.042585780231430913 0 0.026339192236992735 -0.042131871578629951 0 0.024807038555718416 -0.044134681084336547 0 0.02530796225597759 -0.042585780231430913 0 0.023640560946086506 -0.04240913242481352 0 0.02530796225597759 -0.042585780231430913 0 0.025331056072746085 -0.040826103351004193 0 0.023640560946086506 -0.04240913242481352 0 0.028152293772531898 -0.044677644653371443 0 0.029211366084311713 -0.047728364598750676 0 0.027896418164372667 -0.044870800656295548 0 0.027102403507708088 -0.046118044756533118 0 0.026191236615517081 -0.044004004326487191 0 0.027896418164372667 -0.044870800656295548 0 0.026191236615517081 -0.044004004326487191 0 0.027896418164372667 -0.044870800656295548 0 0.026339192236992735 -0.042131871578629951 0 0.027896418164372667 -0.044870800656295548 0 0.027432627303362413 -0.04249127459004829 0 0.026339192236992735 -0.042131871578629951 0 0.028152293772531898 -0.044677644653371443 0 0.027896418164372667 -0.044870800656295548 0 0.027432627303362413 -0.04249127459004829 0 0.027432627303362413 -0.04249127459004829 0 0.026607038421908591 -0.040652810401730979 0 0.026339192236992735 -0.042131871578629951 0 0.026607038421908591 -0.040652810401730979 0 0.026339192236992735 -0.042131871578629951 0 0.025749026318851339 -0.040168656095215506 0 0.026607038421908591 -0.040652810401730979 0 0.027443791706091316 -0.04053364495321439 0 0.026714532175733972 -0.039284208693185739 0 0.026607038421908591 -0.040652810401730979 0 0.025856055159234149 -0.038984744171123249 0 0.026714532175733972 -0.039284208693185739 0 0.027432627303362413 -0.04249127459004829 0 0.026607038421908591 -0.040652810401730979 0 0.027443791706091316 -0.04053364495321439 0 0.027432627303362413 -0.04249127459004829 0 0.027443791706091316 -0.04053364495321439 0 0.027803870431991822 -0.042045894547199779 0 0.025331056072746085 -0.040826103351004193 0 0.023640560946086506 -0.04240913242481352 0 0.024468850189824035 -0.039007686009366563 0 0.025331056072746085 -0.040826103351004193 0 0.026339192236992735 -0.042131871578629951 0 0.025749026318851339 -0.040168656095215506 0 0.025331056072746085 -0.040826103351004193 0 0.025749026318851339 -0.040168656095215506 0 0.024577494183813605 -0.038206886988155192 0 0.026607038421908591 -0.040652810401730979 0 0.025749026318851339 -0.040168656095215506 0 0.025856055159234149 -0.038984744171123249 0 0.025749026318851339 -0.040168656095215506 0 0.024577494183813605 -0.038206886988155192 0 0.025856055159234149 -0.038984744171123249 0 0.025331056072746085 -0.040826103351004193 0 0.025906232803773549 -0.037783559346633182 0 0.024468850189824035 -0.039007686009366563 0 0.025331056072746085 -0.040826103351004193 0 0.025906232803773549 -0.037783559346633182 0 0.026785912000923822 -0.038256344264058537 0 0.02538330481609154 -0.040578563276693708 0 0.025688244323252025 -0.038193436423610262 0 0.0264464781878475 -0.037573237956643878 0 0.026785912000923822 -0.038256344264058537 0 0.027801727556341214 -0.035800411510850866 0 0.0264464781878475 -0.037573237956643878 0 0.026503408129701408 -0.037056766196467618 0 0.025731092946972858 -0.03749672495195204 0 0.0274270364836528 -0.037435843138969395 0 0.031327493768384548 -0.040228972973588399 0 0.025906232803773549 -0.037783559346633182 0 0.0264464781878475 -0.037573237956643878 0 0.025731092946972858 -0.03749672495195204 0 0.025906232803773549 -0.037783559346633182 0 0.0264464781878475 -0.037573237956643878 0 0.026785912000923822 -0.038256344264058537 0 0.03016537531718682 -0.038823313427410307 0 0.031327493768384548 -0.040228972973588399 0 0.024577494183813605 -0.038206886988155192 0 0.025856055159234149 -0.038984744171123249 0 0.025915479001707639 -0.037554607211649417 0 0.024577494183813605 -0.038206886988155192 0 0.025915479001707639 -0.037554607211649417 0 0.024541049414572403 -0.035727481931126064 0 0.025915479001707639 -0.037554607211649417 0 0.024541049414572403 -0.035727481931126064 0 0.026164002242992857 -0.035826902181958421 0 0.025688244323252025 -0.038193436423610262 0 0.026173047246024848 -0.035712939470595825 0 0.0264464781878475 -0.037573237956643878 0 0.026503408129701408 -0.037056766196467618 0 0.027801727556341214 -0.035800411510850866 0 0.027801727556341214 -0.035800411510850866 0 0.026387002286839229 -0.035959954955726001 0 0.0261732831251003 -0.034355256270896695 0 0.026503408129701408 -0.037056766196467618 0 0.027801727556341214 -0.035800411510850866 0 0.026387002286839229 -0.035959954955726001 0 0.027443791706091316 -0.04053364495321439 0 0.027172794791385995 -0.037770389533629829 0 0.027855642897771753 -0.039440023099045991 0 0.027443791706091316 -0.04053364495321439 0 0.026714532175733972 -0.039284208693185739 0 0.027172794791385995 -0.037770389533629829 0 0.025915479001707639 -0.037554607211649417 0 0.026714532175733972 -0.039284208693185739 0 0.027172794791385995 -0.037770389533629829 0 0.025856055159234149 -0.038984744171123249 0 0.025915479001707639 -0.037554607211649417 0 0.026714532175733972 -0.039284208693185739 0 0.025915479001707639 -0.037554607211649417 0 0.027172794791385995 -0.037770389533629829 0 0.026164002242992857 -0.035826902181958421 0 0.027172794791385995 -0.037770389533629829 0 0.027855642897771753 -0.039440023099045991 0 0.028215837655127897 -0.03669932086582961 0 0.027855642897771753 -0.039440023099045991 0 0.028226498462874009 -0.038792842430236542 0 0.028215837655127897 -0.03669932086582961 0 0.027855642897771753 -0.039440023099045991 0 0.028226498462874009 -0.038792842430236542 0 0.028040605141435533 -0.04127134346372098 0 0.028226498462874009 -0.038792842430236542 0 0.028429313859592367 -0.039087078537986888 0 0.028040605141435533 -0.04127134346372098 0 0.028226498462874009 -0.038792842430236542 0 0.028429313859592367 -0.039087078537986888 0 0.02853836627333408 -0.037324312945532574 0 0.029421989800642645 -0.03749667543445856 0 0.02882263506910886 -0.040006676503451855 0 0.028429313859592367 -0.039087078537986888 0 0.02882263506910886 -0.040006676503451855 0 0.028429313859592367 -0.039087078537986888 0 0.028102296381966322 -0.04172270046569402 0 0.028429313859592367 -0.039087078537986888 0 0.028102296381966322 -0.04172270046569402 0 0.028040605141435533 -0.04127134346372098 0 0.028102296381966322 -0.04172270046569402 0 0.02768872102900425 -0.04425146638843945 0 0.028040605141435533 -0.04127134346372098 0 0.027621840257183811 -0.043712742040930661 0 0.028102296381966322 -0.04172270046569402 0 0.02768872102900425 -0.04425146638843945 0 0.027621840257183811 -0.043712742040930661 0 0.026876020851477674 -0.045803284337315911 0 0.02768872102900425 -0.04425146638843945 0 0.02768872102900425 -0.04425146638843945 0 0.027921509471734871 -0.043767264593998434 0 0.028040605141435533 -0.04127134346372098 0 0.028152293772531898 -0.044677644653371443 0 0.027921509471734871 -0.043767264593998434 0 0.027803870431991822 -0.042045894547199779 0 0.028152293772531898 -0.044677644653371443 0 0.027432627303362413 -0.04249127459004829 0 0.027803870431991822 -0.042045894547199779 0 0.027443791706091316 -0.04053364495321439 0 0.027855642897771753 -0.039440023099045991 0 0.027803870431991822 -0.042045894547199779 0 0.027855642897771753 -0.039440023099045991 0 0.027803870431991822 -0.042045894547199779 0 0.028040605141435533 -0.04127134346372098 0 0.027921509471734871 -0.043767264593998434 0 0.027803870431991822 -0.042045894547199779 0 0.028040605141435533 -0.04127134346372098 0 0.050411579169144717 -0.0460427741707191 0 0.05009475544872212 -0.048859139486625396 0 0.050000101327531729 -0.042432364103690043 0 0.05009475544872212 -0.048859139486625396 0 0.049996410674057162 -0.049999711408297176 0 0.050000101327531729 -0.042432364103690043 0 0.050411579169144717 -0.0460427741707191 0 0.0504913865895485 -0.043109852381617061 0 0.050000101327531729 -0.042432364103690043 0 0.047087506420411596 -0.04391370122382289 0 0.048753593005027747 -0.043596970167479702 0 0.050411579169144717 -0.0460427741707191 0 0.050509573702163649 -0.04599596751616513 0 0.0504913865895485 -0.043109852381617061 0 0.045477730630975884 -0.046071176551657871 0 0.045650932889277587 -0.045842581104634586 0 0.045900496031079513 -0.046392233493030462 0 0.047841859767476708 -0.045579246559411403 0 0.048753593005027747 -0.043596970167479702 0 0.045477730630975884 -0.046071176551657871 0 0.045317319073586222 -0.045752617173288587 0 0.045650932889277587 -0.045842581104634586 0 0.045317319073586222 -0.045752617173288587 0 0.045650932889277587 -0.045842581104634586 0 0.045192041513082926 -0.0454064439746589 0 0.047087506420411596 -0.04391370122382289 0 0.046017826695857841 -0.042845324212701354 0 0.045477730630975884 -0.046071176551657871 0 0.045317319073586222 -0.045752617173288587 0 0.044942035042958094 -0.045697534638499814 0 0.050411579169144717 -0.0460427741707191 0 0.050509573702163649 -0.04599596751616513 0 0.048449049254260926 -0.045915867009278834 0 0.050226923365561497 -0.045784180684466186 0 0.049135870927702698 -0.048312592437505457 0 0.050411579169144717 -0.0460427741707191 0 0.05009475544872212 -0.048859139486625396 0 0.050135077095983194 -0.048702480811536185 0 0.050086062821512588 -0.048677548906140539 0 0.049135870927702698 -0.048312592437505457 0 0.05009475544872212 -0.048859139486625396 0 0.050234714724259125 -0.049551311044505643 0 0.048464807726942366 -0.050000755203929312 0 0.049135870927702698 -0.048312592437505457 0 0.048459679046528384 -0.050000226655102856 0 0.05009475544872212 -0.048859139486625396 0 0.048464807726942366 -0.050000755203929312 0 0.049996410674057162 -0.049999711408297176 0 0.047093324434976401 -0.049999270137040322 0 0.047306622791655401 -0.050992035994012072 0 0.046094784911855709 -0.051545001392146114 0 0.047096225463578431 -0.050001082315873524 0 0.048500903726850723 -0.050139318258726355 0 0.048633583667951293 -0.050549868588697811 0 0.047095094058224089 -0.050002024964740238 0 0.047049307225540134 -0.047655304514813777 0 0.048457898263466949 -0.049997761137399281 0 0.047096225463578431 -0.050001082315873524 0 0.048500903726850723 -0.050139318258726355 0 0.048910221702876969 -0.049799831172412136 0 0.048457898263466949 -0.049997761137399281 0 0.048500903726850723 -0.050139318258726355 0 0.048910221702876969 -0.049799831172412136 0 0.048500903726850723 -0.050139318258726355 0 0.048633583667951293 -0.050549868588697811 0 0.049135870927702698 -0.048312592437505457 0 0.047049307225540134 -0.047655304514813777 0 0.045650932889277587 -0.045842581104634586 0 0.045396702104011415 -0.045099089725134253 0 0.045192041513082926 -0.0454064439746589 0 0.050509573702163649 -0.04599596751616513 0 0.048449049254260926 -0.045915867009278834 0 0.04809785828353192 -0.045941092667396294 0 0.047841859767476708 -0.045579246559411403 0 0.047049307225540134 -0.047655304514813777 0 0.045192041513082926 -0.0454064439746589 0 0.044876847409416928 -0.045131154766098448 0 0.044942035042958094 -0.045697534638499814 0 0.045396702104011415 -0.045099089725134253 0 0.045192041513082926 -0.0454064439746589 0 0.044876847409416928 -0.045131154766098448 0 0.044876847409416928 -0.045131154766098448 0 0.044312832082472928 -0.045208021119026304 0 0.044942035042958094 -0.045697534638499814 0 0.047093324434976401 -0.049999270137040322 0 0.046094784911855709 -0.051545001392146114 0 0.044817972558344375 -0.050000083497803223 0 0.047049307225540134 -0.047655304514813777 0 0.045189744299247041 -0.048336875593969104 0 0.044817972558344375 -0.050000083497803223 0 0.044653426629524907 -0.052071516461585587 0 0.042541280216044183 -0.050000897280851227 0 0.046094784911855709 -0.051545001392146114 0 0.044817972558344375 -0.050000083497803223 0 0.044653426629524907 -0.052071516461585587 0 0.045189744299247041 -0.048336875593969104 0 0.045167439845830305 -0.047319441100926535 0 0.045167439845830305 -0.047319441100926535 0 0.046017826695857841 -0.042845324212701354 0 0.045312142825790429 -0.040578418942094879 0 0.045922854353917048 -0.041856282807948175 0 0.047662432553100972 -0.041296028378269276 0 0.045922854353917048 -0.041856282807948175 0 0.047662432553100972 -0.041296028378269276 0 0.047735912495437675 -0.041853373873662697 0 0.048811646657760839 -0.041529395353695563 0 0.047662432553100972 -0.041296028378269276 0 0.047735912495437675 -0.041853373873662697 0 0.045317319073586222 -0.045752617173288587 0 0.045192041513082926 -0.0454064439746589 0 0.044942035042958094 -0.045697534638499814 0 0.048811646657760839 -0.041529395353695563 0 0.047735912495437675 -0.041853373873662697 0 0.04861993490716561 -0.041787114014810792 0 0.047735912495437675 -0.041853373873662697 0 0.047258278615081743 -0.042274448855306783 0 0.04861993490716561 -0.041787114014810792 0 0.045922854353917048 -0.041856282807948175 0 0.047735912495437675 -0.041853373873662697 0 0.047258278615081743 -0.042274448855306783 0 0.045922854353917048 -0.041856282807948175 0 0.047258278615081743 -0.042274448855306783 0 0.045061696155193488 -0.042511364640287867 0 0.047258278615081743 -0.042274448855306783 0 0.045061696155193488 -0.042511364640287867 0 0.047175049212842789 -0.042734784785722499 0 0.045061696155193488 -0.042511364640287867 0 0.042993563431802877 -0.041512332895638063 0 0.042271246715648227 -0.042499041766136766 0 0.045922854353917048 -0.041856282807948175 0 0.045061696155193488 -0.042511364640287867 0 0.042993563431802877 -0.041512332895638063 0 0.045312142825790429 -0.040578418942094879 0 0.045922854353917048 -0.041856282807948175 0 0.042993563431802877 -0.041512332895638063 0 0.045167439845830305 -0.047319441100926535 0 0.044084838519430555 -0.046267667952645315 0 0.046399771134687288 -0.050353695089032376 0 0.042543265721844664 -0.049995813678569076 0 0.044201036158913388 -0.051289518881786483 0 0.045167439845830305 -0.047319441100926535 0 0.042544327090090137 -0.050004612392256682 0 0.044201036158913388 -0.051289518881786483 0 0.043307193547771156 -0.051834033477962428 0 0.040340114373858364 -0.050003411257197705 0 0.042543265721844664 -0.049995813678569076 0 0.044201036158913388 -0.051289518881786483 0 0.040340114373858364 -0.050003411257197705 0 0.044084838519430555 -0.046267667952645315 0 0.04143465322226652 -0.046364235725697318 0 0.039841744926028801 -0.050687928061355213 0 0.040334679388488448 -0.049998234406760135 0 0.038660285795218276 -0.050613711109826154 0 0.039841744926028801 -0.050687928061355213 0 0.039857017851674052 -0.050801374909515445 0 0.040334679388488448 -0.049998234406760135 0 0.04143465322226652 -0.046364235725697318 0 0.040334816825439025 -0.050006294945763988 0 0.037308106838910733 -0.05122960045009825 0 0.039841744926028801 -0.050687928061355213 0 0.038660285795218276 -0.050613711109826154 0 0.040334679388488448 -0.049998234406760135 0 0.037663872823394631 -0.049999959468938267 0 0.038660285795218276 -0.050613711109826154 0 0.037663872823394631 -0.049999959468938267 0 0.038660285795218276 -0.050613711109826154 0 0.0378334324287872 -0.050609629085654452 0 0.037308106838910733 -0.05122960045009825 0 0.038660285795218276 -0.050613711109826154 0 0.0378334324287872 -0.050609629085654452 0 0.032596675841524307 -0.045506501524079708 0 0.04143465322226652 -0.046364235725697318 0 0.038122248568241056 -0.050857723622970766 0 0.039841744926028801 -0.050687928061355213 0 0.039857017851674052 -0.050801374909515445 0 0.033824384060942715 -0.04915232767809169 0 0.041199794260266667 -0.051215251987179668 0 0.037718381549787322 -0.049743970197648563 0 0.038122248568241056 -0.050857723622970766 0 0.039841744926028801 -0.050687928061355213 0 0.037660324938100911 -0.041711235626645714 0 0.038075252099706705 -0.040833931270027303 0 0.038176620965793717 -0.041512988759829283 0 0.037660324938100911 -0.041711235626645714 0 0.038113013270172781 -0.041721437769555142 0 0.038176620965793717 -0.041512988759829283 0 0.045061696155193488 -0.042511364640287867 0 0.042271246715648227 -0.042499041766136766 0 0.044519450528386413 -0.043013025469728586 0 0.04143465322226652 -0.046364235725697318 0 0.041736756021448385 -0.041276301512614313 0 0.045061696155193488 -0.042511364640287867 0 0.044519450528386413 -0.043013025469728586 0 0.045608390560979595 -0.043301986688701985 0 0.038113013270172781 -0.041721437769555142 0 0.038176620965793717 -0.041512988759829283 0 0.038164142822579343 -0.04153228182561524 0 0.041736756021448385 -0.041276301512614313 0 0.038468638450683615 -0.042097558599904807 0 0.029829935609440601 -0.041193880607780377 0 0.038468638450683615 -0.042097558599904807 0 0.044519450528386413 -0.043013025469728586 0 0.045792181636876622 -0.044228395429342551 0 0.045608390560979595 -0.043301986688701985 0 0.045792181636876622 -0.044228395429342551 0 0.045608390560979595 -0.043301986688701985 0 0.046006374508783296 -0.043599091742783903 0 0.045608390560979595 -0.043301986688701985 0 0.046006374508783296 -0.043599091742783903 0 0.047013720002767843 -0.043324762889148272 0 0.046006374508783296 -0.043599091742783903 0 0.047013720002767843 -0.043324762889148272 0 0.046019930085867335 -0.043219872956206974 0 0.047013720002767843 -0.043324762889148272 0 0.046019930085867335 -0.043219872956206974 0 0.045260158816632381 -0.041405672272669954 0 0.025906232803773549 -0.037783559346633182 0 0.026094535583857655 -0.037315873401178562 0 0.024468850189824035 -0.039007686009366563 0 0.046602671010270477 -0.044080842727449075 0 0.044528812943807131 -0.044426285790299357 0 0.045891822732531569 -0.043976322850789493 0 0.046006374508783296 -0.043599091742783903 0 0.046019930085867335 -0.043219872956206974 0 0.045891822732531569 -0.043976322850789493 0 0.031327493768384548 -0.040228972973588399 0 0.038468638450683615 -0.042097558599904807 0 0.045792181636876622 -0.044228395429342551 0 0.046006374508783296 -0.043599091742783903 0 0.045891822732531569 -0.043976322850789493 0 0.038468638450683615 -0.042097558599904807 0 0.043843501844524117 -0.0450901137418694 0 0.046602671010270477 -0.044080842727449075 0 0.04612345776416072 -0.042667521088476844 0 0.046773389526894395 -0.040692432829897617 0 0.031327493768384548 -0.040228972973588399 0 0.035427635632764153 -0.038143751226030809 0 0.026503408129701408 -0.037056766196467618 0 0.026163215817444484 -0.038351175188210476 0 0.025192859565158616 -0.036472967672312402 0 0.046602671010270477 -0.044080842727449075 0 0.045891822732531569 -0.043976322850789493 0 0.04612345776416072 -0.042667521088476844 0 0.04612345776416072 -0.042667521088476844 0 0.046773389526894395 -0.040692432829897617 0 0.045260158816632381 -0.041405672272669954 0 0.046019930085867335 -0.043219872956206974 0 0.045891822732531569 -0.043976322850789493 0 0.04612345776416072 -0.042667521088476844 0 0.035427635632764153 -0.038143751226030809 0 0.044986982280246918 -0.0375619062284741 0 0.026503408129701408 -0.037056766196467618 0 0.026387002286839229 -0.035959954955726001 0 0.025192859565158616 -0.036472967672312402 0 0.026387002286839229 -0.035959954955726001 0 0.025192859565158616 -0.036472967672312402 0 0.0261732831251003 -0.034355256270896695 0 0.046773389526894395 -0.040692432829897617 0 0.045260158816632381 -0.041405672272669954 0 0.04581160414340929 -0.038104674174293487 0 0.048714300587356679 -0.042076798359657143 0 0.044986982280246918 -0.0375619062284741 0 0.050827717593788409 -0.042762719811187809 0 0.051612569652236276 -0.040783164551781347 0 0.053817135268620871 -0.0400559711729645 0 0.047064989226432034 -0.042949013926525337 0 0.048714300587356679 -0.042076798359657143 0 0.046019930085867335 -0.043219872956206974 0 0.04612345776416072 -0.042667521088476844 0 0.045260158816632381 -0.041405672272669954 0 0.047013720002767843 -0.043324762889148272 0 0.050093681203275155 -0.041890297141290889 0 0.049011302558841195 -0.042074140675923549 0 0.047013720002767843 -0.043324762889148272 0 0.050827717593788409 -0.042762719811187809 0 0.050093681203275155 -0.041890297141290889 0 0.050827717593788409 -0.042762719811187809 0 0.050093681203275155 -0.041890297141290889 0 0.051612569652236276 -0.040783164551781347 0 0.050093681203275155 -0.041890297141290889 0 0.051612569652236276 -0.040783164551781347 0 0.051196654185532112 -0.039691152501182124 0 0.050093681203275155 -0.041890297141290889 0 0.050149025038153175 -0.040419004148751304 0 0.051196654185532112 -0.039691152501182124 0 0.050093681203275155 -0.041890297141290889 0 0.050149025038153175 -0.040419004148751304 0 0.049011302558841195 -0.042074140675923549 0 0.050149025038153175 -0.040419004148751304 0 0.049011302558841195 -0.042074140675923549 0 0.049581153467542993 -0.040750696667780459 0 0.049011302558841195 -0.042074140675923549 0 0.047175049212842789 -0.042734784785722499 0 0.048609075757664232 -0.041952713362063174 0 0.047013720002767843 -0.043324762889148272 0 0.049011302558841195 -0.042074140675923549 0 0.047175049212842789 -0.042734784785722499 0 0.045061696155193488 -0.042511364640287867 0 0.045608390560979595 -0.043301986688701985 0 0.047175049212842789 -0.042734784785722499 0 0.045608390560979595 -0.043301986688701985 0 0.047013720002767843 -0.043324762889148272 0 0.047175049212842789 -0.042734784785722499 0 0.047258278615081743 -0.042274448855306783 0 0.047175049212842789 -0.042734784785722499 0 0.048609075757664232 -0.041952713362063174 0 0.047258278615081743 -0.042274448855306783 0 0.04861993490716561 -0.041787114014810792 0 0.048609075757664232 -0.041952713362063174 0 0.04861993490716561 -0.041787114014810792 0 0.049301066745978755 -0.041144291960526165 0 0.048609075757664232 -0.041952713362063174 0 0.04861993490716561 -0.041787114014810792 0 0.049301066745978755 -0.041144291960526165 0 0.049434726088446047 -0.041173485288275996 0 0.049301066745978755 -0.041144291960526165 0 0.048609075757664232 -0.041952713362063174 0 0.049581153467542993 -0.040750696667780459 0 0.049011302558841195 -0.042074140675923549 0 0.048609075757664232 -0.041952713362063174 0 0.049581153467542993 -0.040750696667780459 0 0.050149025038153175 -0.040419004148751304 0 0.049581153467542993 -0.040750696667780459 0 0.050238004427441738 -0.038941760978636865 0 0.049581153467542993 -0.040750696667780459 0 0.049946385395257746 -0.039325720869116836 0 0.050238004427441738 -0.038941760978636865 0 0.049301066745978755 -0.041144291960526165 0 0.049581153467542993 -0.040750696667780459 0 0.049946385395257746 -0.039325720869116836 0 0.049301066745978755 -0.041144291960526165 0 0.049946385395257746 -0.039325720869116836 0 0.04987310566723395 -0.040209436292132077 0 0.049946385395257746 -0.039325720869116836 0 0.049999041534688607 -0.03867103020344409 0 0.050088512155216605 -0.037582429130197971 0 0.049946385395257746 -0.039325720869116836 0 0.049999041534688607 -0.03867103020344409 0 0.04987310566723395 -0.040209436292132077 0 0.049999041534688607 -0.03867103020344409 0 0.04987310566723395 -0.040209436292132077 0 0.049997643917154132 -0.04122193951724358 0 0.049997643917154132 -0.04122193951724358 0 0.049434726088446047 -0.041173485288275996 0 0.04941279866292262 -0.041305918392919111 0 0.04987310566723395 -0.040209436292132077 0 0.049997643917154132 -0.04122193951724358 0 0.049434726088446047 -0.041173485288275996 0 0.049999835543609428 -0.041223373667603674 0 0.048753593005027747 -0.043596970167479702 0 0.049301066745978755 -0.041144291960526165 0 0.04987310566723395 -0.040209436292132077 0 0.049434726088446047 -0.041173485288275996 0 0.048811646657760839 -0.041529395353695563 0 0.049074251325148845 -0.041486898504574821 0 0.04941279866292262 -0.041305918392919111 0 0.04861993490716561 -0.041787114014810792 0 0.049434726088446047 -0.041173485288275996 0 0.049074251325148845 -0.041486898504574821 0 0.048811646657760839 -0.041529395353695563 0 0.04861993490716561 -0.041787114014810792 0 0.049074251325148845 -0.041486898504574821 0 0.049434726088446047 -0.041173485288275996 0 0.049074251325148845 -0.041486898504574821 0 0.04941279866292262 -0.041305918392919111 0 0.050000085140926499 -0.041224070989626112 0 0.050572589132770657 -0.043031983709788696 0 0.049999860876411714 -0.04243044888058127 0 0.048753593005027747 -0.043596970167479702 0 0.049999229234890176 -0.042431980721533584 0 0.050383097840164946 -0.032937272933778815 0 0.049998956518593485 -0.033562016853138463 0 0.04999898982568967 -0.031007342062103968 0 0.050383097840164946 -0.032937272933778815 0 0.050737751787395209 -0.034949082009564807 0 0.05113551128053672 -0.032445583383296617 0 0.050383097840164946 -0.032937272933778815 0 0.05113551128053672 -0.032445583383296617 0 0.050341231725923502 -0.030521579105095412 0 0.050383097840164946 -0.032937272933778815 0 0.050234409701792292 -0.03544292021896487 0 0.050737751787395209 -0.034949082009564807 0 0.050383097840164946 -0.032937272933778815 0 0.049998956518593485 -0.033562016853138463 0 0.050234409701792292 -0.03544292021896487 0 0.049998956518593485 -0.033562016853138463 0 0.049998762252651693 -0.036116176547135108 0 0.050234409701792292 -0.03544292021896487 0 0.049999041534688607 -0.03867103020344409 0 0.049998762252651693 -0.036116176547135108 0 0.050088512155216605 -0.037582429130197971 0 0.049998762252651693 -0.036116176547135108 0 0.050088512155216605 -0.037582429130197971 0 0.050234409701792292 -0.03544292021896487 0 0.050088512155216605 -0.037582429130197971 0 0.050234409701792292 -0.03544292021896487 0 0.050328721168272042 -0.037237598358395602 0 0.049946385395257746 -0.039325720869116836 0 0.050088512155216605 -0.037582429130197971 0 0.050328721168272042 -0.037237598358395602 0 0.050234409701792292 -0.03544292021896487 0 0.050328721168272042 -0.037237598358395602 0 0.050737751787395209 -0.034949082009564807 0 0.050328721168272042 -0.037237598358395602 0 0.050744454080967151 -0.037093832584069578 0 0.050737751787395209 -0.034949082009564807 0 0.050328721168272042 -0.037237598358395602 0 0.050238004427441738 -0.038941760978636865 0 0.050744454080967151 -0.037093832584069578 0 0.049946385395257746 -0.039325720869116836 0 0.050328721168272042 -0.037237598358395602 0 0.050238004427441738 -0.038941760978636865 0 0.050238004427441738 -0.038941760978636865 0 0.050744454080967151 -0.037093832584069578 0 0.050930359915582611 -0.038378625781913825 0 0.050149025038153175 -0.040419004148751304 0 0.050238004427441738 -0.038941760978636865 0 0.050930359915582611 -0.038378625781913825 0 0.050744454080967151 -0.037093832584069578 0 0.051538002973927868 -0.036565336343960281 0 0.050930359915582611 -0.038378625781913825 0 0.050744454080967151 -0.037093832584069578 0 0.051586564089386076 -0.0344624178705756 0 0.051538002973927868 -0.036565336343960281 0 0.050744454080967151 -0.037093832584069578 0 0.051586564089386076 -0.0344624178705756 0 0.050737751787395209 -0.034949082009564807 0 0.051586564089386076 -0.0344624178705756 0 0.050737751787395209 -0.034949082009564807 0 0.05113551128053672 -0.032445583383296617 0 0.051586564089386076 -0.0344624178705756 0 0.05113551128053672 -0.032445583383296617 0 0.052243845579998227 -0.032392857835621146 0 0.051586564089386076 -0.0344624178705756 0 0.052798346181883178 -0.03357980342947333 0 0.052434806721924854 -0.035414253165427345 0 0.051586564089386076 -0.0344624178705756 0 0.052798346181883178 -0.03357980342947333 0 0.052243845579998227 -0.032392857835621146 0 0.052798346181883178 -0.03357980342947333 0 0.05358928594276139 -0.034264091049778525 0 0.052434806721924854 -0.035414253165427345 0 0.052798346181883178 -0.03357980342947333 0 0.05358928594276139 -0.034264091049778525 0 0.053601621385966969 -0.032897792336322194 0 0.05358928594276139 -0.034264091049778525 0 0.054231718812643707 -0.033005872850837358 0 0.053601621385966969 -0.032897792336322194 0 0.05358928594276139 -0.034264091049778525 0 0.053348380464951009 -0.035815110441785702 0 0.054480454403008145 -0.034601490023030632 0 0.05358928594276139 -0.034264091049778525 0 0.053348380464951009 -0.035815110441785702 0 0.052434806721924854 -0.035414253165427345 0 0.053348380464951009 -0.035815110441785702 0 0.052434806721924854 -0.035414253165427345 0 0.052129434455352522 -0.037615320655104457 0 0.051586564089386076 -0.0344624178705756 0 0.052434806721924854 -0.035414253165427345 0 0.051538002973927868 -0.036565336343960281 0 0.052434806721924854 -0.035414253165427345 0 0.051538002973927868 -0.036565336343960281 0 0.052129434455352522 -0.037615320655104457 0 0.051538002973927868 -0.036565336343960281 0 0.050930359915582611 -0.038378625781913825 0 0.052129434455352522 -0.037615320655104457 0 0.050149025038153175 -0.040419004148751304 0 0.050930359915582611 -0.038378625781913825 0 0.051196654185532112 -0.039691152501182124 0 0.050930359915582611 -0.038378625781913825 0 0.051196654185532112 -0.039691152501182124 0 0.052129434455352522 -0.037615320655104457 0 0.051196654185532112 -0.039691152501182124 0 0.052460905792224642 -0.039256878198888442 0 0.052129434455352522 -0.037615320655104457 0 0.051612569652236276 -0.040783164551781347 0 0.051196654185532112 -0.039691152501182124 0 0.052460905792224642 -0.039256878198888442 0 0.052460905792224642 -0.039256878198888442 0 0.052129434455352522 -0.037615320655104457 0 0.053610483820918431 -0.037964278062533566 0 0.053348380464951009 -0.035815110441785702 0 0.052129434455352522 -0.037615320655104457 0 0.053610483820918431 -0.037964278062533566 0 0.053229843065794341 -0.038115805591427611 0 0.053235112386221313 -0.04038305383304721 0 0.055035423294811044 -0.037852075444812082 0 0.054055000407429152 -0.038998652746388064 0 0.044986982280246918 -0.0375619062284741 0 0.052460905792224642 -0.039256878198888442 0 0.053610483820918431 -0.037964278062533566 0 0.053817135268620871 -0.0400559711729645 0 0.051612569652236276 -0.040783164551781347 0 0.052460905792224642 -0.039256878198888442 0 0.053817135268620871 -0.0400559711729645 0 0.025192859565158616 -0.036472967672312402 0 0.024055631365387884 -0.033511650472591824 0 0.0261732831251003 -0.034355256270896695 0 0.024055631365387884 -0.033511650472591824 0 0.0261732831251003 -0.034355256270896695 0 0.02567363962832131 -0.032187992729058729 0 0.044986982280246918 -0.0375619062284741 0 0.039295781653788296 -0.034059070590020328 0 0.02567363962832131 -0.032187992729058729 0 0.024837663569417443 -0.030252411754598606 0 0.026403192523288765 -0.02986384804029435 0 0.024055631365387884 -0.033511650472591824 0 0.02567363962832131 -0.032187992729058729 0 0.024837663569417443 -0.030252411754598606 0 0.039295781653788296 -0.034059070590020328 0 0.041466539572045567 -0.031176264276088449 0 0.055035423294811044 -0.037852075444812082 0 0.054417130053259495 -0.036248111080797812 0 0.056252910070152963 -0.034816445204681364 0 0.024837663569417443 -0.030252411754598606 0 0.025589280201414193 -0.027582786828465683 0 0.026403192523288765 -0.02986384804029435 0 0.053229843065794341 -0.038115805591427611 0 0.055035423294811044 -0.037852075444812082 0 0.054417130053259495 -0.036248111080797812 0 0.053348380464951009 -0.035815110441785702 0 0.053229843065794341 -0.038115805591427611 0 0.054417130053259495 -0.036248111080797812 0 0.05301700232512449 -0.035800603524363463 0 0.054055000407429152 -0.038998652746388064 0 0.053348380464951009 -0.035815110441785702 0 0.054417130053259495 -0.036248111080797812 0 0.054480454403008145 -0.034601490023030632 0 0.054417130053259495 -0.036248111080797812 0 0.054480454403008145 -0.034601490023030632 0 0.056252910070152963 -0.034816445204681364 0 0.054480454403008145 -0.034601490023030632 0 0.056252910070152963 -0.034816445204681364 0 0.055464672701250446 -0.032683797444432498 0 0.05358928594276139 -0.034264091049778525 0 0.054480454403008145 -0.034601490023030632 0 0.054231718812643707 -0.033005872850837358 0 0.056252910070152963 -0.034816445204681364 0 0.05690608946956488 -0.032148052465359074 0 0.055464672701250446 -0.032683797444432498 0 0.05690608946956488 -0.032148052465359074 0 0.055464672701250446 -0.032683797444432498 0 0.05557347627485943 -0.030969948286314223 0 0.041466539572045567 -0.031176264276088449 0 0.036203388227697454 -0.02759266436118318 0 0.054480454403008145 -0.034601490023030632 0 0.054231718812643707 -0.033005872850837358 0 0.055464672701250446 -0.032683797444432498 0 0.054759730756078283 -0.031982822983912258 0 0.055464672701250446 -0.032683797444432498 0 0.05557347627485943 -0.030969948286314223 0 0.054231718812643707 -0.033005872850837358 0 0.054759730756078283 -0.031982822983912258 0 0.05410945569181199 -0.031683244001953249 0 0.054231718812643707 -0.033005872850837358 0 0.054759730756078283 -0.031982822983912258 0 0.055464672701250446 -0.032683797444432498 0 0.054759730756078283 -0.031982822983912258 0 0.054660717896884391 -0.030992527371547292 0 0.05557347627485943 -0.030969948286314223 0 0.054759730756078283 -0.031982822983912258 0 0.054660717896884391 -0.030992527371547292 0 0.05410945569181199 -0.031683244001953249 0 0.054660717896884391 -0.030992527371547292 0 0.05557347627485943 -0.030969948286314223 0 0.054563513922935444 -0.029900452051970852 0 0.054660717896884391 -0.030992527371547292 0 0.054563513922935444 -0.029900452051970852 0 0.054362903587838872 -0.030381032481238773 0 0.046003082606489554 -0.027446119278740223 0 0.044844105958582993 -0.024869521700920702 0 0.034350324441310379 -0.025067777068673535 0 0.033747436183396963 -0.022219940882022851 0 0.034361357845012555 -0.022294582288894086 0 0.036203388227697454 -0.02759266436118318 0 0.046003082606489554 -0.027446119278740223 0 0.033747436183396963 -0.022219940882022851 0 0.034125573168439893 -0.020677698156008305 0 0.034361357845012555 -0.022294582288894086 0 0.034125573168439893 -0.020677698156008305 0 0.034581899399344473 -0.019701039280433704 0 0.032855002555862031 -0.020923012610586152 0 0.038803080894033018 -0.022184827614131677 0 0.040158470362152657 -0.021509274676932352 0 0.040894868913317055 -0.021304403828746054 0 0.038803080894033018 -0.022184827614131677 0 0.039256076621462806 -0.022510577070229541 0 0.040158470362152657 -0.021509274676932352 0 0.033747436183396963 -0.022219940882022851 0 0.034125573168439893 -0.020677698156008305 0 0.034501164475936839 -0.019713208523828629 0 0.035551554095541157 -0.020552682106261842 0 0.044844105958582993 -0.024869521700920702 0 0.034125573168439893 -0.020677698156008305 0 0.034581899399344473 -0.019701039280433704 0 0.034501164475936839 -0.019713208523828629 0 0.044844105958582993 -0.024869521700920702 0 0.048386161958593826 -0.024851614969642711 0 0.054618769326642259 -0.029932915620691461 0 0.0537788832890553 -0.028346996392872546 0 0.053958727183725227 -0.030026048646641386 0 0.039256076621462806 -0.022510577070229541 0 0.040158470362152657 -0.021509274676932352 0 0.041771944529821838 -0.020446946778158916 0 0.040158470362152657 -0.021509274676932352 0 0.042536124260463173 -0.020865371259971462 0 0.040894868913317055 -0.021304403828746054 0 0.040158470362152657 -0.021509274676932352 0 0.041771944529821838 -0.020446946778158916 0 0.042536124260463173 -0.020865371259971462 0 0.0537788832890553 -0.028346996392872546 0 0.052814337764990268 -0.028443028313656964 0 0.052996788384821962 -0.026370352662218346 0 0.048386161958593826 -0.024851614969642711 0 0.048769226053894679 -0.022850798601163264 0 0.041771944529821838 -0.020446946778158916 0 0.042536124260463173 -0.020865371259971462 0 0.045272877189864613 -0.020026372634592341 0 0.0537788832890553 -0.028346996392872546 0 0.053373084697713659 -0.029759114084206638 0 0.052814337764990268 -0.028443028313656964 0 0.0537788832890553 -0.028346996392872546 0 0.053373084697713659 -0.029759114084206638 0 0.053958727183725227 -0.030026048646641386 0 0.053373084697713659 -0.029759114084206638 0 0.052561104070909928 -0.029887373076798975 0 0.052814337764990268 -0.028443028313656964 0 0.053373084697713659 -0.029759114084206638 0 0.052805924274488401 -0.030913900331053925 0 0.052561104070909928 -0.029887373076798975 0 0.052805924274488401 -0.030913900331053925 0 0.053667099080216031 -0.030760773208643798 0 0.053269810133197738 -0.031979318858747809 0 0.053373084697713659 -0.029759114084206638 0 0.052805924274488401 -0.030913900331053925 0 0.053667099080216031 -0.030760773208643798 0 0.053958727183725227 -0.030026048646641386 0 0.054362903587838872 -0.030381032481238773 0 0.053667099080216031 -0.030760773208643798 0 0.053373084697713659 -0.029759114084206638 0 0.053958727183725227 -0.030026048646641386 0 0.053667099080216031 -0.030760773208643798 0 0.054618769326642259 -0.029932915620691461 0 0.053958727183725227 -0.030026048646641386 0 0.054362903587838872 -0.030381032481238773 0 0.044844105958582993 -0.024869521700920702 0 0.048208819485341288 -0.026602382745393959 0 0.054362903587838872 -0.030381032481238773 0 0.053667099080216031 -0.030760773208643798 0 0.05410945569181199 -0.031683244001953249 0 0.054660717896884391 -0.030992527371547292 0 0.054362903587838872 -0.030381032481238773 0 0.05410945569181199 -0.031683244001953249 0 0.053667099080216031 -0.030760773208643798 0 0.05410945569181199 -0.031683244001953249 0 0.053269810133197738 -0.031979318858747809 0 0.05410945569181199 -0.031683244001953249 0 0.053601621385966969 -0.032897792336322194 0 0.053269810133197738 -0.031979318858747809 0 0.054231718812643707 -0.033005872850837358 0 0.05410945569181199 -0.031683244001953249 0 0.053601621385966969 -0.032897792336322194 0 0.052798346181883178 -0.03357980342947333 0 0.053601621385966969 -0.032897792336322194 0 0.053269810133197738 -0.031979318858747809 0 0.052805924274488401 -0.030913900331053925 0 0.053269810133197738 -0.031979318858747809 0 0.052243845579998227 -0.032392857835621146 0 0.052798346181883178 -0.03357980342947333 0 0.053269810133197738 -0.031979318858747809 0 0.052243845579998227 -0.032392857835621146 0 0.052805924274488401 -0.030913900331053925 0 0.052243845579998227 -0.032392857835621146 0 0.051813609798277843 -0.030725065490455561 0 0.05113551128053672 -0.032445583383296617 0 0.052243845579998227 -0.032392857835621146 0 0.051813609798277843 -0.030725065490455561 0 0.05113551128053672 -0.032445583383296617 0 0.051096234521579319 -0.030733344423572298 0 0.051813609798277843 -0.030725065490455561 0 0.051096234521579319 -0.030733344423572298 0 0.051813609798277843 -0.030725065490455561 0 0.051135599901502085 -0.029288259150066814 0 0.051886958572990166 -0.029386970102029078 0 0.051813609798277843 -0.030725065490455561 0 0.051135599901502085 -0.029288259150066814 0 0.051886958572990166 -0.029386970102029078 0 0.051813609798277843 -0.030725065490455561 0 0.052561104070909928 -0.029887373076798975 0 0.052805924274488401 -0.030913900331053925 0 0.051813609798277843 -0.030725065490455561 0 0.052561104070909928 -0.029887373076798975 0 0.051886958572990166 -0.029386970102029078 0 0.052814337764990268 -0.028443028313656964 0 0.051882395992969788 -0.027975871209943146 0 0.051886958572990166 -0.029386970102029078 0 0.052561104070909928 -0.029887373076798975 0 0.052814337764990268 -0.028443028313656964 0 0.052814337764990268 -0.028443028313656964 0 0.052996788384821962 -0.026370352662218346 0 0.051882395992969788 -0.027975871209943146 0 0.048769226053894679 -0.022850798601163264 0 0.050984948281847221 -0.027391085954554119 0 0.049912389374342857 -0.023929909315539656 0 0.049799923601325263 -0.02632835792836621 0 0.048702582476690473 -0.022511979436670784 0 0.049799923601325263 -0.02632835792836621 0 0.049267905603327528 -0.024442888337065396 0 0.048702582476690473 -0.022511979436670784 0 0.050984948281847221 -0.027391085954554119 0 0.050561841754492486 -0.028955072106758288 0 0.051886958572990166 -0.029386970102029078 0 0.051882395992969788 -0.027975871209943146 0 0.051135599901502085 -0.029288259150066814 0 0.049799923601325263 -0.02632835792836621 0 0.049749715583455041 -0.026646866993311032 0 0.050141580650787554 -0.028501789294579662 0 0.049799923601325263 -0.02632835792836621 0 0.049749715583455041 -0.026646866993311032 0 0.049267905603327528 -0.024442888337065396 0 0.049267905603327528 -0.024442888337065396 0 0.049997558764494243 -0.025895561272244325 0 0.049166335364940542 -0.023083541411190209 0 0.049749715583455041 -0.026646866993311032 0 0.049267905603327528 -0.024442888337065396 0 0.049997558764494243 -0.025895561272244325 0 0.049749715583455041 -0.026646866993311032 0 0.049997558764494243 -0.025895561272244325 0 0.049998726749199543 -0.028452611560510845 0 0.049749715583455041 -0.026646866993311032 0 0.049998726749199543 -0.028452611560510845 0 0.050141580650787554 -0.028501789294579662 0 0.049998726749199543 -0.028452611560510845 0 0.050141580650787554 -0.028501789294579662 0 0.050341231725923502 -0.030521579105095412 0 0.051096234521579319 -0.030733344423572298 0 0.051135599901502085 -0.029288259150066814 0 0.050341231725923502 -0.030521579105095412 0 0.050561841754492486 -0.028955072106758288 0 0.050222868929557282 -0.030372537882356193 0 0.05113551128053672 -0.032445583383296617 0 0.051096234521579319 -0.030733344423572298 0 0.050341231725923502 -0.030521579105095412 0 0.050383097840164946 -0.032937272933778815 0 0.050341231725923502 -0.030521579105095412 0 0.04999898982568967 -0.031007342062103968 0 0.049998726749199543 -0.028452611560510845 0 0.050341231725923502 -0.030521579105095412 0 0.04999898982568967 -0.031007342062103968 0 0.030442535899102518 -0.030407592967699085 0 0.030259253583427386 -0.031977699250505441 0 0.029985273302868064 -0.031781525800548008 0 0.030442535899102518 -0.030407592967699085 0 0.029985273302868064 -0.031781525800548008 0 0.029872653281246549 -0.030469960325095746 0 0.030442535899102518 -0.030407592967699085 0 0.029872653281246549 -0.030469960325095746 0 0.030629481566939419 -0.028447223660094955 0 0.030442535899102518 -0.030407592967699085 0 0.031078647415543413 -0.028552552152402339 0 0.030629481566939419 -0.028447223660094955 0 0.030442535899102518 -0.030407592967699085 0 0.030782359366387811 -0.030411135409294871 0 0.031078647415543413 -0.028552552152402339 0 0.030782359366387811 -0.030411135409294871 0 0.030948671648597277 -0.031475637607083232 0 0.030259253583427386 -0.031977699250505441 0 0.030782359366387811 -0.030411135409294871 0 0.030948671648597277 -0.031475637607083232 0 0.031552766216418039 -0.029119067429088475 0 0.031807758187973989 -0.030660673317736191 0 0.030948671648597277 -0.031475637607083232 0 0.031552766216418039 -0.029119067429088475 0 0.030948671648597277 -0.031475637607083232 0 0.030371772102868941 -0.033390482382995544 0 0.030259253583427386 -0.031977699250505441 0 0.030442535899102518 -0.030407592967699085 0 0.030782359366387811 -0.030411135409294871 0 0.030259253583427386 -0.031977699250505441 0 0.030259253583427386 -0.031977699250505441 0 0.029611311118787811 -0.033968292427924575 0 0.029985273302868064 -0.031781525800548008 0 0.030371772102868941 -0.033390482382995544 0 0.030259253583427386 -0.031977699250505441 0 0.029611311118787811 -0.033968292427924575 0 0.03022279676668289 -0.03550370068493932 0 0.030371772102868941 -0.033390482382995544 0 0.029611311118787811 -0.033968292427924575 0 0.029663468361185219 -0.037238413686734306 0 0.029322443927650908 -0.03567185971404712 0 0.029421989800642645 -0.03749667543445856 0 0.028429313859592367 -0.039087078537986888 0 0.028809022720751868 -0.037222773480893014 0 0.03022279676668289 -0.03550370068493932 0 0.029421989800642645 -0.03749667543445856 0 0.029611311118787811 -0.033968292427924575 0 0.028429313859592367 -0.039087078537986888 0 0.028809022720751868 -0.037222773480893014 0 0.02853836627333408 -0.037324312945532574 0 0.028226498462874009 -0.038792842430236542 0 0.02853836627333408 -0.037324312945532574 0 0.028215837655127897 -0.03669932086582961 0 0.029322443927650908 -0.03567185971404712 0 0.029367979855995489 -0.033795119263872631 0 0.028809022720751868 -0.037222773480893014 0 0.02853836627333408 -0.037324312945532574 0 0.028767603628741454 -0.035797273786787272 0 0.028767603628741454 -0.035797273786787272 0 0.028215837655127897 -0.03669932086582961 0 0.028668614843433748 -0.033469267187032935 0 0.029367979855995489 -0.033795119263872631 0 0.029137786756558742 -0.031885561773725757 0 0.02853836627333408 -0.037324312945532574 0 0.028767603628741454 -0.035797273786787272 0 0.028215837655127897 -0.03669932086582961 0 0.027172794791385995 -0.037770389533629829 0 0.028215837655127897 -0.03669932086582961 0 0.027431790820447513 -0.034878513314593428 0 0.027172794791385995 -0.037770389533629829 0 0.027431790820447513 -0.034878513314593428 0 0.026164002242992857 -0.035826902181958421 0 0.027431790820447513 -0.034878513314593428 0 0.027815617949390747 -0.032615765807841486 0 0.028668614843433748 -0.033469267187032935 0 0.028215837655127897 -0.03669932086582961 0 0.027431790820447513 -0.034878513314593428 0 0.028668614843433748 -0.033469267187032935 0 0.027801727556341214 -0.035800411510850866 0 0.0261732831251003 -0.034355256270896695 0 0.028196137271576077 -0.031995285598886682 0 0.026173047246024848 -0.035712939470595825 0 0.026814322978967332 -0.031998045991726766 0 0.024541049414572403 -0.035727481931126064 0 0.026164002242992857 -0.035826902181958421 0 0.025348038799667936 -0.031931610681760952 0 0.027431790820447513 -0.034878513314593428 0 0.026164002242992857 -0.035826902181958421 0 0.025348038799667936 -0.031931610681760952 0 0.027431790820447513 -0.034878513314593428 0 0.027815617949390747 -0.032615765807841486 0 0.025348038799667936 -0.031931610681760952 0 0.0261732831251003 -0.034355256270896695 0 0.02567363962832131 -0.032187992729058729 0 0.028196137271576077 -0.031995285598886682 0 0.02567363962832131 -0.032187992729058729 0 0.028196137271576077 -0.031995285598886682 0 0.026403192523288765 -0.02986384804029435 0 0.028196137271576077 -0.031995285598886682 0 0.026403192523288765 -0.02986384804029435 0 0.027678126330782343 -0.027932514121700627 0 0.026814322978967332 -0.031998045991726766 0 0.027525007717843577 -0.028289231398983657 0 0.027815617949390747 -0.032615765807841486 0 0.025348038799667936 -0.031931610681760952 0 0.028360365970943949 -0.029888027702212262 0 0.025348038799667936 -0.031931610681760952 0 0.027678126330782343 -0.027932514121700627 0 0.028360365970943949 -0.029888027702212262 0 0.027678126330782343 -0.027932514121700627 0 0.028956667976586244 -0.027769324548728175 0 0.02883941306565083 -0.026440718056958485 0 0.027678126330782343 -0.027932514121700627 0 0.028360365970943949 -0.029888027702212262 0 0.028956667976586244 -0.027769324548728175 0 0.025589280201414193 -0.027582786828465683 0 0.026403192523288765 -0.02986384804029435 0 0.027678126330782343 -0.027932514121700627 0 0.025589280201414193 -0.027582786828465683 0 0.027678126330782343 -0.027932514121700627 0 0.027830119740797455 -0.025531019821564267 0 0.027815617949390747 -0.032615765807841486 0 0.028668614843433748 -0.033469267187032935 0 0.028360365970943949 -0.029888027702212262 0 0.029872653281246549 -0.030469960325095746 0 0.028360365970943949 -0.029888027702212262 0 0.029963793936325443 -0.028299423654472331 0 0.029137786756558742 -0.031885561773725757 0 0.028176945225820586 -0.030150300954927007 0 0.028360365970943949 -0.029888027702212262 0 0.028956667976586244 -0.027769324548728175 0 0.029963793936325443 -0.028299423654472331 0 0.028956667976586244 -0.027769324548728175 0 0.029963793936325443 -0.028299423654472331 0 0.029912888408130271 -0.02640558375961867 0 0.029872653281246549 -0.030469960325095746 0 0.029963793936325443 -0.028299423654472331 0 0.030629481566939419 -0.028447223660094955 0 0.029963793936325443 -0.028299423654472331 0 0.030654116354571038 -0.026616596760304822 0 0.029912888408130271 -0.02640558375961867 0 0.029963793936325443 -0.028299423654472331 0 0.030654116354571038 -0.026616596760304822 0 0.030629481566939419 -0.028447223660094955 0 0.030654116354571038 -0.026616596760304822 0 0.029912888408130271 -0.02640558375961867 0 0.0306556070700169 -0.024791017586637206 0 0.029912888408130271 -0.02640558375961867 0 0.0306556070700169 -0.024791017586637206 0 0.029789209565995921 -0.024586888105517658 0 0.030654116354571038 -0.026616596760304822 0 0.0306556070700169 -0.024791017586637206 0 0.031298930970602219 -0.025058565792658975 0 0.025589280201414193 -0.027582786828465683 0 0.026668095224377558 -0.024538316217728187 0 0.027830119740797455 -0.025531019821564267 0 0.027830119740797455 -0.025531019821564267 0 0.029789209565995921 -0.024586888105517658 0 0.029189883398969264 -0.023301921575218907 0 0.02747482773475354 -0.023391788458152617 0 0.027830119740797455 -0.025531019821564267 0 0.029189883398969264 -0.023301921575218907 0 0.036203388227697454 -0.02759266436118318 0 0.026718602587742266 -0.023540194649597383 0 0.027678126330782343 -0.027932514121700627 0 0.027830119740797455 -0.025531019821564267 0 0.02883941306565083 -0.026440718056958485 0 0.027830119740797455 -0.025531019821564267 0 0.02883941306565083 -0.026440718056958485 0 0.029789209565995921 -0.024586888105517658 0 0.028956667976586244 -0.027769324548728175 0 0.029912888408130271 -0.02640558375961867 0 0.02883941306565083 -0.026440718056958485 0 0.029912888408130271 -0.02640558375961867 0 0.02883941306565083 -0.026440718056958485 0 0.029789209565995921 -0.024586888105517658 0 0.0306556070700169 -0.024791017586637206 0 0.029789209565995921 -0.024586888105517658 0 0.030581742876215331 -0.023075227353808979 0 0.029789209565995921 -0.024586888105517658 0 0.029189883398969264 -0.023301921575218907 0 0.030581742876215331 -0.023075227353808979 0 0.036203388227697454 -0.02759266436118318 0 0.031755519916322882 -0.021513340094536398 0 0.029189883398969264 -0.023301921575218907 0 0.029882486866366752 -0.021202774113002885 0 0.030581742876215331 -0.023075227353808979 0 0.02747482773475354 -0.023391788458152617 0 0.029189883398969264 -0.023301921575218907 0 0.029882486866366752 -0.021202774113002885 0 0.031755519916322882 -0.021513340094536398 0 0.032671080442601565 -0.021389046793611546 0 0.034125573168439893 -0.020677698156008305 0 0.034361357845012555 -0.022294582288894086 0 0.032855002555862031 -0.020923012610586152 0 0.029882486866366752 -0.021202774113002885 0 0.030581742876215331 -0.023075227353808979 0 0.031787235531636052 -0.021802928608613815 0 0.031787235531636052 -0.021802928608613815 0 0.032048103897426163 -0.022349975732018336 0 0.033012451765843248 -0.021217151163578255 0 0.031787235531636052 -0.021802928608613815 0 0.032855002555862031 -0.020923012610586152 0 0.033012451765843248 -0.021217151163578255 0 0.029882486866366752 -0.021202774113002885 0 0.031787235531636052 -0.021802928608613815 0 0.032855002555862031 -0.020923012610586152 0 0.031298930970602219 -0.025058565792658975 0 0.03139892417347858 -0.02347735377039039 0 0.032083760813166863 -0.023494978704130611 0 0.0306556070700169 -0.024791017586637206 0 0.031298930970602219 -0.025058565792658975 0 0.03139892417347858 -0.02347735377039039 0 0.0306556070700169 -0.024791017586637206 0 0.030581742876215331 -0.023075227353808979 0 0.03139892417347858 -0.02347735377039039 0 0.030581742876215331 -0.023075227353808979 0 0.031787235531636052 -0.021802928608613815 0 0.03139892417347858 -0.02347735377039039 0 0.031787235531636052 -0.021802928608613815 0 0.03139892417347858 -0.02347735377039039 0 0.032048103897426163 -0.022349975732018336 0 0.03139892417347858 -0.02347735377039039 0 0.032048103897426163 -0.022349975732018336 0 0.032083760813166863 -0.023494978704130611 0 0.032083760813166863 -0.023494978704130611 0 0.0326084442016253 -0.024173983011481794 0 0.03185041172732643 -0.025349372142760201 0 0.0326084442016253 -0.024173983011481794 0 0.03185041172732643 -0.025349372142760201 0 0.032285089666647816 -0.025624144714808735 0 0.031298930970602219 -0.025058565792658975 0 0.032083760813166863 -0.023494978704130611 0 0.03185041172732643 -0.025349372142760201 0 0.030654116354571038 -0.026616596760304822 0 0.031298930970602219 -0.025058565792658975 0 0.031225790614231311 -0.026839231744060148 0 0.031298930970602219 -0.025058565792658975 0 0.03185041172732643 -0.025349372142760201 0 0.031225790614231311 -0.026839231744060148 0 0.031225790614231311 -0.026839231744060148 0 0.031078647415543413 -0.028552552152402339 0 0.03174687478241997 -0.027151599445997796 0 0.03185041172732643 -0.025349372142760201 0 0.031225790614231311 -0.026839231744060148 0 0.03174687478241997 -0.027151599445997796 0 0.031225790614231311 -0.026839231744060148 0 0.031078647415543413 -0.028552552152402339 0 0.030629481566939419 -0.028447223660094955 0 0.030654116354571038 -0.026616596760304822 0 0.031225790614231311 -0.026839231744060148 0 0.030629481566939419 -0.028447223660094955 0 0.031078647415543413 -0.028552552152402339 0 0.031552766216418039 -0.029119067429088475 0 0.03174687478241997 -0.027151599445997796 0 0.030782359366387811 -0.030411135409294871 0 0.031078647415543413 -0.028552552152402339 0 0.031552766216418039 -0.029119067429088475 0 0.03174687478241997 -0.027151599445997796 0 0.032057158373999695 -0.027767314504594045 0 0.032504737485431125 -0.026552784538268103 0 0.031552766216418039 -0.029119067429088475 0 0.03174687478241997 -0.027151599445997796 0 0.032057158373999695 -0.027767314504594045 0 0.032419592979764413 -0.028110932440831769 0 0.031552766216418039 -0.029119067429088475 0 0.032057158373999695 -0.027767314504594045 0 0.032419592979764413 -0.028110932440831769 0 0.032057158373999695 -0.027767314504594045 0 0.032504737485431125 -0.026552784538268103 0 0.03174687478241997 -0.027151599445997796 0 0.032504737485431125 -0.026552784538268103 0 0.032285089666647816 -0.025624144714808735 0 0.03185041172732643 -0.025349372142760201 0 0.03174687478241997 -0.027151599445997796 0 0.032285089666647816 -0.025624144714808735 0 0.0326084442016253 -0.024173983011481794 0 0.032285089666647816 -0.025624144714808735 0 0.033027143838178528 -0.024979851875301478 0 0.03316484481136376 -0.026195453444884335 0 0.032504737485431125 -0.026552784538268103 0 0.033027143838178528 -0.024979851875301478 0 0.032504737485431125 -0.026552784538268103 0 0.032285089666647816 -0.025624144714808735 0 0.033027143838178528 -0.024979851875301478 0 0.033027143838178528 -0.024979851875301478 0 0.033595405777865503 -0.024060596524923771 0 0.033171329829943065 -0.023698528102404599 0 0.0326084442016253 -0.024173983011481794 0 0.033027143838178528 -0.024979851875301478 0 0.033171329829943065 -0.023698528102404599 0 0.0326084442016253 -0.024173983011481794 0 0.033171329829943065 -0.023698528102404599 0 0.033286652592090904 -0.022441776668799183 0 0.033171329829943065 -0.023698528102404599 0 0.03371205203035104 -0.022845428260743841 0 0.033286652592090904 -0.022441776668799183 0 0.033595405777865503 -0.024060596524923771 0 0.033171329829943065 -0.023698528102404599 0 0.03371205203035104 -0.022845428260743841 0 0.03371205203035104 -0.022845428260743841 0 0.03416281037641733 -0.021390314869476647 0 0.034359250817741889 -0.021675824824612146 0 0.03371205203035104 -0.022845428260743841 0 0.033940334487093313 -0.021595668853082704 0 0.033286652592090904 -0.022441776668799183 0 0.03371205203035104 -0.022845428260743841 0 0.033940334487093313 -0.021595668853082704 0 0.03416281037641733 -0.021390314869476647 0 0.033940334487093313 -0.021595668853082704 0 0.03416281037641733 -0.021390314869476647 0 0.03458297011908032 -0.020861137282699067 0 0.034065904539771714 -0.02126425943655319 0 0.034084525628862078 -0.020980140180774941 0 0.034679432456581796 -0.020643957972464017 0 0.034065904539771714 -0.02126425943655319 0 0.03458297011908032 -0.020861137282699067 0 0.034679432456581796 -0.020643957972464017 0 0.033940334487093313 -0.021595668853082704 0 0.034065904539771714 -0.02126425943655319 0 0.03458297011908032 -0.020861137282699067 0 0.033940334487093313 -0.021595668853082704 0 0.034065904539771714 -0.02126425943655319 0 0.033286652592090904 -0.022441776668799183 0 0.034065904539771714 -0.02126425943655319 0 0.033286652592090904 -0.022441776668799183 0 0.033467866383799096 -0.021575983791691383 0 0.034065904539771714 -0.02126425943655319 0 0.033467866383799096 -0.021575983791691383 0 0.034084525628862078 -0.020980140180774941 0 0.032875027270630866 -0.022346869794012184 0 0.033286652592090904 -0.022441776668799183 0 0.033467866383799096 -0.021575983791691383 0 0.032875027270630866 -0.022346869794012184 0 0.033286652592090904 -0.022441776668799183 0 0.032684470538216388 -0.023135504546073854 0 0.032083760813166863 -0.023494978704130611 0 0.0326084442016253 -0.024173983011481794 0 0.032684470538216388 -0.023135504546073854 0 0.0326084442016253 -0.024173983011481794 0 0.033286652592090904 -0.022441776668799183 0 0.032684470538216388 -0.023135504546073854 0 0.032083760813166863 -0.023494978704130611 0 0.032875027270630866 -0.022346869794012184 0 0.032684470538216388 -0.023135504546073854 0 0.032083760813166863 -0.023494978704130611 0 0.032875027270630866 -0.022346869794012184 0 0.032700845499420067 -0.021908441386190004 0 0.032048103897426163 -0.022349975732018336 0 0.032083760813166863 -0.023494978704130611 0 0.032700845499420067 -0.021908441386190004 0 0.032048103897426163 -0.022349975732018336 0 0.032700845499420067 -0.021908441386190004 0 0.033012451765843248 -0.021217151163578255 0 0.032700845499420067 -0.021908441386190004 0 0.033012451765843248 -0.021217151163578255 0 0.033566683574729542 -0.02123768569147803 0 0.032700845499420067 -0.021908441386190004 0 0.033467866383799096 -0.021575983791691383 0 0.033566683574729542 -0.02123768569147803 0 0.032875027270630866 -0.022346869794012184 0 0.032700845499420067 -0.021908441386190004 0 0.033467866383799096 -0.021575983791691383 0 0.032855002555862031 -0.020923012610586152 0 0.033012451765843248 -0.021217151163578255 0 0.034298007147297221 -0.020206996641456473 0 0.033012451765843248 -0.021217151163578255 0 0.034733153054978691 -0.020892529658358017 0 0.034298007147297221 -0.020206996641456473 0 0.034733153054978691 -0.020892529658358017 0 0.037207866523789428 -0.0219190577499099 0 0.037004991808798571 -0.021224334357346511 0 0.034754547133297363 -0.02110545022674136 0 0.035822405500068988 -0.021177198807676791 0 0.034733153054978691 -0.020892529658358017 0 0.037004991808798571 -0.021224334357346511 0 0.035880614097207129 -0.020847972294330819 0 0.033012451765843248 -0.021217151163578255 0 0.034733153054978691 -0.020892529658358017 0 0.033566683574729542 -0.02123768569147803 0 0.034733153054978691 -0.020892529658358017 0 0.034240175401948028 -0.020651046029270433 0 0.034765476797118763 -0.020632664790470528 0 0.034733153054978691 -0.020892529658358017 0 0.034240175401948028 -0.020651046029270433 0 0.033566683574729542 -0.02123768569147803 0 0.034765476797118763 -0.020632664790470528 0 0.035149537116062626 -0.02041469607090483 0 0.035880614097207129 -0.020847972294330819 0 0.034733153054978691 -0.020892529658358017 0 0.034765476797118763 -0.020632664790470528 0 0.035880614097207129 -0.020847972294330819 0 0.033467866383799096 -0.021575983791691383 0 0.033566683574729542 -0.02123768569147803 0 0.034084525628862078 -0.020980140180774941 0 0.034240175401948028 -0.020651046029270433 0 0.034084525628862078 -0.020980140180774941 0 0.034689595619202575 -0.020270636237764855 0 0.034240175401948028 -0.020651046029270433 0 0.033566683574729542 -0.02123768569147803 0 0.034084525628862078 -0.020980140180774941 0 0.034084525628862078 -0.020980140180774941 0 0.034689595619202575 -0.020270636237764855 0 0.034679432456581796 -0.020643957972464017 0 0.034693116702163539 -0.020290361413920453 0 0.035842013273140357 -0.01966112771219267 0 0.034240175401948028 -0.020651046029270433 0 0.034542362472886744 -0.019881006746861069 0 0.034325724839150869 -0.019467215041123215 0 0.034240175401948028 -0.020651046029270433 0 0.034689595619202575 -0.020270636237764855 0 0.034542362472886744 -0.019881006746861069 0 0.034542362472886744 -0.019881006746861069 0 0.034942303462066622 -0.018949521959881185 0 0.034325724839150869 -0.019467215041123215 0 0.034942303462066622 -0.018949521959881185 0 0.034325724839150869 -0.019467215041123215 0 0.034747633090609888 -0.017944912649485861 0 0.034689595619202575 -0.020270636237764855 0 0.034542362472886744 -0.019881006746861069 0 0.034942303462066622 -0.018949521959881185 0 0.034689595619202575 -0.020270636237764855 0 0.035612480399457039 -0.01878913138178806 0 0.035582306147134223 -0.019819577911380004 0 0.034689595619202575 -0.020270636237764855 0 0.034942303462066622 -0.018949521959881185 0 0.035612480399457039 -0.01878913138178806 0 0.034942303462066622 -0.018949521959881185 0 0.035612480399457039 -0.01878913138178806 0 0.035520215487356163 -0.01774107304942648 0 0.035149537116062626 -0.02041469607090483 0 0.034420069415175107 -0.02001266078539813 0 0.034347265078347525 -0.019616859617853692 0 0.034765476797118763 -0.020632664790470528 0 0.035149537116062626 -0.02041469607090483 0 0.034420069415175107 -0.02001266078539813 0 0.034240175401948028 -0.020651046029270433 0 0.034420069415175107 -0.02001266078539813 0 0.034325724839150869 -0.019467215041123215 0 0.034240175401948028 -0.020651046029270433 0 0.034765476797118763 -0.020632664790470528 0 0.034420069415175107 -0.02001266078539813 0 0.034325724839150869 -0.019467215041123215 0 0.034194630609099975 -0.017937664871404611 0 0.034747633090609888 -0.017944912649485861 0 0.034325724839150869 -0.019467215041123215 0 0.034073588538793553 -0.018741868239944691 0 0.034194630609099975 -0.017937664871404611 0 0.034073588538793553 -0.018741868239944691 0 0.034176005318953706 -0.019319359395600373 0 0.033896813122519749 -0.018735700209591304 0 0.034073588538793553 -0.018741868239944691 0 0.033896813122519749 -0.018735700209591304 0 0.033776773321544898 -0.017927686845439168 0 0.034325724839150869 -0.019467215041123215 0 0.034073588538793553 -0.018741868239944691 0 0.034176005318953706 -0.019319359395600373 0 0.034420069415175107 -0.02001266078539813 0 0.034325724839150869 -0.019467215041123215 0 0.034176005318953706 -0.019319359395600373 0 0.033689558739075351 -0.017975637284348256 0 0.035892511101924165 -0.02052803954543176 0 0.035010493392336771 -0.019261098538939033 0 0.033896813122519749 -0.018735700209591304 0 0.032962121141934954 -0.016979698808697975 0 0.034347265078347525 -0.019616859617853692 0 0.034420069415175107 -0.02001266078539813 0 0.034176005318953706 -0.019319359395600373 0 0.034229187484570482 -0.019489082768823589 0 0.034176005318953706 -0.019319359395600373 0 0.034229187484570482 -0.019489082768823589 0 0.033896813122519749 -0.018735700209591304 0 0.034420069415175107 -0.02001266078539813 0 0.034229187484570482 -0.019489082768823589 0 0.034347265078347525 -0.019616859617853692 0 0.034229187484570482 -0.019489082768823589 0 0.033896813122519749 -0.018735700209591304 0 0.034347265078347525 -0.019616859617853692 0 0.033689558739075351 -0.017975637284348256 0 0.033482536262048342 -0.017286421884194655 0 0.035892511101924165 -0.02052803954543176 0 0.033283268214122121 -0.017067914533079268 0 0.035086631240959232 -0.020114211445826077 0 0.033689558739075351 -0.017975637284348256 0 0.032546275535640629 -0.015763423866984698 0 0.031060182747876967 -0.016467634250483965 0 0.033487086703694519 -0.018095775972001737 0 0.03270133847083391 -0.018229270364236463 0 0.033689558739075351 -0.017975637284348256 0 0.035010493392336771 -0.019261098538939033 0 0.034460498459549176 -0.018640882815440588 0 0.033689558739075351 -0.017975637284348256 0 0.033482536262048342 -0.017286421884194655 0 0.032546275535640629 -0.015763423866984698 0 0.033896813122519749 -0.018735700209591304 0 0.032962121141934954 -0.016979698808697975 0 0.033776773321544898 -0.017927686845439168 0 0.032962121141934954 -0.016979698808697975 0 0.033815781874141138 -0.017002517121586319 0 0.033948041499222106 -0.015368557701068309 0 0.032962121141934954 -0.016979698808697975 0 0.033776773321544898 -0.017927686845439168 0 0.033815781874141138 -0.017002517121586319 0 0.034073588538793553 -0.018741868239944691 0 0.033776773321544898 -0.017927686845439168 0 0.034194630609099975 -0.017937664871404611 0 0.033776773321544898 -0.017927686845439168 0 0.034194630609099975 -0.017937664871404611 0 0.033815781874141138 -0.017002517121586319 0 0.034194630609099975 -0.017937664871404611 0 0.033815781874141138 -0.017002517121586319 0 0.034479015408560326 -0.016686940387773578 0 0.033815781874141138 -0.017002517121586319 0 0.033948041499222106 -0.015368557701068309 0 0.034479015408560326 -0.016686940387773578 0 0.033948041499222106 -0.015368557701068309 0 0.035015820133291999 -0.014734967732622407 0 0.033606824532336245 -0.011940388249055934 0 0.033283268214122121 -0.017067914533079268 0 0.033774282351710955 -0.012374412114527984 0 0.033482536262048342 -0.017286421884194655 0 0.032591547793741085 -0.013985574390204977 0 0.033606824532336245 -0.011940388249055934 0 0.032962121141934954 -0.016979698808697975 0 0.033948041499222106 -0.015368557701068309 0 0.033606824532336245 -0.011940388249055934 0 0.031335949476300334 -0.013017796983190508 0 0.032546275535640629 -0.015763423866984698 0 0.031060182747876967 -0.016467634250483965 0 0.030285151024954323 -0.012081118402773072 0 0.03270133847083391 -0.018229270364236463 0 0.033482536262048342 -0.017286421884194655 0 0.032591547793741085 -0.013985574390204977 0 0.032546275535640629 -0.015763423866984698 0 0.032591547793741085 -0.013985574390204977 0 0.031335949476300334 -0.013017796983190508 0 0.032546275535640629 -0.015763423866984698 0 0.032591547793741085 -0.013985574390204977 0 0.031335949476300334 -0.013017796983190508 0 0.032156805917429261 -0.011833814014111071 0 0.035520215487356163 -0.01774107304942648 0 0.035172692110748464 -0.016580143954754028 0 0.03613858874162143 -0.015871589306667561 0 0.036329905135970356 -0.017261549531817785 0 0.035520215487356163 -0.01774107304942648 0 0.03613858874162143 -0.015871589306667561 0 0.035612480399457039 -0.01878913138178806 0 0.036329905135970356 -0.017261549531817785 0 0.035520215487356163 -0.01774107304942648 0 0.034942303462066622 -0.018949521959881185 0 0.035520215487356163 -0.01774107304942648 0 0.034747633090609888 -0.017944912649485861 0 0.034194630609099975 -0.017937664871404611 0 0.034747633090609888 -0.017944912649485861 0 0.034479015408560326 -0.016686940387773578 0 0.034747633090609888 -0.017944912649485861 0 0.034479015408560326 -0.016686940387773578 0 0.035172692110748464 -0.016580143954754028 0 0.035520215487356163 -0.01774107304942648 0 0.034747633090609888 -0.017944912649485861 0 0.035172692110748464 -0.016580143954754028 0 0.035172692110748464 -0.016580143954754028 0 0.035015820133291999 -0.014734967732622407 0 0.03613858874162143 -0.015871589306667561 0 0.034479015408560326 -0.016686940387773578 0 0.035172692110748464 -0.016580143954754028 0 0.035015820133291999 -0.014734967732622407 0 0.033948041499222106 -0.015368557701068309 0 0.034479015408560326 -0.016686940387773578 0 0.035015820133291999 -0.014734967732622407 0 0.035015820133291999 -0.014734967732622407 0 0.036037839847772452 -0.014233276182334482 0 0.03613858874162143 -0.015871589306667561 0 0.035015820133291999 -0.014734967732622407 0 0.036037839847772452 -0.014233276182334482 0 0.035624606757446324 -0.0115058810555962 0 0.036037839847772452 -0.014233276182334482 0 0.03613858874162143 -0.015871589306667561 0 0.037060647462756183 -0.014551587425811897 0 0.036329905135970356 -0.017261549531817785 0 0.03613858874162143 -0.015871589306667561 0 0.036995441758527196 -0.015963165198064413 0 0.03613858874162143 -0.015871589306667561 0 0.036995441758527196 -0.015963165198064413 0 0.037060647462756183 -0.014551587425811897 0 0.036329905135970356 -0.017261549531817785 0 0.036995441758527196 -0.015963165198064413 0 0.037324020660343481 -0.017537322481474677 0 0.037698764982948788 -0.015940553932984242 0 0.036995441758527196 -0.015963165198064413 0 0.037060647462756183 -0.014551587425811897 0 0.037698764982948788 -0.015940553932984242 0 0.036995441758527196 -0.015963165198064413 0 0.037324020660343481 -0.017537322481474677 0 0.033327783779326894 -0.013191103104921711 0 0.038147416076752719 -0.013175913267287136 0 0.033327783779326894 -0.013191103104921711 0 0.034268018985309082 -0.016951961101525123 0 0.036329905135970356 -0.017261549531817785 0 0.03629261064315463 -0.018618606647181565 0 0.037324020660343481 -0.017537322481474677 0 0.035612480399457039 -0.01878913138178806 0 0.036329905135970356 -0.017261549531817785 0 0.03629261064315463 -0.018618606647181565 0 0.031225816222870871 -0.016114434178107744 0 0.031263059983273604 -0.01607470775087471 0 0.031254714029251583 -0.016192589667846969 0 0.034268018985309082 -0.016951961101525123 0 0.034301030227057473 -0.01907873891661812 0 0.03629261064315463 -0.018618606647181565 0 0.037324020660343481 -0.017537322481474677 0 0.036497397159159159 -0.019327298082886479 0 0.031207136453538436 -0.0160218124834649 0 0.031225816222870871 -0.016114434178107744 0 0.031263059983273604 -0.01607470775087471 0 0.033327783779326894 -0.013191103104921711 0 0.027954610363598347 -0.013617732622439281 0 0.025493055876828201 -0.011381763408176312 0 0.026585530952769984 -0.011821158317299896 0 0.026027845982856498 -0.010735675571195542 0 0.026585530952769984 -0.011821158317299896 0 0.026835068136039114 -0.010943911061890084 0 0.026027845982856498 -0.010735675571195542 0 0.027954610363598347 -0.013617732622439281 0 0.030533801277498922 -0.015389632652868277 0 0.026585530952769984 -0.011821158317299896 0 0.027499657798963375 -0.011377379795520448 0 0.026835068136039114 -0.010943911061890084 0 0.026585530952769984 -0.011821158317299896 0 0.027499657798963375 -0.011377379795520448 0 0.027701794286218197 -0.01229132596702838 0 0.028417791008873639 -0.011831388864670793 0 0.028217624181424369 -0.011102302820201011 0 0.028954537790008571 -0.01096624598250495 0 0.027499657798963375 -0.011377379795520448 0 0.028417791008873639 -0.011831388864670793 0 0.028217624181424369 -0.011102302820201011 0 0.027499657798963375 -0.011377379795520448 0 0.028417791008873639 -0.011831388864670793 0 0.027701794286218197 -0.01229132596702838 0 0.028652919099295932 -0.012710179326938228 0 0.030533801277498922 -0.015389632652868277 0 0.034308240468619092 -0.020583309083195833 0 0.034344183480967586 -0.020718289993031935 0 0.034323183136516083 -0.020770344052181967 0 0.028417791008873639 -0.011831388864670793 0 0.027724261792495149 -0.012324900893090398 0 0.02935996798025204 -0.012986921594223259 0 0.030533801277498922 -0.015389632652868277 0 0.031868689369300346 -0.017018369226739331 0 0.034308240468619092 -0.020583309083195833 0 0.034323183136516083 -0.020770344052181967 0 0.034380047422619291 -0.020798571315546913 0 0.030533801277498922 -0.015389632652868277 0 0.034301030227057473 -0.01907873891661812 0 0.031263059983273604 -0.01607470775087471 0 0.031319776719508807 -0.016108562188929025 0 0.031254714029251583 -0.016192589667846969 0 0.034308240468619092 -0.020583309083195833 0 0.034344183480967586 -0.020718289993031935 0 0.034036355218628002 -0.020342839341368223 0 0.034344183480967586 -0.020718289993031935 0 0.03458297011908032 -0.020861137282699067 0 0.034036355218628002 -0.020342839341368223 0 0.034344183480967586 -0.020718289993031935 0 0.034296822395267199 -0.020994675209023001 0 0.03458297011908032 -0.020861137282699067 0 0.034344183480967586 -0.020718289993031935 0 0.034323183136516083 -0.020770344052181967 0 0.034296822395267199 -0.020994675209023001 0 0.034323183136516083 -0.020770344052181967 0 0.034296822395267199 -0.020994675209023001 0 0.034380047422619291 -0.020798571315546913 0 0.03416281037641733 -0.021390314869476647 0 0.034296822395267199 -0.020994675209023001 0 0.034367604773901439 -0.021301431412396044 0 0.03416281037641733 -0.021390314869476647 0 0.034296822395267199 -0.020994675209023001 0 0.03458297011908032 -0.020861137282699067 0 0.034689595619202575 -0.020270636237764855 0 0.034679432456581796 -0.020643957972464017 0 0.035530767265742828 -0.019742516891613167 0 0.03458297011908032 -0.020861137282699067 0 0.034679432456581796 -0.020643957972464017 0 0.035530767265742828 -0.019742516891613167 0 0.035842013273140357 -0.01966112771219267 0 0.034301030227057473 -0.01907873891661812 0 0.03629261064315463 -0.018618606647181565 0 0.035582306147134223 -0.019819577911380004 0 0.036497397159159159 -0.019327298082886479 0 0.035612480399457039 -0.01878913138178806 0 0.03629261064315463 -0.018618606647181565 0 0.035582306147134223 -0.019819577911380004 0 0.034969705432709934 -0.020947475302193121 0 0.034301030227057473 -0.01907873891661812 0 0.03458297011908032 -0.020861137282699067 0 0.035530767265742828 -0.019742516891613167 0 0.036531758473633269 -0.019378606803130589 0 0.050322165666087632 -0.021137849869702061 0 0.049999006962032341 -0.020803286303754318 0 0.04999913971781729 -0.018256093536576454 0 0.050322165666087632 -0.021137849869702061 0 0.050256321828675829 -0.022364564799663832 0 0.050183678580467107 -0.022642643423545768 0 0.050322165666087632 -0.021137849869702061 0 0.049999006962032341 -0.020803286303754318 0 0.050256321828675829 -0.022364564799663832 0 0.04999923854432449 -0.023350019293690842 0 0.050256321828675829 -0.022364564799663832 0 0.050361386061033651 -0.024063208612342915 0 0.049999006962032341 -0.020803286303754318 0 0.04999923854432449 -0.023350019293690842 0 0.050256321828675829 -0.022364564799663832 0 0.049998331192941649 -0.025899399550833337 0 0.04999923854432449 -0.023350019293690842 0 0.050361386061033651 -0.024063208612342915 0 0.049999878655474457 -0.025897185630384931 0 0.049823943216218552 -0.023562311187231576 0 0.049267905603327528 -0.024442888337065396 0 0.049166335364940542 -0.023083541411190209 0 0.048905066149689071 -0.022614970493237092 0 0.050256321828675829 -0.022364564799663832 0 0.050361386061033651 -0.024063208612342915 0 0.050183678580467107 -0.022642643423545768 0 0.049166335364940542 -0.023083541411190209 0 0.048704846678552419 -0.021426033878830346 0 0.048905066149689071 -0.022614970493237092 0 0.049823943216218552 -0.023562311187231576 0 0.049474085901372644 -0.022044966132875592 0 0.048704846678552419 -0.021426033878830346 0 0.048309707090656594 -0.022094615862804069 0 0.048905066149689071 -0.022614970493237092 0 0.048704846678552419 -0.021426033878830346 0 0.048309707090656594 -0.022094615862804069 0 0.047388087871088141 -0.021473843269797347 0 0.049267905603327528 -0.024442888337065396 0 0.048905066149689071 -0.022614970493237092 0 0.048702582476690473 -0.022511979436670784 0 0.048309707090656594 -0.022094615862804069 0 0.048905066149689071 -0.022614970493237092 0 0.048702582476690473 -0.022511979436670784 0 0.04640900103802667 -0.020925363188236949 0 0.047201362806306539 -0.022031117992964241 0 0.044514232568354919 -0.021424016732508797 0 0.048769226053894679 -0.022850798601163264 0 0.045011547019245118 -0.021712172508705534 0 0.04640900103802667 -0.020925363188236949 0 0.048702582476690473 -0.022511979436670784 0 0.047201362806306539 -0.022031117992964241 0 0.048769226053894679 -0.022850798601163264 0 0.048391156690507635 -0.022447436958857848 0 0.048309707090656594 -0.022094615862804069 0 0.048702582476690473 -0.022511979436670784 0 0.047201362806306539 -0.022031117992964241 0 0.047201362806306539 -0.022031117992964241 0 0.046798608621911139 -0.02180582170224701 0 0.044514232568354919 -0.021424016732508797 0 0.048309707090656594 -0.022094615862804069 0 0.046798608621911139 -0.02180582170224701 0 0.047388087871088141 -0.021473843269797347 0 0.046798608621911139 -0.02180582170224701 0 0.045481565561163742 -0.021550482153682982 0 0.044514232568354919 -0.021424016732508797 0 0.048309707090656594 -0.022094615862804069 0 0.047201362806306539 -0.022031117992964241 0 0.046798608621911139 -0.02180582170224701 0 0.046798608621911139 -0.02180582170224701 0 0.047388087871088141 -0.021473843269797347 0 0.045481565561163742 -0.021550482153682982 0 0.047388087871088141 -0.021473843269797347 0 0.046805285574149695 -0.021235662163801881 0 0.045481565561163742 -0.021550482153682982 0 0.047388087871088141 -0.021473843269797347 0 0.047775504311140096 -0.020846353306284059 0 0.046805285574149695 -0.021235662163801881 0 0.048704846678552419 -0.021426033878830346 0 0.047388087871088141 -0.021473843269797347 0 0.047775504311140096 -0.020846353306284059 0 0.049474085901372644 -0.022044966132875592 0 0.048663187717776668 -0.021715189377727807 0 0.050322165666087632 -0.021137849869702061 0 0.050183678580467107 -0.022642643423545768 0 0.049631690642945231 -0.022370518592070933 0 0.050322165666087632 -0.021137849869702061 0 0.049631690642945231 -0.022370518592070933 0 0.050083808445749826 -0.02142860088197162 0 0.049631690642945231 -0.022370518592070933 0 0.049732172331153429 -0.022701411679914331 0 0.050083808445749826 -0.02142860088197162 0 0.047775504311140096 -0.020846353306284059 0 0.046805285574149695 -0.021235662163801881 0 0.047680266291122743 -0.021014881114794562 0 0.048663187717776668 -0.021715189377727807 0 0.049556072871794338 -0.021736274855266066 0 0.044656680385649933 -0.021203925989913181 0 0.045074295526032856 -0.02101430171167536 0 0.046805285574149695 -0.021235662163801881 0 0.044447405239136879 -0.021712081617635711 0 0.047680266291122743 -0.021014881114794562 0 0.044447405239136879 -0.021712081617635711 0 0.041609464812188003 -0.021741344201794723 0 0.041976826332588195 -0.020931981436683348 0 0.041609464812188003 -0.021741344201794723 0 0.041917724167936182 -0.021640581609224187 0 0.040468964377518415 -0.02177022770693059 0 0.044447405239136879 -0.021712081617635711 0 0.041609464812188003 -0.021741344201794723 0 0.041917724167936182 -0.021640581609224187 0 0.043130218675015736 -0.021518256300710741 0 0.042513213110938225 -0.021406412587424019 0 0.040159988943190485 -0.021457343397863447 0 0.044447405239136879 -0.021712081617635711 0 0.041917724167936182 -0.021640581609224187 0 0.043130218675015736 -0.021518256300710741 0 0.041917724167936182 -0.021640581609224187 0 0.040159988943190485 -0.021457343397863447 0 0.040468964377518415 -0.02177022770693059 0 0.041917724167936182 -0.021640581609224187 0 0.043130218675015736 -0.021518256300710741 0 0.040159988943190485 -0.021457343397863447 0 0.044447405239136879 -0.021712081617635711 0 0.043130218675015736 -0.021518256300710741 0 0.045481565561163742 -0.021550482153682982 0 0.046805285574149695 -0.021235662163801881 0 0.044447405239136879 -0.021712081617635711 0 0.045481565561163742 -0.021550482153682982 0 0.045481565561163742 -0.021550482153682982 0 0.044514232568354919 -0.021424016732508797 0 0.042513213110938225 -0.021406412587424019 0 0.043130218675015736 -0.021518256300710741 0 0.045481565561163742 -0.021550482153682982 0 0.042513213110938225 -0.021406412587424019 0 0.042536124260463173 -0.020865371259971462 0 0.045272877189864613 -0.020026372634592341 0 0.044514232568354919 -0.021424016732508797 0 0.042536124260463173 -0.020865371259971462 0 0.044514232568354919 -0.021424016732508797 0 0.040894868913317055 -0.021304403828746054 0 0.044514232568354919 -0.021424016732508797 0 0.040894868913317055 -0.021304403828746054 0 0.042513213110938225 -0.021406412587424019 0 0.040894868913317055 -0.021304403828746054 0 0.042513213110938225 -0.021406412587424019 0 0.039148680821891962 -0.021556574150990639 0 0.042513213110938225 -0.021406412587424019 0 0.039148680821891962 -0.021556574150990639 0 0.040159988943190485 -0.021457343397863447 0 0.039148680821891962 -0.021556574150990639 0 0.037004991808798571 -0.021224334357346511 0 0.040159988943190485 -0.021457343397863447 0 0.038803080894033018 -0.022184827614131677 0 0.040894868913317055 -0.021304403828746054 0 0.039148680821891962 -0.021556574150990639 0 0.035551554095541157 -0.020552682106261842 0 0.035822405500068988 -0.021177198807676791 0 0.034581899399344473 -0.019701039280433704 0 0.032855002555862031 -0.020923012610586152 0 0.034298007147297221 -0.020206996641456473 0 0.038803080894033018 -0.022184827614131677 0 0.039148680821891962 -0.021556574150990639 0 0.037207866523789428 -0.0219190577499099 0 0.039148680821891962 -0.021556574150990639 0 0.037207866523789428 -0.0219190577499099 0 0.037004991808798571 -0.021224334357346511 0 0.037004991808798571 -0.021224334357346511 0 0.040159988943190485 -0.021457343397863447 0 0.036765845188844355 -0.020628793340521392 0 0.039934504913929636 -0.021215590116732855 0 0.037894042458004457 -0.021220634933846745 0 0.040159988943190485 -0.021457343397863447 0 0.040468964377518415 -0.02177022770693059 0 0.039019578843186055 -0.021957979213146128 0 0.041609464812188003 -0.021741344201794723 0 0.040468964377518415 -0.02177022770693059 0 0.039751379716033423 -0.021682194754124907 0 0.040468964377518415 -0.02177022770693059 0 0.039019578843186055 -0.021957979213146128 0 0.039751379716033423 -0.021682194754124907 0 0.037004991808798571 -0.021224334357346511 0 0.036765845188844355 -0.020628793340521392 0 0.035880614097207129 -0.020847972294330819 0 0.035149537116062626 -0.02041469607090483 0 0.036765845188844355 -0.020628793340521392 0 0.035880614097207129 -0.020847972294330819 0 0.039019578843186055 -0.021957979213146128 0 0.035892511101924165 -0.02052803954543176 0 0.036696704497693855 -0.020767993768850364 0 0.037894042458004457 -0.021220634933846745 0 0.035086631240959232 -0.020114211445826077 0 0.035149537116062626 -0.02041469607090483 0 0.036765845188844355 -0.020628793340521392 0 0.034347265078347525 -0.019616859617853692 0 0.039019578843186055 -0.021957979213146128 0 0.03654629495596861 -0.020540028558170831 0 0.036696704497693855 -0.020767993768850364 0 0.039751379716033423 -0.021682194754124907 0 0.040788167814559906 -0.021582590287140033 0 0.039965223653289896 -0.022102713692525592 0 0.039019578843186055 -0.021957979213146128 0 0.039751379716033423 -0.021682194754124907 0 0.03654629495596861 -0.020540028558170831 0 0.039751379716033423 -0.021682194754124907 0 0.040788167814559906 -0.021582590287140033 0 0.04133606490664786 -0.021369860920294557 0 0.03942815209435864 -0.021418263628185025 0 0.038791056900560957 -0.020984666235652007 0 0.039751379716033423 -0.021682194754124907 0 0.036629011133601598 -0.020455981195340471 0 0.03654629495596861 -0.020540028558170831 0 0.040788167814559906 -0.021582590287140033 0 0.039965223653289896 -0.022102713692525592 0 0.041087195379375704 -0.02188289109990248 0 0.038791056900560957 -0.020984666235652007 0 0.039767861336028255 -0.020712847100729983 0 0.038791056900560957 -0.020984666235652007 0 0.038315273664888752 -0.020681291204275164 0 0.036223358613899935 -0.02025435622245585 0 0.03654629495596861 -0.020540028558170831 0 0.036018177052986294 -0.020251114475057123 0 0.03654629495596861 -0.020540028558170831 0 0.036696704497693855 -0.020767993768850364 0 0.036018177052986294 -0.020251114475057123 0 0.035892511101924165 -0.02052803954543176 0 0.036696704497693855 -0.020767993768850364 0 0.036018177052986294 -0.020251114475057123 0 0.036223358613899935 -0.02025435622245585 0 0.036018177052986294 -0.020251114475057123 0 0.035010493392336771 -0.019261098538939033 0 0.035892511101924165 -0.02052803954543176 0 0.036018177052986294 -0.020251114475057123 0 0.035010493392336771 -0.019261098538939033 0 0.038791056900560957 -0.020984666235652007 0 0.03270133847083391 -0.018229270364236463 0 0.038607557732311351 -0.019232576917516193 0 0.037136995544804603 -0.022160258597538299 0 0.039160808471946813 -0.022678126852865171 0 0.036223358613899935 -0.02025435622245585 0 0.035010493392336771 -0.019261098538939033 0 0.034460498459549176 -0.018640882815440588 0 0.03270133847083391 -0.018229270364236463 0 0.035463903210089777 -0.01733806254284458 0 0.035463903210089777 -0.01733806254284458 0 0.035108786632553839 -0.013382455767965075 0 0.040910885070826394 -0.021293331247590318 0 0.040881531368068956 -0.017754778823073289 0 0.04308146767082445 -0.017084258774405378 0 0.029316432805453888 -0.01202086397754978 0 0.026047701863226917 -0.013444734533558638 0 0.027649688257006474 -0.0097422602746122383 0 0.029316432805453888 -0.01202086397754978 0 0.02797293712995183 -0.01494356953762657 0 0.026047701863226917 -0.013444734533558638 0 0.040178651775588742 -0.020070093280740643 0 0.040910885070826394 -0.021293331247590318 0 0.040881531368068956 -0.017754778823073289 0 0.039943259003985203 -0.019012045267324845 0 0.038936438762803179 -0.018306348963465759 0 0.039793513272486161 -0.020419050742794157 0 0.039943259003985203 -0.019012045267324845 0 0.040178651775588742 -0.020070093280740643 0 0.039793513272486161 -0.020419050742794157 0 0.039943259003985203 -0.019012045267324845 0 0.040178651775588742 -0.020070093280740643 0 0.040881531368068956 -0.017754778823073289 0 0.040178651775588742 -0.020070093280740643 0 0.040910885070826394 -0.021293331247590318 0 0.039852186132485763 -0.020467259464100683 0 0.03973921485530834 -0.022467104099827502 0 0.040249525819275711 -0.022932192498946118 0 0.040304073836677445 -0.02174158464202372 0 0.038994678162690845 -0.019839857230727544 0 0.038746473613315451 -0.019942274432365018 0 0.035463903210089777 -0.01733806254284458 0 0.038746473613315451 -0.019942274432365018 0 0.039160808471946813 -0.022678126852865171 0 0.03973921485530834 -0.022467104099827502 0 0.040249525819275711 -0.022932192498946118 0 0.038607557732311351 -0.019232576917516193 0 0.039160808471946813 -0.022678126852865171 0 0.040304073836677445 -0.02174158464202372 0 0.040249525819275711 -0.022932192498946118 0 0.040304073836677445 -0.02174158464202372 0 0.041554460791530842 -0.021335379290909888 0 0.038607557732311351 -0.019232576917516193 0 0.040304073836677445 -0.02174158464202372 0 0.041554460791530842 -0.021335379290909888 0 0.038746473613315451 -0.019942274432365018 0 0.039767861336028255 -0.020712847100729983 0 0.039160808471946813 -0.022678126852865171 0 0.03973921485530834 -0.022467104099827502 0 0.040304073836677445 -0.02174158464202372 0 0.040652428453479703 -0.018855228781478352 0 0.039265284484835988 -0.017377483466677106 0 0.038723932549556389 -0.020907621382033389 0 0.039767861336028255 -0.020712847100729983 0 0.045521901346702684 -0.020724166323447476 0 0.044944804187893116 -0.019094891338949475 0 0.045521901346702684 -0.020724166323447476 0 0.039895979650577319 -0.01991702671592608 0 0.03842699461832276 -0.021489193688386903 0 0.036997222110946013 -0.019854875484928269 0 0.039767861336028255 -0.020712847100729983 0 0.044944804187893116 -0.019094891338949475 0 0.038746473613315451 -0.019942274432365018 0 0.043935373440823246 -0.019209635895802549 0 0.038936438762803179 -0.018306348963465759 0 0.039793513272486161 -0.020419050742794157 0 0.03708481577323957 -0.018652720885958318 0 0.039895979650577319 -0.01991702671592608 0 0.036997222110946013 -0.019854875484928269 0 0.037201827463932774 -0.01853531635528732 0 0.044944804187893116 -0.019094891338949475 0 0.043935373440823246 -0.019209635895802549 0 0.047746949112162561 -0.018899316198792489 0 0.047758002677859214 -0.021197702846825289 0 0.052577701584158427 -0.022421987104944814 0 0.044944804187893116 -0.019094891338949475 0 0.052895777754414959 -0.019047293801202944 0 0.043935373440823246 -0.019209635895802549 0 0.052895777754414959 -0.019047293801202944 0 0.053092460997324439 -0.018613469110626221 0 0.051688326322671611 -0.017882279518071087 0 0.052342365625415353 -0.016895384420300273 0 0.053092460997324439 -0.018613469110626221 0 0.051224819332685884 -0.019583396370894807 0 0.051688326322671611 -0.017882279518071087 0 0.053092460997324439 -0.018613469110626221 0 0.051359802664736852 -0.021791916110341848 0 0.051224819332685884 -0.019583396370894807 0 0.051359802664736852 -0.021791916110341848 0 0.049732172331153429 -0.022701411679914331 0 0.05042490731568508 -0.020400662257274799 0 0.045521901346702684 -0.020724166323447476 0 0.045074295526032856 -0.02101430171167536 0 0.051359802664736852 -0.021791916110341848 0 0.05042490731568508 -0.020400662257274799 0 0.051224819332685884 -0.019583396370894807 0 0.040788167814559906 -0.021582590287140033 0 0.041651456088300683 -0.02064270509868885 0 0.04133606490664786 -0.021369860920294557 0 0.040788167814559906 -0.021582590287140033 0 0.041087195379375704 -0.02188289109990248 0 0.041651456088300683 -0.02064270509868885 0 0.041651456088300683 -0.02064270509868885 0 0.04133606490664786 -0.021369860920294557 0 0.041976826332588195 -0.020931981436683348 0 0.041609464812188003 -0.021741344201794723 0 0.039751379716033423 -0.021682194754124907 0 0.04133606490664786 -0.021369860920294557 0 0.041609464812188003 -0.021741344201794723 0 0.04133606490664786 -0.021369860920294557 0 0.041976826332588195 -0.020931981436683348 0 0.05036300834586372 -0.020973045580198354 0 0.047943911913473004 -0.021777726123192696 0 0.047680266291122743 -0.021014881114794562 0 0.044447405239136879 -0.021712081617635711 0 0.047943911913473004 -0.021777726123192696 0 0.047680266291122743 -0.021014881114794562 0 0.045521901346702684 -0.020724166323447476 0 0.049556072871794338 -0.021736274855266066 0 0.049732172331153429 -0.022701411679914331 0 0.050083808445749826 -0.02142860088197162 0 0.05042490731568508 -0.020400662257274799 0 0.050322165666087632 -0.021137849869702061 0 0.050083808445749826 -0.02142860088197162 0 0.050391017101464847 -0.019700001647757814 0 0.050083808445749826 -0.02142860088197162 0 0.05042490731568508 -0.020400662257274799 0 0.050391017101464847 -0.019700001647757814 0 0.050613751976916171 -0.018578490186613651 0 0.05042490731568508 -0.020400662257274799 0 0.050391017101464847 -0.019700001647757814 0 0.050613751976916171 -0.018578490186613651 0 0.05042490731568508 -0.020400662257274799 0 0.050926101625362055 -0.018227441456794044 0 0.05042490731568508 -0.020400662257274799 0 0.051224819332685884 -0.019583396370894807 0 0.050926101625362055 -0.018227441456794044 0 0.051224819332685884 -0.019583396370894807 0 0.050926101625362055 -0.018227441456794044 0 0.051688326322671611 -0.017882279518071087 0 0.050926101625362055 -0.018227441456794044 0 0.051688326322671611 -0.017882279518071087 0 0.051340564793559702 -0.017101886468352749 0 0.051340564793559702 -0.017101886468352749 0 0.051702553464468497 -0.016912858406900988 0 0.05145774858249906 -0.01643949226592625 0 0.051688326322671611 -0.017882279518071087 0 0.051340564793559702 -0.017101886468352749 0 0.051702553464468497 -0.016912858406900988 0 0.051688326322671611 -0.017882279518071087 0 0.051702553464468497 -0.016912858406900988 0 0.052342365625415353 -0.016895384420300273 0 0.050932986122548755 -0.01672955822568235 0 0.050851758848127857 -0.016928178382878283 0 0.050387933520113518 -0.015122044615050411 0 0.050932986122548755 -0.01672955822568235 0 0.050387933520113518 -0.015122044615050411 0 0.051064770327279387 -0.016046639338547233 0 0.051340564793559702 -0.017101886468352749 0 0.051064770327279387 -0.016046639338547233 0 0.05145774858249906 -0.01643949226592625 0 0.051340564793559702 -0.017101886468352749 0 0.050932986122548755 -0.01672955822568235 0 0.051064770327279387 -0.016046639338547233 0 0.050926101625362055 -0.018227441456794044 0 0.051340564793559702 -0.017101886468352749 0 0.050932986122548755 -0.01672955822568235 0 0.050926101625362055 -0.018227441456794044 0 0.050932986122548755 -0.01672955822568235 0 0.050851758848127857 -0.016928178382878283 0 0.050613751976916171 -0.018578490186613651 0 0.050926101625362055 -0.018227441456794044 0 0.050851758848127857 -0.016928178382878283 0 0.050613751976916171 -0.018578490186613651 0 0.050851758848127857 -0.016928178382878283 0 0.050423708448373822 -0.017502310528353816 0 0.050851758848127857 -0.016928178382878283 0 0.050530393932435948 -0.015821914409619123 0 0.050423708448373822 -0.017502310528353816 0 0.050851758848127857 -0.016928178382878283 0 0.050935677944975541 -0.014594532535689838 0 0.050530393932435948 -0.015821914409619123 0 0.050851758848127857 -0.016928178382878283 0 0.050935677944975541 -0.014594532535689838 0 0.052794859736944387 -0.015166437419341074 0 0.051171494377521637 -0.016972169253736253 0 0.050707484496192737 -0.014354378566250058 0 0.051234512741449412 -0.014551588706938848 0 0.050707484496192737 -0.014354378566250058 0 0.050935677944975541 -0.014594532535689838 0 0.04999921287973192 -0.013160657367806441 0 0.050530393932435948 -0.015821914409619123 0 0.050935677944975541 -0.014594532535689838 0 0.04999921287973192 -0.013160657367806441 0 0.050541086963645697 -0.012519355231945764 0 0.04999921287973192 -0.013160657367806441 0 0.050530393932435948 -0.015821914409619123 0 0.049999127405997601 -0.015708648511855688 0 0.050530393932435948 -0.015821914409619123 0 0.049999127405997601 -0.015708648511855688 0 0.050423708448373822 -0.017502310528353816 0 0.049999127405997601 -0.015708648511855688 0 0.050423708448373822 -0.017502310528353816 0 0.04999913971781729 -0.018256093536576454 0 0.050613751976916171 -0.018578490186613651 0 0.050423708448373822 -0.017502310528353816 0 0.050391017101464847 -0.019700001647757814 0 0.050322165666087632 -0.021137849869702061 0 0.050391017101464847 -0.019700001647757814 0 0.04999913971781729 -0.018256093536576454 0 0.050423708448373822 -0.017502310528353816 0 0.050391017101464847 -0.019700001647757814 0 0.04999913971781729 -0.018256093536576454 0 0.050743503158433283 -0.0077162289118346524 0 0.049999647377145635 -0.008216059093012866 0 0.050000470563405348 -0.0058234169118548075 0 0.050743503158433283 -0.0077162289118346524 0 0.051151441243765368 -0.00792302350705224 0 0.051026070575859388 -0.0086081425550607101 0 0.050743503158433283 -0.0077162289118346524 0 0.05076068769696547 -0.0069855447701373044 0 0.050000470563405348 -0.0058234169118548075 0 0.051151441243765368 -0.00792302350705224 0 0.051306210153286125 -0.007406085212493258 0 0.05076068769696547 -0.0069855447701373044 0 0.050743503158433283 -0.0077162289118346524 0 0.051151441243765368 -0.00792302350705224 0 0.05076068769696547 -0.0069855447701373044 0 0.050151107939743707 -0.0087535096542995586 0 0.050460870202316967 -0.0086111545613218148 0 0.051151441243765368 -0.00792302350705224 0 0.051724779137744613 -0.0088632239008629363 0 0.050529768047458498 -0.0083411533020618222 0 0.051151441243765368 -0.00792302350705224 0 0.051724779137744613 -0.0088632239008629363 0 0.051026070575859388 -0.0086081425550607101 0 0.051724779137744613 -0.0088632239008629363 0 0.051026070575859388 -0.0086081425550607101 0 0.051333657808208082 -0.0095983230746027569 0 0.051026070575859388 -0.0086081425550607101 0 0.050772152787453645 -0.0095511562373553922 0 0.051333657808208082 -0.0095983230746027569 0 0.051026070575859388 -0.0086081425550607101 0 0.049999647377145635 -0.008216059093012866 0 0.050772152787453645 -0.0095511562373553922 0 0.050743503158433283 -0.0077162289118346524 0 0.051026070575859388 -0.0086081425550607101 0 0.049999647377145635 -0.008216059093012866 0 0.049999647377145635 -0.008216059093012866 0 0.050772152787453645 -0.0095511562373553922 0 0.049999776102465102 -0.010609729475319621 0 0.050772152787453645 -0.0095511562373553922 0 0.051006631474628868 -0.010442473461544262 0 0.051333657808208082 -0.0095983230746027569 0 0.050772152787453645 -0.0095511562373553922 0 0.051006631474628868 -0.010442473461544262 0 0.049999776102465102 -0.010609729475319621 0 0.051048254573182766 -0.011127197592239377 0 0.04999984193801299 -0.010610873742656327 0 0.04999921287973192 -0.013160657367806441 0 0.049999609694875546 -0.010612374506170714 0 0.050541086963645697 -0.012519355231945764 0 0.050809454663172632 -0.011822473109606836 0 0.050541086963645697 -0.012519355231945764 0 0.05106793122745968 -0.012906056377460878 0 0.050809454663172632 -0.011822473109606836 0 0.049999609694875546 -0.010612374506170714 0 0.050541086963645697 -0.012519355231945764 0 0.050935677944975541 -0.014594532535689838 0 0.050541086963645697 -0.012519355231945764 0 0.05106793122745968 -0.012906056377460878 0 0.050935677944975541 -0.014594532535689838 0 0.051391045345031534 -0.013462222003860788 0 0.05106793122745968 -0.012906056377460878 0 0.050809454663172632 -0.011822473109606836 0 0.05106793122745968 -0.012906056377460878 0 0.051650797334303694 -0.012475319615429326 0 0.050707484496192737 -0.014354378566250058 0 0.050093497136289439 -0.011372297026305397 0 0.051391045345031534 -0.013462222003860788 0 0.05106793122745968 -0.012906056377460878 0 0.051650797334303694 -0.012475319615429326 0 0.051724779137744613 -0.0088632239008629363 0 0.051930651347623709 -0.010513375848345188 0 0.051333657808208082 -0.0095983230746027569 0 0.050151107939743707 -0.0087535096542995586 0 0.050093497136289439 -0.011372297026305397 0 0.051006631474628868 -0.010442473461544262 0 0.051930651347623709 -0.010513375848345188 0 0.051333657808208082 -0.0095983230746027569 0 0.051048254573182766 -0.011127197592239377 0 0.050093497136289439 -0.011372297026305397 0 0.048582150479899375 -0.0088056673066786995 0 0.047875331696363765 -0.010439075002505398 0 0.048401257017565098 -0.0098297961134417404 0 0.048401257017565098 -0.0098297961134417404 0 0.048285163080129617 -0.010288686120892596 0 0.048551765935715328 -0.0097785657052314647 0 0.048401257017565098 -0.0098297961134417404 0 0.048551765935715328 -0.0097785657052314647 0 0.048811666928029969 -0.0093327902835708167 0 0.048401257017565098 -0.0098297961134417404 0 0.048724690934076144 -0.010384349934610829 0 0.048473374540682977 -0.010597155135385204 0 0.047955661765248653 -0.0098947147201306103 0 0.049946729820640315 -0.012395389095925193 0 0.047875331696363765 -0.010439075002505398 0 0.048401257017565098 -0.0098297961134417404 0 0.048473374540682977 -0.010597155135385204 0 0.050707484496192737 -0.014354378566250058 0 0.049758287830893859 -0.013358798799451099 0 0.048960692579576123 -0.012748341815379486 0 0.048959222218350897 -0.013094440157188721 0 0.048593557524708432 -0.013058091309935103 0 0.050093497136289439 -0.011372297026305397 0 0.049758287830893859 -0.013358798799451099 0 0.051105204047111379 -0.015463511042385983 0 0.051381647319476219 -0.015979009496014936 0 0.05188237467006751 -0.015877024296285416 0 0.051662636774417257 -0.013387134758718177 0 0.050780772137605686 -0.013961710997164848 0 0.052625031523117996 -0.014444969458205531 0 0.049758287830893859 -0.013358798799451099 0 0.052649395974877597 -0.015646781797637285 0 0.049946729820640315 -0.012395389095925193 0 0.049758287830893859 -0.013358798799451099 0 0.051105204047111379 -0.015463511042385983 0 0.051381647319476219 -0.015979009496014936 0 0.051064770327279387 -0.016046639338547233 0 0.051381647319476219 -0.015979009496014936 0 0.051064770327279387 -0.016046639338547233 0 0.05145774858249906 -0.01643949226592625 0 0.050387933520113518 -0.015122044615050411 0 0.051105204047111379 -0.015463511042385983 0 0.051064770327279387 -0.016046639338547233 0 0.052649395974877597 -0.015646781797637285 0 0.052895777754414959 -0.019047293801202944 0 0.051430449428890967 -0.016895089560080075 0 0.052895777754414959 -0.019047293801202944 0 0.051702553464468497 -0.016912858406900988 0 0.051730676521131565 -0.016241839835962515 0 0.052342365625415353 -0.016895384420300273 0 0.051730676521131565 -0.016241839835962515 0 0.05188237467006751 -0.015877024296285416 0 0.052364332099344116 -0.016831670927645551 0 0.051702553464468497 -0.016912858406900988 0 0.05145774858249906 -0.01643949226592625 0 0.051730676521131565 -0.016241839835962515 0 0.051381647319476219 -0.015979009496014936 0 0.05145774858249906 -0.01643949226592625 0 0.051730676521131565 -0.016241839835962515 0 0.051381647319476219 -0.015979009496014936 0 0.051730676521131565 -0.016241839835962515 0 0.05188237467006751 -0.015877024296285416 0 0.049946729820640315 -0.012395389095925193 0 0.052649395974877597 -0.015646781797637285 0 0.048285163080129617 -0.010288686120892596 0 0.048551765935715328 -0.0097785657052314647 0 0.04863536034859741 -0.0096707358957183916 0 0.049946729820640315 -0.012395389095925193 0 0.051145457990551632 -0.011931846234384976 0 0.052050448438284096 -0.014114380129317075 0 0.052066432779804162 -0.014580677545778204 0 0.0518041929380883 -0.014796904895399032 0 0.052050448438284096 -0.014114380129317075 0 0.051704785427559817 -0.014323861100756466 0 0.0518041929380883 -0.014796904895399032 0 0.048551765935715328 -0.0097785657052314647 0 0.048811666928029969 -0.0093327902835708167 0 0.04863536034859741 -0.0096707358957183916 0 0.048811666928029969 -0.0093327902835708167 0 0.049035782286540479 -0.0092277377289988697 0 0.04863536034859741 -0.0096707358957183916 0 0.049035782286540479 -0.0092277377289988697 0 0.04892590254919206 -0.0094597049093815399 0 0.04863536034859741 -0.0096707358957183916 0 0.048582150479899375 -0.0088056673066786995 0 0.048401257017565098 -0.0098297961134417404 0 0.048811666928029969 -0.0093327902835708167 0 0.048582150479899375 -0.0088056673066786995 0 0.048811666928029969 -0.0093327902835708167 0 0.049214385436870109 -0.0088464488893014344 0 0.048811666928029969 -0.0093327902835708167 0 0.049214385436870109 -0.0088464488893014344 0 0.049035782286540479 -0.0092277377289988697 0 0.048582150479899375 -0.0088056673066786995 0 0.049214385436870109 -0.0088464488893014344 0 0.050529768047458498 -0.0083411533020618222 0 0.049214385436870109 -0.0088464488893014344 0 0.049682069697557021 -0.0087845430707497764 0 0.050529768047458498 -0.0083411533020618222 0 0.049214385436870109 -0.0088464488893014344 0 0.049682069697557021 -0.0087845430707497764 0 0.049313489034242368 -0.0090427486832318285 0 0.049682069697557021 -0.0087845430707497764 0 0.049313489034242368 -0.0090427486832318285 0 0.049772260939638061 -0.0089119116041280529 0 0.049313489034242368 -0.0090427486832318285 0 0.049470764744135108 -0.0091343361043381907 0 0.049772260939638061 -0.0089119116041280529 0 0.049313489034242368 -0.0090427486832318285 0 0.049035782286540479 -0.0092277377289988697 0 0.049197775727087709 -0.0094102655834692513 0 0.049313489034242368 -0.0090427486832318285 0 0.049197775727087709 -0.0094102655834692513 0 0.049470764744135108 -0.0091343361043381907 0 0.049035782286540479 -0.0092277377289988697 0 0.04892590254919206 -0.0094597049093815399 0 0.049197775727087709 -0.0094102655834692513 0 0.049214385436870109 -0.0088464488893014344 0 0.049313489034242368 -0.0090427486832318285 0 0.049035782286540479 -0.0092277377289988697 0 0.04892590254919206 -0.0094597049093815399 0 0.048648703448289747 -0.0096722818398150018 0 0.048918213058650989 -0.0099617172500749852 0 0.04892590254919206 -0.0094597049093815399 0 0.048648703448289747 -0.0096722818398150018 0 0.04863536034859741 -0.0096707358957183916 0 0.039933832954337604 -0.011218045001994957 0 0.041888085848666039 -0.0099931459685494353 0 0.041751242841425833 -0.0086161684917007274 0 0.048648703448289747 -0.0096722818398150018 0 0.048360409844931201 -0.0097946563322390909 0 0.048461393167488119 -0.0099675736737176151 0 0.045811445370857302 -0.011559926067400552 0 0.040962016863890602 -0.0099832958061698701 0 0.039055333924306421 -0.010212867351481339 0 0.040518696328571642 -0.010901444751013295 0 0.040984786014997457 -0.0088341075529991438 0 0.039055333924306421 -0.010212867351481339 0 0.038292391941537475 -0.012965571742288594 0 0.040518696328571642 -0.010901444751013295 0 0.052558444669926679 -0.014146802901607889 0 0.052066432779804162 -0.014580677545778204 0 0.052260788697895869 -0.015101851064135061 0 0.045811445370857302 -0.011559926067400552 0 0.04520486640878256 -0.013953053370566938 0 0.045811445370857302 -0.011559926067400552 0 0.051145457990551632 -0.011931846234384976 0 0.048648703448289747 -0.0096722818398150018 0 0.048360409844931201 -0.0097946563322390909 0 0.04863536034859741 -0.0096707358957183916 0 0.0518041929380883 -0.014796904895399032 0 0.051584246973748277 -0.015797647891864434 0 0.052260788697895869 -0.015101851064135061 0 0.052066432779804162 -0.014580677545778204 0 0.0518041929380883 -0.014796904895399032 0 0.052260788697895869 -0.015101851064135061 0 0.050479842742788335 -0.017625856299876366 0 0.050806500944485723 -0.018450416113535283 0 0.051927357094689479 -0.01868526336336979 0 0.051591354306416815 -0.019298460312294853 0 0.050806500944485723 -0.018450416113535283 0 0.051927357094689479 -0.01868526336336979 0 0.051704785427559817 -0.014323861100756466 0 0.0518041929380883 -0.014796904895399032 0 0.051584246973748277 -0.015797647891864434 0 0.052649395974877597 -0.015646781797637285 0 0.045387483790273367 -0.016831522300774723 0 0.043935373440823246 -0.019209635895802549 0 0.045387483790273367 -0.016831522300774723 0 0.038936438762803179 -0.018306348963465759 0 0.03708481577323957 -0.018652720885958318 0 0.037394927129029081 -0.017004918023637915 0 0.045387483790273367 -0.016831522300774723 0 0.04520486640878256 -0.013953053370566938 0 0.037581344430807233 -0.015693464070784379 0 0.038292391941537475 -0.012965571742288594 0 0.039886976777979789 -0.01474302248369996 0 0.038292391941537475 -0.012965571742288594 0 0.039886976777979789 -0.01474302248369996 0 0.041727647891857803 -0.012384618270860091 0 0.039886976777979789 -0.01474302248369996 0 0.041955277045363483 -0.014651424849728138 0 0.041727647891857803 -0.012384618270860091 0 0.045387483790273367 -0.016831522300774723 0 0.037559158899823128 -0.017226542593967189 0 0.039886976777979789 -0.01474302248369996 0 0.040881531368068956 -0.017754778823073289 0 0.041955277045363483 -0.014651424849728138 0 0.038936438762803179 -0.018306348963465759 0 0.037394927129029081 -0.017004918023637915 0 0.040881531368068956 -0.017754778823073289 0 0.037581344430807233 -0.015693464070784379 0 0.039886976777979789 -0.01474302248369996 0 0.040881531368068956 -0.017754778823073289 0 0.039943259003985203 -0.019012045267324845 0 0.038936438762803179 -0.018306348963465759 0 0.040881531368068956 -0.017754778823073289 0 0.040881531368068956 -0.017754778823073289 0 0.04308146767082445 -0.017084258774405378 0 0.041955277045363483 -0.014651424849728138 0 0.041955277045363483 -0.014651424849728138 0 0.041727647891857803 -0.012384618270860091 0 0.044980687616380251 -0.013244609247661382 0 0.04308146767082445 -0.017084258774405378 0 0.041955277045363483 -0.014651424849728138 0 0.044980687616380251 -0.013244609247661382 0 0.041727647891857803 -0.012384618270860091 0 0.044137844430330045 -0.010892204269133867 0 0.044980687616380251 -0.013244609247661382 0 0.041727647891857803 -0.012384618270860091 0 0.044137844430330045 -0.010892204269133867 0 0.042601560891610317 -0.0099153415727997948 0 0.038292391941537475 -0.012965571742288594 0 0.041727647891857803 -0.012384618270860091 0 0.040518696328571642 -0.010901444751013295 0 0.041727647891857803 -0.012384618270860091 0 0.040518696328571642 -0.010901444751013295 0 0.042601560891610317 -0.0099153415727997948 0 0.040518696328571642 -0.010901444751013295 0 0.040984786014997457 -0.0088341075529991438 0 0.042601560891610317 -0.0099153415727997948 0 0.040984786014997457 -0.0088341075529991438 0 0.042601560891610317 -0.0099153415727997948 0 0.042865291539144992 -0.0077592649026234509 0 0.042601560891610317 -0.0099153415727997948 0 0.042865291539144992 -0.0077592649026234509 0 0.044643875238218063 -0.0090281344700339008 0 0.044137844430330045 -0.010892204269133867 0 0.042601560891610317 -0.0099153415727997948 0 0.044643875238218063 -0.0090281344700339008 0 0.044895529288497514 -0.0057095753779788363 0 0.043643280363281342 -0.0063385968690732796 0 0.045393833844866463 -0.0070949342156146561 0 0.04478554420529994 -0.0061938391073715141 0 0.042487937943732255 -0.006611912205330841 0 0.043205955375327933 -0.0075514016759231006 0 0.046583645282484619 -0.0087737691432506638 0 0.045078437843517088 -0.0075176857202394346 0 0.043835437780345612 -0.0085135881286789623 0 0.042987983599572066 -0.0077408781460666072 0 0.04478554420529994 -0.0061938391073715141 0 0.043205955375327933 -0.0075514016759231006 0 0.042487937943732255 -0.006611912205330841 0 0.043890757262731783 -0.007257439218576878 0 0.041751242841425833 -0.0086161684917007274 0 0.042987983599572066 -0.0077408781460666072 0 0.04088108722864349 -0.0076926118990782669 0 0.041888085848666039 -0.0099931459685494353 0 0.043729548660751086 -0.0087464047172901294 0 0.04298499360236837 -0.0081889853008701111 0 0.040962016863890602 -0.0099832958061698701 0 0.043205955375327933 -0.0075514016759231006 0 0.041888085848666039 -0.0099931459685494353 0 0.041751242841425833 -0.0086161684917007274 0 0.04298499360236837 -0.0081889853008701111 0 0.041751242841425833 -0.0086161684917007274 0 0.04298499360236837 -0.0081889853008701111 0 0.042987983599572066 -0.0077408781460666072 0 0.043205955375327933 -0.0075514016759231006 0 0.043344984533468356 -0.0078867486925759626 0 0.043835437780345612 -0.0085135881286789623 0 0.04298499360236837 -0.0081889853008701111 0 0.042987983599572066 -0.0077408781460666072 0 0.042809084075820271 -0.0054219378742617749 0 0.04201276593704803 -0.0042523769883565403 0 0.040617443490829158 -0.0051827975668210452 0 0.044871215380731896 -0.0056268707827130705 0 0.042809084075820271 -0.0054219378742617749 0 0.043183873793624587 -0.0039442200845024936 0 0.042809084075820271 -0.0054219378742617749 0 0.04201276593704803 -0.0042523769883565403 0 0.043183873793624587 -0.0039442200845024936 0 0.04201276593704803 -0.0042523769883565403 0 0.043183873793624587 -0.0039442200845024936 0 0.0414799088733512 -0.0025303379501971446 0 0.043183873793624587 -0.0039442200845024936 0 0.045144268604695642 -0.0045328108224313383 0 0.046044666719497099 -0.0036682750622970047 0 0.044871215380731896 -0.0056268707827130705 0 0.043183873793624587 -0.0039442200845024936 0 0.045144268604695642 -0.0045328108224313383 0 0.044871215380731896 -0.0056268707827130705 0 0.045144268604695642 -0.0045328108224313383 0 0.046166195336875444 -0.004925282032930022 0 0.045102170561884439 -0.0023403701961811421 0 0.04524359467153094 -0.00090019083682543928 0 0.04313188039880584 -0.0018562407980605212 0 0.043319343436193564 -0.0040050401800800746 0 0.045450982172713712 -0.0030384672213033255 0 0.043183873793624587 -0.0039442200845024936 0 0.045102170561884439 -0.0023403701961811421 0 0.04313188039880584 -0.0018562407980605212 0 0.044931757857808161 -0.00043712005800797547 0 0.043693898075559234 -0.00044152408204986527 0 0.04313188039880584 -0.0018562407980605212 0 0.045019569496621198 -0.00069270766028913064 0 0.043252366958150455 -0.0018060649318641557 0 0.044174108368569526 0.00078386054412069625 0 0.044931757857808161 -0.00043712005800797547 0 0.043693898075559234 -0.00044152408204986527 0 0.044174108368569526 0.00078386054412069625 0 0.043693898075559234 -0.00044152408204986527 0 0.042250314025737125 -0.0002125112365460645 0 0.043693898075559234 -0.00044152408204986527 0 0.04313188039880584 -0.0018562407980605212 0 0.042250314025737125 -0.0002125112365460645 0 0.043183873793624587 -0.0039442200845024936 0 0.04313188039880584 -0.0018562407980605212 0 0.0414799088733512 -0.0025303379501971446 0 0.04313188039880584 -0.0018562407980605212 0 0.0414799088733512 -0.0025303379501971446 0 0.042250314025737125 -0.0002125112365460645 0 0.045974857601165764 -0.0030355601821000239 0 0.045438691909326062 -0.0011496600976724464 0 0.046269741912568066 -0.00038955784884564396 0 0.043684900393785343 -0.0024515608154863436 0 0.044260294169618193 -0.00031692489663607388 0 0.045974857601165764 -0.0030355601821000239 0 0.045302383587041938 -0.0021755017071893815 0 0.04474912411925755 -0.0031567823456640229 0 0.045974857601165764 -0.0030355601821000239 0 0.045302383587041938 -0.0021755017071893815 0 0.045438691909326062 -0.0011496600976724464 0 0.045302383587041938 -0.0021755017071893815 0 0.045438691909326062 -0.0011496600976724464 0 0.04455554247724948 -0.0010070333760861816 0 0.044968274332729652 0.00062230611586331145 0 0.045438691909326062 -0.0011496600976724464 0 0.04455554247724948 -0.0010070333760861816 0 0.044968274332729652 0.00062230611586331145 0 0.045438691909326062 -0.0011496600976724464 0 0.046269741912568066 -0.00038955784884564396 0 0.046746522717136398 0.0013984654824812745 0 0.046570487646994216 -0.00059342964179875967 0 0.044851032636231455 0.00026730077100196002 0 0.046570487646994216 -0.00059342964179875967 0 0.044968274332729652 0.00062230611586331145 0 0.04455554247724948 -0.0010070333760861816 0 0.043471408576422906 -0.00070744088846860114 0 0.04455554247724948 -0.0010070333760861816 0 0.043471408576422906 -0.00070744088846860114 0 0.043550905671625832 -0.0017019796609816971 0 0.046570487646994216 -0.00059342964179875967 0 0.046515923895378147 -0.0013445361211121209 0 0.049895861196719515 -0.00092649157720589787 0 0.050018523622988788 -0.0025799361823170331 0 0.049251809178701568 -0.0017498638478160476 0 0.044186123868576579 -0.0019450629435046104 0 0.046515923895378147 -0.0013445361211121209 0 0.045302383587041938 -0.0021755017071893815 0 0.043536739164010789 -0.0018110565563143751 0 0.04474912411925755 -0.0031567823456640229 0 0.043536739164010789 -0.0018110565563143751 0 0.043726447391340795 -0.0034630590897514919 0 0.04474912411925755 -0.0031567823456640229 0 0.049258024238540213 -0.00087351978593792044 0 0.049057920105125524 4.1644104455908709e-05 0 0.050062350882691259 -1.4601841742307505e-05 0 0.045302383587041938 -0.0021755017071893815 0 0.04455554247724948 -0.0010070333760861816 0 0.043550905671625832 -0.0017019796609816971 0 0.046515923895378147 -0.0013445361211121209 0 0.046829563896185547 -0.0026418090969923935 0 0.050018523622988788 -0.0025799361823170331 0 0.050067166723604353 -0.0042207803145315904 0 0.048776403587488533 -0.0029266901057047822 0 0.046829563896185547 -0.0026418090969923935 0 0.048135334523323553 -0.0069239178181122931 0 0.043726447391340795 -0.0034630590897514919 0 0.044766261097315879 -0.0041739543870264861 0 0.043936452556457728 -0.0050727405090552997 0 0.043726447391340795 -0.0034630590897514919 0 0.04474912411925755 -0.0031567823456640229 0 0.044766261097315879 -0.0041739543870264861 0 0.043684900393785343 -0.0024515608154863436 0 0.043890757262731783 -0.007257439218576878 0 0.04201276593704803 -0.0042523769883565403 0 0.0414799088733512 -0.0025303379501971446 0 0.040617443490829158 -0.0051827975668210452 0 0.045974857601165764 -0.0030355601821000239 0 0.04474912411925755 -0.0031567823456640229 0 0.044766261097315879 -0.0041739543870264861 0 0.045974857601165764 -0.0030355601821000239 0 0.044766261097315879 -0.0041739543870264861 0 0.045676095801783244 -0.0054424381264248523 0 0.043890757262731783 -0.007257439218576878 0 0.048135334523323553 -0.0069239178181122931 0 0.039933832954337604 -0.011218045001994957 0 0.041751242841425833 -0.0086161684917007274 0 0.04088108722864349 -0.0076926118990782669 0 0.045811445370857302 -0.011559926067400552 0 0.043890757262731783 -0.007257439218576878 0 0.048224150619587965 -0.010379229256303375 0 0.048461393167488119 -0.0099675736737176151 0 0.048597166052823021 -0.01000677816069296 0 0.044766261097315879 -0.0041739543870264861 0 0.045676095801783244 -0.0054424381264248523 0 0.043936452556457728 -0.0050727405090552997 0 0.048360409844931201 -0.0097946563322390909 0 0.048224150619587965 -0.010379229256303375 0 0.048461393167488119 -0.0099675736737176151 0 0.048830063490182013 -0.010762864171143824 0 0.048135334523323553 -0.0069239178181122931 0 0.048648703448289747 -0.0096722818398150018 0 0.048461393167488119 -0.0099675736737176151 0 0.048597166052823021 -0.01000677816069296 0 0.04892590254919206 -0.0094597049093815399 0 0.048918213058650989 -0.0099617172500749852 0 0.049197775727087709 -0.0094102655834692513 0 0.048135334523323553 -0.0069239178181122931 0 0.049703989117513253 -0.0057162968548585711 0 0.050067166723604353 -0.0042207803145315904 0 0.047506240272213299 -0.0037199462209637118 0 0.048776403587488533 -0.0029266901057047822 0 0.048918213058650989 -0.0099617172500749852 0 0.049197775727087709 -0.0094102655834692513 0 0.049682122838729526 -0.0091951431470821184 0 0.049197775727087709 -0.0094102655834692513 0 0.049470764744135108 -0.0091343361043381907 0 0.049682122838729526 -0.0091951431470821184 0 0.049452950414881632 -0.0080494049164153217 0 0.049703989117513253 -0.0057162968548585711 0 0.049470764744135108 -0.0091343361043381907 0 0.049772260939638061 -0.0089119116041280529 0 0.049682122838729526 -0.0091951431470821184 0 0.049772260939638061 -0.0089119116041280529 0 0.049967898642492764 -0.0092533226917946142 0 0.050529768047458498 -0.0083411533020618222 0 0.049682069697557021 -0.0087845430707497764 0 0.049772260939638061 -0.0089119116041280529 0 0.050529768047458498 -0.0083411533020618222 0 0.049703989117513253 -0.0057162968548585711 0 0.050986608493121775 -0.0019571932873900777 0 0.052091939770520734 -0.0045601237476285052 0 0.053485759935891088 -0.0034109035249923472 0 0.052464517067079941 -0.003386996013714122 0 0.051642307575402828 -0.0037616522321759186 0 0.050986608493121775 -0.0019571932873900777 0 0.051306739526065737 -0.0043482508160281944 0 0.050798168133732301 -0.0031139762343353502 0 0.052406436194367238 -0.0023089192734439146 0 0.047506240272213299 -0.0037199462209637118 0 0.048776403587488533 -0.0029266901057047822 0 0.048238345623460764 -0.001324210328270069 0 0.048776403587488533 -0.0029266901057047822 0 0.049251809178701568 -0.0017498638478160476 0 0.048238345623460764 -0.001324210328270069 0 0.050018523622988788 -0.0025799361823170331 0 0.048776403587488533 -0.0029266901057047822 0 0.049251809178701568 -0.0017498638478160476 0 0.049251809178701568 -0.0017498638478160476 0 0.048238345623460764 -0.001324210328270069 0 0.048989221848441566 -0.00076534870334593141 0 0.050986608493121775 -0.0019571932873900777 0 0.051860602433383828 -0.0015789319375151243 0 0.050986608493121775 -0.0019571932873900777 0 0.04958125695577946 -0.0011298834104252484 0 0.049717060513147608 -0.0023386447100314897 0 0.049742485117226155 -0.0022207221662101312 0 0.049824347634018516 -0.0022341297381252459 0 0.051860602433383828 -0.0015789319375151243 0 0.04958125695577946 -0.0011298834104252484 0 0.046515923895378147 -0.0013445361211121209 0 0.04958125695577946 -0.0011298834104252484 0 0.049895861196719515 -0.00092649157720589787 0 0.049251809178701568 -0.0017498638478160476 0 0.048989221848441566 -0.00076534870334593141 0 0.049152944329035261 0.0014694739889894201 0 0.049960608181574905 -4.1182123309832776e-05 0 0.048668923979456921 -0.00057901683661815682 0 0.054522709832896865 0.00026956915001388667 0 0.05389805161919814 -0.0015259418472928588 0 0.053335318905278178 -0.00033213500727485428 0 0.052190717861495983 0.0010959062985514017 0 0.051860602433383828 -0.0015789319375151243 0 0.049960608181574905 -4.1182123309832776e-05 0 0.048668923979456921 -0.00057901683661815682 0 0.049219751595873301 -0.00069647635119021885 0 0.046570487646994216 -0.00059342964179875967 0 0.04958125695577946 -0.0011298834104252484 0 0.05389805161919814 -0.0015259418472928588 0 0.053335318905278178 -0.00033213500727485428 0 0.052039733746671077 -0.0011748477170570682 0 0.05242353093174703 0.00025207036193415703 0 0.053335318905278178 -0.00033213500727485428 0 0.052039733746671077 -0.0011748477170570682 0 0.051860602433383828 -0.0015789319375151243 0 0.052344314175993827 -0.0017084830991119316 0 0.053734750979369444 -0.0027206695299807505 0 0.052464517067079941 -0.003386996013714122 0 0.051914025264619329 -0.0020945264958343347 0 0.053485759935891088 -0.0034109035249923472 0 0.053734750979369444 -0.0027206695299807505 0 0.052464517067079941 -0.003386996013714122 0 0.052464517067079941 -0.003386996013714122 0 0.051914025264619329 -0.0020945264958343347 0 0.051208653667317153 -0.0041178223028177953 0 0.05242353093174703 0.00025207036193415703 0 0.052039733746671077 -0.0011748477170570682 0 0.051247825477861324 -0.00013106721897998547 0 0.052039733746671077 -0.0011748477170570682 0 0.051247825477861324 -0.00013106721897998547 0 0.049999969956362973 -0.0010572641720018091 0 0.052344314175993827 -0.0017084830991119316 0 0.049999598505563257 -0.001057888283563376 0 0.049999969737293468 0.00021161029694328879 0 0.051247825477861324 -0.00013106721897998547 0 0.049999969956362973 -0.0010572641720018091 0 0.051914025264619329 -0.0020945264958343347 0 0.049999720569182525 -0.0034397701237107604 0 0.051208653667317153 -0.0041178223028177953 0 0.051914025264619329 -0.0020945264958343347 0 0.049999846755216369 -0.0010588733746876007 0 0.049999720569182525 -0.0034397701237107604 0 0.049999720569182525 -0.0034397701237107604 0 0.051208653667317153 -0.0041178223028177953 0 0.049999378614418895 -0.0058201081129965878 0 0.052091939770520734 -0.0045601237476285052 0 0.052464517067079941 -0.003386996013714122 0 0.051208653667317153 -0.0041178223028177953 0 0.052091939770520734 -0.0045601237476285052 0 0.051208653667317153 -0.0041178223028177953 0 0.050905147291867577 -0.0056870773465916855 0 0.049967898642492764 -0.0092533226917946142 0 0.050529768047458498 -0.0083411533020618222 0 0.051306210153286125 -0.007406085212493258 0 0.051306739526065737 -0.0043482508160281944 0 0.050798168133732301 -0.0031139762343353502 0 0.049199173186305893 -0.0039126526321657078 0 0.049703989117513253 -0.0057162968548585711 0 0.050551246411695575 -0.0058213596671363825 0 0.051642307575402828 -0.0037616522321759186 0 0.050551246411695575 -0.0058213596671363825 0 0.051151441243765368 -0.00792302350705224 0 0.050529768047458498 -0.0083411533020618222 0 0.051306210153286125 -0.007406085212493258 0 0.051208653667317153 -0.0041178223028177953 0 0.050905147291867577 -0.0056870773465916855 0 0.049999378614418895 -0.0058201081129965878 0 0.051035036219596312 -0.0071153212861982101 0 0.05076068769696547 -0.0069855447701373044 0 0.050000470563405348 -0.0058234169118548075 0 0.050551246411695575 -0.0058213596671363825 0 0.050440644033367163 -0.0066145062893729432 0 0.050551246411695575 -0.0058213596671363825 0 0.050000226729432488 -0.0058209883400867392 0 0.022891621110957317 -0.00069527091449831909 0 0.022289256303867716 0.00093832537826560823 0 0.019809431562335052 0.0067847611932650648 0 0.020888061223988084 0.0075777490948497304 0 0.018570168136633432 0.0061012465901353575 0 0.020493457338420361 0.0062757180755922091 0 0.021869325939579323 0.0065890837560668219 0 0.022522081839972671 0.0056577549192682666 0 0.020493457338420361 0.0062757180755922091 0 0.01996100595870684 0.0053707129497836664 0 0.019007331766983007 0.005578529933723317 0 0.020493457338420361 0.0062757180755922091 0 0.019809431562335052 0.0067847611932650648 0 0.019007331766983007 0.005578529933723317 0 0.020493457338420361 0.0062757180755922091 0 0.019809431562335052 0.0067847611932650648 0 0.020888061223988084 0.0075777490948497304 0 0.020493457338420361 0.0062757180755922091 0 0.020888061223988084 0.0075777490948497304 0 0.021869325939579323 0.0065890837560668219 0 0.022891621110957317 -0.00069527091449831909 0 0.028656576763609914 -0.0031138353191818035 0 0.023362491269141885 0.0068420391899677597 0 0.024257674004219819 0.0054677800287604734 0 0.024805200618760841 0.008441379481154752 0 0.020888061223988084 0.0075777490948497304 0 0.023362491269141885 0.0068420391899677597 0 0.024805200618760841 0.008441379481154752 0 0.020888061223988084 0.0075777490948497304 0 0.023362491269141885 0.0068420391899677597 0 0.021869325939579323 0.0065890837560668219 0 0.023362491269141885 0.0068420391899677597 0 0.022522081839972671 0.0056577549192682666 0 0.024257674004219819 0.0054677800287604734 0 0.023362491269141885 0.0068420391899677597 0 0.021869325939579323 0.0065890837560668219 0 0.022522081839972671 0.0056577549192682666 0 0.022522081839972671 0.0056577549192682666 0 0.024257674004219819 0.0054677800287604734 0 0.024085380922134178 0.0042397532255573321 0 0.022522081839972671 0.0056577549192682666 0 0.021737989971201122 0.0050016603391284959 0 0.024085380922134178 0.0042397532255573321 0 0.020493457338420361 0.0062757180755922091 0 0.022522081839972671 0.0056577549192682666 0 0.01996100595870684 0.0053707129497836664 0 0.021737989971201122 0.0050016603391284959 0 0.01996100595870684 0.0053707129497836664 0 0.020759493230183584 0.0047048212417905534 0 0.022522081839972671 0.0056577549192682666 0 0.021737989971201122 0.0050016603391284959 0 0.01996100595870684 0.0053707129497836664 0 0.01996100595870684 0.0053707129497836664 0 0.018105220149669223 0.0049457619303917505 0 0.019007331766983007 0.005578529933723317 0 0.01996100595870684 0.0053707129497836664 0 0.018105220149669223 0.0049457619303917505 0 0.018725253875824615 0.0051025159522090019 0 0.018105220149669223 0.0049457619303917505 0 0.017512936748803432 0.0050646675020900355 0 0.018725253875824615 0.0051025159522090019 0 0.018105220149669223 0.0049457619303917505 0 0.017754881754999008 0.0041650527082226375 0 0.017512936748803432 0.0050646675020900355 0 0.017754881754999008 0.0041650527082226375 0 0.017512936748803432 0.0050646675020900355 0 0.017699453050709971 0.0039231053873974731 0 0.018105220149669223 0.0049457619303917505 0 0.017754881754999008 0.0041650527082226375 0 0.018210803568364579 0.0051111009190367741 0 0.022566380496885679 -0.002073848611790401 0 0.022289256303867716 0.00093832537826560823 0 0.017754881754999008 0.0041650527082226375 0 0.017883118874150842 0.0041812891523886108 0 0.018210803568364579 0.0051111009190367741 0 0.017883118874150842 0.0041812891523886108 0 0.018210803568364579 0.0051111009190367741 0 0.018556651441104709 0.005908325211947521 0 0.019809431562335052 0.0067847611932650648 0 0.019007331766983007 0.005578529933723317 0 0.018210803568364579 0.0051111009190367741 0 0.019809431562335052 0.0067847611932650648 0 0.018210803568364579 0.0051111009190367741 0 0.018556651441104709 0.005908325211947521 0 0.018105220149669223 0.0049457619303917505 0 0.019007331766983007 0.005578529933723317 0 0.018210803568364579 0.0051111009190367741 0 0.018668358977775076 0.0052369014391230491 0 0.022289256303867716 0.00093832537826560823 0 0.027397857829697957 -0.0088875255479707888 0 0.027426019990634584 -0.009822474964988873 0 0.026694915758166821 -0.0095367417197662879 0 0.027397857829697957 -0.0088875255479707888 0 0.027426019990634584 -0.009822474964988873 0 0.028110689270456436 -0.0095908045735909504 0 0.027426019990634584 -0.009822474964988873 0 0.026708002727173 -0.010265476716987276 0 0.026694915758166821 -0.0095367417197662879 0 0.028549181894086905 -0.0089710237755253001 0 0.027397857829697957 -0.0088875255479707888 0 0.028110689270456436 -0.0095908045735909504 0 0.028549181894086905 -0.0089710237755253001 0 0.028110689270456436 -0.0095908045735909504 0 0.02906927072131028 -0.0098973092579557002 0 0.027426019990634584 -0.009822474964988873 0 0.028110689270456436 -0.0095908045735909504 0 0.028129682492573208 -0.01035135540425635 0 0.028110689270456436 -0.0095908045735909504 0 0.028129682492573208 -0.01035135540425635 0 0.02906927072131028 -0.0098973092579557002 0 0.028129682492573208 -0.01035135540425635 0 0.028954537790008571 -0.01096624598250495 0 0.02906927072131028 -0.0098973092579557002 0 0.028129682492573208 -0.01035135540425635 0 0.028217624181424369 -0.011102302820201011 0 0.02743699059148769 -0.010606717766833871 0 0.028129682492573208 -0.01035135540425635 0 0.028217624181424369 -0.011102302820201011 0 0.028954537790008571 -0.01096624598250495 0 0.027426019990634584 -0.009822474964988873 0 0.02743699059148769 -0.010606717766833871 0 0.026708002727173 -0.010265476716987276 0 0.027426019990634584 -0.009822474964988873 0 0.028129682492573208 -0.01035135540425635 0 0.02743699059148769 -0.010606717766833871 0 0.027499657798963375 -0.011377379795520448 0 0.02743699059148769 -0.010606717766833871 0 0.026835068136039114 -0.010943911061890084 0 0.027499657798963375 -0.011377379795520448 0 0.028217624181424369 -0.011102302820201011 0 0.02743699059148769 -0.010606717766833871 0 0.02743699059148769 -0.010606717766833871 0 0.026835068136039114 -0.010943911061890084 0 0.026708002727173 -0.010265476716987276 0 0.026835068136039114 -0.010943911061890084 0 0.026027845982856498 -0.010735675571195542 0 0.026708002727173 -0.010265476716987276 0 0.026027845982856498 -0.010735675571195542 0 0.026708002727173 -0.010265476716987276 0 0.02595573953362041 -0.0097874892816402527 0 0.026708002727173 -0.010265476716987276 0 0.026694915758166821 -0.0095367417197662879 0 0.02595573953362041 -0.0097874892816402527 0 0.025984572455080093 -0.0089205930587406557 0 0.027397857829697957 -0.0088875255479707888 0 0.026694915758166821 -0.0095367417197662879 0 0.025984572455080093 -0.0089205930587406557 0 0.02595573953362041 -0.0097874892816402527 0 0.025386620719657488 -0.0094326117620333362 0 0.025984572455080093 -0.0089205930587406557 0 0.026694915758166821 -0.0095367417197662879 0 0.02595573953362041 -0.0097874892816402527 0 0.025984572455080093 -0.0089205930587406557 0 0.025386620719657488 -0.0094326117620333362 0 0.02458083742201015 -0.0088898228581443563 0 0.025386620719657488 -0.0094326117620333362 0 0.025022659828839611 -0.010139334053721494 0 0.02458083742201015 -0.0088898228581443563 0 0.032416752868473057 -0.010459340807707785 0 0.028656576763609914 -0.0031138353191818035 0 0.02595573953362041 -0.0097874892816402527 0 0.025386620719657488 -0.0094326117620333362 0 0.025022659828839611 -0.010139334053721494 0 0.033327783779326894 -0.013191103104921711 0 0.032416752868473057 -0.010459340807707785 0 0.039417661867436636 -0.01183897288761991 0 0.039339644438217636 -0.0097547604189250695 0 0.03802656775902883 -0.011435904106059963 0 0.025493055876828201 -0.011381763408176312 0 0.026027845982856498 -0.010735675571195542 0 0.025022659828839611 -0.010139334053721494 0 0.026027845982856498 -0.010735675571195542 0 0.02595573953362041 -0.0097874892816402527 0 0.025022659828839611 -0.010139334053721494 0 0.03802656775902883 -0.011435904106059963 0 0.035624606757446324 -0.0115058810555962 0 0.037405343606603164 -0.0089021316735556147 0 0.038147416076752719 -0.013175913267287136 0 0.03529129359767301 -0.011639835489847006 0 0.039339644438217636 -0.0097547604189250695 0 0.03802656775902883 -0.011435904106059963 0 0.037405343606603164 -0.0089021316735556147 0 0.036037839847772452 -0.014233276182334482 0 0.037060647462756183 -0.014551587425811897 0 0.035624606757446324 -0.0115058810555962 0 0.035015820133291999 -0.014734967732622407 0 0.035624606757446324 -0.0115058810555962 0 0.033606824532336245 -0.011940388249055934 0 0.035624606757446324 -0.0115058810555962 0 0.034672730306956348 -0.0085232520055423481 0 0.033606824532336245 -0.011940388249055934 0 0.035624606757446324 -0.0115058810555962 0 0.034672730306956348 -0.0085232520055423481 0 0.037405343606603164 -0.0089021316735556147 0 0.034672730306956348 -0.0085232520055423481 0 0.032272873235274883 -0.0045990128978304224 0 0.03612492099567103 -0.0058667994553180886 0 0.034672730306956348 -0.0085232520055423481 0 0.037405343606603164 -0.0089021316735556147 0 0.03612492099567103 -0.0058667994553180886 0 0.037405343606603164 -0.0089021316735556147 0 0.03874261124664382 -0.0064365671206356081 0 0.03612492099567103 -0.0058667994553180886 0 0.039339644438217636 -0.0097547604189250695 0 0.037405343606603164 -0.0089021316735556147 0 0.03874261124664382 -0.0064365671206356081 0 0.031335949476300334 -0.013017796983190508 0 0.032156805917429261 -0.011833814014111071 0 0.030918151397644842 -0.0087395159544988079 0 0.030285151024954323 -0.012081118402773072 0 0.031104811176581482 -0.0091291794253083106 0 0.029316432805453888 -0.01202086397754978 0 0.027649688257006474 -0.0097422602746122383 0 0.030918151397644842 -0.0087395159544988079 0 0.032156805917429261 -0.011833814014111071 0 0.033606824532336245 -0.011940388249055934 0 0.03278883639419311 -0.009085644389856767 0 0.032156805917429261 -0.011833814014111071 0 0.03278883639419311 -0.009085644389856767 0 0.030918151397644842 -0.0087395159544988079 0 0.032591547793741085 -0.013985574390204977 0 0.032156805917429261 -0.011833814014111071 0 0.033606824532336245 -0.011940388249055934 0 0.034672730306956348 -0.0085232520055423481 0 0.033606824532336245 -0.011940388249055934 0 0.03278883639419311 -0.009085644389856767 0 0.034672730306956348 -0.0085232520055423481 0 0.03278883639419311 -0.009085644389856767 0 0.032272873235274883 -0.0045990128978304224 0 0.03278883639419311 -0.009085644389856767 0 0.030918151397644842 -0.0087395159544988079 0 0.032272873235274883 -0.0045990128978304224 0 0.030918151397644842 -0.0087395159544988079 0 0.029587145349367166 -0.0051307920263733153 0 0.032272873235274883 -0.0045990128978304224 0 0.035108786632553839 -0.013382455767965075 0 0.037420488625926507 -0.0096705566958646128 0 0.027649688257006474 -0.0097422602746122383 0 0.030918151397644842 -0.0087395159544988079 0 0.029587145349367166 -0.0051307920263733153 0 0.044137844430330045 -0.010892204269133867 0 0.044980687616380251 -0.013244609247661382 0 0.046443228341802333 -0.010145598476233409 0 0.037420488625926507 -0.0096705566958646128 0 0.037328172790236987 -0.0039641683791669449 0 0.029587145349367166 -0.0051307920263733153 0 0.031372875217602514 -0.0040121731401970622 0 0.031204461244474478 -0.0029012157568216708 0 0.029587145349367166 -0.0051307920263733153 0 0.032272873235274883 -0.0045990128978304224 0 0.031372875217602514 -0.0040121731401970622 0 0.032272873235274883 -0.0045990128978304224 0 0.031372875217602514 -0.0040121731401970622 0 0.031244615369114919 -0.0039898658533071944 0 0.031372875217602514 -0.0040121731401970622 0 0.031204461244474478 -0.0029012157568216708 0 0.031244615369114919 -0.0039898658533071944 0 0.037328172790236987 -0.0039641683791669449 0 0.026686572028821569 0.00023370643993316995 0 0.025307074624871955 0.0035267789644236156 0 0.025691415006774878 0.0036803814315048795 0 0.025301323550731482 0.002780405756425883 0 0.037328172790236987 -0.0039641683791669449 0 0.046583645282484619 -0.0087737691432506638 0 0.044137844430330045 -0.010892204269133867 0 0.046443228341802333 -0.010145598476233409 0 0.044643875238218063 -0.0090281344700339008 0 0.024257674004219819 0.0054677800287604734 0 0.024805200618760841 0.008441379481154752 0 0.026971313107075148 0.003811744293915021 0 0.030580690179550833 -0.0028674363784704079 0 0.02822635106323057 -0.00074925850783501768 0 0.028948466172500052 -0.0017906094697543583 0 0.028656576763609914 -0.0031138353191818035 0 0.0264471123952657 0.0059365852126085196 0 0.030580690179550833 -0.0028674363784704079 0 0.02822635106323057 -0.00074925850783501768 0 0.026971313107075148 0.003811744293915021 0 0.028656576763609914 -0.0031138353191818035 0 0.03348598487317183 -0.0040687007671074181 0 0.02822635106323057 -0.00074925850783501768 0 0.028948466172500052 -0.0017906094697543583 0 0.031244615369114919 -0.0039898658533071944 0 0.032272873235274883 -0.0045990128978304224 0 0.028948466172500052 -0.0017906094697543583 0 0.031244615369114919 -0.0039898658533071944 0 0.031597034514864661 -0.0043257130305279154 0 0.03348598487317183 -0.0040687007671074181 0 0.029122435616283009 -0.001111227574198771 0 0.026686572028821569 0.00023370643993316995 0 0.025691415006774878 0.0036803814315048795 0 0.025301323550731482 0.002780405756425883 0 0.026081641991278142 0.0039206537596955587 0 0.025301323550731482 0.002780405756425883 0 0.026971313107075148 0.003811744293915021 0 0.026081641991278142 0.0039206537596955587 0 0.02822635106323057 -0.00074925850783501768 0 0.025301323550731482 0.002780405756425883 0 0.026971313107075148 0.003811744293915021 0 0.024257674004219819 0.0054677800287604734 0 0.026971313107075148 0.003811744293915021 0 0.024085380922134178 0.0042397532255573321 0 0.026971313107075148 0.003811744293915021 0 0.025877220129813132 0.003759982248813343 0 0.024085380922134178 0.0042397532255573321 0 0.026971313107075148 0.003811744293915021 0 0.025877220129813132 0.003759982248813343 0 0.026081641991278142 0.0039206537596955587 0 0.025877220129813132 0.003759982248813343 0 0.02515507817753496 0.0028618044066647222 0 0.024085380922134178 0.0042397532255573321 0 0.025877220129813132 0.003759982248813343 0 0.025993289926399699 0.0037569920987709535 0 0.02515507817753496 0.0028618044066647222 0 0.026081641991278142 0.0039206537596955587 0 0.025993289926399699 0.0037569920987709535 0 0.026233868249077051 0.0040537014715640715 0 0.025691415006774878 0.0036803814315048795 0 0.026081641991278142 0.0039206537596955587 0 0.026233868249077051 0.0040537014715640715 0 0.025877220129813132 0.003759982248813343 0 0.026081641991278142 0.0039206537596955587 0 0.025993289926399699 0.0037569920987709535 0 0.025993289926399699 0.0037569920987709535 0 0.026449948125398266 0.0042906018006845913 0 0.026184092536629591 0.0045975640646748472 0 0.023302140206045069 0.0030074685152168619 0 0.037055414384393887 -0.00077967761004151784 0 0.034707506274676038 0.0010147126502623755 0 0.037055414384393887 -0.00077967761004151784 0 0.020982131153224531 0.0063682429679550257 0 0.021115759617894015 0.0075348631301877037 0 0.021174350476910804 0.006659402764567451 0 0.025993289926399699 0.0037569920987709535 0 0.026449948125398266 0.0042906018006845913 0 0.02515507817753496 0.0028618044066647222 0 0.020940409586536403 0.0078783617708056333 0 0.020982131153224531 0.0063682429679550257 0 0.021115759617894015 0.0075348631301877037 0 0.034707506274676038 0.0010147126502623755 0 0.020494438353128801 0.005865736261195977 0 0.044895529288497514 -0.0057095753779788363 0 0.045393833844866463 -0.0070949342156146561 0 0.046460914319821529 -0.0059157494451893078 0 0.04658510130245825 -0.0077113837704335083 0 0.045393833844866463 -0.0070949342156146561 0 0.046460914319821529 -0.0059157494451893078 0 0.04658510130245825 -0.0077113837704335083 0 0.047429522896315322 -0.0060045299927238942 0 0.046460914319821529 -0.0059157494451893078 0 0.025307074624871955 0.0035267789644236156 0 0.025691415006774878 0.0036803814315048795 0 0.026233868249077051 0.0040537014715640715 0 0.037328172790236987 -0.0039641683791669449 0 0.037055414384393887 -0.00077967761004151784 0 0.047419627623480017 -0.0059962576514308559 0 0.047255322935763351 -0.0061936879797632348 0 0.04712098767744248 -0.0055808912916018028 0 0.037055414384393887 -0.00077967761004151784 0 0.048237538767767131 -0.0058412454987702665 0 0.047419627623480017 -0.0059962576514308559 0 0.04712098767744248 -0.0055808912916018028 0 0.047381174457116253 -0.0050760451903455591 0 0.047255322935763351 -0.0061936879797632348 0 0.04712098767744248 -0.0055808912916018028 0 0.046646806211795747 -0.0058594890049928662 0 0.04712098767744248 -0.0055808912916018028 0 0.046511601321109888 -0.0050455331597655945 0 0.047381174457116253 -0.0050760451903455591 0 0.044705260491745759 -0.0057232488507598855 0 0.046646806211795747 -0.0058594890049928662 0 0.046511601321109888 -0.0050455331597655945 0 0.04478554420529994 -0.0061938391073715141 0 0.048237538767767131 -0.0058412454987702665 0 0.04712098767744248 -0.0055808912916018028 0 0.046646806211795747 -0.0058594890049928662 0 0.046511601321109888 -0.0050455331597655945 0 0.045144268604695642 -0.0045328108224313383 0 0.046044666719497099 -0.0036682750622970047 0 0.046166195336875444 -0.004925282032930022 0 0.04478554420529994 -0.0061938391073715141 0 0.046249013951287762 -0.0050740584021752135 0 0.046044666719497099 -0.0036682750622970047 0 0.046947281029256147 -0.0041209735395729974 0 0.047885999850704138 -0.0036589406534642175 0 0.046044666719497099 -0.0036682750622970047 0 0.046166195336875444 -0.004925282032930022 0 0.046947281029256147 -0.0041209735395729974 0 0.046249013951287762 -0.0050740584021752135 0 0.048999883599270024 -0.0057657025333125575 0 0.046166195336875444 -0.004925282032930022 0 0.046947281029256147 -0.0041209735395729974 0 0.047309908756000572 -0.0046909503012023271 0 0.046911466889832436 -0.0044958573344504532 0 0.048999883599270024 -0.0057657025333125575 0 0.046947281029256147 -0.0041209735395729974 0 0.047306535918670761 -0.0046982320820896954 0 0.047684337476296711 -0.004273104389305277 0 0.047764779532310793 -0.00580160885773517 0 0.047306535918670761 -0.0046982320820896954 0 0.047765611934228812 -0.0050606764771122239 0 0.034707506274676038 0.0010147126502623755 0 0.048999883599270024 -0.0057657025333125575 0 0.047306535918670761 -0.0046982320820896954 0 0.047684337476296711 -0.004273104389305277 0 0.047765611934228812 -0.0050606764771122239 0 0.047684337476296711 -0.004273104389305277 0 0.047765611934228812 -0.0050606764771122239 0 0.048048933442378303 -0.0044338367120143642 0 0.047470502998319827 -0.0010257433864265036 0 0.047049329462951282 -0.0026787680747655017 0 0.047885999850704138 -0.0036589406534642175 0 0.048391794506731964 -0.0042051537599470494 0 0.048525256110593239 -0.0039206427311448844 0 0.047885999850704138 -0.0036589406534642175 0 0.048048933442378303 -0.0044338367120143642 0 0.048391794506731964 -0.0042051537599470494 0 0.047684337476296711 -0.004273104389305277 0 0.047885999850704138 -0.0036589406534642175 0 0.048048933442378303 -0.0044338367120143642 0 0.046947281029256147 -0.0041209735395729974 0 0.047684337476296711 -0.004273104389305277 0 0.047885999850704138 -0.0036589406534642175 0 0.045102170561884439 -0.0023403701961811421 0 0.04524359467153094 -0.00090019083682543928 0 0.046246376184394235 -0.0013481159522198151 0 0.045450982172713712 -0.0030384672213033255 0 0.047049329462951282 -0.0026787680747655017 0 0.046558072341577439 -0.00031408994941396301 0 0.04524359467153094 -0.00090019083682543928 0 0.046246376184394235 -0.0013481159522198151 0 0.046189384245625117 3.7913662022872599e-05 0 0.045019569496621198 -0.00069270766028913064 0 0.021328127436392265 0.0079906840751032514 0 0.021115759617894015 0.0075348631301877037 0 0.021080340825232483 0.0085403912905702584 0 0.021328127436392265 0.0079906840751032514 0 0.021115759617894015 0.0075348631301877037 0 0.021174350476910804 0.006659402764567451 0 0.020940409586536403 0.0078783617708056333 0 0.021115759617894015 0.0075348631301877037 0 0.021080340825232483 0.0085403912905702584 0 0.034707506274676038 0.0010147126502623755 0 0.034874106204278582 0.0016357717770895069 0 0.047764779532310793 -0.00580160885773517 0 0.047765611934228812 -0.0050606764771122239 0 0.048450938841328665 -0.0049521641965031586 0 0.047765611934228812 -0.0050606764771122239 0 0.048450938841328665 -0.0049521641965031586 0 0.048048933442378303 -0.0044338367120143642 0 0.048987418490456541 -0.0036609163763882784 0 0.047885999850704138 -0.0036589406534642175 0 0.048525256110593239 -0.0039206427311448844 0 0.048450938841328665 -0.0049521641965031586 0 0.048391794506731964 -0.0042051537599470494 0 0.048720080426250562 -0.0041358553755600968 0 0.048450938841328665 -0.0049521641965031586 0 0.048048933442378303 -0.0044338367120143642 0 0.048391794506731964 -0.0042051537599470494 0 0.048391794506731964 -0.0042051537599470494 0 0.048525256110593239 -0.0039206427311448844 0 0.048720080426250562 -0.0041358553755600968 0 0.021581506933600135 0.0096151776351814724 0 0.021328127436392265 0.0079906840751032514 0 0.021080340825232483 0.0085403912905702584 0 0.030806364598297296 0.005454040719373901 0 0.034874106204278582 0.0016357717770895069 0 0.016775518349484819 0.0090185394295564207 0 0.01672199319045559 0.0089133591680384851 0 0.015714146987274198 0.0093387429124882869 0 0.021581506933600135 0.0096151776351814724 0 0.021328127436392265 0.0079906840751032514 0 0.021623357529529996 0.007755355682444137 0 0.030806364598297296 0.005454040719373901 0 0.016640894274880497 0.0097939610069562276 0 0.048830102975589824 -0.004278195188216408 0 0.048450938841328665 -0.0049521641965031586 0 0.048720080426250562 -0.0041358553755600968 0 0.015758382341396048 0.0090982348142122915 0 0.01672199319045559 0.0089133591680384851 0 0.015714146987274198 0.0093387429124882869 0 0.015758382341396048 0.0090982348142122915 0 0.015388500420125684 0.009160170097725958 0 0.01544471666362446 0.0094220166793591003 0 0.015758382341396048 0.0090982348142122915 0 0.015714146987274198 0.0093387429124882869 0 0.015388500420125684 0.009160170097725958 0 0.015758382341396048 0.0090982348142122915 0 0.01544471666362446 0.0094220166793591003 0 0.015282821978892391 0.0099469706543708937 0 0.016640894274880497 0.0097939610069562276 0 0.018364742725164147 0.0066120145112843441 0 0.015714146987274198 0.0093387429124882869 0 0.015388500420125684 0.009160170097725958 0 0.015074512508304333 0.0080600344060745201 0 0.015388500420125684 0.009160170097725958 0 0.015074512508304333 0.0080600344060745201 0 0.016040042167844312 0.0083472161019884621 0 0.021328127436392265 0.0079906840751032514 0 0.021623357529529996 0.007755355682444137 0 0.021174350476910804 0.006659402764567451 0 0.021623357529529996 0.007755355682444137 0 0.020913491435229734 0.0056741110788172547 0 0.021174350476910804 0.006659402764567451 0 0.020982131153224531 0.0063682429679550257 0 0.021174350476910804 0.006659402764567451 0 0.020759493230183584 0.0047048212417905534 0 0.020913491435229734 0.0056741110788172547 0 0.020759493230183584 0.0047048212417905534 0 0.017882312043765374 0.0053321950224079744 0 0.020913491435229734 0.0056741110788172547 0 0.021174350476910804 0.006659402764567451 0 0.020759493230183584 0.0047048212417905534 0 0.01996100595870684 0.0053707129497836664 0 0.020759493230183584 0.0047048212417905534 0 0.018725253875824615 0.0051025159522090019 0 0.020494438353128801 0.005865736261195977 0 0.022103881464613544 0.0042492960170994812 0 0.02515507817753496 0.0028618044066647222 0 0.020759493230183584 0.0047048212417905534 0 0.024085380922134178 0.0042397532255573321 0 0.021737989971201122 0.0050016603391284959 0 0.020759493230183584 0.0047048212417905534 0 0.024085380922134178 0.0042397532255573321 0 0.017512936748803432 0.0050646675020900355 0 0.017882312043765374 0.0053321950224079744 0 0.017321331057362447 0.0060960178663003193 0 0.017512936748803432 0.0050646675020900355 0 0.017321331057362447 0.0060960178663003193 0 0.017364811794635154 0.0056415284678867283 0 0.017512936748803432 0.0050646675020900355 0 0.018725253875824615 0.0051025159522090019 0 0.017882312043765374 0.0053321950224079744 0 0.020759493230183584 0.0047048212417905534 0 0.018725253875824615 0.0051025159522090019 0 0.017882312043765374 0.0053321950224079744 0 0.015074512508304333 0.0080600344060745201 0 0.017882312043765374 0.0053321950224079744 0 0.016040042167844312 0.0083472161019884621 0 0.018364742725164147 0.0066120145112843441 0 0.017751535910572266 0.0058095108532386693 0 0.017882312043765374 0.0053321950224079744 0 0.017090980753164467 0.0070437711662649592 0 0.016040042167844312 0.0083472161019884621 0 0.017882312043765374 0.0053321950224079744 0 0.017090980753164467 0.0070437711662649592 0 0.017321331057362447 0.0060960178663003193 0 0.017090980753164467 0.0070437711662649592 0 0.017321331057362447 0.0060960178663003193 0 0.01718046149359544 0.0072282656101478578 0 0.017321331057362447 0.0060960178663003193 0 0.01718046149359544 0.0072282656101478578 0 0.01725938336082045 0.0069409448966556101 0 0.017090980753164467 0.0070437711662649592 0 0.01718046149359544 0.0072282656101478578 0 0.016940937890735489 0.0082009319702449294 0 0.01718046149359544 0.0072282656101478578 0 0.016940937890735489 0.0082009319702449294 0 0.017139935505000141 0.0078327657193029646 0 0.017090980753164467 0.0070437711662649592 0 0.01640121442941065 0.0083700787687026549 0 0.016940937890735489 0.0082009319702449294 0 0.01640121442941065 0.0083700787687026549 0 0.016940937890735489 0.0082009319702449294 0 0.01629364778672935 0.0092332979915249868 0 0.01640121442941065 0.0083700787687026549 0 0.015749863277539924 0.0090980504562324319 0 0.01629364778672935 0.0092332979915249868 0 0.016940937890735489 0.0082009319702449294 0 0.017017182621123297 0.0089260771020344496 0 0.017169834725119581 0.0083142417768179572 0 0.017090980753164467 0.0070437711662649592 0 0.01640121442941065 0.0083700787687026549 0 0.016040042167844312 0.0083472161019884621 0 0.01640121442941065 0.0083700787687026549 0 0.016040042167844312 0.0083472161019884621 0 0.015749863277539924 0.0090980504562324319 0 0.016040042167844312 0.0083472161019884621 0 0.01544471666362446 0.0094220166793591003 0 0.015749863277539924 0.0090980504562324319 0 0.015388500420125684 0.009160170097725958 0 0.016040042167844312 0.0083472161019884621 0 0.01544471666362446 0.0094220166793591003 0 0.015758382341396048 0.0090982348142122915 0 0.015339013991874619 0.0097008350862821894 0 0.015282821978892391 0.0099469706543708937 0 0.01544471666362446 0.0094220166793591003 0 0.015749863277539924 0.0090980504562324319 0 0.015282821978892391 0.0099469706543708937 0 0.015749863277539924 0.0090980504562324319 0 0.015282821978892391 0.0099469706543708937 0 0.015536376766233055 0.010411151413115513 0 0.015749863277539924 0.0090980504562324319 0 0.01629364778672935 0.0092332979915249868 0 0.015536376766233055 0.010411151413115513 0 0.014883581180369834 0.012710396052999022 0 0.015512215073302667 0.012477748518816053 0 0.015536376766233055 0.010411151413115513 0 0.014883581180369834 0.012710396052999022 0 0.015282821978892391 0.0099469706543708937 0 0.015536376766233055 0.010411151413115513 0 0.016036106054121091 0.013177785618786377 0 0.015204375931260679 0.010445121342778285 0 0.015512215073302667 0.012477748518816053 0 0.016496876697077292 0.010020872586628669 0 0.017505157735703655 0.0081258336167369764 0 0.015066227474413958 0.014202227057957732 0 0.015512215073302667 0.012477748518816053 0 0.013465899304698029 0.016681930302830706 0 0.014975954166495187 0.012468414381609541 0 0.015042124184702703 0.012359160781773631 0 0.017017182621123297 0.0089260771020344496 0 0.01629364778672935 0.0092332979915249868 0 0.016496876697077292 0.010020872586628669 0 0.016940937890735489 0.0082009319702449294 0 0.017017182621123297 0.0089260771020344496 0 0.01629364778672935 0.0092332979915249868 0 0.01629364778672935 0.0092332979915249868 0 0.015536376766233055 0.010411151413115513 0 0.016496876697077292 0.010020872586628669 0 0.015512215073302667 0.012477748518816053 0 0.015536376766233055 0.010411151413115513 0 0.016496876697077292 0.010020872586628669 0 0.017017182621123297 0.0089260771020344496 0 0.016496876697077292 0.010020872586628669 0 0.017505157735703655 0.0081258336167369764 0 0.017017182621123297 0.0089260771020344496 0 0.017505157735703655 0.0081258336167369764 0 0.017169834725119581 0.0083142417768179572 0 0.017505157735703655 0.0081258336167369764 0 0.016636587433696032 0.0077828877406411643 0 0.017169834725119581 0.0083142417768179572 0 0.016636587433696032 0.0077828877406411643 0 0.017169834725119581 0.0083142417768179572 0 0.016805619661847491 0.008302787387694013 0 0.015159854131069215 0.0058683429830985716 0 0.014795982143636584 0.0089084087792593997 0 0.016855896746724153 0.0084485042561705595 0 0.016636587433696032 0.0077828877406411643 0 0.014749740004711265 0.0063573092275177774 0 0.016805619661847491 0.008302787387694013 0 0.017505157735703655 0.0081258336167369764 0 0.016636587433696032 0.0077828877406411643 0 0.014749740004711265 0.0063573092275177774 0 0.015042124184702703 0.012359160781773631 0 0.012446656125620481 0.011967524163782745 0 0.012446656125620481 0.011967524163782745 0 0.016741594681651976 0.0073603745454910666 0 0.014795982143636584 0.0089084087792593997 0 0.016855896746724153 0.0084485042561705595 0 0.017187243469346695 0.0077546606860609876 0 0.014795982143636584 0.0089084087792593997 0 0.017187243469346695 0.0077546606860609876 0 0.014338444827896262 0.011028319204377263 0 0.016741594681651976 0.0073603745454910666 0 0.017211683654093 0.0074848828342500917 0 0.016855896746724153 0.0084485042561705595 0 0.01725938336082045 0.0069409448966556101 0 0.017187243469346695 0.0077546606860609876 0 0.017139935505000141 0.0078327657193029646 0 0.016805619661847491 0.008302787387694013 0 0.01725938336082045 0.0069409448966556101 0 0.01718046149359544 0.0072282656101478578 0 0.017139935505000141 0.0078327657193029646 0 0.01725938336082045 0.0069409448966556101 0 0.016940937890735489 0.0082009319702449294 0 0.017139935505000141 0.0078327657193029646 0 0.017169834725119581 0.0083142417768179572 0 0.017139935505000141 0.0078327657193029646 0 0.017169834725119581 0.0083142417768179572 0 0.016805619661847491 0.008302787387694013 0 0.0063941166716813755 0.0078711535717237487 0 0.008671704010737807 0.0050810024538816929 0 0.0093393803582398991 0.007701994611241293 0 0.008671704010737807 0.0050810024538816929 0 0.0093393803582398991 0.007701994611241293 0 0.012156155224946841 0.0079575873725289421 0 0.015159854131069215 0.0058683429830985716 0 0.014795982143636584 0.0089084087792593997 0 0.012156155224946841 0.0079575873725289421 0 0.012446656125620481 0.011967524163782745 0 0.0073074557872218364 0.011495872051264538 0 0.015159854131069215 0.0058683429830985716 0 0.008671704010737807 0.0050810024538816929 0 0.012156155224946841 0.0079575873725289421 0 0.014795982143636584 0.0089084087792593997 0 0.012156155224946841 0.0079575873725289421 0 0.012046457696760583 0.010391414104187547 0 0.014795982143636584 0.0089084087792593997 0 0.012046457696760583 0.010391414104187547 0 0.014338444827896262 0.011028319204377263 0 0.012156155224946841 0.0079575873725289421 0 0.012046457696760583 0.010391414104187547 0 0.0091379800586467753 0.010164910757848653 0 0.0093393803582398991 0.007701994611241293 0 0.012156155224946841 0.0079575873725289421 0 0.0091379800586467753 0.010164910757848653 0 0.0066887682501187169 0.011236191335049309 0 0.0052493475844749057 0.012152941534613004 0 0.0052257084575645946 0.010468492995765508 0 0.0063941166716813755 0.0078711535717237487 0 0.0066887682501187169 0.011236191335049309 0 0.0052257084575645946 0.010468492995765508 0 0.0065601494809421831 0.0079062225977011898 0 0.0080709450041371068 0.010796856357781305 0 0.0063941166716813755 0.0078711535717237487 0 0.0093393803582398991 0.007701994611241293 0 0.0091379800586467753 0.010164910757848653 0 0.0075887447289122081 0.013704478637371993 0 0.0048395615597131682 0.013035071639928758 0 0.0047098654246747638 0.014134518558750196 0 0.0052493475844749057 0.012152941534613004 0 0.0075887447289122081 0.013704478637371993 0 0.0048395615597131682 0.013035071639928758 0 0.016086855269848307 0.0041647741504968498 0 0.016719532314817202 0.0056727490882682316 0 0.014041776671707924 0.0046318905539024851 0 0.012251371561393552 0.0093237735468036827 0 0.013066398439942291 0.0053519717218874089 0 0.0066887682501187169 0.011236191335049309 0 0.0052493475844749057 0.012152941534613004 0 0.0075887447289122081 0.013704478637371993 0 0.012046457696760583 0.010391414104187547 0 0.0091379800586467753 0.010164910757848653 0 0.010675787097229078 0.01256064170862535 0 0.0080709450041371068 0.010796856357781305 0 0.012251371561393552 0.0093237735468036827 0 0.015509495350836185 0.005061575441891026 0 0.016516016485847142 0.0054597361115665197 0 0.0168618308464508 0.0053795362331963146 0 0.012251371561393552 0.0093237735468036827 0 0.015533942363792647 0.0082042116145322717 0 0.012046457696760583 0.010391414104187547 0 0.010675787097229078 0.01256064170862535 0 0.014338444827896262 0.011028319204377263 0 0.020816168796389586 0.00089697386025733696 0 0.016678015437233171 0.0028300673188951971 0 0.015509495350836185 0.005061575441891026 0 0.016516016485847142 0.0054597361115665197 0 0.015444947197340825 0.0055162403114234733 0 0.016516016485847142 0.0054597361115665197 0 0.015444947197340825 0.0055162403114234733 0 0.016651712950959987 0.005363008778035981 0 0.012251371561393552 0.0093237735468036827 0 0.020816168796389586 0.00089697386025733696 0 0.030206315170939975 -0.0058663022047506464 0 0.029617481298166069 -0.0066033306145235355 0 0.029442835312312874 -0.0067585054423034497 0 0.020816168796389586 0.00089697386025733696 0 0.013066398439942291 0.0053519717218874089 0 0.017260101438164106 0.0062999223785713569 0 0.017187243469346695 0.0077546606860609876 0 0.01721572164257594 0.0059183637960092085 0 0.017321331057362447 0.0060960178663003193 0 0.01725938336082045 0.0069409448966556101 0 0.017364811794635154 0.0056415284678867283 0 0.017260101438164106 0.0062999223785713569 0 0.01725938336082045 0.0069409448966556101 0 0.017364811794635154 0.0056415284678867283 0 0.017260101438164106 0.0062999223785713569 0 0.01725938336082045 0.0069409448966556101 0 0.017187243469346695 0.0077546606860609876 0 0.01661246736675975 0.0079133318356446099 0 0.015533942363792647 0.0082042116145322717 0 0.017187243469346695 0.0077546606860609876 0 0.0168618308464508 0.0053795362331963146 0 0.01721572164257594 0.0059183637960092085 0 0.016516016485847142 0.0054597361115665197 0 0.0168618308464508 0.0053795362331963146 0 0.01721572164257594 0.0059183637960092085 0 0.017260101438164106 0.0062999223785713569 0 0.01721572164257594 0.0059183637960092085 0 0.017303102833746087 0.0054870495119635288 0 0.017303102833746087 0.0054870495119635288 0 0.016651712950959987 0.005363008778035981 0 0.017699453050709971 0.0039231053873974731 0 0.016516016485847142 0.0054597361115665197 0 0.01721572164257594 0.0059183637960092085 0 0.017303102833746087 0.0054870495119635288 0 0.016516016485847142 0.0054597361115665197 0 0.017303102833746087 0.0054870495119635288 0 0.016651712950959987 0.005363008778035981 0 0.017303102833746087 0.0054870495119635288 0 0.017364811794635154 0.0056415284678867283 0 0.017699453050709971 0.0039231053873974731 0 0.017512936748803432 0.0050646675020900355 0 0.017364811794635154 0.0056415284678867283 0 0.017699453050709971 0.0039231053873974731 0 0.017260101438164106 0.0062999223785713569 0 0.017303102833746087 0.0054870495119635288 0 0.017364811794635154 0.0056415284678867283 0 0.017699453050709971 0.0039231053873974731 0 0.017789739771715496 0.0029918439750627806 0 0.017981867735487225 0.0019911244017717937 0 0.017754881754999008 0.0041650527082226375 0 0.017699453050709971 0.0039231053873974731 0 0.017789739771715496 0.0029918439750627806 0 0.017883118874150842 0.0041812891523886108 0 0.017789739771715496 0.0029918439750627806 0 0.017425503775155834 0.0016735387998286352 0 0.017754881754999008 0.0041650527082226375 0 0.017883118874150842 0.0041812891523886108 0 0.017789739771715496 0.0029918439750627806 0 0.017981867735487225 0.0019911244017717937 0 0.017304318355035743 0.00063414482784473667 0 0.017425503775155834 0.0016735387998286352 0 0.017789739771715496 0.0029918439750627806 0 0.017981867735487225 0.0019911244017717937 0 0.017425503775155834 0.0016735387998286352 0 0.018463281293346484 0.00084266189403043223 0 0.017699453050709971 0.0039231053873974731 0 0.017981867735487225 0.0019911244017717937 0 0.016678015437233171 0.0028300673188951971 0 0.017633883019217284 0.0036638921288567597 0 0.018463281293346484 0.00084266189403043223 0 0.017981867735487225 0.0019911244017717937 0 0.017304318355035743 0.00063414482784473667 0 0.018204210977233085 -0.0013685819299613794 0 0.018463281293346484 0.00084266189403043223 0 0.017304318355035743 0.00063414482784473667 0 0.030206315170939975 -0.0058663022047506464 0 0.030861976152411132 -0.0050926116953783126 0 0.029715808730618513 -0.0062382378219868976 0 0.020816168796389586 0.00089697386025733696 0 0.024228098875329708 -0.0021318608045748258 0 0.029617481298166069 -0.0066033306145235355 0 0.029715808730618513 -0.0062382378219868976 0 0.029460141276586343 -0.0072612787385714734 0 0.030206315170939975 -0.0058663022047506464 0 0.029617481298166069 -0.0066033306145235355 0 0.029715808730618513 -0.0062382378219868976 0 0.029715808730618513 -0.0062382378219868976 0 0.028715118994789419 -0.0073467354302130389 0 0.029460141276586343 -0.0072612787385714734 0 0.029715808730618513 -0.0062382378219868976 0 0.028715118994789419 -0.0073467354302130389 0 0.029440199691863612 -0.0060762446603545997 0 -0.0048656864118099101 -0.0011168139521738364 0 -0.0043848017587619159 -0.0005656466061979144 0 -0.0051676415445433789 -0.0014871472702294632 0 0.018338946515763892 -0.0048282363066904956 0 0.012114750335923798 -0.0054216474489265261 0 0.030191070666803238 -0.0054383619070208014 0 0.029463988686564722 -0.005947836021950619 0 0.029440199691863612 -0.0060762446603545997 0 0.029715808730618513 -0.0062382378219868976 0 0.030191070666803238 -0.0054383619070208014 0 0.029440199691863612 -0.0060762446603545997 0 0.030861976152411132 -0.0050926116953783126 0 0.030191070666803238 -0.0054383619070208014 0 0.031582973657801834 -0.003686792410466952 0 0.030191070666803238 -0.0054383619070208014 0 0.029463988686564722 -0.005947836021950619 0 0.031582973657801834 -0.003686792410466952 0 0.024228098875329708 -0.0021318608045748258 0 0.027396480988768786 -0.0056092265735121051 0 0.030861976152411132 -0.0050926116953783126 0 0.029715808730618513 -0.0062382378219868976 0 0.030191070666803238 -0.0054383619070208014 0 0.032164819061771946 -0.0092966816014630905 0 0.031323365052558408 -0.010165827263926043 0 0.030589429384674259 -0.0091399803592488293 0 0.030953279694091857 -0.0084601436730391954 0 0.027396480988768786 -0.0056092265735121051 0 0.030953279694091857 -0.0084601436730391954 0 0.030164259432634507 -0.011311660371922104 0 0.028792650375854691 -0.0105477388755896 0 0.028404822779974678 -0.010521870845415815 0 0.027959174878111209 -0.010495036962596441 0 -0.0048656864118099101 -0.0011168139521738364 0 -0.0043848017587619159 -0.0005656466061979144 0 -0.0043598909868355308 -0.0012030239179538142 0 0.028669417374737435 -0.010571682170519351 0 0.028792650375854691 -0.0105477388755896 0 0.028404822779974678 -0.010521870845415815 0 0.018338946515763892 -0.0048282363066904956 0 0.0056320045896488882 -0.0073672470522066508 0 0.028353555861389851 -0.010513137908887395 0 0.028404822779974678 -0.010521870845415815 0 0.028333509175017167 -0.010531188064278366 0 0.018338946515763892 -0.0048282363066904956 0 0.020563009428544044 -0.0077253943882916853 0 0.028715118994789419 -0.0073467354302130389 0 0.029290409386752619 -0.0059655933349242992 0 0.029440199691863612 -0.0060762446603545997 0 0.018338946515763892 -0.0048282363066904956 0 0.030953279694091857 -0.0084601436730391954 0 0.030953279694091857 -0.0084601436730391954 0 0.030823002372738793 -0.0079400470176292353 0 0.028404822779974678 -0.010521870845415815 0 0.027959174878111209 -0.010495036962596441 0 0.027954740498031923 -0.010528675163127514 0 0.032347910298898025 -0.010952050059811556 0 0.031323365052558408 -0.010165827263926043 0 0.031204942208144654 -0.011898083949867282 0 0.032164819061771946 -0.0092966816014630905 0 0.032347910298898025 -0.010952050059811556 0 0.031323365052558408 -0.010165827263926043 0 0.031323365052558408 -0.010165827263926043 0 0.03011307792783029 -0.01036912382015345 0 0.031204942208144654 -0.011898083949867282 0 0.03011307792783029 -0.01036912382015345 0 0.028954537790008571 -0.01096624598250495 0 0.02906927072131028 -0.0098973092579557002 0 0.03011307792783029 -0.01036912382015345 0 0.028954537790008571 -0.01096624598250495 0 0.029728836311585599 -0.011709798042768031 0 0.022566380496885679 -0.002073848611790401 0 0.027396480988768786 -0.0056092265735121051 0 0.028549181894086905 -0.0089710237755253001 0 0.02906927072131028 -0.0098973092579557002 0 0.030554426681772506 -0.0091260255401731712 0 0.03011307792783029 -0.01036912382015345 0 0.02906927072131028 -0.0098973092579557002 0 0.030554426681772506 -0.0091260255401731712 0 0.031323365052558408 -0.010165827263926043 0 0.03011307792783029 -0.01036912382015345 0 0.030589429384674259 -0.0091399803592488293 0 0.030132882649583356 -0.011065686178698067 0 0.027396480988768786 -0.0056092265735121051 0 -0.0011208409844097435 -0.008988846334115029 0 -0.0019650214508682715 -0.0075688224795943558 0 -0.00028029219672521876 -0.0077007046208453179 0 -0.0011208409844097435 -0.008988846334115029 0 -0.002003701993702717 -0.01100556397586407 0 -0.0019650214508682715 -0.0075688224795943558 0 -0.0011208409844097435 -0.008988846334115029 0 -0.00033725384746078745 -0.0098339307194775637 0 -0.00028029219672521876 -0.0077007046208453179 0 0.0010449876681205943 -0.0088537943787226035 0 -0.00033725384746078745 -0.0098339307194775637 0 -0.00028029219672521876 -0.0077007046208453179 0 -0.00033725384746078745 -0.0098339307194775637 0 -0.00094266921505360289 -0.011986745203524789 0 0.0012570338793417982 -0.01224098967908255 0 0.0010449876681205943 -0.0088537943787226035 0 -0.00033725384746078745 -0.0098339307194775637 0 0.0012570338793417982 -0.01224098967908255 0 -0.00033725384746078745 -0.0098339307194775637 0 -0.00094266921505360289 -0.011986745203524789 0 -0.002003701993702717 -0.01100556397586407 0 -0.0011208409844097435 -0.008988846334115029 0 -0.00033725384746078745 -0.0098339307194775637 0 -0.002003701993702717 -0.01100556397586407 0 -0.002003701993702717 -0.01100556397586407 0 -0.0034186592832509571 -0.010354470280674138 0 -0.0034850241758909994 -0.012318777164372203 0 -0.002003701993702717 -0.01100556397586407 0 -0.0034186592832509571 -0.010354470280674138 0 -0.0019650214508682715 -0.0075688224795943558 0 -0.0046482144833250322 -0.011119804888276606 0 -0.0032086117338881734 -0.0088904476470193904 0 -0.0034839563526672702 -0.0081812377334879224 0 0.012499652726254711 -0.011567720947970289 0 0.0056320045896488882 -0.0073672470522066508 0 -0.0034186592832509571 -0.010354470280674138 0 -0.0046482144833250322 -0.011119804888276606 0 -0.0032086117338881734 -0.0088904476470193904 0 -0.0046482144833250322 -0.011119804888276606 0 -0.0034839563526672702 -0.0081812377334879224 0 -0.0039911876016144598 -0.0081436963293803691 0 -0.0032086117338881734 -0.0088904476470193904 0 -0.0034839563526672702 -0.0081812377334879224 0 -0.0019650214508682715 -0.0075688224795943558 0 0.028404822779974678 -0.010521870845415815 0 0.027954740498031923 -0.010528675163127514 0 0.028333509175017167 -0.010531188064278366 0 -0.0048656864118099101 -0.0011168139521738364 0 -0.0059653009728751205 -0.0019931435485553923 0 -0.0057327213345277905 -0.0013676113732408396 0 -0.0023607725634039495 -0.0056893454007828697 0 0.0056320045896488882 -0.0073672470522066508 0 -0.0034186592832509571 -0.010354470280674138 0 -0.0032086117338881734 -0.0088904476470193904 0 -0.0019650214508682715 -0.0075688224795943558 0 -0.0023607725634039495 -0.0056893454007828697 0 -0.0020741242941866764 -0.0072553617056656033 0 -0.0019650214508682715 -0.0075688224795943558 0 -0.0012206218057033286 -0.0046662868299401977 0 -0.0018126277112778682 -0.003724639439740429 0 -0.0019650214508682715 -0.0075688224795943558 0 -0.0012206218057033286 -0.0046662868299401977 0 -0.00066949591849907637 -0.0060496720858092172 0 -0.0048656864118099101 -0.0011168139521738364 0 -0.0059653009728751205 -0.0019931435485553923 0 -0.0055109197795652851 -0.0029191590232206716 0 -0.0023607725634039495 -0.0056893454007828697 0 -0.0035555402903086663 -0.0030625382971553317 0 -0.0031988607176200437 -0.0040793557735496746 0 -0.0019650214508682715 -0.0075688224795943558 0 -0.0018126277112778682 -0.003724639439740429 0 -0.0020027061252394828 0.00016646166442425757 0 0.0056320045896488882 -0.0073672470522066508 0 -0.0048656864118099101 -0.0011168139521738364 0 -0.0051676415445433789 -0.0014871472702294632 0 -0.0051951476058650506 -0.0021059052125929094 0 -0.0048656864118099101 -0.0011168139521738364 0 -0.0055109197795652851 -0.0029191590232206716 0 -0.0051951476058650506 -0.0021059052125929094 0 -0.0051676415445433789 -0.0014871472702294632 0 -0.0051951476058650506 -0.0021059052125929094 0 -0.0043338507258892283 -0.0018451036823458743 0 -0.0055109197795652851 -0.0029191590232206716 0 -0.0051951476058650506 -0.0021059052125929094 0 -0.0043338507258892283 -0.0018451036823458743 0 -0.0051676415445433789 -0.0014871472702294632 0 -0.0043338507258892283 -0.0018451036823458743 0 -0.0040485350733905478 -0.00090383103171806005 0 -0.0012206218057033286 -0.0046662868299401977 0 -0.0018126277112778682 -0.003724639439740429 0 -0.0011574930425886953 -0.0039140118293419096 0 -0.0055109197795652851 -0.0029191590232206716 0 -0.0043338507258892283 -0.0018451036823458743 0 -0.0034954470656944694 -0.0020190053790414288 0 -0.0035555402903086663 -0.0030625382971553317 0 -0.0035969587808547098 -0.0021252397405620337 0 -0.0012206218057033286 -0.0046662868299401977 0 -0.00038688562385771034 -0.0047265786759252788 0 -0.00066949591849907637 -0.0060496720858092172 0 -0.0012206218057033286 -0.0046662868299401977 0 -0.0011574930425886953 -0.0039140118293419096 0 -0.00038688562385771034 -0.0047265786759252788 0 -0.0043338507258892283 -0.0018451036823458743 0 -0.0036610539949195804 -0.0016750473597178953 0 -0.0040485350733905478 -0.00090383103171806005 0 -0.0039452774581723686 -0.0021207973876009221 0 -0.0035969587808547098 -0.0021252397405620337 0 -0.0011574930425886953 -0.0039140118293419096 0 -0.00038688562385771034 -0.0047265786759252788 0 0.0010996956024735675 -0.0042270888766337816 0 0.00098617649001934136 -0.0052122291465927879 0 0.00059798614988244088 -0.005397119327766384 0 0.0012896582985257464 -0.0058471396738253769 0 -0.00038688562385771034 -0.0047265786759252788 0 0.00074590402481447505 -0.0048383486697899745 0 0.00059798614988244088 -0.005397119327766384 0 0.00098617649001934136 -0.0052122291465927879 0 0.00074590402481447505 -0.0048383486697899745 0 0.00059798614988244088 -0.005397119327766384 0 0.00098617649001934136 -0.0052122291465927879 0 0.00074590402481447505 -0.0048383486697899745 0 0.0011354083530567918 -0.0049235375452766177 0 -0.00038688562385771034 -0.0047265786759252788 0 0.00059798614988244088 -0.005397119327766384 0 0.00022896395079300891 -0.0061011987276474401 0 0.00059798614988244088 -0.005397119327766384 0 0.00022896395079300891 -0.0061011987276474401 0 0.0012896582985257464 -0.0058471396738253769 0 -0.00038688562385771034 -0.0047265786759252788 0 -0.00066949591849907637 -0.0060496720858092172 0 0.00022896395079300891 -0.0061011987276474401 0 -0.0019650214508682715 -0.0075688224795943558 0 -0.00066949591849907637 -0.0060496720858092172 0 -0.00028029219672521876 -0.0077007046208453179 0 -0.00066949591849907637 -0.0060496720858092172 0 0.00022896395079300891 -0.0061011987276474401 0 -0.00028029219672521876 -0.0077007046208453179 0 0.00022896395079300891 -0.0061011987276474401 0 -0.00028029219672521876 -0.0077007046208453179 0 0.00099889763710097994 -0.0070093725333720738 0 0.0010449876681205943 -0.0088537943787226035 0 0.00099889763710097994 -0.0070093725333720738 0 0.0020557320176035087 -0.007386140213726849 0 0.0010449876681205943 -0.0088537943787226035 0 -0.00028029219672521876 -0.0077007046208453179 0 0.00099889763710097994 -0.0070093725333720738 0 0.00099889763710097994 -0.0070093725333720738 0 0.0018638184432171285 -0.0064919680187837912 0 0.0012896582985257464 -0.0058471396738253769 0 0.00099889763710097994 -0.0070093725333720738 0 0.0018638184432171285 -0.0064919680187837912 0 0.0020557320176035087 -0.007386140213726849 0 0.00022896395079300891 -0.0061011987276474401 0 0.00099889763710097994 -0.0070093725333720738 0 0.0012896582985257464 -0.0058471396738253769 0 0.0012896582985257464 -0.0058471396738253769 0 0.0017148788070285785 -0.0055511795452882397 0 0.0014292143171152382 -0.0051523698072292266 0 0.0012896582985257464 -0.0058471396738253769 0 0.0017148788070285785 -0.0055511795452882397 0 0.002010745508006246 -0.0058890303766514105 0 0.00098617649001934136 -0.0052122291465927879 0 0.0012896582985257464 -0.0058471396738253769 0 0.0014292143171152382 -0.0051523698072292266 0 0.0018638184432171285 -0.0064919680187837912 0 0.0012896582985257464 -0.0058471396738253769 0 0.002010745508006246 -0.0058890303766514105 0 0.0018638184432171285 -0.0064919680187837912 0 0.002010745508006246 -0.0058890303766514105 0 0.0023267180567124609 -0.0060931286848476826 0 0.0017148788070285785 -0.0055511795452882397 0 0.002010745508006246 -0.0058890303766514105 0 0.0021144382489603798 -0.0053519184704918449 0 0.002010745508006246 -0.0058890303766514105 0 0.0023923659858289099 -0.0056147141166135901 0 0.0023267180567124609 -0.0060931286848476826 0 0.0027039011144848499 -0.0049177678184444693 0 0.0010996956024735675 -0.0042270888766337816 0 0.0040906214050877325 -0.0044687491764499772 0 -0.00140832415877286 0.003421710423359712 0 -0.0017238690940979547 0.0032440656751721135 0 -0.0040832343948612832 0.013860327836933998 0 -0.0042562390733928094 0.012547394130896757 0 -0.0069956301561632118 0.011651548656435745 0 0.002010745508006246 -0.0058890303766514105 0 0.0023923659858289099 -0.0056147141166135901 0 0.0021144382489603798 -0.0053519184704918449 0 0.0021144382489603798 -0.0053519184704918449 0 0.0027039011144848499 -0.0049177678184444693 0 0.0018122004789254222 -0.0050987624028331624 0 0.0023923659858289099 -0.0056147141166135901 0 0.0021144382489603798 -0.0053519184704918449 0 0.0027039011144848499 -0.0049177678184444693 0 0.0023923659858289099 -0.0056147141166135901 0 0.0027039011144848499 -0.0049177678184444693 0 0.0028051510718182151 -0.0058081237543594465 0 0.0027039011144848499 -0.0049177678184444693 0 0.0016055557094222371 -0.0047217377925766763 0 0.0010996956024735675 -0.0042270888766337816 0 0.0016055557094222371 -0.0047217377925766763 0 0.0018122004789254222 -0.0050987624028331624 0 0.0014100027797608352 -0.0048915446907740632 0 0.0027039011144848499 -0.0049177678184444693 0 0.0016055557094222371 -0.0047217377925766763 0 0.0018122004789254222 -0.0050987624028331624 0 0.0016055557094222371 -0.0047217377925766763 0 0.0014100027797608352 -0.0048915446907740632 0 0.0011711357817936379 -0.0046741531752547225 0 0.0017148788070285785 -0.0055511795452882397 0 0.0021144382489603798 -0.0053519184704918449 0 0.0018122004789254222 -0.0050987624028331624 0 0.0017148788070285785 -0.0055511795452882397 0 0.0018122004789254222 -0.0050987624028331624 0 0.0014292143171152382 -0.0051523698072292266 0 0.0018122004789254222 -0.0050987624028331624 0 0.0014100027797608352 -0.0048915446907740632 0 0.0014292143171152382 -0.0051523698072292266 0 0.0014100027797608352 -0.0048915446907740632 0 0.0014292143171152382 -0.0051523698072292266 0 0.0011354083530567918 -0.0049235375452766177 0 0.00098617649001934136 -0.0052122291465927879 0 0.0014292143171152382 -0.0051523698072292266 0 0.0011354083530567918 -0.0049235375452766177 0 0.00074590402481447505 -0.0048383486697899745 0 0.0011711357817936379 -0.0046741531752547225 0 0.0010996956024735675 -0.0042270888766337816 0 -0.00140832415877286 0.003421710423359712 0 -0.0031954660242954538 0.0083250172306500465 0 0.00074590402481447505 -0.0048383486697899745 0 0.0011354083530567918 -0.0049235375452766177 0 0.0011711357817936379 -0.0046741531752547225 0 -0.00038688562385771034 -0.0047265786759252788 0 0.00074590402481447505 -0.0048383486697899745 0 0.0010996956024735675 -0.0042270888766337816 0 -0.0035969587808547098 -0.0021252397405620337 0 -0.00140832415877286 0.003421710423359712 0 -0.0040832343948612832 0.013860327836933998 0 -0.0032250033237931843 0.013245017373017781 0 -0.0012883406218109484 0.013988930302811479 0 0.0014100027797608352 -0.0048915446907740632 0 0.0011354083530567918 -0.0049235375452766177 0 0.0011711357817936379 -0.0046741531752547225 0 0.0016055557094222371 -0.0047217377925766763 0 0.0011711357817936379 -0.0046741531752547225 0 0.0010996956024735675 -0.0042270888766337816 0 -0.0040832343948612832 0.013860327836933998 0 -0.0032250033237931843 0.013245017373017781 0 -0.0042562390733928094 0.012547394130896757 0 -0.0030548438857273094 0.012456159929464281 0 -0.0012883406218109484 0.013988930302811479 0 -0.0025718901369264119 0.010862065059900445 0 -0.0031954660242954538 0.0083250172306500465 0 -0.0016825134730307598 0.013451351065355985 0 -0.0030548438857273094 0.012456159929464281 0 -0.0039401211467453455 0.011485270103783715 0 -0.0042562390733928094 0.012547394130896757 0 -0.0032250033237931843 0.013245017373017781 0 -0.0030548438857273094 0.012456159929464281 0 -0.0042562390733928094 0.012547394130896757 0 -0.0032250033237931843 0.013245017373017781 0 -0.0030548438857273094 0.012456159929464281 0 -0.0012883406218109484 0.013988930302811479 0 -0.0030548438857273094 0.012456159929464281 0 -0.0039401211467453455 0.011485270103783715 0 -0.0025718901369264119 0.010862065059900445 0 -0.0039401211467453455 0.011485270103783715 0 -0.0042562390733928094 0.012547394130896757 0 -0.0069956301561632118 0.011651548656435745 0 -0.0048737851212734915 0.012477843540628362 0 -0.0017238690940979547 0.0032440656751721135 0 -0.0039401211467453455 0.011485270103783715 0 -0.0035092091521066594 0.0099826503243887928 0 -0.0069956301561632118 0.011651548656435745 0 0.012114750335923798 -0.0054216474489265261 0 0.0062071169532990781 0.0028690101174723491 0 0.029617481298166069 -0.0066033306145235355 0 0.029460141276586343 -0.0072612787385714734 0 0.029421769806512718 -0.0067251653569093189 0 -0.0051676415445433789 -0.0014871472702294632 0 -0.0040485350733905478 -0.00090383103171806005 0 -0.0041828613958834956 0.00014917871972164505 0 -0.0040485350733905478 -0.00090383103171806005 0 -0.0023667412706094657 -0.00025235237420371127 0 -0.0041828613958834956 0.00014917871972164505 0 0.029617481298166069 -0.0066033306145235355 0 0.029421769806512718 -0.0067251653569093189 0 0.029442835312312874 -0.0067585054423034497 0 -0.0031954660242954538 0.0083250172306500465 0 0.0062071169532990781 0.0028690101174723491 0 -0.0048853260787823155 0.0010011203589613811 0 -0.0010485855022056424 0.0029019436946679886 0 -0.0037672080800128737 0.0035285689746315648 0 -0.0036610539949195804 -0.0016750473597178953 0 -0.0040485350733905478 -0.00090383103171806005 0 -0.0023667412706094657 -0.00025235237420371127 0 -0.0035969587808547098 -0.0021252397405620337 0 -0.0031954660242954538 0.0083250172306500465 0 -0.0016870748282772851 0.014167025804130156 0 -0.00063656175931838769 0.012631682428089321 0 0.0016949118516860658 0.013887039731360417 0 -0.0016870748282772851 0.014167025804130156 0 -0.00063656175931838769 0.012631682428089321 0 -0.0025718901369264119 0.010862065059900445 0 0.00069425534051583847 0.012129227308267704 0 -0.00063656175931838769 0.012631682428089321 0 -0.00037398355447636281 0.011195700161386565 0 0.00069425534051583847 0.012129227308267704 0 -0.00063656175931838769 0.012631682428089321 0 0.0015296736964719334 0.014298967057206891 0 0.0061557624600712462 0.0085329490987959937 0 0.0019171432025868302 0.012366588932401775 0 -0.0016870748282772851 0.014167025804130156 0 0.0016949118516860658 0.013887039731360417 0 0.0016822360282187105 0.014202100855472213 0 -0.0010860798989748037 0.012691698214067701 0 0.0061557624600712462 0.0085329490987959937 0 0.0048395615597131682 0.013035071639928758 0 0.0041434803313588177 0.013815435355668704 0 0.0023847973556461767 0.01023997698175742 0 0.00069425534051583847 0.012129227308267704 0 0.0015296736964719334 0.014298967057206891 0 0.0023847973556461767 0.01023997698175742 0 0.0048395615597131682 0.013035071639928758 0 0.0041434803313588177 0.013815435355668704 0 0.0047098654246747638 0.014134518558750196 0 0.0056383663089891187 0.0049554379262349004 0 0.0061026191067251115 0.0074490224369133653 0 0.0097826298585791099 0.0066044202793626612 0 0.0061557624600712462 0.0085329490987959937 0 0.013066398439942291 0.0053519717218874089 0 0.0061557624600712462 0.0085329490987959937 0 0.0062071169532990781 0.0028690101174723491 0 0.0062071169532990781 0.0028690101174723491 0 0.013066398439942291 0.0053519717218874089 0 0.0052493475844749057 0.012152941534613004 0 0.0048395615597131682 0.013035071639928758 0 0.0023847973556461767 0.01023997698175742 0 0.0063941166716813755 0.0078711535717237487 0 0.0052257084575645946 0.010468492995765508 0 0.0023847973556461767 0.01023997698175742 0 0.0052493475844749057 0.012152941534613004 0 0.0052257084575645946 0.010468492995765508 0 0.0023847973556461767 0.01023997698175742 0 0.0023847973556461767 0.01023997698175742 0 -0.00037398355447636281 0.011195700161386565 0 -0.0011257382875493925 0.010144315001271605 0 0.00069425534051583847 0.012129227308267704 0 0.0023847973556461767 0.01023997698175742 0 -0.00037398355447636281 0.011195700161386565 0 -0.00063656175931838769 0.012631682428089321 0 -0.00037398355447636281 0.011195700161386565 0 -0.0025718901369264119 0.010862065059900445 0 -0.00037398355447636281 0.011195700161386565 0 -0.0011257382875493925 0.010144315001271605 0 -0.0025718901369264119 0.010862065059900445 0 0.0015341442684955414 0.011445155768903138 0 -0.001514797134615112 0.011383931429913122 0 0.0011133550848087049 0.0068727950706009757 0 -0.001349273032908663 0.00982461394403354 0 -0.0021899406756312897 0.011358061253894172 0 0.0023847973556461767 0.01023997698175742 0 -0.0011257382875493925 0.010144315001271605 0 0.0011133550848087049 0.0068727950706009757 0 -0.0011257382875493925 0.010144315001271605 0 0.0011133550848087049 0.0068727950706009757 0 -0.001349273032908663 0.00982461394403354 0 0.0063941166716813755 0.0078711535717237487 0 0.008671704010737807 0.0050810024538816929 0 0.0011133550848087049 0.0068727950706009757 0 0.0063941166716813755 0.0078711535717237487 0 0.0023847973556461767 0.01023997698175742 0 0.0011133550848087049 0.0068727950706009757 0 0.0073074557872218364 0.011495872051264538 0 0.0015341442684955414 0.011445155768903138 0 -0.0039401211467453455 0.011485270103783715 0 -0.0035092091521066594 0.0099826503243887928 0 -0.0025718901369264119 0.010862065059900445 0 -0.0011257382875493925 0.010144315001271605 0 -0.0025718901369264119 0.010862065059900445 0 -0.0025139968518284694 0.010368301628445415 0 -0.0035092091521066594 0.0099826503243887928 0 -0.0025718901369264119 0.010862065059900445 0 -0.0025139968518284694 0.010368301628445415 0 -0.0018395897883186955 0.011857922348973692 0 -0.0035092091521066594 0.0099826503243887928 0 -0.0021899406756312897 0.011358061253894172 0 -0.0035092091521066594 0.0099826503243887928 0 -0.0025139968518284694 0.010368301628445415 0 -0.0021899406756312897 0.011358061253894172 0 -0.0025139968518284694 0.010368301628445415 0 -0.001349273032908663 0.00982461394403354 0 -0.0021899406756312897 0.011358061253894172 0 -0.0011257382875493925 0.010144315001271605 0 -0.0025139968518284694 0.010368301628445415 0 -0.001349273032908663 0.00982461394403354 0 -0.0026297193168838464 0.011515400558488542 0 -0.0018395897883186955 0.011857922348973692 0 -0.0042423453019210201 0.010996502713288064 0 -0.0026297193168838464 0.011515400558488542 0 -0.0042423453019210201 0.010996502713288064 0 -0.0034411249135298427 0.0110943685634674 0 -0.0042423453019210201 0.010996502713288064 0 -0.0034411249135298427 0.0110943685634674 0 -0.0042198459253736924 0.010821933257285504 0 -0.0018004495960532772 0.010796071449305016 0 -0.0048737851212734915 0.012477843540628362 0 -0.0041070107109726249 0.010680561154984227 0 -0.0050310727483293327 0.010412203777165063 0 -0.0044073882169899121 0.010284307544649419 0 -0.0034544394505814369 0.01082981136341497 0 -0.0034411249135298427 0.0110943685634674 0 -0.0041070107109726249 0.010680561154984227 0 -0.0034411249135298427 0.0110943685634674 0 -0.0041070107109726249 0.010680561154984227 0 -0.0042198459253736924 0.010821933257285504 0 -0.0034544394505814369 0.01082981136341497 0 -0.0041070107109726249 0.010680561154984227 0 -0.0044073882169899121 0.010284307544649419 0 -0.0041070107109726249 0.010680561154984227 0 -0.0042198459253736924 0.010821933257285504 0 -0.0050310727483293327 0.010412203777165063 0 -0.0042423453019210201 0.010996502713288064 0 -0.0042198459253736924 0.010821933257285504 0 -0.0050310727483293327 0.010412203777165063 0 -0.0042423453019210201 0.010996502713288064 0 -0.0050310727483293327 0.010412203777165063 0 -0.0056546324819656026 0.010416604265719545 0 -0.0050310727483293327 0.010412203777165063 0 -0.0056546324819656026 0.010416604265719545 0 -0.0057847307882891146 0.010095152430442587 0 -0.0061612286144228879 0.0097292634639769508 0 -0.0065944399915738644 0.0090830466777066625 0 -0.0065375650028622924 0.0099269534558502365 0 -0.0050310727483293327 0.010412203777165063 0 -0.0057847307882891146 0.010095152430442587 0 -0.0056711497598552329 0.0098013570400479651 0 -0.0061612286144228879 0.0097292634639769508 0 -0.0057847307882891146 0.010095152430442587 0 -0.0056711497598552329 0.0098013570400479651 0 -0.0056546324819656026 0.010416604265719545 0 -0.0057847307882891146 0.010095152430442587 0 -0.0065375650028622924 0.0099269534558502365 0 -0.0061612286144228879 0.0097292634639769508 0 -0.0057847307882891146 0.010095152430442587 0 -0.0065375650028622924 0.0099269534558502365 0 -0.0056711497598552329 0.0098013570400479651 0 -0.0044073882169899121 0.010284307544649419 0 -0.0050450631987264023 0.009810939519224661 0 -0.0050310727483293327 0.010412203777165063 0 -0.0056711497598552329 0.0098013570400479651 0 -0.0044073882169899121 0.010284307544649419 0 -0.0041309502217133009 0.0099776379205854648 0 -0.0044073882169899121 0.010284307544649419 0 -0.0050450631987264023 0.009810939519224661 0 -0.0050585218915954857 0.0094655099752955513 0 -0.0053428301889460799 0.0090629187440817178 0 -0.0065944399915738644 0.0090830466777066625 0 -0.0041309502217133009 0.0099776379205854648 0 -0.0050450631987264023 0.009810939519224661 0 -0.0050585218915954857 0.0094655099752955513 0 -0.0050450631987264023 0.009810939519224661 0 -0.0050585218915954857 0.0094655099752955513 0 -0.0065944399915738644 0.0090830466777066625 0 -0.0053428301889460799 0.0090629187440817178 0 -0.0059450334531751785 0.0086307252447690996 0 -0.0065944399915738644 0.0090830466777066625 0 -0.0047222630338382013 0.0087001298290897422 0 -0.0053428301889460799 0.0090629187440817178 0 -0.0059450334531751785 0.0086307252447690996 0 0.0022493650180825746 -0.0085453847337376432 0 0.0014699022516871463 -0.0074857265974476363 0 0.0006876832935081102 -0.0083967395846535637 0 -0.0061938527819899222 0.0017536856308647147 0 -0.0025560701703389141 -0.0090621250695710146 0 -0.0061938527819899222 0.0017536856308647147 0 -0.0018467792966256067 0.00085293066983267176 0 -0.0018467792966256067 0.00085293066983267176 0 -0.0027875990622116958 0.001458991762170556 0 -0.0056711497598552329 0.0098013570400479651 0 -0.0050450631987264023 0.009810939519224661 0 -0.0065944399915738644 0.0090830466777066625 0 -0.0061612286144228879 0.0097292634639769508 0 -0.0056711497598552329 0.0098013570400479651 0 -0.0065944399915738644 0.0090830466777066625 0 0.0014699022516871463 -0.0074857265974476363 0 8.7736943815386347e-05 -0.0074239393365023174 0 0.00073374700134619831 -0.0070686004322667592 0 0.0014699022516871463 -0.0074857265974476363 0 8.7736943815386347e-05 -0.0074239393365023174 0 0.0006876832935081102 -0.0083967395846535637 0 8.7736943815386347e-05 -0.0074239393365023174 0 0.0006876832935081102 -0.0083967395846535637 0 -0.00069668941862731262 -0.0078361749087966399 0 0.0006876832935081102 -0.0083967395846535637 0 -0.0013439486449238276 -0.0085183827503520684 0 -0.00069668941862731262 -0.0078361749087966399 0 -0.0059813338935951607 -0.0066132726009702804 0 -0.0056552405053701352 -0.0073653539926055054 0 -0.0059952088788422907 -0.0076627660066028499 0 -0.0025560701703389141 -0.0090621250695710146 0 -0.0034259943960617914 -0.0074191910477770821 0 -0.0056552405053701352 -0.0073653539926055054 0 -0.0059952088788422907 -0.0076627660066028499 0 -0.0059537249012415064 -0.0086312899640152967 0 -0.0013439486449238276 -0.0085183827503520684 0 -0.00069668941862731262 -0.0078361749087966399 0 -0.0013181088110314463 -0.0072788782743470962 0 -0.0013439486449238276 -0.0085183827503520684 0 -0.0013181088110314463 -0.0072788782743470962 0 -0.002861657459020514 -0.0078093745097802302 0 8.7736943815386347e-05 -0.0074239393365023174 0 -0.0013181088110314463 -0.0072788782743470962 0 -0.00013544237341933671 -0.0069469095419379435 0 8.7736943815386347e-05 -0.0074239393365023174 0 -0.00069668941862731262 -0.0078361749087966399 0 -0.0013181088110314463 -0.0072788782743470962 0 0.00092973225748361175 -0.0068241865142252747 0 -0.00028426853871619612 -0.0072172019985259003 0 -0.0011765589237240871 -0.0068833592685702775 0 -0.0013181088110314463 -0.0072788782743470962 0 -0.0023515847367998012 -0.007148644280118026 0 -0.0011765589237240871 -0.0068833592685702775 0 0.0012137165876401712 -0.0065306267316274421 0 -0.0032808136523267621 -0.0067312866214770195 0 0.0020285576817584221 -0.006586524391473887 0 0.0012137165876401712 -0.0065306267316274421 0 0.0026559489617934925 -0.0072366727991904816 0 -0.0011765589237240871 -0.0068833592685702775 0 -0.0013181088110314463 -0.0072788782743470962 0 -0.00013544237341933671 -0.0069469095419379435 0 -0.0011765589237240871 -0.0068833592685702775 0 -0.00013544237341933671 -0.0069469095419379435 0 0.0012137165876401712 -0.0065306267316274421 0 -0.0011765589237240871 -0.0068833592685702775 0 -0.0032808136523267621 -0.0067312866214770195 0 -0.0023515847367998012 -0.007148644280118026 0 -0.0017238690940979547 0.0032440656751721135 0 0.004475295886115737 -0.010277069863007735 0 0.0020285576817584221 -0.006586524391473887 0 0.0018005382222510149 -0.0055943986929341905 0 0.0024914662824564384 -0.0070476197588490771 0 0.0028051510718182151 -0.0058081237543594465 0 0.0040906214050877325 -0.0044687491764499772 0 0.0024914662824564384 -0.0070476197588490771 0 0.0023923659858289099 -0.0056147141166135901 0 0.0028051510718182151 -0.0058081237543594465 0 0.0023267180567124609 -0.0060931286848476826 0 0.0027039011144848499 -0.0049177678184444693 0 0.0028051510718182151 -0.0058081237543594465 0 0.0040906214050877325 -0.0044687491764499772 0 -0.0017238690940979547 0.0032440656751721135 0 -0.0027875990622116958 0.001458991762170556 0 0.0018005382222510149 -0.0055943986929341905 0 0.0014226566729027507 -0.0067627996080961029 0 0.0012137165876401712 -0.0065306267316274421 0 0.0020285576817584221 -0.006586524391473887 0 0.0018005382222510149 -0.0055943986929341905 0 0.0012137165876401712 -0.0065306267316274421 0 -0.0056546324819656026 0.010416604265719545 0 -0.0061324583816413916 0.01070133150345621 0 -0.0065375650028622924 0.0099269534558502365 0 -0.0042423453019210201 0.010996502713288064 0 -0.0056546324819656026 0.010416604265719545 0 -0.0061324583816413916 0.01070133150345621 0 0.0014699022516871463 -0.0074857265974476363 0 0.0014226566729027507 -0.0067627996080961029 0 0.00073374700134619831 -0.0070686004322667592 0 0.0014226566729027507 -0.0067627996080961029 0 0.00073374700134619831 -0.0070686004322667592 0 0.0012137165876401712 -0.0065306267316274421 0 8.7736943815386347e-05 -0.0074239393365023174 0 0.00073374700134619831 -0.0070686004322667592 0 -0.00013544237341933671 -0.0069469095419379435 0 0.00073374700134619831 -0.0070686004322667592 0 -0.00013544237341933671 -0.0069469095419379435 0 0.0012137165876401712 -0.0065306267316274421 0 -0.0066765680291736408 -0.0084623490499309735 0 -0.0068072462120107539 -0.0077694540743852214 0 -0.0068130627884030849 -0.0087532237510036595 0 -0.0067132775322792599 -0.007594245936979869 0 -0.0068072462120107539 -0.0077694540743852214 0 -0.0068130627884030849 -0.0087532237510036595 0 -0.0068679150424029289 -0.0069859104703918146 0 -0.0067132775322792599 -0.007594245936979869 0 -0.0068072462120107539 -0.0077694540743852214 0 -0.0067132775322792599 -0.007594245936979869 0 -0.0066542274732695516 -0.0073348803053595781 0 -0.0064888078180213582 -0.0073958719048069568 0 -0.0068679150424029289 -0.0069859104703918146 0 -0.0067132775322792599 -0.007594245936979869 0 -0.0066542274732695516 -0.0073348803053595781 0 -0.0066906658453920647 -0.0064628488690733543 0 -0.0046028838279832535 -0.0054810452421544219 0 -0.006175798872092032 -0.0073304138291286737 0 -0.0064888078180213582 -0.0073958719048069568 0 -0.006355971497331029 -0.0073860587468149276 0 -0.006175798872092032 -0.0073304138291286737 0 -0.0066542274732695516 -0.0073348803053595781 0 -0.0064888078180213582 -0.0073958719048069568 0 -0.0098372331297323125 0.0037807204092843742 0 -0.0046028838279832535 -0.0054810452421544219 0 -0.0067132775322792599 -0.007594245936979869 0 -0.0064888078180213582 -0.0073958719048069568 0 -0.006355971497331029 -0.0073860587468149276 0 -0.0067132775322792599 -0.007594245936979869 0 -0.0066051913460877503 -0.0081162996916344168 0 -0.0068130627884030849 -0.0087532237510036595 0 -0.0067132775322792599 -0.007594245936979869 0 -0.006355971497331029 -0.0073860587468149276 0 -0.0066051913460877503 -0.0081162996916344168 0 -0.006355971497331029 -0.0073860587468149276 0 -0.0061428817889891824 -0.0072801150872619591 0 -0.0066051913460877503 -0.0081162996916344168 0 -0.006355971497331029 -0.0073860587468149276 0 -0.0058944882551415822 -0.007049541022234848 0 -0.0061428817889891824 -0.0072801150872619591 0 -0.0098372331297323125 0.0037807204092843742 0 -0.011007540491248198 0.001444635438223081 0 -0.006175798872092032 -0.0073304138291286737 0 -0.006355971497331029 -0.0073860587468149276 0 -0.0058944882551415822 -0.007049541022234848 0 -0.014289658744023598 0.010455002966850544 0 -0.014578079323867345 0.010646352316528841 0 -0.014350319004702156 0.010764820336266757 0 -0.0061938527819899222 0.0017536856308647147 0 -0.011007540491248198 0.001444635438223081 0 -0.0084259333628527461 0.012068833587917738 0 -0.0061938527819899222 0.0017536856308647147 0 -0.014186965121495122 0.011279057717820709 0 -0.014578079323867345 0.010646352316528841 0 -0.014350319004702156 0.010764820336266757 0 -0.014181423546238664 0.010785879224027722 0 -0.014186965121495122 0.011279057717820709 0 -0.014350319004702156 0.010764820336266757 0 -0.0058342942458994599 -0.0063836406669057532 0 -0.0059813338935951607 -0.0066132726009702804 0 -0.0061428817889891824 -0.0072801150872619591 0 -0.0058342942458994599 -0.0063836406669057532 0 -0.0058944882551415822 -0.007049541022234848 0 -0.0061428817889891824 -0.0072801150872619591 0 -0.0061428817889891824 -0.0072801150872619591 0 -0.0059952088788422907 -0.0076627660066028499 0 -0.0063504016461362472 -0.0083921762696942976 0 -0.0059813338935951607 -0.0066132726009702804 0 -0.0061428817889891824 -0.0072801150872619591 0 -0.0059952088788422907 -0.0076627660066028499 0 -0.0059952088788422907 -0.0076627660066028499 0 -0.0063504016461362472 -0.0083921762696942976 0 -0.0059537249012415064 -0.0086312899640152967 0 -0.0063504016461362472 -0.0083921762696942976 0 -0.006774626753315716 -0.0090670769293185478 0 -0.0071036432545261317 -0.009625803697293869 0 -0.0063504016461362472 -0.0083921762696942976 0 -0.0066051913460877503 -0.0081162996916344168 0 -0.006774626753315716 -0.0090670769293185478 0 -0.0061428817889891824 -0.0072801150872619591 0 -0.0063504016461362472 -0.0083921762696942976 0 -0.0066051913460877503 -0.0081162996916344168 0 -0.0066051913460877503 -0.0081162996916344168 0 -0.006774626753315716 -0.0090670769293185478 0 -0.0068130627884030849 -0.0087532237510036595 0 -0.006660792670559885 -0.010219452123728174 0 -0.0067156749720643609 -0.010516751067616332 0 -0.0068130627884030849 -0.0087532237510036595 0 -0.006774626753315716 -0.0090670769293185478 0 -0.0067156749720643609 -0.010516751067616332 0 -0.0068130627884030849 -0.0087532237510036595 0 -0.0066614913985027458 -0.012167833970513521 0 -0.0067156749720643609 -0.010516751067616332 0 -0.0065158567300040802 -0.01216799461543022 0 -0.0067156749720643609 -0.010516751067616332 0 -0.0065158567300040802 -0.01216799461543022 0 -0.0055112239317285996 -0.011798037389929791 0 -0.0065655512722928222 -0.010483034929912736 0 -0.0062467453983433719 -0.010660987806435564 0 -0.006774626753315716 -0.0090670769293185478 0 -0.0067156749720643609 -0.010516751067616332 0 -0.0071036432545261317 -0.009625803697293869 0 -0.0065158567300040802 -0.01216799461543022 0 -0.0055112239317285996 -0.011798037389929791 0 -0.0062389824528815271 -0.012731319566282331 0 -0.0062467453983433719 -0.010660987806435564 0 -0.0055173302010379684 -0.010720815673936519 0 -0.0055112239317285996 -0.011798037389929791 0 -0.0047012782687637662 -0.0116711141178236 0 -0.0055524027961187496 -0.012451031377914683 0 -0.0063504016461362472 -0.0083921762696942976 0 -0.0071036432545261317 -0.009625803697293869 0 -0.0059537249012415064 -0.0086312899640152967 0 -0.0071036432545261317 -0.009625803697293869 0 -0.0059537249012415064 -0.0086312899640152967 0 -0.0061917903191557851 -0.0096379300999851463 0 -0.0047012782687637662 -0.0116711141178236 0 -0.0053831004882750133 -0.012968005895356906 0 -0.0055524027961187496 -0.012451031377914683 0 -0.0053831004882750133 -0.012968005895356906 0 -0.0059259417107496203 -0.013548014455345583 0 -0.0055524027961187496 -0.012451031377914683 0 -0.0055112239317285996 -0.011798037389929791 0 -0.0055524027961187496 -0.012451031377914683 0 -0.0062389824528815271 -0.012731319566282331 0 -0.0059259417107496203 -0.013548014455345583 0 -0.0062389824528815271 -0.012731319566282331 0 -0.0066297912086517889 -0.013882730182701291 0 -0.0059259417107496203 -0.013548014455345583 0 -0.0055524027961187496 -0.012451031377914683 0 -0.0062389824528815271 -0.012731319566282331 0 -0.0068989952931384621 -0.013311147131968126 0 -0.0065158567300040802 -0.01216799461543022 0 -0.0062389824528815271 -0.012731319566282331 0 -0.0068989952931384621 -0.013311147131968126 0 -0.0062389824528815271 -0.012731319566282331 0 -0.0066297912086517889 -0.013882730182701291 0 -0.00028426853871619612 -0.0072172019985259003 0 -0.001749512737074002 -0.0090229604510765008 0 -0.0044593359102808065 -0.0082259169139064885 0 -0.0032808136523267621 -0.0067312866214770195 0 -0.0059916581838070013 -0.008595363847993363 0 0.0010449876681205943 -0.0088537943787226035 0 0.0020557320176035087 -0.007386140213726849 0 0.0024745055237583168 -0.0093157714711846699 0 0.0020557320176035087 -0.007386140213726849 0 0.0026559489617934925 -0.0072366727991904816 0 0.0024745055237583168 -0.0093157714711846699 0 0.0020557320176035087 -0.007386140213726849 0 0.0023407932782030789 -0.0066016468201753548 0 0.0024914662824564384 -0.0070476197588490771 0 0.0020557320176035087 -0.007386140213726849 0 0.0024914662824564384 -0.0070476197588490771 0 0.0026559489617934925 -0.0072366727991904816 0 0.0018638184432171285 -0.0064919680187837912 0 0.0020557320176035087 -0.007386140213726849 0 0.0023407932782030789 -0.0066016468201753548 0 0.0028051510718182151 -0.0058081237543594465 0 0.0023407932782030789 -0.0066016468201753548 0 0.0023267180567124609 -0.0060931286848476826 0 0.0028051510718182151 -0.0058081237543594465 0 0.0023407932782030789 -0.0066016468201753548 0 0.0024914662824564384 -0.0070476197588490771 0 0.0018638184432171285 -0.0064919680187837912 0 0.0023407932782030789 -0.0066016468201753548 0 0.0023267180567124609 -0.0060931286848476826 0 0.0020285576817584221 -0.006586524391473887 0 0.0024914662824564384 -0.0070476197588490771 0 0.0026559489617934925 -0.0072366727991904816 0 -0.0032808136523267621 -0.0067312866214770195 0 -0.0032535924522157996 -0.0074644989825440843 0 -0.0023515847367998012 -0.007148644280118026 0 -0.0044593359102808065 -0.0082259169139064885 0 -0.0032535924522157996 -0.0074644989825440843 0 -0.002861657459020514 -0.0078093745097802302 0 -0.0044593359102808065 -0.0082259169139064885 0 -0.0032808136523267621 -0.0067312866214770195 0 -0.0032535924522157996 -0.0074644989825440843 0 -0.0032535924522157996 -0.0074644989825440843 0 -0.0023515847367998012 -0.007148644280118026 0 -0.002861657459020514 -0.0078093745097802302 0 -0.0013181088110314463 -0.0072788782743470962 0 -0.0023515847367998012 -0.007148644280118026 0 -0.002861657459020514 -0.0078093745097802302 0 -0.0034259943960617914 -0.0074191910477770821 0 -0.0042242394867068236 -0.0082380507929145416 0 -0.0044593359102808065 -0.0082259169139064885 0 -0.002861657459020514 -0.0078093745097802302 0 -0.0044753874031927491 -0.0083759529866494799 0 -0.0044593359102808065 -0.0082259169139064885 0 -0.0044753874031927491 -0.0083759529866494799 0 -0.005304053383072882 -0.011135523044944799 0 -0.0013439486449238276 -0.0085183827503520684 0 -0.002861657459020514 -0.0078093745097802302 0 -0.0044753874031927491 -0.0083759529866494799 0 -0.0056552405053701352 -0.0073653539926055054 0 -0.0059537249012415064 -0.0086312899640152967 0 -0.0044753874031927491 -0.0083759529866494799 0 -0.0059537249012415064 -0.0086312899640152967 0 -0.0061917903191557851 -0.0096379300999851463 0 -0.0044753874031927491 -0.0083759529866494799 0 -0.005304053383072882 -0.011135523044944799 0 -0.007333511569582645 -0.011509925350284944 0 -0.0057533728880173208 -0.013662066178438325 0 -0.0061917903191557851 -0.0096379300999851463 0 -0.0044753874031927491 -0.0083759529866494799 0 -0.005304053383072882 -0.011135523044944799 0 -0.0055173302010379684 -0.010720815673936519 0 -0.005433961658256021 -0.011138517526936629 0 -0.0053831004882750133 -0.012968005895356906 0 -0.005304053383072882 -0.011135523044944799 0 -0.0057533728880173208 -0.013662066178438325 0 -0.0047012782687637662 -0.0116711141178236 0 -0.0053831004882750133 -0.012968005895356906 0 -0.005304053383072882 -0.011135523044944799 0 -0.005304053383072882 -0.011135523044944799 0 -0.0059916581838070013 -0.008595363847993363 0 -0.007333511569582645 -0.011509925350284944 0 -0.0044593359102808065 -0.0082259169139064885 0 -0.005304053383072882 -0.011135523044944799 0 -0.0059916581838070013 -0.008595363847993363 0 -0.001749512737074002 -0.0090229604510765008 0 -0.0030378958506429169 -0.011842751755025921 0 0.0010449876681205943 -0.0088537943787226035 0 0.0024745055237583168 -0.0093157714711846699 0 0.0012570338793417982 -0.01224098967908255 0 -0.00094266921505360289 -0.011986745203524789 0 0.0012570338793417982 -0.01224098967908255 0 -0.0010938068482592581 -0.013535842141183321 0 -0.0030378958506429169 -0.011842751755025921 0 -0.0043047194071137943 -0.01477121140761759 0 -0.007333511569582645 -0.011509925350284944 0 -0.0064160171149242702 -0.014833934881797078 0 -0.0057533728880173208 -0.013662066178438325 0 0.0012570338793417982 -0.01224098967908255 0 -0.0011732436336305951 -0.015258659489084147 0 -0.0010938068482592581 -0.013535842141183321 0 -0.007333511569582645 -0.011509925350284944 0 -0.007487903837751362 -0.014721544147792696 0 -0.0064160171149242702 -0.014833934881797078 0 -0.0053831004882750133 -0.012968005895356906 0 -0.0057533728880173208 -0.013662066178438325 0 -0.0059219750222631743 -0.015321831509626198 0 -0.0057533728880173208 -0.013662066178438325 0 -0.0059916667105146676 -0.015444975716528447 0 -0.0059219750222631743 -0.015321831509626198 0 -0.0064160171149242702 -0.014833934881797078 0 -0.0057533728880173208 -0.013662066178438325 0 -0.0059916667105146676 -0.015444975716528447 0 -0.0064160171149242702 -0.014833934881797078 0 -0.0059916667105146676 -0.015444975716528447 0 -0.0061430733780161294 -0.016249976867138558 0 -0.0059916667105146676 -0.015444975716528447 0 -0.0061430733780161294 -0.016249976867138558 0 -0.0060697190965723988 -0.016863805842470526 0 -0.0059916667105146676 -0.015444975716528447 0 -0.0060697190965723988 -0.016863805842470526 0 -0.0059219750222631743 -0.015321831509626198 0 -0.0060697190965723988 -0.016863805842470526 0 -0.0060300642495239995 -0.01745579803080544 0 -0.0059593269045965461 -0.018218149612157265 0 -0.0060697190965723988 -0.016863805842470526 0 -0.0063958317496253698 -0.017630877834949855 0 -0.0059593269045965461 -0.018218149612157265 0 -0.0061430733780161294 -0.016249976867138558 0 -0.0060697190965723988 -0.016863805842470526 0 -0.0060300642495239995 -0.01745579803080544 0 -0.0061430733780161294 -0.016249976867138558 0 -0.0060300642495239995 -0.01745579803080544 0 -0.0062515821534784299 -0.016411302798943143 0 -0.0060757599145412544 -0.01712773493247241 0 -0.0052350419657641095 -0.016726268758901104 0 -0.0062515821534784299 -0.016411302798943143 0 -0.0060300642495239995 -0.01745579803080544 0 -0.0060757599145412544 -0.01712773493247241 0 -0.0062515821534784299 -0.016411302798943143 0 -0.0052350419657641095 -0.016726268758901104 0 -0.0056394884227244316 -0.016640156701570978 0 -0.004644311708317945 -0.016437821459115598 0 -0.0060757599145412544 -0.01712773493247241 0 -0.0052350419657641095 -0.016726268758901104 0 -0.0056394884227244316 -0.016640156701570978 0 -0.007487903837751362 -0.014721544147792696 0 -0.0052350419657641095 -0.016726268758901104 0 -0.0062515821534784299 -0.016411302798943143 0 -0.0011732436336305951 -0.015258659489084147 0 -0.0052350419657641095 -0.016726268758901104 0 -0.0037884810679835561 -0.016244854387438841 0 -0.0043047194071137943 -0.01477121140761759 0 -0.0050779070807184879 -0.016334671157901316 0 -0.0064160171149242702 -0.014833934881797078 0 -0.0061430733780161294 -0.016249976867138558 0 -0.0062515821534784299 -0.016411302798943143 0 -0.007487903837751362 -0.014721544147792696 0 -0.0064160171149242702 -0.014833934881797078 0 -0.0062515821534784299 -0.016411302798943143 0 -0.0072600580586106985 -0.014630108886832804 0 -0.0063291226614269605 -0.014748622587759936 0 -0.0064526644522131579 -0.016631936669500105 0 -0.0083146271246564898 -0.015617019615965353 0 -0.0072600580586106985 -0.014630108886832804 0 -0.0085565060876572514 -0.014992392204344365 0 -0.0073022643340513969 -0.014864410994385917 0 -0.0075848056870109941 -0.015902102483247138 0 -0.0072600580586106985 -0.014630108886832804 0 -0.0066297912086517889 -0.013882730182701291 0 -0.0063291226614269605 -0.014748622587759936 0 -0.0059259417107496203 -0.013548014455345583 0 -0.0066297912086517889 -0.013882730182701291 0 -0.0063291226614269605 -0.014748622587759936 0 -0.0063291226614269605 -0.014748622587759936 0 -0.0062300126110016877 -0.016138867145794815 0 -0.0064526644522131579 -0.016631936669500105 0 -0.0063291226614269605 -0.014748622587759936 0 -0.0059023606101568423 -0.014486070226736029 0 -0.0062300126110016877 -0.016138867145794815 0 -0.0059023606101568423 -0.014486070226736029 0 -0.0059219750222631743 -0.015321831509626198 0 -0.0062300126110016877 -0.016138867145794815 0 -0.0059259417107496203 -0.013548014455345583 0 -0.0063291226614269605 -0.014748622587759936 0 -0.0059023606101568423 -0.014486070226736029 0 -0.0053831004882750133 -0.012968005895356906 0 -0.0059259417107496203 -0.013548014455345583 0 -0.0059023606101568423 -0.014486070226736029 0 -0.0053831004882750133 -0.012968005895356906 0 -0.0059023606101568423 -0.014486070226736029 0 -0.0059219750222631743 -0.015321831509626198 0 -0.0060697190965723988 -0.016863805842470526 0 -0.0059219750222631743 -0.015321831509626198 0 -0.0063958317496253698 -0.017630877834949855 0 -0.0059219750222631743 -0.015321831509626198 0 -0.0063958317496253698 -0.017630877834949855 0 -0.0062300126110016877 -0.016138867145794815 0 -0.0063958317496253698 -0.017630877834949855 0 -0.0066304635053109177 -0.01875014791391625 0 -0.0059593269045965461 -0.018218149612157265 0 -0.0063958317496253698 -0.017630877834949855 0 -0.0062300126110016877 -0.016138867145794815 0 -0.0063836084059893878 -0.018377331515818374 0 -0.0063958317496253698 -0.017630877834949855 0 -0.0063836084059893878 -0.018377331515818374 0 -0.006475636931407733 -0.019789842026997843 0 -0.0062300126110016877 -0.016138867145794815 0 -0.0063836084059893878 -0.018377331515818374 0 -0.0064526644522131579 -0.016631936669500105 0 -0.0078305903510265916 -0.017143551954389331 0 -0.0075848056870109941 -0.015902102483247138 0 -0.0093815693382871337 -0.016041291100134407 0 -0.0089348556680032745 -0.016878832905251166 0 -0.0085565060876572514 -0.014992392204344365 0 -0.0093815693382871337 -0.016041291100134407 0 -0.0089348556680032745 -0.016878832905251166 0 -0.0094733349099643312 -0.017769000245519605 0 -0.0083146271246564898 -0.015617019615965353 0 -0.0089348556680032745 -0.016878832905251166 0 -0.0085565060876572514 -0.014992392204344365 0 -0.0098577270893876346 -0.019369164177239016 0 -0.0094733349099643312 -0.017769000245519605 0 -0.0098799975377725051 -0.018794571470870033 0 -0.0098577270893876346 -0.019369164177239016 0 -0.0098799975377725051 -0.018794571470870033 0 -0.010407143081072278 -0.020418634430186978 0 -0.0092586512473072646 -0.018577932250012034 0 -0.0089348556680032745 -0.016878832905251166 0 -0.0094733349099643312 -0.017769000245519605 0 -0.0092586512473072646 -0.018577932250012034 0 -0.0098577270893876346 -0.019369164177239016 0 -0.0094733349099643312 -0.017769000245519605 0 -0.0093815693382871337 -0.016041291100134407 0 -0.0094733349099643312 -0.017769000245519605 0 -0.0097857594471043603 -0.017532447274369593 0 -0.0094733349099643312 -0.017769000245519605 0 -0.0097857594471043603 -0.017532447274369593 0 -0.0098799975377725051 -0.018794571470870033 0 -0.0097857594471043603 -0.017532447274369593 0 -0.0098799975377725051 -0.018794571470870033 0 -0.010318853150648139 -0.019194221298487617 0 -0.010291910404283471 -0.016815583899924973 0 -0.012124636662133202 -0.018498071171036516 0 -0.010318853150648139 -0.019194221298487617 0 -0.0097857594471043603 -0.017532447274369593 0 -0.010291910404283471 -0.016815583899924973 0 -0.010318853150648139 -0.019194221298487617 0 -0.0078305903510265916 -0.017143551954389331 0 -0.0090202855635016666 -0.018633311959720126 0 -0.0093815693382871337 -0.016041291100134407 0 -0.0097857594471043603 -0.017532447274369593 0 -0.010291910404283471 -0.016815583899924973 0 -0.006475636931407733 -0.019789842026997843 0 -0.0066304635053109177 -0.01875014791391625 0 -0.0074281027228062634 -0.019868436779770744 0 -0.0063958317496253698 -0.017630877834949855 0 -0.006475636931407733 -0.019789842026997843 0 -0.0066304635053109177 -0.01875014791391625 0 -0.0090202855635016666 -0.018633311959720126 0 -0.0060916071808936418 -0.019928974740030476 0 -0.006475636931407733 -0.019789842026997843 0 -0.007654042771881117 -0.021981646010552681 0 -0.0074281027228062634 -0.019868436779770744 0 -0.0060916071808936418 -0.019928974740030476 0 -0.0055799460281236038 -0.020120017873688723 0 -0.0060916071808936418 -0.019928974740030476 0 -0.0063191362706772388 -0.021097698488865186 0 -0.012124636662133202 -0.018498071171036516 0 -0.012046665102166053 -0.021443920002477579 0 -0.010318853150648139 -0.019194221298487617 0 -0.0020573128146630587 -0.017502302225377644 0 -0.00023761950951163915 -0.021573780861123649 0 -0.0047178213403920363 -0.020903917175398461 0 -0.002680620995737668 -0.024170272612111895 0 -0.00023761950951163915 -0.021573780861123649 0 -0.0047178213403920363 -0.020903917175398461 0 0.001697280526864506 -0.025996326197256787 0 -0.002680620995737668 -0.024170272612111895 0 -0.00023761950951163915 -0.021573780861123649 0 -0.011384261532042384 -0.024701990327366589 0 -0.012046665102166053 -0.021443920002477579 0 -0.010402135025850915 -0.022041502613325499 0 -0.011384261532042384 -0.024701990327366589 0 -0.0092546142463319041 -0.024400027980528847 0 -0.010402135025850915 -0.022041502613325499 0 -0.0043087992840400964 -0.025890736819597748 0 -0.0063191362706772388 -0.021097698488865186 0 -0.012046665102166053 -0.021443920002477579 0 -0.010402135025850915 -0.022041502613325499 0 -0.010318853150648139 -0.019194221298487617 0 -0.010402135025850915 -0.022041502613325499 0 -0.010318853150648139 -0.019194221298487617 0 -0.0090860953755978382 -0.021096554020249743 0 -0.0098799975377725051 -0.018794571470870033 0 -0.010318853150648139 -0.019194221298487617 0 -0.0090860953755978382 -0.021096554020249743 0 -0.010002267719947187 -0.019098611186771919 0 -0.010554767795436286 -0.020889231053924144 0 -0.0092546142463319041 -0.024400027980528847 0 -0.010402135025850915 -0.022041502613325499 0 -0.0090860953755978382 -0.021096554020249743 0 -0.011744017950308125 -0.023785015416124718 0 -0.010554767795436286 -0.020889231053924144 0 -0.013678375559795571 -0.023281642632818265 0 -0.011998537051637911 -0.020360098883387644 0 -0.011109594460599793 -0.022283674354268292 0 -0.0094992802655470485 -0.022705837695073658 0 -0.010607557417044632 -0.023631533456289558 0 -0.011109594460599793 -0.022283674354268292 0 -0.011998537051637911 -0.020360098883387644 0 -0.011109594460599793 -0.022283674354268292 0 -0.010407143081072278 -0.020418634430186978 0 -0.0094992802655470485 -0.022705837695073658 0 -0.011109594460599793 -0.022283674354268292 0 -0.010407143081072278 -0.020418634430186978 0 -0.0098799975377725051 -0.018794571470870033 0 -0.011998537051637911 -0.020360098883387644 0 -0.010407143081072278 -0.020418634430186978 0 -0.0064156073812278586 -0.019507775602077993 0 -0.005750634948995398 -0.02148328835130995 0 -0.0068888008961103444 -0.021861246918678977 0 -0.0064156073812278586 -0.019507775602077993 0 -0.0076421471756164434 -0.021312164195221479 0 -0.0068888008961103444 -0.021861246918678977 0 -0.0064156073812278586 -0.019507775602077993 0 -0.0076421471756164434 -0.021312164195221479 0 -0.0075113045243145691 -0.021671008249423758 0 -0.0061961531744288275 -0.019535196658475175 0 -0.0062858514259215856 -0.019273781193440157 0 -0.0060300642495239995 -0.01745579803080544 0 -0.0060757599145412544 -0.01712773493247241 0 -0.0064156073812278586 -0.019507775602077993 0 -0.0060757599145412544 -0.01712773493247241 0 -0.0064156073812278586 -0.019507775602077993 0 -0.0056394884227244316 -0.016640156701570978 0 -0.0060300642495239995 -0.01745579803080544 0 -0.0064156073812278586 -0.019507775602077993 0 -0.005509435917932703 -0.019218910452072125 0 -0.0060300642495239995 -0.01745579803080544 0 -0.005509435917932703 -0.019218910452072125 0 -0.0059593269045965461 -0.018218149612157265 0 -0.005509435917932703 -0.019218910452072125 0 -0.0059593269045965461 -0.018218149612157265 0 -0.0041065624050491082 -0.019503442551325186 0 -0.0059499043238049358 -0.018637409495192745 0 -0.0055799460281236038 -0.020120017873688723 0 -0.0066304635053109177 -0.01875014791391625 0 -0.0059593269045965461 -0.018218149612157265 0 -0.0074281027228062634 -0.019868436779770744 0 -0.005509435917932703 -0.019218910452072125 0 -0.0041065624050491082 -0.019503442551325186 0 -0.0047026816924623602 -0.021266434581895362 0 -0.0030980896260196806 -0.021126328542661832 0 -0.0041065624050491082 -0.019503442551325186 0 -0.0047026816924623602 -0.021266434581895362 0 -0.005509435917932703 -0.019218910452072125 0 -0.005750634948995398 -0.02148328835130995 0 -0.0047026816924623602 -0.021266434581895362 0 -0.0064156073812278586 -0.019507775602077993 0 -0.005509435917932703 -0.019218910452072125 0 -0.005750634948995398 -0.02148328835130995 0 -0.005750634948995398 -0.02148328835130995 0 -0.0052172631322924224 -0.023135052872203053 0 -0.0058809900694660657 -0.023951275327237537 0 -0.005750634948995398 -0.02148328835130995 0 -0.0047026816924623602 -0.021266434581895362 0 -0.0052172631322924224 -0.023135052872203053 0 -0.0060916071808936418 -0.019928974740030476 0 -0.0041296760204564929 -0.021614953998635302 0 -0.0030980896260196806 -0.021126328542661832 0 -0.0047026816924623602 -0.021266434581895362 0 -0.0041841702220821201 -0.023009043992583963 0 -0.0047026816924623602 -0.021266434581895362 0 -0.0041841702220821201 -0.023009043992583963 0 -0.0052172631322924224 -0.023135052872203053 0 -0.007404590959612399 -0.024329502822695356 0 -0.002680620995737668 -0.024170272612111895 0 -0.0047178213403920363 -0.020903917175398461 0 -0.0052657816549124201 -0.025025278277567092 0 -0.0041296760204564929 -0.021614953998635302 0 -0.0052657816549124201 -0.025025278277567092 0 -0.0053980769319593395 -0.024393333840041942 0 -0.0051467445617973248 -0.024399942648920907 0 -0.0052172631322924224 -0.023135052872203053 0 -0.0058809900694660657 -0.023951275327237537 0 -0.0051467445617973248 -0.024399942648920907 0 -0.0041841702220821201 -0.023009043992583963 0 -0.0052172631322924224 -0.023135052872203053 0 -0.0058141216621517096 -0.028623998876322478 0 -0.0058809900694660657 -0.023951275327237537 0 -0.0083470375029716867 -0.023398940440678445 0 -0.0058809900694660657 -0.023951275327237537 0 -0.0068888008961103444 -0.021861246918678977 0 -0.0083470375029716867 -0.023398940440678445 0 -0.005750634948995398 -0.02148328835130995 0 -0.0058809900694660657 -0.023951275327237537 0 -0.0068888008961103444 -0.021861246918678977 0 -0.0076421471756164434 -0.021312164195221479 0 -0.0083470375029716867 -0.023398940440678445 0 -0.0076980223901534821 -0.021484959962848257 0 -0.0076421471756164434 -0.021312164195221479 0 -0.0068888008961103444 -0.021861246918678977 0 -0.0083470375029716867 -0.023398940440678445 0 -0.0061898757323940396 -0.028398815666228368 0 -0.0057865125601689379 -0.027549261840585596 0 -0.0064315905949975764 -0.027864964904430696 0 -0.0058255083030115101 -0.028402197155520999 0 -0.0069701202714133985 -0.025544897016508136 0 -0.0057865125601689379 -0.027549261840585596 0 -0.0064315905949975764 -0.027864964904430696 0 -0.0065466246847957843 -0.026817870478927103 0 -0.0069865942166847834 -0.028258484545025317 0 -0.0064315905949975764 -0.027864964904430696 0 -0.0070610264892880456 -0.027583466508385147 0 -0.0064315905949975764 -0.027864964904430696 0 -0.0070610264892880456 -0.027583466508385147 0 -0.0065466246847957843 -0.026817870478927103 0 -0.0074133353403089955 -0.028221500880547087 0 -0.0070610264892880456 -0.027583466508385147 0 -0.007687874195001272 -0.027616131536158075 0 -0.0069865942166847834 -0.028258484545025317 0 -0.0074133353403089955 -0.028221500880547087 0 -0.0070610264892880456 -0.027583466508385147 0 -0.0070610264892880456 -0.027583466508385147 0 -0.0074463076275340118 -0.026531584999413202 0 -0.007687874195001272 -0.027616131536158075 0 -0.0068506820620455253 -0.025802634242013206 0 -0.0065466246847957843 -0.026817870478927103 0 -0.0074463076275340118 -0.026531584999413202 0 -0.0070610264892880456 -0.027583466508385147 0 -0.0065466246847957843 -0.026817870478927103 0 -0.0074463076275340118 -0.026531584999413202 0 -0.0068506820620455253 -0.025802634242013206 0 -0.0065466246847957843 -0.026817870478927103 0 -0.0059265233170375589 -0.025620605615537681 0 -0.0068506820620455253 -0.025802634242013206 0 -0.0074332248675715229 -0.025417832870616244 0 -0.0074463076275340118 -0.026531584999413202 0 -0.0057865125601689379 -0.027549261840585596 0 -0.0065466246847957843 -0.026817870478927103 0 -0.0059265233170375589 -0.025620605615537681 0 -0.0069701202714133985 -0.025544897016508136 0 -0.0068683915497484609 -0.023596197105503258 0 -0.0076421471756164434 -0.021312164195221479 0 -0.0076980223901534821 -0.021484959962848257 0 -0.0072608434655242835 -0.022182473198086285 0 -0.0059265233170375589 -0.025620605615537681 0 -0.0069301480681873834 -0.02447243888462345 0 -0.0066374322238811796 -0.023051975021475338 0 -0.0068683915497484609 -0.023596197105503258 0 -0.0067071177110293347 -0.023045356357904032 0 -0.0068506820620455253 -0.025802634242013206 0 -0.0059265233170375589 -0.025620605615537681 0 -0.0069301480681873834 -0.02447243888462345 0 -0.0068506820620455253 -0.025802634242013206 0 -0.0069301480681873834 -0.02447243888462345 0 -0.0074332248675715229 -0.025417832870616244 0 -0.0069301480681873834 -0.02447243888462345 0 -0.0070473364865082577 -0.023490371059877991 0 -0.0066374322238811796 -0.023051975021475338 0 -0.0069301480681873834 -0.02447243888462345 0 -0.0070473364865082577 -0.023490371059877991 0 -0.0072418066507038293 -0.024017785698675471 0 -0.0066374322238811796 -0.023051975021475338 0 -0.0069404108141694612 -0.02314796693770706 0 -0.0066697583357756543 -0.023146332372419219 0 -0.0070473364865082577 -0.023490371059877991 0 -0.0066374322238811796 -0.023051975021475338 0 -0.0069404108141694612 -0.02314796693770706 0 -0.0066374322238811796 -0.023051975021475338 0 -0.0072608434655242835 -0.022182473198086285 0 -0.0066697583357756543 -0.023146332372419219 0 -0.0076421471756164434 -0.021312164195221479 0 -0.0075113045243145691 -0.021671008249423758 0 -0.0072608434655242835 -0.022182473198086285 0 -0.0062858514259215856 -0.019273781193440157 0 -0.0057344739673831132 -0.01973038883758034 0 -0.0056394884227244316 -0.016640156701570978 0 -0.004644311708317945 -0.016437821459115598 0 -0.0040667169253173581 -0.016150055328546204 0 -0.0075113045243145691 -0.021671008249423758 0 -0.0072608434655242835 -0.022182473198086285 0 -0.0066697583357756543 -0.023146332372419219 0 -0.0076980223901534821 -0.021484959962848257 0 -0.0066374322238811796 -0.023051975021475338 0 -0.0072608434655242835 -0.022182473198086285 0 0.02223080090501417 -0.02160196303871818 0 0.023231238804118353 -0.021727424292485462 0 0.022498407350328417 -0.022858987308728429 0 -0.0078316395153405164 -0.023609781592493318 0 -0.0077070841637133462 -0.023594180163106247 0 -0.0067132069753962371 -0.023816674130296433 0 0.02223080090501417 -0.02160196303871818 0 0.022618468851319316 -0.021001049932205137 0 0.023231238804118353 -0.021727424292485462 0 -0.0074949141630387996 -0.023399828576307714 0 -0.0073925857235336125 -0.023286288719212726 0 -0.0074286240030159937 -0.023164311442515861 0 -0.0077070841637133462 -0.023594180163106247 0 -0.0074949141630387996 -0.023399828576307714 0 -0.0074286240030159937 -0.023164311442515861 0 -0.0073925857235336125 -0.023286288719212726 0 -0.0073831847670101057 -0.023430253411180251 0 -0.0072160206998481474 -0.023167404374337161 0 -0.0074949141630387996 -0.023399828576307714 0 -0.0073925857235336125 -0.023286288719212726 0 -0.0073831847670101057 -0.023430253411180251 0 -0.0074949141630387996 -0.023399828576307714 0 -0.0073831847670101057 -0.023430253411180251 0 -0.0075476168152995701 -0.02353563509555659 0 -0.0073831847670101057 -0.023430253411180251 0 -0.0075476168152995701 -0.02353563509555659 0 -0.0075841844682633776 -0.023741456182266137 0 -0.0077070841637133462 -0.023594180163106247 0 -0.0075476168152995701 -0.02353563509555659 0 -0.0075841844682633776 -0.023741456182266137 0 -0.0077070841637133462 -0.023594180163106247 0 -0.0074949141630387996 -0.023399828576307714 0 -0.0075476168152995701 -0.02353563509555659 0 -0.0070473364865082577 -0.023490371059877991 0 -0.0069404108141694612 -0.02314796693770706 0 -0.007169858852188217 -0.023370404447959178 0 -0.0069404108141694612 -0.02314796693770706 0 -0.007169858852188217 -0.023370404447959178 0 -0.0072160206998481474 -0.023167404374337161 0 -0.0073831847670101057 -0.023430253411180251 0 -0.007169858852188217 -0.023370404447959178 0 -0.0072160206998481474 -0.023167404374337161 0 -0.0073831847670101057 -0.023430253411180251 0 -0.007169858852188217 -0.023370404447959178 0 -0.0073168186787078296 -0.023686694868663736 0 -0.0070473364865082577 -0.023490371059877991 0 -0.007169858852188217 -0.023370404447959178 0 -0.0073168186787078296 -0.023686694868663736 0 -0.0073168186787078296 -0.023686694868663736 0 -0.0072418066507038293 -0.024017785698675471 0 -0.0076121903226330579 -0.024425722615741767 0 -0.0073168186787078296 -0.023686694868663736 0 -0.0075841844682633776 -0.023741456182266137 0 -0.0076121903226330579 -0.024425722615741767 0 -0.0070473364865082577 -0.023490371059877991 0 -0.0073168186787078296 -0.023686694868663736 0 -0.0072418066507038293 -0.024017785698675471 0 -0.0078316395153405164 -0.023609781592493318 0 -0.0075841844682633776 -0.023741456182266137 0 -0.0076121903226330579 -0.024425722615741767 0 -0.0078316395153405164 -0.023609781592493318 0 -0.0077070841637133462 -0.023594180163106247 0 -0.0075841844682633776 -0.023741456182266137 0 -0.0073831847670101057 -0.023430253411180251 0 -0.0073168186787078296 -0.023686694868663736 0 -0.0075841844682633776 -0.023741456182266137 0 -0.0078316395153405164 -0.023609781592493318 0 -0.0076121903226330579 -0.024425722615741767 0 -0.0083232697240914841 -0.025260020575624001 0 -0.0069301480681873834 -0.02447243888462345 0 -0.0072418066507038293 -0.024017785698675471 0 -0.0076121903226330579 -0.024425722615741767 0 -0.0069301480681873834 -0.02447243888462345 0 -0.0076121903226330579 -0.024425722615741767 0 -0.0074332248675715229 -0.025417832870616244 0 -0.0076121903226330579 -0.024425722615741767 0 -0.0074332248675715229 -0.025417832870616244 0 -0.0083232697240914841 -0.025260020575624001 0 -0.01123079312820347 -0.025597597608869174 0 0.0065655313212437472 -0.02416297133322768 0 0.02223080090501417 -0.02160196303871818 0 0.022000981415394763 -0.020368625466771914 0 0.022618468851319316 -0.021001049932205137 0 0.022618468851319316 -0.021001049932205137 0 0.023006791295680996 -0.020302086259152391 0 0.023231238804118353 -0.021727424292485462 0 0.0071159717861448138 -0.023300267360896455 0 0.0065655313212437472 -0.02416297133322768 0 0.0065655313212437472 -0.02416297133322768 0 0.030094305323637664 -0.022030598308239807 0 0.022000981415394763 -0.020368625466771914 0 0.022618468851319316 -0.021001049932205137 0 0.023006791295680996 -0.020302086259152391 0 0.034269453765621273 -0.024626398511742073 0 0.0097862931721026235 -0.025919781507355862 0 0.01720488871550771 -0.030730451880725235 0 0.029136364094055619 -0.02992746758324507 0 0.028118469492462762 -0.022533559762789725 0 0.01720488871550771 -0.030730451880725235 0 0.028118469492462762 -0.022533559762789725 0 0.015438939350592706 -0.016021347533116542 0 0.0065655313212437472 -0.02416297133322768 0 0.0097862931721026235 -0.025919781507355862 0 -0.0083031705749178914 -0.025559260501476298 0 -0.0074463076275340118 -0.026531584999413202 0 -0.0083324076729858303 -0.027084461162031944 0 -0.0074332248675715229 -0.025417832870616244 0 -0.0083031705749178914 -0.025559260501476298 0 -0.0074463076275340118 -0.026531584999413202 0 0.019294085864842783 -0.025911546599739505 0 0.0097862931721026235 -0.025919781507355862 0 -0.0079987854872518964 -0.02827842468172756 0 -0.0081879360838350325 -0.027333379866737346 0 -0.0079173191826545711 -0.027862922184375211 0 -0.0081879360838350325 -0.027333379866737346 0 -0.007687874195001272 -0.027616131536158075 0 -0.0079173191826545711 -0.027862922184375211 0 -0.0074463076275340118 -0.026531584999413202 0 -0.0083324076729858303 -0.027084461162031944 0 -0.007687874195001272 -0.027616131536158075 0 0.0097862931721026235 -0.025919781507355862 0 -0.0096160925223572023 -0.024052704546306349 0 -0.0077815381616857093 -0.028238908004536902 0 -0.007687874195001272 -0.027616131536158075 0 -0.0079173191826545711 -0.027862922184375211 0 -0.0077815381616857093 -0.028238908004536902 0 -0.0074133353403089955 -0.028221500880547087 0 -0.007687874195001272 -0.027616131536158075 0 0.035485576450955368 -0.024670089086945481 0 0.036198414893867097 -0.025047551321673679 0 0.035653373213636402 -0.025254136281751952 0 0.036188730609286263 -0.026011609849378718 0 0.036198414893867097 -0.025047551321673679 0 0.035927130014835502 -0.025754950519420599 0 0.036198414893867097 -0.025047551321673679 0 0.035653373213636402 -0.025254136281751952 0 0.035927130014835502 -0.025754950519420599 0 0.03542805840151883 -0.026048635099839346 0 0.035653373213636402 -0.025254136281751952 0 0.035927130014835502 -0.025754950519420599 0 0.035485576450955368 -0.024670089086945481 0 0.035653373213636402 -0.025254136281751952 0 0.03499712576153622 -0.0251015196064855 0 0.034793027866829133 -0.026029979232861516 0 0.03542805840151883 -0.026048635099839346 0 0.03499712576153622 -0.0251015196064855 0 0.03542805840151883 -0.026048635099839346 0 0.035653373213636402 -0.025254136281751952 0 0.03499712576153622 -0.0251015196064855 0 0.03499712576153622 -0.0251015196064855 0 0.034410699594400525 -0.02524236149276668 0 0.034533651776543973 -0.024572166629336725 0 0.034793027866829133 -0.026029979232861516 0 0.03499712576153622 -0.0251015196064855 0 0.034410699594400525 -0.02524236149276668 0 0.034410699594400525 -0.02524236149276668 0 0.034533651776543973 -0.024572166629336725 0 0.034176071077193934 -0.024778377523323989 0 0.034533651776543973 -0.024572166629336725 0 0.034906350841340958 -0.02430649483385669 0 0.034324856792033044 -0.024008710698563373 0 0.035489689372335542 -0.024070552157312904 0 0.034066873438671749 -0.023050265402088828 0 0.03499712576153622 -0.0251015196064855 0 0.034533651776543973 -0.024572166629336725 0 0.034906350841340958 -0.02430649483385669 0 0.035485576450955368 -0.024670089086945481 0 0.03499712576153622 -0.0251015196064855 0 0.034906350841340958 -0.02430649483385669 0 0.034269453765621273 -0.024626398511742073 0 0.035489689372335542 -0.024070552157312904 0 0.029136364094055619 -0.02992746758324507 0 0.028118469492462762 -0.022533559762789725 0 0.04089334254756815 -0.029075804139720055 0 0.030094305323637664 -0.022030598308239807 0 0.035489689372335542 -0.024070552157312904 0 0.033027143838178528 -0.024979851875301478 0 0.033595405777865503 -0.024060596524923771 0 0.033809630896404957 -0.024719232424213651 0 0.033853616742145237 -0.025689732788085815 0 0.033809630896404957 -0.024719232424213651 0 0.034176071077193934 -0.024778377523323989 0 0.033853616742145237 -0.025689732788085815 0 0.034410699594400525 -0.02524236149276668 0 0.034176071077193934 -0.024778377523323989 0 0.033809630896404957 -0.024719232424213651 0 0.034176071077193934 -0.024778377523323989 0 0.034324856792033044 -0.024008710698563373 0 0.034533651776543973 -0.024572166629336725 0 0.034176071077193934 -0.024778377523323989 0 0.034324856792033044 -0.024008710698563373 0 0.033595405777865503 -0.024060596524923771 0 0.03371205203035104 -0.022845428260743841 0 0.034324856792033044 -0.024008710698563373 0 0.033719997580814114 -0.02293879674433839 0 0.034066873438671749 -0.023050265402088828 0 0.033595405777865503 -0.024060596524923771 0 0.033809630896404957 -0.024719232424213651 0 0.034324856792033044 -0.024008710698563373 0 0.03371205203035104 -0.022845428260743841 0 0.034213492731072243 -0.022339307597492947 0 0.034359250817741889 -0.021675824824612146 0 0.034213492731072243 -0.022339307597492947 0 0.034472844192208842 -0.022067396742813994 0 0.034359250817741889 -0.021675824824612146 0 0.034501225956525244 -0.021541537605900055 0 0.034487357322540491 -0.021493730456321563 0 0.034359250817741889 -0.021675824824612146 0 0.034192461278544965 -0.021582673615949146 0 0.034443828833349378 -0.021742605460004904 0 0.034487357322540491 -0.021493730456321563 0 0.034532741143916225 -0.021309546319986855 0 0.034367604773901439 -0.021301431412396044 0 0.034487357322540491 -0.021493730456321563 0 0.034359250817741889 -0.021675824824612146 0 0.034367604773901439 -0.021301431412396044 0 0.03416281037641733 -0.021390314869476647 0 0.034359250817741889 -0.021675824824612146 0 0.034367604773901439 -0.021301431412396044 0 0.03447930380998885 -0.021540660885972625 0 0.034532063992186925 -0.021490391208412566 0 0.034601953359165376 -0.021427115005135132 0 0.03447930380998885 -0.021540660885972625 0 0.034486964499732341 -0.021534884174425367 0 0.034532063992186925 -0.021490391208412566 0 0.030094305323637664 -0.022030598308239807 0 0.028672881809295201 -0.022151046547910568 0 0.034501225956525244 -0.021541537605900055 0 0.034487357322540491 -0.021493730456321563 0 0.034532063992186925 -0.021490391208412566 0 0.035489689372335542 -0.024070552157312904 0 0.034192461278544965 -0.021582673615949146 0 0.034486964499732341 -0.021534884174425367 0 0.034501225956525244 -0.021541537605900055 0 0.034532063992186925 -0.021490391208412566 0 0.03477090260019787 -0.022274809273299102 0 0.034213492731072243 -0.022339307597492947 0 0.034472844192208842 -0.022067396742813994 0 0.034532063992186925 -0.021490391208412566 0 0.034601953359165376 -0.021427115005135132 0 0.034532741143916225 -0.021309546319986855 0 0.034487357322540491 -0.021493730456321563 0 0.034532063992186925 -0.021490391208412566 0 0.034532741143916225 -0.021309546319986855 0 0.034601953359165376 -0.021427115005135132 0 0.034532741143916225 -0.021309546319986855 0 0.034642144808557103 -0.021193740830011642 0 0.028672881809295201 -0.022151046547910568 0 0.030475610165504791 -0.018143164525976918 0 0.03339158645588345 -0.017369594265400488 0 0.030475610165504791 -0.018143164525976918 0 0.034532741143916225 -0.021309546319986855 0 0.034524151665618959 -0.021028375540935739 0 0.034642144808557103 -0.021193740830011642 0 0.030475610165504791 -0.018143164525976918 0 0.0298869163813161 -0.010669319950348477 0 0.031023482810111906 -0.013653957817303866 0 0.032698118479844565 -0.014319169903160357 0 0.032528123087852537 -0.012610027621366732 0 0.034296822395267199 -0.020994675209023001 0 0.034367604773901439 -0.021301431412396044 0 0.034423230520914977 -0.02108382717373387 0 0.034532741143916225 -0.021309546319986855 0 0.034367604773901439 -0.021301431412396044 0 0.034423230520914977 -0.02108382717373387 0 0.034532741143916225 -0.021309546319986855 0 0.034524151665618959 -0.021028375540935739 0 0.034423230520914977 -0.02108382717373387 0 0.034524151665618959 -0.021028375540935739 0 0.034423230520914977 -0.02108382717373387 0 0.034380047422619291 -0.020798571315546913 0 0.034296822395267199 -0.020994675209023001 0 0.034423230520914977 -0.02108382717373387 0 0.034380047422619291 -0.020798571315546913 0 0.02935996798025204 -0.012986921594223259 0 0.030364699089505169 -0.01259836871191429 0 0.029728836311585599 -0.011709798042768031 0 0.03339158645588345 -0.017369594265400488 0 0.031868689369300346 -0.017018369226739331 0 0.031023482810111906 -0.013653957817303866 0 0.02935996798025204 -0.012986921594223259 0 0.030364699089505169 -0.01259836871191429 0 0.031023482810111906 -0.013653957817303866 0 0.030364699089505169 -0.01259836871191429 0 0.031204942208144654 -0.011898083949867282 0 0.03011307792783029 -0.01036912382015345 0 0.029728836311585599 -0.011709798042768031 0 0.031204942208144654 -0.011898083949867282 0 0.030364699089505169 -0.01259836871191429 0 0.029728836311585599 -0.011709798042768031 0 0.031204942208144654 -0.011898083949867282 0 0.028417791008873639 -0.011831388864670793 0 0.02935996798025204 -0.012986921594223259 0 0.029728836311585599 -0.011709798042768031 0 0.028417791008873639 -0.011831388864670793 0 0.028954537790008571 -0.01096624598250495 0 0.029728836311585599 -0.011709798042768031 0 0.027178135993400999 -0.011600204776531722 0 0.027451207729253399 -0.011031344718705344 0 0.027614369917729569 -0.011153638430504377 0 0.031023482810111906 -0.013653957817303866 0 0.032528123087852537 -0.012610027621366732 0 0.031204942208144654 -0.011898083949867282 0 0.027959174878111209 -0.010495036962596441 0 0.027954740498031923 -0.010528675163127514 0 0.027451207729253399 -0.011031344718705344 0 0.030164259432634507 -0.011311660371922104 0 0.0298869163813161 -0.010669319950348477 0 0.032347910298898025 -0.010952050059811556 0 0.032528123087852537 -0.012610027621366732 0 0.031204942208144654 -0.011898083949867282 0 -0.0034186592832509571 -0.010354470280674138 0 -0.0046482144833250322 -0.011119804888276606 0 -0.0033525549863862255 -0.014075182794606726 0 -0.0046482144833250322 -0.011119804888276606 0 -0.0042093975405247588 -0.014261888922774059 0 -0.0033525549863862255 -0.014075182794606726 0 0.027954740498031923 -0.010528675163127514 0 0.027451207729253399 -0.011031344718705344 0 0.027614369917729569 -0.011153638430504377 0 0.012499652726254711 -0.011567720947970289 0 0.011604144180231438 -0.011541435799316657 0 -0.0041047675106403924 -0.014339104029814875 0 -0.004406008472311599 -0.01496028487392792 0 -0.0038685602359236422 -0.014920176448472251 0 -0.0041047675106403924 -0.014339104029814875 0 -0.0034019988720038574 -0.014020368452435055 0 -0.0038685602359236422 -0.014920176448472251 0 -0.0041047675106403924 -0.014339104029814875 0 -0.0048851230643684766 -0.014047193021516524 0 -0.004406008472311599 -0.01496028487392792 0 -0.0048851230643684766 -0.014047193021516524 0 -0.0037582793832710215 -0.013550388995650949 0 -0.0034850241758909994 -0.012318777164372203 0 -0.0041047675106403924 -0.014339104029814875 0 -0.0048851230643684766 -0.014047193021516524 0 -0.0037582793832710215 -0.013550388995650949 0 -0.0037582793832710215 -0.013550388995650949 0 -0.0029669657204733297 -0.012840424250663325 0 -0.0034019988720038574 -0.014020368452435055 0 -0.0041047675106403924 -0.014339104029814875 0 -0.0037582793832710215 -0.013550388995650949 0 -0.0034019988720038574 -0.014020368452435055 0 -0.0034186592832509571 -0.010354470280674138 0 -0.0048851230643684766 -0.014047193021516524 0 -0.0034850241758909994 -0.012318777164372203 0 -0.0037582793832710215 -0.013550388995650949 0 -0.0034850241758909994 -0.012318777164372203 0 -0.0029669657204733297 -0.012840424250663325 0 -0.0035319948066908982 -0.010844877888823703 0 -0.0040570734288453538 -0.013486909715619843 0 -0.002003701993702717 -0.01100556397586407 0 -0.0034850241758909994 -0.012318777164372203 0 -0.0029669657204733297 -0.012840424250663325 0 -0.00094266921505360289 -0.011986745203524789 0 -0.002003701993702717 -0.01100556397586407 0 -0.0021998381550238006 -0.013170000311882353 0 -0.002003701993702717 -0.01100556397586407 0 -0.0021998381550238006 -0.013170000311882353 0 -0.0029669657204733297 -0.012840424250663325 0 -0.0021998381550238006 -0.013170000311882353 0 -0.0029669657204733297 -0.012840424250663325 0 -0.0034019988720038574 -0.014020368452435055 0 -0.00094266921505360289 -0.011986745203524789 0 -0.0021998381550238006 -0.013170000311882353 0 -0.0010938068482592581 -0.013535842141183321 0 -0.0021998381550238006 -0.013170000311882353 0 -0.0010938068482592581 -0.013535842141183321 0 -0.0025192871231176444 -0.014932680149952759 0 -0.0011732436336305951 -0.015258659489084147 0 -0.0010938068482592581 -0.013535842141183321 0 -0.0025192871231176444 -0.014932680149952759 0 -0.0021998381550238006 -0.013170000311882353 0 -0.0034019988720038574 -0.014020368452435055 0 -0.0032200783437801887 -0.014858899858247338 0 -0.0021998381550238006 -0.013170000311882353 0 -0.0025192871231176444 -0.014932680149952759 0 -0.0032200783437801887 -0.014858899858247338 0 -0.0025192871231176444 -0.014932680149952759 0 -0.0032200783437801887 -0.014858899858247338 0 -0.0035058998309182138 -0.015644849268609692 0 -0.0034019988720038574 -0.014020368452435055 0 -0.0032200783437801887 -0.014858899858247338 0 -0.0038685602359236422 -0.014920176448472251 0 -0.0032200783437801887 -0.014858899858247338 0 -0.003937556420386264 -0.015667616331031638 0 -0.0038685602359236422 -0.014920176448472251 0 -0.0032200783437801887 -0.014858899858247338 0 -0.0035058998309182138 -0.015644849268609692 0 -0.003937556420386264 -0.015667616331031638 0 -0.0035058998309182138 -0.015644849268609692 0 -0.0037884810679835561 -0.016244854387438841 0 -0.0039524513063831377 -0.01607722485495781 0 -0.0035058998309182138 -0.015644849268609692 0 -0.003937556420386264 -0.015667616331031638 0 -0.0039524513063831377 -0.01607722485495781 0 -0.003937556420386264 -0.015667616331031638 0 -0.0041080288082240273 -0.015983099973852954 0 -0.0039524513063831377 -0.01607722485495781 0 -0.003937556420386264 -0.015667616331031638 0 -0.0041080288082240273 -0.015983099973852954 0 -0.0043153531747057335 -0.015885376822591175 0 -0.0011732436336305951 -0.015258659489084147 0 -0.0025192871231176444 -0.014932680149952759 0 -0.0037884810679835561 -0.016244854387438841 0 -0.0025192871231176444 -0.014932680149952759 0 -0.0035058998309182138 -0.015644849268609692 0 -0.0037884810679835561 -0.016244854387438841 0 -0.0052350419657641095 -0.016726268758901104 0 -0.0037884810679835561 -0.016244854387438841 0 -0.004644311708317945 -0.016437821459115598 0 -0.0037884810679835561 -0.016244854387438841 0 -0.0041673356952793656 -0.016300757785069335 0 -0.004644311708317945 -0.016437821459115598 0 -0.0037884810679835561 -0.016244854387438841 0 -0.0041673356952793656 -0.016300757785069335 0 -0.0039524513063831377 -0.01607722485495781 0 -0.0041673356952793656 -0.016300757785069335 0 -0.004644311708317945 -0.016437821459115598 0 -0.0040667169253173581 -0.016150055328546204 0 -0.0040681536073753259 -0.016132314335546995 0 -0.0041080288082240273 -0.015983099973852954 0 -0.0043447348734852193 -0.016095481274806412 0 -0.0040681536073753259 -0.016132314335546995 0 -0.0041080288082240273 -0.015983099973852954 0 -0.0039524513063831377 -0.01607722485495781 0 -0.0041673356952793656 -0.016300757785069335 0 -0.0040681536073753259 -0.016132314335546995 0 -0.0039524513063831377 -0.01607722485495781 0 -0.0041673356952793656 -0.016300757785069335 0 -0.0040681536073753259 -0.016132314335546995 0 -0.0040667169253173581 -0.016150055328546204 0 -0.0040681536073753259 -0.016132314335546995 0 -0.0040667169253173581 -0.016150055328546204 0 -0.0043447348734852193 -0.016095481274806412 0 -0.0069404108141694612 -0.02314796693770706 0 -0.0072160206998481474 -0.023167404374337161 0 -0.0073959129323635849 -0.022862226960548709 0 -0.0057344739673831132 -0.01973038883758034 0 -0.0044890467620415844 -0.018452286906309578 0 -0.0069404108141694612 -0.02314796693770706 0 -0.0066697583357756543 -0.023146332372419219 0 -0.0073959129323635849 -0.022862226960548709 0 -0.0040667169253173581 -0.016150055328546204 0 -0.0043447348734852193 -0.016095481274806412 0 -0.0049444172019839265 -0.016273077996800538 0 -0.0077070841637133462 -0.023594180163106247 0 -0.0073959129323635849 -0.022862226960548709 0 -0.0074286240030159937 -0.023164311442515861 0 -0.0043447348734852193 -0.016095481274806412 0 -0.0045261675667767039 -0.01595755008363375 0 -0.0043153531747057335 -0.015885376822591175 0 -0.0041080288082240273 -0.015983099973852954 0 -0.0043447348734852193 -0.016095481274806412 0 -0.0043153531747057335 -0.015885376822591175 0 -0.0045261675667767039 -0.01595755008363375 0 -0.0049444172019839265 -0.016273077996800538 0 -0.0045483412486469251 -0.015498430454317931 0 -0.0043447348734852193 -0.016095481274806412 0 -0.0045261675667767039 -0.01595755008363375 0 -0.0049444172019839265 -0.016273077996800538 0 -0.0072160206998481474 -0.023167404374337161 0 -0.0073959129323635849 -0.022862226960548709 0 -0.0074286240030159937 -0.023164311442515861 0 -0.0073925857235336125 -0.023286288719212726 0 -0.0072160206998481474 -0.023167404374337161 0 -0.0074286240030159937 -0.023164311442515861 0 0.0071159717861448138 -0.023300267360896455 0 0.010899562980298025 -0.018633259599709819 0 0.023231238804118353 -0.021727424292485462 0 0.02355274803037594 -0.023192865800968618 0 0.022498407350328417 -0.022858987308728429 0 -0.0077070841637133462 -0.023594180163106247 0 -0.0069312633310569848 -0.023801815329988363 0 -0.0067132069753962371 -0.023816674130296433 0 -0.007449793278609021 -0.025080477102174786 0 -0.0044890467620415844 -0.018452286906309578 0 0.030475610165504791 -0.018143164525976918 0 0.010899562980298025 -0.018633259599709819 0 -0.0044890467620415844 -0.018452286906309578 0 0.010899562980298025 -0.018633259599709819 0 -0.0033525549863862255 -0.014075182794606726 0 -0.0038435204009354346 -0.016359222974738647 0 -0.0042030417463444752 -0.016212922227645275 0 -0.0042093975405247588 -0.014261888922774059 0 -0.0033525549863862255 -0.014075182794606726 0 -0.0042030417463444752 -0.016212922227645275 0 0.011604144180231438 -0.011541435799316657 0 0.010899562980298025 -0.018633259599709819 0 0.027178135993400999 -0.011600204776531722 0 0.027614369917729569 -0.011153638430504377 0 0.027321468764772181 -0.011748100751895557 0 -0.0040570734288453538 -0.013486909715619843 0 -0.0044890467620415844 -0.018452286906309578 0 -0.0048851230643684766 -0.014047193021516524 0 -0.0049444172019839265 -0.016273077996800538 0 -0.0045483412486469251 -0.015498430454317931 0 -0.0048851230643684766 -0.014047193021516524 0 -0.004406008472311599 -0.01496028487392792 0 -0.0045483412486469251 -0.015498430454317931 0 -0.004406008472311599 -0.01496028487392792 0 -0.0038685602359236422 -0.014920176448472251 0 -0.0042306623533718696 -0.015431818594488042 0 -0.003937556420386264 -0.015667616331031638 0 -0.0038685602359236422 -0.014920176448472251 0 -0.0042306623533718696 -0.015431818594488042 0 -0.004406008472311599 -0.01496028487392792 0 -0.0042306623533718696 -0.015431818594488042 0 -0.0045483412486469251 -0.015498430454317931 0 -0.0043153531747057335 -0.015885376822591175 0 -0.0042306623533718696 -0.015431818594488042 0 -0.0045483412486469251 -0.015498430454317931 0 -0.003937556420386264 -0.015667616331031638 0 -0.0043153531747057335 -0.015885376822591175 0 -0.0042306623533718696 -0.015431818594488042 0 -0.0045261675667767039 -0.01595755008363375 0 -0.0043153531747057335 -0.015885376822591175 0 -0.0045483412486469251 -0.015498430454317931 0 
</DataArray>
</PointData>
<CellData Scalars="region_id,cross_section_updated," Vectors="" Tensors="stress,">
<DataArray type="Float64" Name="region_id" format="ascii">
5 5 5 6 5 5 5 5 5 6 5 5 5 5 5 5 5 5 5 5 6 5 5 5 6 5 5 5 5 5 6 5 6 5 5 5 5 5 5 5 5 5 6 5 5 5 5 6 5 5 5 5 6 6 5 5 6 6 5 6 5 5 5 5 6 6 5 6 5 6 5 6 6 5 5 5 5 5 6 6 5 5 6 5 6 5 5 5 6 5 5 5 5 5 5 5 5 6 5 5 5 5 5 6 5 6 5 5 5 5 5 6 5 6 5 5 5 5 5 6 5 5 5 5 6 5 5 5 5 6 5 5 5 5 5 5 5 6 5 5 5 5 5 5 5 5 5 5 5 5 5 6 6 5 5 5 5 5 6 5 5 5 6 5 5 5 5 6 5 5 5 6 5 6 5 5 5 6 5 6 5 5 6 5 5 5 6 5 5 6 5 6 5 5 6 5 5 6 6 6 5 5 5 5 5 5 5 5 5 5 5 5 6 5 6 5 6 5 5 5 5 5 5 5 6 5 5 5 5 5 5 6 5 5 6 6 6 5 6 5 5 6 6 5 6 5 5 5 5 5 5 5 5 5 5 5 5 5 5 5 5 5 5 5 5 5 5 5 5 5 5 6 5 5 5 6 6 5 5 5 6 5 5 5 5 6 5 5 5 6 5 5 5 5 5 5 6 5 5 5 5 5 6 5 5 5 6 5 5 6 5 5 5 5 5 5 5 5 6 5 5 5 6 5 5 5 5 6 5 5 6 6 5 6 5 6 5 5 6 5 5 5 5 5 6 6 5 6 5 5 5 6 5 5 5 6 5 5 5 5 6 6 5 5 5 5 6 5 5 5 6 5 5 5 6 6 5 5 5 6 5 5 6 5 6 5 6 5 5 5 5 5 5 5 5 5 5 6 5 5 5 5 5 6 5 6 6 5 5 5 6 5 5 5 6 6 5 6 5 5 6 6 5 5 5 5 5 5 5 6 5 5 6 5 5 5 5 6 5 6 5 6 5 6 6 5 5 5 5 5 5 6 5 5 5 5 5 5 5 5 5 5 5 5 5 5 5 5 5 6 5 5 5 5 5 5 5 5 6 5 6 5 5 5 6 5 5 5 6 5 6 5 5 5 5 5 5 5 6 6 5 6 5 6 5 5 5 5 5 5 5 6 5 5 5 5 5 5 5 5 5 5 5 5 5 5 5 5 5 5 5 5 5 5 5 5 5 5 5 5 5 5 5 5 5 5 5 6 5 5 5 5 5 6 5 5 5 6 5 5 5 5 6 5 6 5 5 5 5 5 6 5 5 6 5 5 6 5 5 5 6 6 5 5 5 5 6 5 6 5 5 5 5 5 5 5 6 5 5 5 5 5 5 5 5 5 5 5 5 5 5 5 5 5 5 5 6 5 5 6 5 5 6 5 5 5 5 5 5 5 5 5 5 5 5 5 5 5 5 5 5 5 5 5 5 5 5 5 6 5 5 5 5 6 5 5 5 5 6 5 5 6 5 5 5 5 5 5 5 5 5 5 5 5 5 6 5 6 5 5 5 5 5 5 5 5 5 5 5 5 5 5 5 5 5 5 5 5 5 5 5 6 5 5 5 5 5 5 5 5 5 5 5 5 6 5 5 5 5 5 5 5 5 5 6 6 5 5 6 5 5 5 5 5 5 5 5 5 5 5 5 5 5 6 5 5 6 5 5 6 5 5 5 5 5 5 5 5 5 5 5 5 5 5 5 5 5 5 6 5 5 5 5 5 5 6 6 5 5 5 6 5 5 6 5 5 5 5 5 5 5 5 5 5 5 6 5 5 5 5 5 5 5 5 5 5 5 5 5 5 5 5 6 5 5 5 6 5 5 5 5 5 5 5 5 5 5 5 5 5 5 5 5 5 5 5 5 5 6 5 5 5 6 5 5 5 6 5 5 6 5 6 6 5 5 5 6 6 5 6 5 5 6 5 6 6 5 6 5 6 5 5 5 5 5 6 5 6 5 5 5 6 5 5 5 5 5 5 5 5 5 5 6 5 5 5 5 5 5 5 5 5 5 5 5 5 5 5 5 6 5 5 5 5 5 5 5 5 5 6 5 5 5 5 6 5 5 5 5 5 5 5 5 5 5 5 5 6 5 5 6 5 5 5 5 5 5 6 5 5 6 5 5 5 5 6 5 5 5 5 5 5 5 5 5 5 5 6 5 5 5 6 5 5 6 5 5 6 6 6 5 6 5 5 5 6 5 5 5 6 5 5 5 5 5 5 6 5 5 5 5 6 5 5 5 5 5 5 5 5 5 6 6 5 5 5 5 6 6 5 5 6 6 5 5 6 6 5 5 5 5 5 6 5 5 5 6 6 5 5 5 6 5 5 5 6 5 5 6 6 6 5 5 5 5 5 5 5 5 5 5 6 5 6 5 5 6 5 6 5 5 5 5 5 5 5 5 5 5 5 5 6 5 5 5 6 5 5 5 5 5 6 5 5 5 5 5 5 5 5 5 5 5 6 5 5 5 5 5 5 5 6 5 5 6 5 5 5 6 5 5 5 5 5 5 5 5 5 5 5 5 5 5 5 5 5 5 5 5 5 5 5 5 5 5 5 6 5 5 5 5 6 5 6 6 5 5 5 5 5 5 5 6 6 5 5 5 5 5 5 5 5 5 6 5 5 6 6 5 6 5 5 5 5 5 5 5 5 5 6 5 5 5 5 5 5 5 5 5 5 5 5 6 5 5 5 6 6 5 5 5 5 5 5 6 5 6 5 5 5 5 5 5 5 5 6 5 5 5 5 5 5 5 5 5 5 5 5 5 5 5 5 5 5 5 5 5 6 5 5 5 5 6 5 5 5 6 6 6 5 6 5 5 6 5 6 5 5 6 5 6 5 5 6 5 5 5 6 5 5 5 5 5 5 5 5 5 5 5 5 5 6 5 5 6 5 5 5 5 5 5 5 6 5 5 5 5 5 5 5 5 5 5 5 5 5 5 5 5 6 5 6 5 6 5 5 5 5 5 5 5 5 5 6 6 5 5 5 6 6 5 6 5 5 5 6 5 5 5 5 5 6 6 5 5 5 6 5 5 5 6 5 5 5 5 5 6 5 6 5 5 6 5 5 5 5 6 5 5 5 5 5 5 6 5 6 5 5 6 6 5 5 5 6 5 5 5 5 6 5 6 5 5 5 5 6 5 5 5 5 5 5 5 5 5 5 5 6 5 5 5 5 5 5 5 5 5 5 5 5 5 5 5 5 5 5 5 5 5 5 5 5 5 5 5 5 5 5 5 5 5 5 5 5 5 5 5 6 5 5 5 5 5 5 5 5 5 5 5 5 5 5 5 5 6 5 5 5 5 5 5 6 5 6 5 5 6 5 5 5 5 5 6 5 5 5 5 5 5 5 5 5 5 5 5 6 5 5 5 5 5 5 6 5 5 5 5 6 5 5 5 5 5 5 6 5 5 5 6 6 5 5 6 5 5 5 5 5 5 5 5 5 5 5 5 5 5 5 6 5 6 5 5 6 6 6 5 5 5 6 5 5 5 5 6 5 5 6 5 5 5 5 5 5 5 5 5 6 5 6 5 5 6 5 5 5 5 5 5 5 5 5 5 5 5 5 6 5 5 5 5 5 5 5 5 5 5 5 5 5 5 5 5 5 5 5 5 5 5 5 5 5 5 5 5 5 5 5 5 5 5 5 5 5 5 5 5 5 5 5 5 5 5 5 5 6 5 6 5 5 5 5 5 5 5 5 5 5 5 5 5 5 5 5 5 6 5 5 5 5 6 5 5 5 5 5 5 5 5 5 5 5 5 5 5 5 5 6 5 5 5 5 5 6 5 5 5 5 6 5 5 5 5 5 5 5 5 5 5 5 5 5 5 5 5 5 5 5 5 5 5 5 5 5 5 5 6 5 5 5 5 5 5 5 5 6 5 5 5 5 5 5 5 5 5 5 5 5 5 5 5 5 5 5 6 5 5 5 5 5 5 5 5 5 5 5 5 6 5 5 5 5 6 5 5 5 5 5 5 5 5 5 5 5 5 5 5 5 5 5 5 5 5 5 5 6 5 5 5 5 5 5 6 5 5 5 5 5 6 5 5 5 5 5 5 5 6 5 5 5 5 5 6 5 5 5 5 5 5 5 5 5 5 5 6 5 5 5 5 5 5 6 5 6 5 6 5 5 6 5 5 5 5 5 5 5 6 5 5 5 5 5 6 5 5 5 5 5 5 6 6 5 6 5 6 5 6 5 5 5 6 6 5 6 5 5 5 5 6 5 5 6 6 5 6 6 5 5 5 5 5 5 6 5 5 5 5 5 5 5 5 5 5 5 5 5 5 5 6 5 5 5 5 5 5 5 5 5 5 5 5 5 5 6 5 5 5 5 5 5 5 5 5 5 5 5 5 5 5 5 5 5 5 5 5 5 6 5 5 5 6 5 5 5 5 5 5 5 5 5 5 5 5 5 5 5 5 5 5 5 5 5 5 5 5 5 5 6 5 5 5 5 5 5 5 5 5 5 5 5 5 6 5 5 6 5 5 6 5 5 6 5 5 5 5 5 5 6 5 5 5 5 5 5 5 5 5 5 6 5 5 5 5 5 5 5 5 5 5 6 5 5 5 5 5 5 5 5 5 5 5 5 5 5 5 5 5 5 5 5 5 5 5 5 5 6 5 5 5 5 5 5 5 5 6 5 5 5 5 5 5 6 5 5 5 5 5 5 5 5 5 5 5 5 5 5 5 5 5 6 5 5 5 5 5 5 5 5 5 5 5 5 5 5 5 5 5 5 5 5 5 5 5 5 5 5 5 5 5 5 5 5 5 5 5 5 5 5 5 5 5 5 5 5 5 6 5 5 5 5 5 5 5 5 5 5 5 5 5 5 5 5 5 5 5 5 5 5 5 5 5 5 5 5 5 5 5 5 5 5 5 5 5 5 5 5 5 5 5 5 5 5 5 5 5 5 5 5 5 5 6 5 5 5 5 5 5 5 5 5 5 5 5 5 5 6 6 5 5 5 5 5 5 5 6 5 5 5 5 5 6 5 5 6 5 6 5 6 5 5 5 5 6 6 5 6 5 5 6 5 5 6 6 6 5 5 6 5 6 5 5 5 5 5 5 5 5 5 5 5 5 5 5 5 5 5 5 6 5 5 5 5 5 6 5 5 5 5 5 5 5 5 5 5 6 5 5 5 5 5 5 5 6 5 6 5 5 6 5 5 5 6 5 5 5 6 5 5 5 6 5 6 5 5 6 5 6 6 6 5 5 5 5 6 5 6 5 5 5 5 5 6 5 5 5 5 6 5 6 5 5 5 5 5 5 5 5 5 6 5 6 5 5 5 5 6 5 5 5 6 6 5 5 6 5 5 6 5 5 5 5 5 6 5 5 6 5 5 5 5 5 5 6 5 6 6 6 5 5 5 5 6 5 5 5 5 5 5 5 5 5 5 5 5 5 5 5 5 5 5 5 5 5 5 5 5 5 5 5 5 5 5 5 5 5 5 5 5 5 5 5 5 5 5 5 5 5 5 5 5 5 5 5 6 5 5 6 5 5 5 5 5 6 5 5 5 5 5 5 5 5 5 5 5 6 5 5 6 5 6 5 5 5 5 6 5 5 6 5 5 5 6 6 5 6 5 6 5 6 6 5 6 5 5 5 6 5 5 5 5 5 6 5 5 6 6 5 6 5 5 5 5 5 5 5 5 5 6 5 5 6 5 5 6 5 5 6 6 6 5 5 6 5 5 6 5 6 6 5 5 6 5 5 6 6 5 5 5 5 6 5 5 5 5 6 5 5 5 5 5 5 5 5 5 5 5 6 5 5 5 5 5 5 6 5 6 5 5 5 6 5 6 5 5 5 6 5 5 5 5 5 5 5 6 5 5 5 6 5 5 5 6 5 5 5 5 5 5 5 5 5 5 5 5 5 5 5 5 5 5 5 5 5 5 5 5 5 5 5 5 5 5 6 5 5 5 5 6 5 5 6 5 5 5 5 5 5 6 5 5 5 6 5 5 5 5 5 5 5 5 5 5 6 5 6 6 5 5 5 6 5 5 5 5 5 5 5 5 5 6 5 5 5 5 5 6 5 5 5 5 6 5 5 5 6 6 5 5 5 5 6 5 5 5 5 5 5 6 5 5 5 5 5 5 5 5 5 5 5 6 5 5 5 5 6 6 5 5 5 5 5 6 5 6 5 5 6 5 6 5 5 5 5 6 5 5 6 5 5 5 6 5 5 5 5 5 5 5 5 5 5 5 5 5 5 5 5 5 5 5 6 5 6 5 5 5 5 5 5 5 5 5 5 5 5 5 5 5 5 5 5 5 5 5 5 5 5 5 5 5 5 5 5 5 5 5 5 5 6 6 5 5 5 5 5 5 5 5 5 6 5 5 5 5 5 5 5 6 5 5 5 5 5 5 5 5 5 5 5 5 5 5 5 5 5 5 5 5 5 5 5 5 5 5 5 5 5 6 5 5 5 5 5 5 5 5 6 5 5 5 6 5 5 5 6 5 6 5 5 5 5 5 5 6 5 5 5 5 5 5 5 5 5 5 6 6 5 5 6 5 5 5 5 6 5 5 6 5 6 5 5 5 5 5 5 5 6 6 5 5 5 5 5 5 5 5 5 5 5 5 5 5 5 5 5 5 5 5 5 5 5 6 5 5 5 5 5 5 6 5 5 5 5 5 5 6 5 5 5 5 5 5 5 5 5 5 5 5 5 5 6 6 5 5 5 5 5 6 5 5 5 5 5 5 5 6 5 5 5 6 5 5 5 5 5 5 5 5 6 5 6 6 5 5 5 5 6 5 6 6 6 5 5 5 5 6 5 5 6 5 5 6 5 5 5 5 5 5 5 5 5 5 5 5 5 5 5 5 5 5 6 5 5 5 5 5 5 6 5 5 5 5 5 5 5 5 5 5 6 5 5 5 5 5 5 6 5 5 5 5 5 5 5 5 5 5 5 5 5 5 5 6 5 5 5 5 5 5 6 5 5 5 5 5 5 5 6 5 5 6 5 5 5 5 6 6 5 5 5 5 5 5 5 5 5 6 5 5 5 5 5 5 5 5 5 5 5 5 5 5 6 5 5 5 5 5 5 5 5 5 5 5 5 5 6 5 5 5 5 5 5 5 5 5 5 5 6 5 6 5 6 5 5 5 5 5 6 5 5 5 5 5 5 5 5 5 5 6 6 5 5 6 5 6 5 5 5 5 5 5 5 5 5 5 5 5 5 5 5 5 5 5 5 5 6 5 5 6 5 5 5 5 5 5 5 5 5 5 5 6 5 6 5 5 5 5 5 5 5 5 6 5 5 5 5 5 5 5 6 5 5 6 5 5 5 5 5 5 6 5 5 5 6 5 5 6 5 6 5 6 5 5 5 6 5 5 5 5 5 5 5 5 6 5 5 6 6 5 5 6 5 5 6 5 5 5 5 5 5 5 5 5 5 5 5 5 5 5 5 5 5 5 5 6 5 5 5 5 5 5 6 5 5 5 5 6 5 5 5 5 5 5 6 5 5 5 5 5 5 5 5 5 5 5 5 5 5 5 5 5 5 5 5 5 5 5 5 5 5 5 5 5 5 5 5 5 5 5 5 5 5 5 5 5 6 5 5 5 5 5 6 5 5 5 5 5 6 6 5 5 5 5 5 5 5 5 5 5 5 5 5 6 5 5 6 5 5 5 5 5 5 5 5 5 5 5 5 6 5 5 6 5 5 5 5 5 5 5 5 5 5 5 5 5 5 5 5 5 5 5 5 5 5 5 5 5 5 5 5 5 5 5 5 5 5 5 5 5 6 5 5 5 5 5 5 5 5 5 5 5 5 5 5 5 5 5 5 5 5 5 5 5 5 5 5 5 5 5 5 5 5 5 5 5 5 5 5 5 5 5 5 5 5 5 5 5 5 5 5 5 5 5 5 5 5 5 5 5 5 5 5 5 5 5 5 5 5 5 6 5 5 5 5 6 5 5 5 5 5 5 5 5 5 5 5 5 5 5 5 5 5 5 5 5 6 5 5 5 5 5 5 5 5 5 5 5 5 5 5 5 5 5 5 6 5 5 5 5 6 5 5 5 5 5 5 6 6 5 5 5 5 5 5 6 5 5 5 5 6 6 5 5 5 5 6 5 5 5 5 6 6 6 5 5 5 5 5 6 5 5 5 5 6 5 5 5 5 5 5 5 5 5 5 5 6 5 5 6 5 5 5 5 5 5 5 5 5 5 5 5 5 5 5 6 5 5 5 5 5 5 5 5 5 6 5 5 6 6 5 5 5 5 5 5 6 5 5 5 6 5 5 5 6 5 5 5 6 5 5 5 6 6 5 5 6 5 5 5 5 6 5 5 5 6 5 6 5 5 5 6 6 5 5 5 5 5 5 5 6 5 5 5 6 6 5 6 5 5 6 5 5 5 5 5 5 5 5 5 6 6 5 5 5 5 5 6 5 5 5 6 5 5 6 5 5 5 5 5 5 5 6 5 5 5 5 6 6 5 5 6 5 5 5 5 6 5 5 5 5 5 5 6 5 5 5 5 5 5 5 5 6 5 5 5 5 5 5 5 5 5 5 5 5 6 5 5 5 5 5 5 5 5 5 5 5 5 5 5 5 5 5 5 5 5 5 5 5 5 5 6 5 5 5 6 5 5 5 5 5 6 5 6 5 5 5 5 5 5 5 5 5 5 5 5 5 5 5 5 5 5 5 5 5 5 6 5 5 5 5 6 5 5 5 5 6 5 5 5 5 5 5 5 6 5 5 5 5 5 5 5 5 5 5 5 5 5 5 5 5 5 5 6 5 6 5 5 5 5 5 6 5 5 5 5 5 5 5 6 5 5 5 5 5 5 5 5 5 5 5 5 5 5 5 5 5 5 5 5 5 5 5 5 5 5 5 5 5 5 5 5 5 5 5 5 5 5 5 5 5 6 5 5 5 5 5 5 5 5 5 6 5 5 6 5 5 5 5 5 5 6 5 6 5 6 6 6 5 6 5 6 6 5 6 5 5 5 5 5 5 5 5 5 5 5 5 5 5 5 5 5 5 6 5 5 5 5 5 5 5 5 5 5 5 5 5 6 5 5 5 5 5 5 5 5 5 5 6 6 5 5 5 6 6 5 5 6 5 5 5 5 5 5 5 5 6 5 5 6 5 5 6 5 5 5 5 5 5 5 5 5 5 5 5 5 5 5 5 5 5 5 5 5 5 5 5 5 5 5 5 5 5 5 5 5 5 5 5 5 5 5 5 5 5 5 5 6 5 5 5 5 5 5 5 5 5 6 5 5 5 6 5 5 5 5 5 5 5 5 5 5 5 5 5 5 5 5 5 5 5 5 5 5 5 5 5 5 5 5 5 5 5 6 5 5 5 5 5 5 6 5 5 5 5 5 5 5 5 5 5 5 6 5 6 5 5 5 5 5 5 5 5 5 5 6 5 5 6 5 5 5 5 5 5 5 5 5 5 5 5 5 5 5 5 5 5 5 5 5 5 6 5 5 5 5 6 5 5 5 5 5 5 6 5 5 5 5 5 5 5 5 5 5 5 5 5 5 5 5 5 5 5 5 5 5 5 5 5 6 5 5 5 5 6 5 5 5 5 6 5 5 6 6 5 5 5 5 5 5 5 6 5 5 5 6 5 5 5 6 5 5 5 5 5 5 6 5 5 5 5 6 5 5 5 5 6 5 5 6 5 6 6 5 5 5 5 5 5 5 5 5 5 5 5 6 6 5 5 5 6 5 5 5 5 5 5 5 5 5 5 6 5 5 5 5 5 5 6 5 5 5 5 5 5 5 5 5 5 5 5 5 5 5 5 5 5 5 5 5 5 5 5 5 5 5 5 6 5 5 5 5 5 5 5 5 6 5 5 6 5 5 5 5 5 6 5 5 6 5 5 5 5 5 5 6 5 5 5 5 5 5 5 5 5 5 5 5 5 5 5 5 6 5 5 5 6 5 5 5 5 5 5 5 5 5 5 5 5 5 5 5 5 5 5 5 5 5 5 5 6 5 6 5 5 5 5 5 5 5 5 5 5 5 5 5 5 5 5 5 5 5 5 5 5 5 5 5 5 6 5 5 5 6 6 5 5 5 5 5 5 5 5 5 5 5 5 6 5 5 5 6 5 5 5 6 5 5 5 6 5 5 5 5 5 5 5 5 6 5 5 6 5 5 5 5 5 5 6 5 5 5 5 5 5 5 5 6 5 6 6 6 5 6 5 5 6 5 5 5 5 5 5 5 5 5 6 6 5 5 5 6 5 6 5 5 5 5 5 5 5 6 5 5 5 5 5 5 5 5 5 5 5 5 5 6 5 5 6 5 5 6 5 5 5 5 5 5 5 5 5 5 5 5 5 6 5 5 5 5 5 5 5 5 5 5 5 5 6 5 5 5 5 5 5 5 5 5 5 5 5 5 5 6 5 6 5 5 5 5 5 5 5 5 5 5 5 5 5 5 5 5 5 5 5 5 6 5 5 5 6 5 5 5 6 5 5 5 5 6 5 5 5 6 5 6 5 6 6 5 5 5 5 5 5 5 6 5 5 5 5 5 5 6 6 5 5 5 5 5 5 5 5 5 5 5 5 5 5 5 5 5 5 5 5 5 5 5 5 5 5 5 5 5 5 5 5 5 5 5 5 5 5 5 5 5 5 5 5 5 5 5 5 5 5 5 5 5 5 5 5 5 5 5 5 5 5 5 5 5 5 5 5 5 5 5 5 5 5 5 5 5 5 5 5 5 5 5 5 5 5 5 5 5 5 5 5 5 5 5 5 5 5 5 5 5 5 5 5 5 5 5 5 5 5 5 5 5 5 5 5 5 5 5 5 5 5 5 5 5 5 5 5 5 5 5 5 5 5 5 6 6 5 5 5 6 5 6 5 5 5 6 5 5 5 5 5 5 5 6 5 5 5 5 6 5 5 5 5 5 5 6 6 5 5 5 5 5 5 5 5 5 5 5 5 6 5 5 5 5 5 5 5 5 6 5 5 5 5 5 5 5 5 5 5 5 5 5 6 6 5 5 5 5 5 6 5 5 5 5 5 5 5 5 6 6 5 5 5 5 5 5 5 6 5 5 5 5 5 5 5 5 5 5 5 5 5 5 5 5 5 5 5 5 5 5 5 5 5 5 5 5 5 5 5 5 5 5 5 5 5 5 5 5 5 5 5 5 5 5 5 5 5 5 5 5 5 5 5 5 5 5 5 5 5 5 5 5 5 6 5 5 5 5 6 6 5 5 6 5 6 6 5 5 5 5 5 5 5 6 5 5 5 5 5 5 5 6 5 5 6 6 5 5 5 5 5 5 5 5 5 5 5 5 5 5 6 5 5 5 5 6 5 5 5 5 6 5 5 5 5 5 6 5 5 6 5 5 5 5 5 5 5 5 5 5 5 5 6 5 5 6 5 5 5 5 5 5 6 5 5 5 6 5 5 5 5 6 5 5 5 5 5 6 5 5 5 5 5 5 5 5 5 5 6 5 5 5 5 5 5 5 5 5 5 5 5 5 6 5 5 5 5 5 5 5 5 5 6 5 5 5 5 5 5 5 5 5 5 5 5 5 5 5 6 5 5 5 6 5 5 5 5 5 5 5 5 5 5 5 5 5 5 5 5 5 6 5 5 6 5 6 5 6 5 6 5 5 5 6 5 5 6 5 5 6 5 5 5 5 5 6 5 5 6 5 5 5 5 5 5 5 6 6 5 5 5 5 5 5 5 6 5 5 5 5 5 5 5 5 5 5 5 5 5 5 5 5 5 5 5 5 5 5 5 5 5 5 5 5 5 5 5 5 5 5 5 5 5 5 5 5 5 5 5 5 5 5 5 5 5 5 5 5 5 5 5 5 5 5 5 5 5 5 5 5 5 5 5 5 5 5 5 5 5 5 5 5 5 5 5 5 5 5 5 5 5 5 5 5 5 5 5 5 5 5 5 5 6 5 5 5 5 5 6 5 5 5 5 5 5 5 5 5 5 5 5 6 5 5 5 5 5 5 6 5 5 5 5 5 5 6 5 5 5 6 5 5 5 5 5 5 5 5 5 5 5 6 5 5 5 6 5 5 5 5 5 5 5 5 5 5 5 6 5 5 5 6 5 5 5 6 5 5 5 5 5 5 5 5 5 5 5 5 5 5 6 5 5 5 6 5 5 6 5 5 5 5 5 5 5 5 5 5 5 5 5 5 5 5 5 5 5 5 5 5 5 5 5 5 5 5 5 5 5 5 5 5 5 5 5 5 5 5 5 5 5 5 5 5 5 5 5 5 5 5 5 5 5 5 6 5 5 5 5 6 5 5 5 5 6 5 5 5 5 5 5 5 5 5 5 5 5 5 5 5 5 5 5 5 5 5 5 5 5 5 5 5 5 5 5 5 5 5 5 5 5 5 5 5 5 5 5 5 5 5 5 5 5 5 5 5 5 5 5 5 5 5 5 5 5 5 5 6 5 5 6 5 5 5 6 5 5 6 5 5 5 6 6 5 5 5 5 5 5 6 5 6 6 5 5 5 5 6 5 5 5 5 5 5 5 5 5 5 6 5 5 5 5 5 5 6 5 6 5 5 5 5 5 5 6 5 5 5 5 5 5 5 5 5 5 5 5 5 5 5 5 5 5 6 5 5 5 5 5 5 5 5 5 5 5 5 5 5 5 5 5 5 6 5 5 5 5 6 5 5 5 6 5 5 5 5 5 5 6 5 5 5 6 5 5 6 5 5 5 5 5 5 5 5 5 5 5 5 6 5 6 5 5 5 5 5 5 5 5 5 6 5 5 5 5 5 5 5 6 6 5 5 6 6 5 5 6 6 5 6 6 5 5 5 6 5 5 5 5 5 6 6 5 5 5 5 5 5 5 5 5 5 5 5 5 5 5 5 5 6 5 5 5 5 5 5 5 5 5 5 5 6 5 5 5 5 6 5 5 5 6 5 5 5 5 5 5 5 5 6 5 5 5 6 5 5 5 5 5 5 5 5 5 5 5 5 5 5 5 5 5 5 5 5 5 5 5 5 5 5 5 5 6 5 5 6 5 5 5 5 6 5 5 5 5 5 5 6 5 5 5 5 5 5 5 5 5 5 5 5 5 6 5 5 5 5 5 5 5 5 5 5 5 5 5 5 5 5 5 5 5 5 6 5 5 5 5 6 5 5 6 6 5 5 5 5 5 6 5 5 5 5 5 5 5 5 5 5 5 6 5 5 5 5 5 5 6 5 5 5 5 5 5 5 5 5 5 5 5 5 5 5 5 5 5 6 6 5 5 5 5 5 5 5 5 5 5 5 5 5 5 5 5 6 5 5 6 5 5 5 5 5 5 5 5 5 5 5 5 5 5 5 5 5 5 5 5 5 6 5 5 6 5 5 5 6 5 5 5 5 5 6 6 5 5 5 5 6 5 5 6 5 5 5 5 5 5 5 5 5 6 5 6 5 5 5 5 5 5 5 5 5 6 5 5 5 5 5 6 5 5 5 5 5 5 5 5 5 5 5 6 5 5 5 5 6 6 5 5 5 5 5 5 5 5 5 5 6 5 5 5 5 5 6 5 5 5 6 5 5 5 5 5 5 5 5 5 5 5 5 5 5 5 5 5 5 5 5 5 6 5 5 6 6 5 5 5 6 5 5 6 5 5 5 5 5 5 5 5 5 5 5 5 5 5 6 5 5 5 6 5 5 5 5 5 5 5 5 5 5 5 5 5 5 5 5 5 6 5 6 5 5 5 5 5 5 5 5 5 5 5 5 5 5 5 5 6 5 5 5 6 5 5 5 6 6 6 5 5 6 5 5 5 5 6 5 5 5 6 5 5 5 5 5 5 6 5 5 5 5 5 5 5 5 5 6 5 5 5 5 5 5 5 5 6 5 5 5 5 5 5 5 5 5 5 5 6 5 5 6 5 5 6 5 5 5 6 5 5 5 5 5 5 5 5 5 5 5 5 5 5 5 5 5 6 5 5 6 6 5 6 5 5 5 5 6 5 5 5 5 5 5 5 5 5 5 5 5 5 5 5 5 5 5 6 5 5 5 5 5 5 5 5 5 5 5 5 5 5 5 5 5 5 5 5 5 5 5 5 5 5 5 5 5 5 5 5 5 5 5 5 5 5 5 5 6 5 5 5 5 5 5 5 6 5 5 6 5 5 5 5 5 5 5 5 5 5 5 5 5 5 5 5 5 5 5 5 5 6 5 5 5 5 5 5 5 6 5 5 5 5 5 6 5 5 5 5 5 5 5 5 5 5 5 6 5 5 6 5 5 5 5 5 5 5 6 5 5 5 5 5 5 5 5 5 5 5 5 5 6 5 5 5 5 5 5 5 5 5 5 6 5 5 5 5 5 5 5 5 5 5 6 5 6 5 5 5 5 5 6 5 5 5 5 5 6 5 5 5 6 5 5 6 5 6 5 5 5 5 5 5 5 5 5 5 5 5 5 5 5 5 5 5 5 5 6 5 6 5 5 5 5 5 5 5 5 5 5 5 5 5 5 5 6 5 5 6 5 5 5 5 5 5 5 5 5 6 5 5 5 5 6 5 5 5 6 5 5 5 6 5 5 6 6 5 5 5 6 5 5 6 5 5 6 5 6 5 5 5 5 5 6 5 5 5 6 5 5 5 6 5 6 5 5 6 5 5 5 5 5 5 6 5 5 5 5 6 5 5 5 6 5 6 5 5 5 5 5 5 5 5 6 5 5 5 5 5 5 5 5 5 5 5 5 5 5 5 5 5 5 5 6 5 5 5 5 6 5 5 5 6 5 5 5 6 5 5 5 5 5 5 5 5 6 5 5 5 5 5 5 5 5 5 5 6 5 5 5 5 6 5 5 5 5 5 6 5 6 5 5 5 5 5 5 5 5 5 5 5 5 5 5 5 5 5 5 5 5 5 5 6 5 6 6 5 5 5 5 5 5 5 5 5 5 5 5 5 5 5 6 5 5 5 5 5 6 5 5 5 5 5 5 6 5 5 5 5 5 5 5 5 5 5 5 5 5 5 6 5 5 5 5 5 5 5 5 5 5 5 5 5 5 5 5 5 5 5 5 5 5 5 6 6 5 5 5 6 6 5 5 5 5 5 5 5 5 5 5 5 6 5 5 5 5 5 5 5 5 6 5 5 6 5 5 6 5 5 5 5 5 5 5 5 5 5 5 6 5 5 5 5 5 5 5 5 5 5 5 5 5 6 5 5 5 5 6 5 5 5 5 5 6 5 5 5 5 5 5 5 5 5 5 5 5 5 5 5 5 5 5 5 5 5 5 5 5 5 5 5 5 5 5 5 5 5 5 5 5 5 5 5 5 5 5 5 5 5 5 5 5 5 5 5 5 5 5 5 5 5 5 5 5 5 5 5 5 5 5 5 5 5 5 5 5 5 5 5 5 5 5 5 5 5 5 5 5 5 5 5 5 5 5 5 5 5 5 5 5 5 5 5 5 5 5 5 5 5 5 5 5 5 5 5 5 5 5 5 5 5 5 5 5 5 5 5 5 5 5 5 5 5 5 5 5 5 5 5 5 5 5 5 5 5 5 5 5 5 5 5 5 5 6 5 5 5 5 5 5 5 5 5 5 5 5 5 5 5 5 5 5 5 5 5 5 5 5 5 5 5 5 5 5 5 5 5 6 5 5 5 5 6 6 5 5 5 5 5 5 5 5 5 6 5 5 5 5 5 5 5 6 5 5 5 5 5 5 5 5 5 5 5 5 5 5 5 5 5 5 5 5 5 5 5 5 5 5 5 5 5 5 5 5 6 5 6 5 5 5 5 5 6 6 5 5 5 5 5 5 5 5 5 5 6 5 5 5 6 5 5 5 5 5 5 5 5 5 5 5 5 6 5 5 5 5 6 5 5 5 5 5 5 5 5 5 5 5 5 5 5 5 5 5 5 6 5 6 5 5 6 5 5 5 5 6 5 6 5 5 5 5 5 5 5 5 5 5 5 6 5 5 5 5 5 6 6 5 5 5 5 5 6 5 5 5 5 5 5 5 5 5 5 5 5 5 5 5 5 5 5 6 5 5 6 5 5 6 5 5 5 5 5 5 5 5 6 6 5 5 6 5 5 5 5 5 5 5 5 5 5 5 5 5 5 5 5 5 5 5 5 5 5 5 5 5 5 5 5 5 5 6 5 5 6 5 5 6 5 6 5 5 6 5 5 6 5 6 5 5 5 5 5 5 5 5 5 5 6 5 5 5 5 5 5 5 5 6 5 5 5 5 5 6 6 5 5 5 6 5 5 6 5 5 5 5 5 6 5 5 5 6 5 5 5 5 5 5 5 6 5 5 6 6 5 5 5 5 5 6 5 5 5 5 5 6 5 5 5 5 5 5 6 5 5 6 5 5 5 5 6 5 5 5 5 6 5 5 5 6 5 5 5 5 5 5 6 5 5 5 5 5 5 5 5 5 5 5 5 5 5 5 5 5 5 5 5 5 6 5 6 6 5 5 5 6 5 5 5 5 5 5 5 5 5 6 5 5 5 6 5 5 5 5 5 5 5 5 5 5 5 6 5 5 5 6 5 5 5 5 5 5 5 5 5 5 5 5 5 5 5 5 5 5 5 5 5 5 5 5 5 5 5 6 5 5 5 5 5 5 5 5 5 5 5 5 6 5 5 5 5 5 5 5 6 5 5 6 5 5 5 5 5 5 5 5 6 6 5 5 6 5 6 5 5 5 5 5 5 5 5 5 5 5 5 5 5 5 5 5 6 5 5 5 6 5 6 5 5 5 5 6 5 6 5 5 5 5 5 5 5 5 5 5 5 5 5 5 5 5 5 5 5 5 5 5 5 5 5 5 5 5 6 5 5 5 6 5 5 5 5 6 5 5 5 5 5 5 5 5 5 5 5 5 5 5 5 5 5 5 5 5 5 5 5 5 5 5 5 5 5 5 5 5 5 5 5 5 5 5 5 5 5 5 5 5 5 5 5 5 5 5 5 5 5 5 5 5 5 5 5 5 5 5 5 5 5 5 5 5 5 5 5 5 5 5 5 5 5 5 5 5 5 5 5 5 5 5 5 5 5 5 5 5 5 5 5 5 5 5 5 5 5 5 5 5 5 5 5 5 5 5 5 5 5 5 5 5 5 5 5 5 5 5 5 5 5 5 5 5 5 5 5 5 5 5 5 5 5 5 5 5 5 5 5 5 5 5 5 5 5 5 5 5 5 5 5 6 5 5 5 5 5 5 5 5 5 5 5 5 5 5 5 5 5 5 5 5 5 5 5 5 5 5 5 5 5 5 5 5 5 5 5 5 5 5 5 6 5 5 5 5 5 5 5 5 5 5 5 5 5 6 5 5 5 5 6 6 5 5 5 6 5 5 5 5 5 5 5 5 5 5 5 5 5 5 5 5 6 5 5 5 5 5 5 5 5 5 5 5 5 5 6 5 5 5 5 5 5 5 6 6 5 5 5 5 5 5 5 5 6 6 5 5 5 5 5 5 5 5 5 5 5 6 5 5 5 6 5 5 6 5 5 6 5 5 5 5 5 5 5 5 5 5 5 6 6 5 5 5 6 5 5 5 5 5 5 5 5 6 5 5 5 5 6 6 5 5 5 5 5 5 5 5 5 6 5 5 5 5 5 6 5 5 6 5 5 5 5 5 5 6 5 6 5 5 5 5 5 5 5 5 6 5 6 5 5 5 5 5 5 5 5 5 5 5 6 5 5 5 5 5 5 5 5 5 5 5 5 6 5 5 5 5 5 5 5 5 5 5 5 5 5 5 6 5 5 5 5 6 5 5 5 5 5 6 5 5 5 5 5 5 5 5 5 6 5 5 5 5 5 5 6 5 5 5 5 5 5 6 5 5 5 5 5 5 5 5 5 5 5 5 5 5 5 5 5 5 5 6 5 6 5 5 5 5 5 5 5 5 5 5 5 5 5 5 5 5 5 5 6 5 5 5 5 5 5 5 6 5 5 5 5 5 5 5 5 5 5 5 5 5 6 6 5 5 5 5 5 5 5 5 5 5 5 5 5 5 5 5 5 5 5 5 5 5 5 5 5 5 6 5 5 5 5 5 6 5 5 5 5 5 5 5 5 5 5 5 5 5 5 5 5 5 5 5 5 5 5 5 6 5 5 5 5 5 5 5 5 6 5 5 5 5 5 5 5 5 5 6 5 5 6 5 5 5 5 5 5 5 6 5 5 5 5 6 5 5 5 5 6 5 5 5 5 5 5 5 5 6 5 6 5 5 6 5 6 5 5 5 5 6 5 5 5 6 5 5 5 6 5 5 5 6 5 5 5 5 5 5 5 5 5 5 5 5 6 5 5 5 5 5 6 5 5 5 5 5 5 5 5 5 5 5 5 5 5 5 5 5 6 5 5 5 5 5 5 5 5 5 5 6 5 5 5 5 5 6 5 5 5 6 5 5 5 5 5 5 5 5 5 5 5 5 5 5 5 5 6 5 5 6 5 5 5 6 5 5 5 5 6 5 5 5 5 6 6 5 5 5 6 5 5 6 5 5 5 5 6 5 5 5 5 5 5 5 5 5 5 5 5 5 5 5 5 5 5 5 5 5 5 5 5 5 5 5 5 5 5 5 5 5 5 5 5 5 5 5 5 5 5 5 5 5 5 5 5 5 5 5 5 5 5 5 5 5 5 5 5 5 5 5 5 5 5 5 5 5 5 5 5 5 5 6 5 6 5 5 5 5 5 6 5 5 5 5 6 5 5 5 5 5 5 5 5 5 6 5 5 5 5 5 5 5 5 5 5 5 5 5 5 5 5 5 6 5 5 5 5 5 5 5 5 5 5 5 5 5 5 5 5 5 5 5 5 5 5 5 5 5 5 5 5 5 5 5 5 5 5 5 5 5 6 5 5 5 5 5 5 5 6 5 5 6 5 5 5 5 5 5 5 5 5 5 5 5 5 5 6 5 5 5 6 5 5 5 5 5 6 5 5 5 5 5 5 6 5 5 5 5 5 6 5 6 5 5 5 5 5 5 5 5 5 5 5 6 5 5 5 5 5 5 6 5 5 5 5 6 5 6 5 6 5 5 5 6 5 5 5 5 5 5 5 5 5 5 5 5 5 6 5 5 5 5 6 5 5 5 5 5 5 5 5 5 5 5 6 5 6 5 5 5 6 5 5 5 5 6 5 5 5 5 5 5 6 6 5 5 5 5 5 5 5 5 5 5 5 5 5 5 5 6 5 5 5 5 5 6 6 5 5 5 6 5 6 5 5 5 5 5 6 5 5 6 5 5 5 5 5 6 5 5 5 6 5 5 6 5 6 5 5 5 5 5 6 5 5 5 5 5 5 5 5 5 6 5 5 5 5 5 5 5 5 5 5 5 5 6 5 5 5 5 5 5 5 5 5 6 5 5 5 5 5 5 5 5 5 5 5 5 5 5 5 5 5 6 5 5 5 6 5 5 5 5 5 5 5 5 5 5 5 5 5 5 5 5 5 5 5 5 5 5 5 5 5 5 5 5 5 5 5 5 5 5 5 6 5 5 5 6 5 5 5 5 5 5 6 5 6 5 5 5 6 5 5 5 5 5 5 5 5 6 5 5 5 5 5 5 5 5 5 5 5 5 5 5 5 5 5 6 5 5 5 5 5 5 5 6 5 5 6 5 5 5 5 5 5 6 5 6 5 5 6 5 5 6 5 6 6 5 5 5 5 6 5 5 5 5 5 5 5 5 5 5 5 6 6 5 5 5 6 5 5 5 6 6 5 5 5 5 5 5 5 5 5 6 5 5 5 5 5 5 5 5 5 5 5 5 6 6 5 6 5 5 6 5 5 5 6 6 6 5 5 5 5 6 5 5 6 5 5 5 6 5 5 5 5 5 5 5 6 5 5 5 6 5 5 5 5 5 5 6 5 5 5 5 5 5 5 5 5 5 6 5 5 5 5 5 5 5 5 5 5 5 5 5 5 5 5 5 5 5 5 5 5 5 5 5 5 5 5 5 6 5 5 5 6 5 5 6 5 6 5 6 6 5 5 5 5 5 5 5 5 5 5 5 5 6 6 5 5 5 5 5 5 5 5 5 5 5 5 5 5 5 5 5 5 5 5 5 5 5 5 5 6 5 5 5 5 5 5 5 5 5 5 5 5 5 5 5 5 6 5 5 6 5 5 5 5 5 5 5 5 5 5 6 5 6 5 5 5 6 5 5 5 5 5 6 5 5 6 5 5 5 5 5 5 5 5 5 5 5 5 5 5 5 5 5 5 5 5 5 5 5 5 5 5 5 5 5 5 5 5 5 5 5 5 5 5 5 5 5 5 5 5 5 5 5 5 5 5 5 5 5 5 6 5 5 5 6 5 5 5 5 5 5 5 5 5 5 5 5 5 5 5 5 5 5 5 5 5 5 5 5 5 5 5 5 5 5 5 6 5 5 6 5 6 5 5 5 6 5 5 5 5 6 5 5 5 5 5 5 5 5 5 6 5 5 5 5 5 5 5 6 5 6 5 5 5 5 6 5 5 6 5 5 5 5 6 5 5 5 6 5 5 5 5 5 5 5 5 5 5 5 5 6 5 5 5 5 5 5 5 5 5 5 5 5 5 5 5 5 5 5 5 5 5 5 5 5 5 5 5 6 5 5 5 5 5 5 5 6 6 5 5 5 5 5 5 5 5 5 5 5 5 5 5 5 5 5 5 5 5 5 5 5 5 5 5 5 5 5 5 5 5 5 5 5 5 5 5 5 5 5 5 5 5 5 5 5 6 5 5 5 5 5 6 5 5 6 5 5 5 5 5 6 5 6 5 5 5 5 5 5 5 5 5 6 5 5 5 5 6 5 6 5 5 5 5 5 5 6 5 5 5 5 5 6 5 5 5 5 5 5 5 5 5 5 5 5 5 5 5 5 5 5 5 5 5 5 5 5 5 5 5 5 5 5 5 5 5 5 5 5 5 6 5 5 5 5 5 6 5 5 5 6 5 5 5 5 5 5 5 6 5 6 6 5 5 5 5 5 5 5 5 5 5 5 5 5 5 5 5 5 5 5 5 5 5 5 5 5 5 5 5 6 5 5 6 5 5 6 5 5 5 6 5 5 5 5 5 5 5 5 5 5 5 5 5 5 5 5 5 5 5 5 5 5 5 5 5 5 5 5 6 5 5 6 5 5 6 5 5 6 5 6 5 6 5 5 5 6 5 5 5 6 5 5 6 5 5 5 5 6 5 5 6 6 5 5 5 5 5 5 5 5 5 5 5 5 6 5 6 5 5 6 5 5 6 5 5 5 5 6 5 6 5 5 5 5 6 5 5 6 6 5 5 5 5 5 5 5 5 6 5 6 5 6 5 5 5 5 6 5 5 5 6 5 6 5 5 5 5 5 5 5 5 5 5 5 5 5 5 5 5 5 5 5 5 5 5 5 5 5 5 5 6 5 5 5 5 5 5 6 5 5 5 5 5 5 5 5 5 5 5 5 5 5 5 5 5 5 5 5 5 5 5 5 5 5 5 5 5 5 5 5 5 5 5 5 5 5 5 6 5 5 5 5 6 5 5 6 5 5 5 5 6 5 5 5 5 5 5 6 5 5 5 5 5 5 5 5 6 5 6 5 5 5 5 5 6 5 6 5 5 5 5 5 6 5 5 5 5 5 5 5 5 5 5 6 5 5 5 5 5 5 5 5 5 5 5 5 5 5 5 5 5 5 6 5 5 6 5 5 5 5 5 5 5 5 5 6 5 5 5 5 5 5 5 5 5 5 5 5 5 5 5 5 6 5 5 5 5 6 5 5 6 5 5 5 5 5 5 6 5 5 5 5 5 5 6 5 5 5 5 5 5 5 5 6 5 5 5 5 5 5 5 5 5 5 5 6 5 5 5 5 5 5 6 5 5 6 5 5 5 5 5 5 5 5 5 5 5 5 5 5 5 5 5 5 5 5 5 5 5 5 5 5 5 5 5 5 5 5 5 5 5 5 5 5 5 5 5 5 5 5 5 5 5 5 5 5 5 5 5 5 5 5 5 5 5 5 6 5 5 5 5 5 5 5 5 5 5 6 5 5 5 5 5 5 5 5 5 5 5 5 5 5 5 5 5 5 5 5 5 5 5 5 5 6 5 6 5 5 5 5 5 5 5 5 5 5 6 5 5 5 6 5 5 5 5 5 5 5 5 5 5 5 5 5 5 5 5 5 5 5 5 5 6 6 5 5 5 6 5 5 6 5 5 6 5 5 5 5 5 6 5 5 6 5 6 5 5 5 5 5 5 5 5 5 5 6 5 5 6 5 5 5 5 5 5 5 6 5 5 5 6 5 5 5 5 5 6 5 6 5 5 5 5 5 5 5 5 5 6 5 5 5 5 6 6 5 5 5 5 5 5 5 5 5 5 5 5 5 5 5 5 5 5 5 6 5 5 5 5 6 5 5 5 5 5 5 6 5 5 5 5 5 6 5 5 6 6 5 5 5 5 5 6 5 5 6 6 5 5 5 5 5 5 5 5 5 6 6 5 5 5 5 6 5 5 6 6 5 6 6 5 5 6 5 6 6 5 5 5 5 6 5 5 5 5 5 5 5 5 6 5 5 5 5 5 5 5 5 5 5 5 5 5 5 5 5 5 5 5 5 5 5 6 6 5 5 5 5 5 5 5 5 5 5 5 5 5 6 5 5 5 5 5 5 5 5 5 6 5 5 5 5 5 5 6 5 5 6 5 6 5 5 5 5 6 5 6 5 6 5 5 6 6 5 5 5 6 6 5 5 5 5 5 6 5 6 5 5 5 5 5 5 5 5 5 5 5 5 5 5 5 5 5 5 5 5 5 6 5 5 5 6 6 5 5 5 5 5 5 6 6 5 6 5 5 5 6 5 5 5 5 5 5 5 5 5 5 5 5 5 5 5 5 6 6 5 6 6 5 5 6 5 5 6 5 5 5 5 5 5 5 5 5 6 5 5 6 5 5 5 5 5 5 6 5 5 5 5 5 6 6 5 5 6 5 6 5 5 5 5 6 5 6 5 5 6 5 5 5 6 5 6 5 5 5 6 5 5 6 5 5 5 6 5 5 5 6 5 6 5 5 5 5 5 6 6 5 6 6 5 5 5 6 5 6 5 5 6 5 5 5 5 5 6 5 5 5 5 5 5 5 5 6 6 5 5 5 6 6 6 5 5 5 5 5 5 6 5 5 5 5 5 5 5 5 5 5 5 5 5 5 5 5 6 5 5 5 5 5 6 5 5 5 5 5 5 5 5 5 5 5 5 5 5 5 5 5 5 5 5 5 5 5 6 5 6 5 5 5 5 6 5 5 5 5 5 5 5 5 5 5 6 5 5 5 5 5 5 5 5 6 5 5 6 5 5 5 5 6 5 6 5 5 5 6 5 6 5 5 6 6 5 5 5 5 5 5 5 5 5 5 5 5 6 6 5 5 5 6 5 5 5 5 6 5 6 5 5 5 5 6 5 5 6 5 5 6 5 6 5 5 6 5 5 6 5 5 5 5 5 6 5 6 5 5 5 6 5 5 5 5 5 5 5 6 5 5 6 5 5 5 5 5 6 5 5 5 5 5 5 5 5 6 5 5 5 5 5 5 5 6 5 5 5 5 5 5 5 5 5 5 5 5 5 5 5 5 5 5 5 5 6 5 5 6 5 5 5 5 5 5 5 5 5 5 5 6 6 5 5 6 5 5 5 5 5 5 5 5 6 5 5 5 5 5 5 5 6 5 5 5 5 6 5 5 6 5 6 5 6 5 5 6 5 6 5 5 5 5 6 5 5 5 5 5 5 5 5 5 5 5 5 5 5 5 5 6 5 5 5 6 5 5 5 5 5 6 5 5 5 5 6 5 5 6 6 5 5 5 6 5 6 5 6 6 5 5 5 5 5 5 6 5 5 5 6 5 5 5 5 5 5 5 5 5 5 5 6 5 5 5 5 5 6 5 6 5 5 5 6 5 6 5 5 5 5 5 5 5 6 5 5 5 6 5 5 5 5 5 5 5 5 5 5 5 5 5 5 5 5 5 5 5 5 5 5 5 5 6 5 5 5 5 5 5 5 5 5 5 5 5 5 5 5 6 5 5 6 5 5 5 5 5 6 5 5 5 5 5 6 5 6 5 5 5 5 6 5 5 6 5 5 5 5 6 5 6 5 5 5 5 6 6 6 5 5 5 5 5 5 5 6 5 5 5 5 5 6 5 5 5 5 5 5 5 5 5 5 6 5 5 5 5 5 5 5 5 5 5 5 5 5 5 5 5 5 5 5 5 5 5 6 6 6 5 5 5 5 5 5 5 6 5 5 5 5 5 6 5 5 5 5 5 5 6 5 5 5 5 6 5 5 5 5 5 5 5 5 5 5 5 5 5 6 5 5 6 5 5 5 5 5 6 5 5 6 6 5 5 5 5 5 5 5 5 5 5 5 5 5 5 5 6 5 5 6 5 5 5 5 5 5 5 5 5 5 6 5 5 5 5 5 5 5 5 5 5 5 5 5 5 5 6 5 5 5 5 5 5 5 6 5 5 5 5 6 5 5 6 5 5 5 5 5 5 5 5 5 5 5 5 5 5 5 5 5 5 5 6 5 5 5 5 6 5 5 5 5 5 5 5 5 5 5 5 5 5 5 6 5 5 5 5 5 5 5 5 5 5 5 5 6 5 5 5 6 5 6 6 5 5 5 5 5 5 6 5 5 5 6 5 6 5 5 5 5 5 5 5 5 6 5 5 5 5 5 6 5 5 5 5 5 5 5 6 5 5 5 6 6 5 5 5 5 5 5 5 5 6 5 5 5 5 5 5 5 5 5 5 5 6 5 5 6 5 5 5 5 5 5 5 5 6 5 5 5 5 5 5 5 5 5 5 5 5 5 5 5 5 5 5 5 5 5 5 5 5 5 5 5 5 5 6 5 5 6 6 5 6 5 5 6 5 5 6 5 5 5 6 5 5 5 5 5 5 5 5 5 5 5 5 5 6 5 5 6 5 6 5 5 5 5 5 5 6 5 5 5 5 6 5 5 5 5 5 6 5 6 5 5 5 5 5 6 6 5 6 5 5 5 5 5 5 5 6 5 5 5 5 5 5 5 5 5 6 5 5 5 5 6 5 5 5 5 5 5 5 5 5 6 5 5 5 5 5 5 5 5 5 5 5 5 5 5 5 5 5 5 5 5 5 5 5 5 5 5 5 5 5 6 5 5 5 5 5 5 5 5 5 6 5 5 6 6 6 5 5 6 5 6 5 5 5 5 5 5 5 5 
</DataArray>
<DataArray type="Float64" Name="stress" NumberOfComponents="9" format="ascii">
3.5411217365108314 -2542.2384955701364 0 -2542.2384955701364 -416.10311975307559 0 0 0 0 3606.4865284432599 -5131.1802881041658 0 -5131.1802881041658 -7.0110501900068618 0 0 0 0 4486.6363394148102 517.57627185484489 0 517.57627185484489 -866.4323694765626 0 0 0 0 20.087517730553145 -13.051516676015439 0 -13.051516676015439 9.4069335597932309 0 0 0 0 655.3106476085668 -1040.8846646483289 0 -1040.8846646483289 -1050.6580023474526 0 0 0 0 1079.7377485305333 -1696.0441979803891 0 -1696.0441979803891 -1526.8844425003481 0 0 0 0 762.33432154160255 -1071.0108646082917 0 -1071.0108646082917 -1042.3556663997879 0 0 0 0 -330.97581144416472 -1057.984181827851 0 -1057.984181827851 -559.86685164578375 0 0 0 0 -1275.4197184863951 -1519.7211921436847 0 -1519.7211921436847 -784.86443438270362 0 0 0 0 2.5186856634074957 -17.334353109689914 0 -17.334353109689914 8.7268874315860572 0 0 0 0 -1424.5422091155415 -872.9393654772357 0 -872.9393654772357 -920.4047346089792 0 0 0 0 -1989.446456309699 -2012.4568079011806 0 -2012.4568079011806 1169.2899062130891 0 0 0 0 -3062.8141309089842 -1008.7262513657915 0 -1008.7262513657915 279.95225597836543 0 0 0 0 -1222.1730177288991 -2132.487839215697 0 -2132.487839215697 -534.81281067659438 0 0 0 0 98.272941326140426 -1268.3956055765666 0 -1268.3956055765666 -1409.7285441750282 0 0 0 0 -381.55700631364016 -1601.2350092310226 0 -1601.2350092310226 -1165.2469092651663 0 0 0 0 -533.22408242009988 -851.48843684713574 0 -851.48843684713574 -728.23613348806975 0 0 0 0 603.40298720262945 -1197.2009581398306 0 -1197.2009581398306 -1001.3559319671112 0 0 0 0 -956.46615644270787 -909.76036675627984 0 -909.76036675627984 -253.52279631748388 0 0 0 0 -419.84140563049004 -626.65617610001573 0 -626.65617610001573 -297.45672389655374 0 0 0 0 59.604932012974132 -60.49444690644215 0 -60.49444690644215 49.754500814503388 0 0 0 0 -32.13721017982607 -151.1181011065637 0 -151.1181011065637 -106.72508344246307 0 0 0 0 -261.66569806821644 -469.21134604333201 0 -469.21134604333201 -169.74686413364543 0 0 0 0 746.35652844258584 -575.55764597415691 0 -575.55764597415691 -674.16489061728134 0 0 0 0 47.80693853141679 -38.226245924175075 0 -38.226245924175075 28.538918213151078 0 0 0 0 -308.35413521678129 -252.81732196870871 0 -252.81732196870871 -0.39238551120797638 0 0 0 0 75.444199823636154 -357.85614801898555 0 -357.85614801898555 -15.369725377735449 0 0 0 0 -93.276078214912559 -187.1416270243426 0 -187.1416270243426 -147.45476046754629 0 0 0 0 -143.89359913223598 11.104732849780703 0 11.104732849780703 415.84009614493698 0 0 0 0 689.90351091524644 -267.31912032254331 0 -267.31912032254331 -209.22222111630253 0 0 0 0 1.0784613374688661 4.2703656968625978 0 4.2703656968625978 -1.7916953960476008 0 0 0 0 155.40174113446847 169.97739314556384 0 169.97739314556384 36.129525452299276 0 0 0 0 0.92353760093453729 -3.7595433034087193 0 -3.7595433034087193 2.1350993665402598 0 0 0 0 -135.34168702422176 -320.93519964144798 0 -320.93519964144798 46.339356301104999 0 0 0 0 153.49471755248669 -253.23065877557747 0 -253.23065877557747 21.17418180538516 0 0 0 0 55.597874613260501 1.2790467181766871 0 1.2790467181766871 -150.19582551700296 0 0 0 0 330.90925104664348 62.483628941386996 0 62.483628941386996 -331.94499167008325 0 0 0 0 45.960297205514507 -116.59447315239231 0 -116.59447315239231 -242.79963546211366 0 0 0 0 167.69885289270314 -6.9703720073885052 0 -6.9703720073885052 -216.44943002311629 0 0 0 0 138.77909337438177 -119.25852688465966 0 -119.25852688465966 -315.88061351056058 0 0 0 0 153.11544493715337 -410.54993697875761 0 -410.54993697875761 -318.49576626411726 0 0 0 0 197.60833255319449 -467.30615422317351 0 -467.30615422317351 -325.42044941999484 0 0 0 0 6.0772221911655606 3.1363227849508348 0 3.1363227849508348 -1.5291519711601609 0 0 0 0 -971.5959232935711 -643.07477302175539 0 -643.07477302175539 -977.10966643207939 0 0 0 0 -63.622236291921581 -361.97162410491728 0 -361.97162410491728 -0.88725420698756352 0 0 0 0 156.86512928894081 -350.25917791957909 0 -350.25917791957909 -594.41687269051909 0 0 0 0 -136.31172273569973 -196.93091179606563 0 -196.93091179606563 -249.51025907546864 0 0 0 0 6.3935330838031632 -3.6447310130998289 0 -3.6447310130998289 4.2165679982788333 0 0 0 0 56.156334282600255 -9.8964081252790947 0 -9.8964081252790947 -168.6032947806525 0 0 0 0 38.357221617363393 -51.085301918414189 0 -51.085301918414189 -197.90355508530047 0 0 0 0 30.855879719689256 -53.829427419637796 0 -53.829427419637796 -176.77071403138689 0 0 0 0 23.500392191592255 -44.806370781894657 0 -44.806370781894657 -155.20019108551787 0 0 0 0 31.529049507132072 -40.66217386858267 0 -40.66217386858267 -9.1225503454102679 0 0 0 0 15.830208056715335 2.4594538252867437 0 2.4594538252867437 -1.6624372148704651 0 0 0 0 37.802254016409279 -25.274950021848781 0 -25.274950021848781 -181.26812756537402 0 0 0 0 71.652761141565861 -35.797326358340797 0 -35.797326358340797 -234.25895074204891 0 0 0 0 51.835112341235231 -30.320146081207156 0 -30.320146081207156 -17.48162422374412 0 0 0 0 40.777051886444099 -35.791545368178561 0 -35.791545368178561 -3.1529437947329413 0 0 0 0 41.299025191739929 -46.643874382078138 0 -46.643874382078138 -34.191008925932692 0 0 0 0 38.564206793468713 -45.34405999739181 0 -45.34405999739181 16.856920566753843 0 0 0 0 35.37257207656512 -6.0477583821339067 0 -6.0477583821339067 -131.52660210419344 0 0 0 0 35.551778425695375 -33.520146267255768 0 -33.520146267255768 -44.553825957547815 0 0 0 0 29.604411007137969 -51.928548661526293 0 -51.928548661526293 -38.145280477619963 0 0 0 0 32.039289756950893 -56.469909120025477 0 -56.469909120025477 -34.679028433864005 0 0 0 0 24.902857826120737 -47.201530487178843 0 -47.201530487178843 -25.46597197728412 0 0 0 0 22.132012213799086 -10.769662507685268 0 -10.769662507685268 3.6630103914823167 0 0 0 0 5.7104398572264472 -30.937758650106844 0 -30.937758650106844 -256.02256951219169 0 0 0 0 11.196340419474836 -5.879565128427771 0 -5.879565128427771 -4.4379431817012573 0 0 0 0 29.160132778662955 -95.611250591908174 0 -95.611250591908174 -222.08606493129628 0 0 0 0 17.498572805301549 -10.359928639325744 0 -10.359928639325744 3.5060974948044077 0 0 0 0 44.803582814027322 -120.01528952326044 0 -120.01528952326044 -241.62147006108717 0 0 0 0 27.547611006846921 -49.658889947343226 0 -49.658889947343226 28.882852701053821 0 0 0 0 29.525907665909088 -56.887058378499376 0 -56.887058378499376 38.441264996476662 0 0 0 0 50.365829677757574 -99.260356234095525 0 -99.260356234095525 -164.66767064333544 0 0 0 0 64.877809167097439 -43.993336874147644 0 -43.993336874147644 -225.09436400598497 0 0 0 0 92.735582356312079 -79.955293896280637 0 -79.955293896280637 -214.97597471238987 0 0 0 0 45.791941151430365 -32.594827821136278 0 -32.594827821136278 -45.74475603440078 0 0 0 0 35.986411403748207 -40.067110905700247 0 -40.067110905700247 -39.728391962213209 0 0 0 0 32.237832860419189 -19.175884329420029 0 -19.175884329420029 -10.318431143381304 0 0 0 0 36.607905709794068 -46.473901569143834 0 -46.473901569143834 6.6950641178048187 0 0 0 0 -200.4649370793486 -282.55551828561875 0 -282.55551828561875 -343.73701678168436 0 0 0 0 354.44054050266277 -612.6359917759255 0 -612.6359917759255 -3075.7990348007443 0 0 0 0 26.068619905885328 -25.963502753733394 0 -25.963502753733394 -1.2580492269180752 0 0 0 0 31.497807598250802 -39.444401623688464 0 -39.444401623688464 -0.14080585990450345 0 0 0 0 16.103724764898061 -40.146105208009288 0 -40.146105208009288 21.663813402746882 0 0 0 0 24.323806872038404 -41.414974111277843 0 -41.414974111277843 4.6018906449771748 0 0 0 0 -700.8904856768786 -362.0413785710407 0 -362.0413785710407 429.39060921652708 0 0 0 0 14.019893829361536 -47.705423583713127 0 -47.705423583713127 3.8841209574602544 0 0 0 0 1.4778312068078776 -31.748746066333695 0 -31.748746066333695 18.647726204192054 0 0 0 0 381.76119401238975 -2089.266874754212 0 -2089.266874754212 -1810.2848374505265 0 0 0 0 131.37950549009838 -1401.7770126112446 0 -1401.7770126112446 -2897.2558531484683 0 0 0 0 -524.73792454184149 -1659.6102007308127 0 -1659.6102007308127 -1289.6527764957864 0 0 0 0 -495.61615853264811 -1528.3351453604264 0 -1528.3351453604264 -1116.9968734442591 0 0 0 0 -116.09667389336391 -443.67856119858334 0 -443.67856119858334 -2116.8065474949253 0 0 0 0 -249.31430111924419 -753.63932887805277 0 -753.63932887805277 -1178.7096940944903 0 0 0 0 -1162.6870232874935 -508.77484751057636 0 -508.77484751057636 -1201.5973964587029 0 0 0 0 -650.45300901769951 -1508.3946558218595 0 -1508.3946558218595 -1030.3406014939828 0 0 0 0 17.628667964170859 -6.3384171097227409 0 -6.3384171097227409 -14.851303110171528 0 0 0 0 -1870.4635303586256 -325.46321068325778 0 -325.46321068325778 -696.123538207612 0 0 0 0 -522.42748879764986 -1174.2786273333368 0 -1174.2786273333368 -199.00325449886441 0 0 0 0 -1656.9387343611743 -2145.6489327539457 0 -2145.6489327539457 -698.14990910550114 0 0 0 0 -1082.2660574117181 -1497.1816340852893 0 -1497.1816340852893 -185.35793548855872 0 0 0 0 -34.518151629577915 41.015928014723613 0 41.015928014723613 -445.45742040575715 0 0 0 0 38.962241640698608 -8.6175248552321477 0 -8.6175248552321477 -30.453892220907932 0 0 0 0 84.704937683971366 -276.1065897264416 0 -276.1065897264416 -802.27034271572484 0 0 0 0 -8.2419286495682229 -26.917407303121024 0 -26.917407303121024 12.610047433205636 0 0 0 0 -28.486498549405951 -27.82522482801869 0 -27.82522482801869 -127.9385362113826 0 0 0 0 19.312960301525891 -178.62857476338104 0 -178.62857476338104 46.258062046981649 0 0 0 0 -107.39526737347478 -380.78622238316166 0 -380.78622238316166 -682.32263781165238 0 0 0 0 26.172989287020755 -26.8303841422603 0 -26.8303841422603 -101.84254184670135 0 0 0 0 -384.99739725652034 -599.41263787177741 0 -599.41263787177741 -763.59867173239763 0 0 0 0 17.213067096570441 -9.0204293659633095 0 -9.0204293659633095 2.9607015638820258 0 0 0 0 -1127.1937221072585 -372.87182066194509 0 -372.87182066194509 -683.2302060687216 0 0 0 0 0.65119034820591537 -8.7772742517989855 0 -8.7772742517989855 3.5467658222952423 0 0 0 0 -449.99374721605272 -59.155057063435379 0 -59.155057063435379 -634.47249335600645 0 0 0 0 523.87222804616613 -521.11778190384211 0 -521.11778190384211 -664.29533694326528 0 0 0 0 -920.79280716189533 -618.02265183494455 0 -618.02265183494455 -663.99415944152861 0 0 0 0 108.65031620605441 -199.96198028077197 0 -199.96198028077197 -896.39213477217709 0 0 0 0 50.84214861811779 -348.536378126606 0 -348.536378126606 -731.99787717879371 0 0 0 0 -13.302792974731346 -25.288112358044657 0 -25.288112358044657 12.131471863695879 0 0 0 0 -110.60572696262898 -328.84623716608257 0 -328.84623716608257 -622.43397043834557 0 0 0 0 -1033.2291039117699 -430.38828093949269 0 -430.38828093949269 -810.54498943365616 0 0 0 0 -962.01122208189918 -549.46712196406588 0 -549.46712196406588 -1086.7650390970666 0 0 0 0 -1367.6023363574932 -569.65979083692218 0 -569.65979083692218 -685.44277521721961 0 0 0 0 -11.914972869251017 -21.609273400096242 0 -21.609273400096242 10.394692653815696 0 0 0 0 -2475.871179862399 -532.45136730517697 0 -532.45136730517697 -661.64115559924176 0 0 0 0 410.21663831167098 -705.41131375261466 0 -705.41131375261466 -392.302606920588 0 0 0 0 -660.13330980527098 -1943.1137827160783 0 -1943.1137827160783 -75.816243665554794 0 0 0 0 -1746.6863508310671 -860.08932473228015 0 -860.08932473228015 -818.8029096173268 0 0 0 0 12.829664690048389 -4.1845046758191984 0 -4.1845046758191984 -11.958782208915807 0 0 0 0 -1729.4475628590735 -901.48058072733693 0 -901.48058072733693 -926.40093979112135 0 0 0 0 -2032.360557693697 -947.67176421874319 0 -947.67176421874319 -429.42399152371217 0 0 0 0 -1060.6481874577294 -1093.4892005496877 0 -1093.4892005496877 -784.5325008782529 0 0 0 0 -1369.141942480157 -895.36438867708785 0 -895.36438867708785 -820.27385511784814 0 0 0 0 -1188.123514081235 -657.28266154370067 0 -657.28266154370067 37.177984820518759 0 0 0 0 -768.22142003543559 -263.64952972797619 0 -263.64952972797619 -549.68621300744417 0 0 0 0 27.225456031796057 -1871.6241503232013 0 -1871.6241503232013 437.54194575975816 0 0 0 0 6.901362655433843 -2.7488343325719029 0 -2.7488343325719029 -5.0871982462620622 0 0 0 0 -985.22700580387027 -1379.1617099756768 0 -1379.1617099756768 311.80626674521773 0 0 0 0 -187.13760150305461 -1433.1784404024875 0 -1433.1784404024875 190.62054562909543 0 0 0 0 32.115940271498403 -1216.608213890715 0 -1216.608213890715 -792.70386013708776 0 0 0 0 279.91698847263251 -980.72147535201384 0 -980.72147535201384 373.51115367210878 0 0 0 0 0.39498318459664006 -1333.3619660472941 0 -1333.3619660472941 87.021102095548486 0 0 0 0 433.79556718420645 -1524.2157254591802 0 -1524.2157254591802 1050.4391311422005 0 0 0 0 527.49632799711253 -712.87348938961804 0 -712.87348938961804 457.33306953706415 0 0 0 0 147.39043693516578 -991.44551340859471 0 -991.44551340859471 -1426.0616889164694 0 0 0 0 326.21036506941164 -1364.8070860955522 0 -1364.8070860955522 -986.28159288523602 0 0 0 0 644.23811434701202 -1747.7365305990534 0 -1747.7365305990534 -1343.7873378258882 0 0 0 0 -161.47620380227454 -1840.455482935271 0 -1840.455482935271 -2630.3309448339278 0 0 0 0 -2233.5620856680325 -1260.471664214354 0 -1260.471664214354 -1663.2108073413037 0 0 0 0 -3394.6756983983505 838.52499953757797 0 838.52499953757797 -5456.6152494198432 0 0 0 0 2.6584807907553341 -8.7660138995815089 0 -8.7660138995815089 1.7710153138223887 0 0 0 0 2.1770241218963804 -9.6668166917086182 0 -9.6668166917086182 3.8621528849096194 0 0 0 0 -460.45195528949262 -902.22143662208691 0 -902.22143662208691 -1962.6773346110494 0 0 0 0 -177.56991891315556 -1564.8692502002305 0 -1564.8692502002305 -855.08183854926028 0 0 0 0 -1957.9492757583503 363.88069755216566 0 363.88069755216566 -1326.4559021554014 0 0 0 0 -1073.425226499352 -1505.8348843255953 0 -1505.8348843255953 -2099.4966211606079 0 0 0 0 -93.569013894608361 -547.34016479382626 0 -547.34016479382626 -3809.8086032805149 0 0 0 0 -10.608742836388728 -30.433341304342846 0 -30.433341304342846 6.8608538461193547 0 0 0 0 40.320463113792357 -189.98283156684192 0 -189.98283156684192 166.66699967828754 0 0 0 0 -1188.8571752134885 -456.24285712913843 0 -456.24285712913843 -3063.0656931709673 0 0 0 0 -711.10112876724452 28.150714410294313 0 28.150714410294313 -2714.6414599867421 0 0 0 0 18.843771141361355 -67.906933760461783 0 -67.906933760461783 -5.4165592959558921 0 0 0 0 148.16309844264561 -549.06401285035736 0 -549.06401285035736 -3589.163330129988 0 0 0 0 -1011.0978341610753 -1286.16785646684 0 -1286.16785646684 -4301.9204378713384 0 0 0 0 -1540.8064311660783 -913.67109502555104 0 -913.67109502555104 -3628.26685043615 0 0 0 0 -271.52502974492381 462.35115779099579 0 462.35115779099579 -1410.3374610699248 0 0 0 0 -5.0454543998479551 -7.4942660117472712 0 -7.4942660117472712 -11.080639447454018 0 0 0 0 -1875.7407506891977 -1029.6250128866777 0 -1029.6250128866777 -2352.8474127317459 0 0 0 0 -499.80539378981121 1035.4290473444235 0 1035.4290473444235 -2585.3524237118254 0 0 0 0 -388.34832035204454 -946.51407955837931 0 -946.51407955837931 -4246.3835409230087 0 0 0 0 0.034586842631298964 -21.010897260122718 0 -21.010897260122718 -18.466372801107411 0 0 0 0 -130.59561518217379 -79.119724789416068 0 -79.119724789416068 -163.37225216026127 0 0 0 0 -5.5632416480220854 -11.56867233445746 0 -11.56867233445746 -19.009677809345163 0 0 0 0 62.463952157457243 -297.0702332623332 0 -297.0702332623332 -2163.8540479355433 0 0 0 0 -1220.7547920371399 -85.291570343782951 0 -85.291570343782951 -0.32529139706457499 0 0 0 0 -2402.9177230676432 116.80108627658956 0 116.80108627658956 -429.02715452619304 0 0 0 0 1.7328665888501291 -42.847299004630564 0 -42.847299004630564 -37.439891327578721 0 0 0 0 -239.56295838508231 41.777733374052332 0 41.777733374052332 -0.73789954403764568 0 0 0 0 0.78718937723425597 -63.759124225310273 0 -63.759124225310273 -12.43752152605707 0 0 0 0 -39.279103548906278 -57.730237812298583 0 -57.730237812298583 -188.99051002899796 0 0 0 0 -122.8421221091412 -62.471389593136337 0 -62.471389593136337 -157.6226151783776 0 0 0 0 14.441776478534337 -9.57045059535983 0 -9.57045059535983 -37.251557484569332 0 0 0 0 -697.30947125407693 133.33679397038213 0 133.33679397038213 -250.93032697275339 0 0 0 0 -251.09534571054974 -636.36580985432738 0 -636.36580985432738 -1031.8361846790358 0 0 0 0 -2519.9921429455862 354.72567257669289 0 354.72567257669289 -1415.1900441369507 0 0 0 0 10.54355102359972 8.8399437638039444 0 8.8399437638039444 0.68545013835773716 0 0 0 0 -714.60979382534265 -602.03828326084374 0 -602.03828326084374 -865.59487470189924 0 0 0 0 600.51915744956932 523.07179799726873 0 523.07179799726873 -2245.6540810942533 0 0 0 0 83.190346685210841 -12.065956985439726 0 -12.065956985439726 -53.502523108987702 0 0 0 0 -316.20740146926164 -872.55985293601179 0 -872.55985293601179 -698.45858706292347 0 0 0 0 0.72222403912149957 -58.710697733958341 0 -58.710697733958341 -9.7465448922621967 0 0 0 0 -752.33598158618406 -256.48221661326534 0 -256.48221661326534 -141.10302966751624 0 0 0 0 -717.46639695967315 -333.88353096829815 0 -333.88353096829815 -472.20735637201869 0 0 0 0 -5.4212429383638607 -19.604598148481827 0 -19.604598148481827 -37.313520307622071 0 0 0 0 -543.85868599059177 -28.725312751106685 0 -28.725312751106685 -1.0763127514364896 0 0 0 0 5953.9080571729282 1758.1381552846287 0 1758.1381552846287 440.45374140706599 0 0 0 0 8.5813570727552815 -8.8302489805134314 0 -8.8302489805134314 -18.260435354524784 0 0 0 0 8.2186784578629499 -11.800774987258109 0 -11.800774987258109 -17.608814678175008 0 0 0 0 65.009752793414862 20.00232963658371 0 20.00232963658371 -69.441700911113827 0 0 0 0 342.95743736138684 1639.6845196670183 0 1639.6845196670183 388.69598127898644 0 0 0 0 814.71122435628786 686.54153775242594 0 686.54153775242594 -345.63206026353873 0 0 0 0 2337.1473761983943 2955.8292706754874 0 2955.8292706754874 2976.742732012528 0 0 0 0 1405.4005246672896 1350.8618881943112 0 1350.8618881943112 -1173.4643356482557 0 0 0 0 -11.49087249704462 -179.57739884768671 0 -179.57739884768671 -673.33343481467455 0 0 0 0 528.96641723113135 319.18564293210511 0 319.18564293210511 -3753.5868476954493 0 0 0 0 841.0459390374599 204.94538804137846 0 204.94538804137846 -3720.9108965427731 0 0 0 0 281.14136386515747 -308.49016626870434 0 -308.49016626870434 -2444.0100052733906 0 0 0 0 1210.5098121005576 174.52768529499008 0 174.52768529499008 -4423.7968731116853 0 0 0 0 1523.3758589147328 -701.81707518440089 0 -701.81707518440089 -9053.3335543194116 0 0 0 0 660.82920321170241 -1235.1138792377897 0 -1235.1138792377897 -3782.2566444538534 0 0 0 0 1342.0528355048154 -3414.6965696849365 0 -3414.6965696849365 -2268.4349815027745 0 0 0 0 1.1792966663114726 -7.4044556111223017 0 -7.4044556111223017 -15.127376418150384 0 0 0 0 -1728.1770859480021 -67.615115854365285 0 -67.615115854365285 -294.84734462486813 0 0 0 0 49.300805391815629 -13.360922936040225 0 -13.360922936040225 -10.82988031621305 0 0 0 0 -149.18937086146616 -1279.4588799982957 0 -1279.4588799982957 -5098.8111646676552 0 0 0 0 3.104144561728333 -9.8867284601352878 0 -9.8867284601352878 -2.3426275435458876 0 0 0 0 -321.74011364736361 -1865.6674647328327 0 -1865.6674647328327 -5146.746306979956 0 0 0 0 -402.68406625255011 -349.45676774036838 0 -349.45676774036838 -2519.6201855668987 0 0 0 0 724.93115989032958 -458.74431671694038 0 -458.74431671694038 -3607.842994917708 0 0 0 0 -1210.8841711886053 -1084.6742224303161 0 -1084.6742224303161 -3716.6212604389839 0 0 0 0 -152.03489599586464 2.5682636568089947 0 2.5682636568089947 -119.97680599037267 0 0 0 0 124.98934424288746 -259.31325671615195 0 -259.31325671615195 -4324.2017312710523 0 0 0 0 -177.35917136078933 4.0080830014630919 0 4.0080830014630919 -37.188429735135287 0 0 0 0 -4.3844683211736992 -7.2828282670002409 0 -7.2828282670002409 -1.8509923561685468 0 0 0 0 26.714036766381469 25.920137338544009 0 25.920137338544009 -142.37906843370001 0 0 0 0 42.631285068317084 -15.448128235904733 0 -15.448128235904733 -36.763735580258071 0 0 0 0 23.202100091526518 -20.260321221299819 0 -20.260321221299819 -24.834231787346653 0 0 0 0 14.864089406328276 10.198413547273958 0 10.198413547273958 -45.72500554585713 0 0 0 0 15.874634749867255 2.2737745920167072 0 2.2737745920167072 7.8462767910750699 0 0 0 0 -2.6331420307396911 -26.716815872743609 0 -26.716815872743609 -6.6908525031540194 0 0 0 0 -6.5410790866195043 -30.186221182026429 0 -30.186221182026429 30.389701764718893 0 0 0 0 12.230952244190121 -55.790652688461705 0 -55.790652688461705 -265.24061942356639 0 0 0 0 20.585088588406506 -39.355974180518388 0 -39.355974180518388 -33.001811876165448 0 0 0 0 15.605620529735916 -50.722862825710308 0 -50.722862825710308 -13.101267808885645 0 0 0 0 39.58656331732783 -69.40556487215207 0 -69.40556487215207 36.922883943388399 0 0 0 0 54.371941553472226 -16.915830200636435 0 -16.915830200636435 5.2459622439279201 0 0 0 0 -789.63794210884953 -684.03986581895151 0 -684.03986581895151 -5392.3442692671961 0 0 0 0 18.821952255836464 5.4127871658417916 0 5.4127871658417916 -4.7217189082423943 0 0 0 0 27.375214975792915 -30.926729419035837 0 -30.926729419035837 -28.875988981104456 0 0 0 0 16.58062996485387 -2452.7376067842706 0 -2452.7376067842706 -7014.0161468837905 0 0 0 0 21.976874487352177 -32.179884683256489 0 -32.179884683256489 -2.0337218489774784 0 0 0 0 40.485439541508129 4.4420130750939961 0 4.4420130750939961 -30.601639120244272 0 0 0 0 -2316.0667449820321 -366.75772936205612 0 -366.75772936205612 -160.62824701934005 0 0 0 0 37.757418370560856 6.6556953656344717 0 6.6556953656344717 -57.451435073471686 0 0 0 0 -1922.7705714838376 -1370.02762629262 0 -1370.02762629262 -5026.8238796534424 0 0 0 0 37.718085562752094 539.88469983133837 0 539.88469983133837 -6945.2023796066642 0 0 0 0 939.78752735567105 -1469.1922166313743 0 -1469.1922166313743 -5033.5021078417776 0 0 0 0 -228.20182656300312 -758.13860421329446 0 -758.13860421329446 -3046.434827223944 0 0 0 0 -425.84637723947526 -1223.9915812813852 0 -1223.9915812813852 -3231.5784109909437 0 0 0 0 11.877761103736702 -1889.4756727170461 0 -1889.4756727170461 -1019.3427632500243 0 0 0 0 1767.8034841659537 -1834.1672771949961 0 -1834.1672771949961 -3083.3363421316099 0 0 0 0 972.64282371540321 -521.68818208869197 0 -521.68818208869197 -1508.6405436389905 0 0 0 0 1865.068473618001 -571.34403396930065 0 -571.34403396930065 -3041.4638154495624 0 0 0 0 4810.0155869027076 -702.10742417708389 0 -702.10742417708389 -1538.3235775588983 0 0 0 0 1770.8698373503721 -1764.7219290776848 0 -1764.7219290776848 839.61462825542549 0 0 0 0 1636.7627658744168 -2033.6628255880642 0 -2033.6628255880642 3.3619427365629235 0 0 0 0 2199.3598134095082 -1750.2846179691551 0 -1750.2846179691551 -1158.7888249584357 0 0 0 0 6567.2757746262359 698.17994481156347 0 698.17994481156347 720.54881509130155 0 0 0 0 -684.57273075606645 -1624.4240276950659 0 -1624.4240276950659 -873.74141605541809 0 0 0 0 -539.00872297486058 -2296.7655338514596 0 -2296.7655338514596 736.15139563512639 0 0 0 0 -549.88091083314794 -2962.6532330879709 0 -2962.6532330879709 -1532.9074549339421 0 0 0 0 -847.87154120513514 -1935.1049238036321 0 -1935.1049238036321 -2967.1101405747177 0 0 0 0 -860.39678402916218 -2594.3095733455352 0 -2594.3095733455352 -1704.0310978230846 0 0 0 0 473.03609638591297 -2419.5054280515396 0 -2419.5054280515396 -2347.9466305392561 0 0 0 0 -860.54164822117309 -1649.8476800112694 0 -1649.8476800112694 -2668.9505361216579 0 0 0 0 144.52382690687227 -2385.2844808437803 0 -2385.2844808437803 -4607.0431938437978 0 0 0 0 -284.50099963196408 -2303.9745882377465 0 -2303.9745882377465 -3532.5525717619312 0 0 0 0 -1214.3204345005506 -2064.504386391789 0 -2064.504386391789 -1.4309637779952027 0 0 0 0 -1209.7322752707259 -1514.5564819403808 0 -1514.5564819403808 -1252.5204440951384 0 0 0 0 -1202.4317346297466 -1006.7060393232241 0 -1006.7060393232241 -1.0568463277159026 0 0 0 0 31.303595864765725 -9.8981877392018873 0 -9.8981877392018873 -1.531966646872263 0 0 0 0 -859.81458674377063 -929.91439372043533 0 -929.91439372043533 -1478.5671119807303 0 0 0 0 -803.49026499035244 -1021.4559752692148 0 -1021.4559752692148 -1329.8610314422622 0 0 0 0 30.232731391821289 -32.701050147617934 0 -32.701050147617934 -184.47210304621694 0 0 0 0 39.493348061146492 -3.3133825717075638 0 -3.3133825717075638 -6.7120087352597295 0 0 0 0 27.354234159413977 -39.329457502184368 0 -39.329457502184368 -8.602286122526472 0 0 0 0 18.74913553436636 -65.216021057131002 0 -65.216021057131002 -243.59488184070506 0 0 0 0 23.903370998436003 -39.907382142660936 0 -39.907382142660936 -14.497876393885235 0 0 0 0 30.361025240094023 -56.288171597161636 0 -56.288171597161636 -259.31351214658935 0 0 0 0 37.338394249166868 -41.940021745896615 0 -41.940021745896615 -9.8797617159325597 0 0 0 0 162.75190837055561 -85.450136037397897 0 -85.450136037397897 10.41634315023839 0 0 0 0 25.987595894723199 -50.475249691487988 0 -50.475249691487988 -12.772588539337448 0 0 0 0 -43.392143374025181 -35.389195263887814 0 -35.389195263887814 118.99472490279004 0 0 0 0 137.52231351172668 -36.971100388167542 0 -36.971100388167542 -162.95878118672408 0 0 0 0 -8.9659344390157685 -11.11844263143368 0 -11.11844263143368 8.4518911853351995 0 0 0 0 -23.5708727480378 -130.46366393695644 0 -130.46366393695644 72.056990219149156 0 0 0 0 14.253903063465259 -64.579575569412555 0 -64.579575569412555 -130.21503490174655 0 0 0 0 -37.468475023953943 -75.906066093295522 0 -75.906066093295522 -100.67311498557683 0 0 0 0 22.810719796426156 -42.198269292660882 0 -42.198269292660882 -0.70121648218807309 0 0 0 0 29.089820870256517 41.455836655033636 0 41.455836655033636 -443.07247355230356 0 0 0 0 56.041404367686482 -107.82981409794593 0 -107.82981409794593 -193.91942286278936 0 0 0 0 -39.124023890486569 -69.259707675257232 0 -69.259707675257232 -104.43179354531458 0 0 0 0 56.121014581878853 -85.028196976428177 0 -85.028196976428177 -228.96923078253167 0 0 0 0 136.96467975535779 -181.14948201824154 0 -181.14948201824154 -154.09065707612899 0 0 0 0 115.21483341530256 -161.0631476978233 0 -161.0631476978233 -423.42730472920812 0 0 0 0 -12.487400027088938 -22.779038004628518 0 -22.779038004628518 14.25837830514655 0 0 0 0 64.944107206611079 -118.51906745104498 0 -118.51906745104498 -235.94527045429277 0 0 0 0 117.05048601063027 -134.40766008316132 0 -134.40766008316132 -452.74668417820067 0 0 0 0 90.329909786130884 -180.09920948295621 0 -180.09920948295621 -515.86511823226829 0 0 0 0 107.79648663222906 -300.38244658886833 0 -300.38244658886833 -615.80214049337519 0 0 0 0 42.871784242292051 -345.80292432801798 0 -345.80292432801798 -492.45015981029428 0 0 0 0 -13.991517470274019 -19.160594656259036 0 -19.160594656259036 12.287959941039333 0 0 0 0 -267.86526183350361 -290.79058587472537 0 -290.79058587472537 -330.65846642584802 0 0 0 0 137.22767045070941 -266.07856042325875 0 -266.07856042325875 -494.3557236125198 0 0 0 0 0.39299813541583717 -124.67268385439093 0 -124.67268385439093 -599.29057144892158 0 0 0 0 -14.514774363584777 -23.387954657904629 0 -23.387954657904629 14.783334164092707 0 0 0 0 -17.333793704965501 -279.74493662831082 0 -279.74493662831082 -449.63967628323007 0 0 0 0 -124.03590387753502 -397.34121132183645 0 -397.34121132183645 -577.46591800113674 0 0 0 0 -0.27917154087430163 -2.9801637424224907 0 -2.9801637424224907 0.0083073641937829734 0 0 0 0 11.685994294057309 -407.94338974535458 0 -407.94338974535458 -1211.7120859204006 0 0 0 0 -130.42947569512762 -238.68407733066852 0 -238.68407733066852 -588.9509777125495 0 0 0 0 -191.05386426961195 -205.61793998609573 0 -205.61793998609573 -561.8640312114585 0 0 0 0 -52.668615862137813 -163.26606253986392 0 -163.26606253986392 -917.99179947236553 0 0 0 0 -31.285258517280454 -108.12091736232469 0 -108.12091736232469 -128.06274013112125 0 0 0 0 -65.385810590276378 -27.677095548067882 0 -27.677095548067882 -1.8577515309734736 0 0 0 0 -154.38082938498701 -225.24231916271674 0 -225.24231916271674 431.76757441041082 0 0 0 0 18.345518756112142 -347.0907389457534 0 -347.0907389457534 -322.58106000995031 0 0 0 0 -8.9717791177385493 -9.2801456501835986 0 -9.2801456501835986 10.074205704788881 0 0 0 0 -113.27460600407358 -2.2205173108886811 0 -2.2205173108886811 -198.271874688362 0 0 0 0 -11.68241669805866 -117.73926244155882 0 -117.73926244155882 -266.41228083281021 0 0 0 0 -29.805587706607184 70.174018835357856 0 70.174018835357856 53.287365088734077 0 0 0 0 -4.6959830588972409 -5.007779648938822 0 -5.007779648938822 4.5146089875345581 0 0 0 0 15.841899192411802 18.008436796084425 0 18.008436796084425 -51.06885479632183 0 0 0 0 -184.4064551605552 4.054363078714232 0 4.054363078714232 101.92130667384481 0 0 0 0 -146.82461416247679 -36.57077578717508 0 -36.57077578717508 -85.058149255230092 0 0 0 0 -109.92700180760585 -40.929887881182367 0 -40.929887881182367 -33.683842561949859 0 0 0 0 -6.7406763915179795 -7.192217910260851 0 -7.192217910260851 6.4345937171614764 0 0 0 0 -91.765129684034036 60.978975808437099 0 60.978975808437099 108.32069213372597 0 0 0 0 11.961558598268311 -129.70145249247435 0 -129.70145249247435 111.62648011790588 0 0 0 0 -1.3587955258202555 -7.7717320034262514 0 -7.7717320034262514 4.1686107084003083 0 0 0 0 1.6657380578119216 -3.8050298932921578 0 -3.8050298932921578 3.9407920574195714 0 0 0 0 -93.864993048620818 -82.231495150903356 0 -82.231495150903356 65.683211666546413 0 0 0 0 -0.78973063245013009 -6.4756033312315537 0 -6.4756033312315537 -2.0380870996416292 0 0 0 0 -156.25468858127715 -218.70037862940808 0 -218.70037862940808 -665.81092618482944 0 0 0 0 4.7594743081264426 3.7607788762709902 0 3.7607788762709902 -6.1692345858229487 0 0 0 0 -193.61816120325238 -135.44764975271391 0 -135.44764975271391 -701.80976588725753 0 0 0 0 -304.16809098578233 29.556514518946642 0 29.556514518946642 -344.92458809306845 0 0 0 0 -1.5348594659812989 -0.47392389979256677 0 -0.47392389979256677 0.49653337860820557 0 0 0 0 -229.53140288018039 -55.973045090300729 0 -55.973045090300729 -524.65853890137441 0 0 0 0 -259.25363809805276 -168.82613569717796 0 -168.82613569717796 -548.72466823091963 0 0 0 0 -190.84087694663322 -102.86833760788431 0 -102.86833760788431 -872.36173531139502 0 0 0 0 -294.54063335791579 -83.43207629337121 0 -83.43207629337121 -472.66055300802691 0 0 0 0 2.8964024265296757 -16.509842193307122 0 -16.509842193307122 -10.171007149399884 0 0 0 0 4.9111124276101918 -6.2878323748471132 0 -6.2878323748471132 -0.41475628138407927 0 0 0 0 -4.6226601451504621 -36.786293400220842 0 -36.786293400220842 17.503936459294231 0 0 0 0 -149.69868561375188 -21.997352214661078 0 -21.997352214661078 15.107537569529086 0 0 0 0 -4.1073949028242502 -41.6687185236826 0 -41.6687185236826 42.857978529660954 0 0 0 0 -52.493661424130551 -38.012276589375688 0 -38.012276589375688 122.27632546385576 0 0 0 0 -147.73730485711621 -260.36816029583315 0 -260.36816029583315 -568.2206694559718 0 0 0 0 39.892793001548853 96.879621461237548 0 96.879621461237548 -884.30383949136012 0 0 0 0 -2.4188579138282158 -45.618264726356244 0 -45.618264726356244 -3.6094324136950604 0 0 0 0 -24.546924304304412 -275.12516683687863 0 -275.12516683687863 -964.97493798309006 0 0 0 0 6.4434410786489025 -43.023704560240731 0 -43.023704560240731 -1126.1057132313836 0 0 0 0 -166.85074345726753 -0.015849031566176564 0 -0.015849031566176564 -470.93502568290569 0 0 0 0 9.2963986814296806 -40.506931266861642 0 -40.506931266861642 6.1813392716159115 0 0 0 0 -136.02221587575332 33.333904046958196 0 33.333904046958196 -57.001048718346283 0 0 0 0 60.43740872698254 -81.148110877475119 0 -81.148110877475119 -438.71233213949017 0 0 0 0 -263.5380394863023 18.318715036482899 0 18.318715036482899 -192.08634244219866 0 0 0 0 606.94300036784261 526.65658553887624 0 526.65658553887624 -379.86413407247164 0 0 0 0 -15.276855310207083 -0.19323045597878519 0 -0.19323045597878519 7.9561463010774673 0 0 0 0 -20.435589425922814 -4.1259967653957617 0 -4.1259967653957617 14.06074550801668 0 0 0 0 -128.84792595640465 87.475184794893721 0 87.475184794893721 -630.15474223083584 0 0 0 0 -702.24976306661847 215.44370314129628 0 215.44370314129628 -490.12889187259134 0 0 0 0 -242.84379548775905 -291.43921049502387 0 -291.43921049502387 -39.705555360284052 0 0 0 0 28.405941704462748 0.48165147969848476 0 0.48165147969848476 140.1952772043478 0 0 0 0 -7.3059287544207336 -58.630894529441605 0 -58.630894529441605 11.828033951025656 0 0 0 0 -45.173825306788785 9.7254065126471687 0 9.7254065126471687 -1115.2613532956748 0 0 0 0 -1038.4246413937799 317.62232817150652 0 317.62232817150652 666.91183943011856 0 0 0 0 -478.22441406705184 187.79683086130535 0 187.79683086130535 199.43574728560634 0 0 0 0 -1.1909209949297406 -4.3868381374475973 0 -4.3868381374475973 4.1336760811161923 0 0 0 0 -700.27525521305506 152.79589583275083 0 152.79589583275083 -389.06053171757958 0 0 0 0 -8.5915757101902273 -460.25633837429632 0 -460.25633837429632 80.879896537138848 0 0 0 0 -484.35901530212141 -142.46349178117816 0 -142.46349178117816 119.02002294780686 0 0 0 0 2.8652100933681552 -44.594923846664244 0 -44.594923846664244 13.84455283773076 0 0 0 0 -4.5763456260031603 -20.593157318982378 0 -20.593157318982378 13.67177225998168 0 0 0 0 507.89956819354848 -43.882720468493062 0 -43.882720468493062 -496.5670095384412 0 0 0 0 -43.873588200351833 444.89678097415663 0 444.89678097415663 299.28375325104571 0 0 0 0 -145.05521563332877 -19.690519748270162 0 -19.690519748270162 12.704134710307699 0 0 0 0 -35.388151675758706 -37.377865216592255 0 -37.377865216592255 35.656384718923277 0 0 0 0 -573.26670365664177 134.69830931775505 0 134.69830931775505 -34.069903939845972 0 0 0 0 -431.42390271258773 33.309819757705554 0 33.309819757705554 -39.567522305937018 0 0 0 0 -6.5560695986661699 -3.9646755291737463 0 -3.9646755291737463 5.7058416900798079 0 0 0 0 96.041311398032121 -220.42695372988237 0 -220.42695372988237 199.53151918121148 0 0 0 0 -1.3938101885121057 -0.72896057612939558 0 -0.72896057612939558 1.0904432313578241 0 0 0 0 -349.39099808808533 -21.592019508505473 0 -21.592019508505473 -7.9094848056556657 0 0 0 0 -0.84223270776480419 -46.621489245512578 0 -46.621489245512578 1.6095156729805922 0 0 0 0 -214.20866316974207 -369.76271616909253 0 -369.76271616909253 57.218846433592262 0 0 0 0 -443.93364375369856 1.8620478825177997 0 1.8620478825177997 117.40921532121138 0 0 0 0 -187.159233869952 -432.02737871506724 0 -432.02737871506724 -1247.4692511000903 0 0 0 0 -1882.2626971970749 -184.65873048936191 0 -184.65873048936191 -146.67444033020001 0 0 0 0 -484.86688866153418 -43.959584962307417 0 -43.959584962307417 -664.87130073465232 0 0 0 0 -305.17080600531699 -8.0936389071302983 0 -8.0936389071302983 -664.014827077277 0 0 0 0 -100.11181769247924 -259.52199889442272 0 -259.52199889442272 -627.09497864680088 0 0 0 0 -139.9576169085849 -515.9760778295913 0 -515.9760778295913 -110.21598746543168 0 0 0 0 208.39551487148856 -649.78900035803963 0 -649.78900035803963 -111.33337738434233 0 0 0 0 202.77791781356109 -224.75411040996903 0 -224.75411040996903 -308.72516016742156 0 0 0 0 -43.451728343347135 -77.178674714339053 0 -77.178674714339053 41.657024599062908 0 0 0 0 -248.8819965707371 -288.92603916246117 0 -288.92603916246117 -83.19582568158512 0 0 0 0 -466.94462193315849 -6.3030902915124898 0 -6.3030902915124898 -415.24374430184071 0 0 0 0 -607.0424985934369 -361.29601887013996 0 -361.29601887013996 -300.30617798049934 0 0 0 0 -913.12348691341685 -461.33318501934627 0 -461.33318501934627 -272.67047620007361 0 0 0 0 -798.60076311265584 -257.92314987431746 0 -257.92314987431746 -190.9891880240757 0 0 0 0 -32.712853135418143 -104.09058716402313 0 -104.09058716402313 54.539398898865613 0 0 0 0 168.06056441686815 -255.49794217961244 0 -255.49794217961244 -273.65870653895399 0 0 0 0 112.33342070099167 -97.242399387923939 0 -97.242399387923939 -31.645330693488269 0 0 0 0 -1.25787060490768 3.4022447945343544 0 3.4022447945343544 9.3000544214727654 0 0 0 0 -783.95532376469055 131.26784947206397 0 131.26784947206397 486.40418867685366 0 0 0 0 -250.54190741699131 371.11147928428545 0 371.11147928428545 -248.91445081596612 0 0 0 0 53.619565046668868 -201.00230875826674 0 -201.00230875826674 -954.27276499116851 0 0 0 0 5.9703786212939889 -15.869199330284545 0 -15.869199330284545 10.996567734095834 0 0 0 0 -818.24429407622665 54.143548783496954 0 54.143548783496954 -425.72950564348139 0 0 0 0 74.420236381498398 -173.3802773579373 0 -173.3802773579373 3.2677344047115184 0 0 0 0 -4256.794934299076 -194.70678784162737 0 -194.70678784162737 -4144.5548563649645 0 0 0 0 39.155868568830527 -179.12627839352174 0 -179.12627839352174 87.790635385044141 0 0 0 0 -47.058797754381942 -49.354360174073562 0 -49.354360174073562 -47.111196930053211 0 0 0 0 -858.43336059350986 -104.80288885324262 0 -104.80288885324262 -104.46831936622038 0 0 0 0 38.500955589367493 -127.24639197826588 0 -127.24639197826588 106.24413147529381 0 0 0 0 -189.71337163105636 -307.92659742246178 0 -307.92659742246178 -735.89169969505747 0 0 0 0 -131.06622921762755 -313.38841203101038 0 -313.38841203101038 -739.72497500234749 0 0 0 0 6.7951833588195711 -32.304433322773093 0 -32.304433322773093 21.772336464070975 0 0 0 0 25.59069809459023 -65.421026005351862 0 -65.421026005351862 -5.2417919344039774 0 0 0 0 53.219201873493148 -77.845498453825712 0 -77.845498453825712 -720.66151070978958 0 0 0 0 -186.22679222698207 -37.399104481664835 0 -37.399104481664835 -286.79818510799669 0 0 0 0 -110.2438622434729 -196.33829022446844 0 -196.33829022446844 -524.3248976272007 0 0 0 0 -131.60113881474717 -310.81799566427344 0 -310.81799566427344 -240.27400621410925 0 0 0 0 -42.363993095015758 -275.0144218608184 0 -275.0144218608184 -2.6999411691940622 0 0 0 0 147.64238635031506 -162.12390682520345 0 -162.12390682520345 42.463594579850906 0 0 0 0 -221.00789148645254 -102.2517146680932 0 -102.2517146680932 -194.9795484123897 0 0 0 0 7.4063850453502553 -35.32436831204501 0 -35.32436831204501 -2.655972295589379 0 0 0 0 131.08103213039431 -432.06816637798875 0 -432.06816637798875 -793.16636278192163 0 0 0 0 -241.78839182619413 -146.40208353949856 0 -146.40208353949856 -523.34923310814338 0 0 0 0 30.278421458181526 -91.56707392862981 0 -91.56707392862981 -21.213444218563801 0 0 0 0 -311.9301632157003 18.433097052802623 0 18.433097052802623 -526.99655764117779 0 0 0 0 -295.15332502359524 -241.74811382534972 0 -241.74811382534972 -373.60795157044049 0 0 0 0 -370.93653940309014 -138.71128870192115 0 -138.71128870192115 -419.08457452729635 0 0 0 0 -432.60778172205028 -97.711313840809453 0 -97.711313840809453 -500.88790661201347 0 0 0 0 3.5702778588716626 -22.964274245922894 0 -22.964274245922894 15.342347067255105 0 0 0 0 -390.52421438555757 -216.91813719411584 0 -216.91813719411584 -559.81636262560824 0 0 0 0 8.4043744364261102 -12.744429721279459 0 -12.744429721279459 12.199410436728215 0 0 0 0 -416.9069475409342 -20.129142896352278 0 -20.129142896352278 -298.24212116036506 0 0 0 0 28.428970183237936 -84.885107835952141 0 -84.885107835952141 -33.726912285666529 0 0 0 0 -92.841335081102443 -124.44701571832775 0 -124.44701571832775 -541.6992098654955 0 0 0 0 3.3553687613402303 -26.901902004327127 0 -26.901902004327127 18.064764951731831 0 0 0 0 4.0770680305478777 -6.0464394432246706 0 -6.0464394432246706 -4.9322115520977334 0 0 0 0 -313.78827439673478 10.873501301946817 0 10.873501301946817 -366.25391852144821 0 0 0 0 -186.94005997550266 -174.73975381591663 0 -174.73975381591663 -525.92576985477353 0 0 0 0 -541.68725224824448 -53.458427782483341 0 -53.458427782483341 -262.44531415319943 0 0 0 0 -436.28111618928961 -218.02224267116981 0 -218.02224267116981 -429.02439383862657 0 0 0 0 -191.69203541468596 -114.52978896433342 0 -114.52978896433342 213.54003743051726 0 0 0 0 -341.03112616206636 76.729289254602918 0 76.729289254602918 -486.01544055001432 0 0 0 0 2.3949008256136608 -3.5904981719952787 0 -3.5904981719952787 -2.6430882342985882 0 0 0 0 -27.894768550409935 -1.8907092936096888 0 -1.8907092936096888 -1062.7164544215739 0 0 0 0 -266.64979730955383 -622.09850160196584 0 -622.09850160196584 430.0375239869536 0 0 0 0 -93.406032448576298 -68.242038788914215 0 -68.242038788914215 -2.6517341296857921 0 0 0 0 -93.577722322719637 -402.78722385130095 0 -402.78722385130095 -425.51709503824532 0 0 0 0 -66.332223272609554 -464.52978806258852 0 -464.52978806258852 -392.20919813563523 0 0 0 0 -86.882553022471257 -318.99003966269811 0 -318.99003966269811 45.889296477645985 0 0 0 0 -10.131643456028542 -381.03385688275739 0 -381.03385688275739 -539.22455815413559 0 0 0 0 -5.777921926783165 -409.42558745093265 0 -409.42558745093265 -573.19000383855018 0 0 0 0 -22.094964093688759 -303.22254155552218 0 -303.22254155552218 -1067.2771471202213 0 0 0 0 -10.045550818846095 -416.19924486536911 0 -416.19924486536911 -553.40649610096443 0 0 0 0 -96.12127419702756 -115.88730818358317 0 -115.88730818358317 -513.94097389062517 0 0 0 0 -3.9387715424381895 -385.72287868123749 0 -385.72287868123749 -610.29625699591998 0 0 0 0 -208.85770362589392 -107.32355689757242 0 -107.32355689757242 -563.67133488550462 0 0 0 0 -237.30751774575037 61.492690833281813 0 61.492690833281813 -1290.4971482885594 0 0 0 0 -61.304316938185366 -197.88702960472438 0 -197.88702960472438 -114.51247502042679 0 0 0 0 -172.86903656709183 -88.244002490999264 0 -88.244002490999264 -1845.7829325239509 0 0 0 0 -390.95580734038958 -447.45328997257457 0 -447.45328997257457 -1591.2028637007024 0 0 0 0 2.7260424801472141 -3.9375269760222125 0 -3.9375269760222125 -3.9896006615525295 0 0 0 0 -140.73209114192287 -145.86395231766073 0 -145.86395231766073 -131.41289401915856 0 0 0 0 -11.834075990554993 -201.81863805581452 0 -201.81863805581452 -158.66413406110951 0 0 0 0 -29.539399775756465 -164.3008635555052 0 -164.3008635555052 -220.78247969808581 0 0 0 0 105.41579408803955 -130.06612820571172 0 -130.06612820571172 -226.21050021966948 0 0 0 0 -315.38891528334352 -59.927203145954991 0 -59.927203145954991 -424.17673514401395 0 0 0 0 -344.66249749145936 -104.60119112703251 0 -104.60119112703251 -333.22603113879813 0 0 0 0 -229.98552292362729 55.328739761454926 0 55.328739761454926 -278.41695734340465 0 0 0 0 -26.879304527974455 -294.20374284037462 0 -294.20374284037462 -442.7618583029398 0 0 0 0 -0.79800525083649632 -33.164351142185637 0 -33.164351142185637 39.785428474356308 0 0 0 0 -28.211906798111158 -174.37377848351389 0 -174.37377848351389 33.784886799985543 0 0 0 0 36.425420194373714 -85.942940173261633 0 -85.942940173261633 -21.906204691590816 0 0 0 0 3.4073053647298366 -324.47381567898265 0 -324.47381567898265 -535.89681503106112 0 0 0 0 -89.521487272446393 -226.07662911312218 0 -226.07662911312218 -399.79025323264068 0 0 0 0 -200.27663922721695 -45.50710228515527 0 -45.50710228515527 -500.43976610939717 0 0 0 0 4.401883377542589 3.1266156118254571 0 3.1266156118254571 -5.7631902574236165 0 0 0 0 34.036972488662286 -406.28910621073737 0 -406.28910621073737 -334.0653766135656 0 0 0 0 33.522030261461623 -191.5038920196821 0 -191.5038920196821 -268.23904799751836 0 0 0 0 23.929286579856125 -207.9401416568362 0 -207.9401416568362 -95.528369446692523 0 0 0 0 41.749346613351861 -85.714458255952451 0 -85.714458255952451 -24.727146686680243 0 0 0 0 19.457537318958202 -197.25275515065732 0 -197.25275515065732 -259.85551970351662 0 0 0 0 9.4957540118506074 -24.996799774718625 0 -24.996799774718625 27.965625488384205 0 0 0 0 10.522764835724956 -90.27627573889913 0 -90.27627573889913 -317.48174770144396 0 0 0 0 17.7078202370285 -121.85225396687019 0 -121.85225396687019 -179.00949313063757 0 0 0 0 -5.1158355531515554 -92.440693318210833 0 -92.440693318210833 -305.84537203158834 0 0 0 0 -75.296912664547563 -193.30617722017632 0 -193.30617722017632 -359.81676405734834 0 0 0 0 -117.48830415178963 -316.21181306381914 0 -316.21181306381914 -423.93982742613298 0 0 0 0 -901.05959290614555 -20.924398767241655 0 -20.924398767241655 134.8614426034037 0 0 0 0 131.78298465753323 -138.71787666235468 0 -138.71787666235468 -304.42687405450124 0 0 0 0 -6.3899336685697818 -37.250035550753807 0 -37.250035550753807 22.137312902212557 0 0 0 0 3.4177497236769909 -45.45445242848308 0 -45.45445242848308 26.067843939625448 0 0 0 0 -139.6883696186851 -388.13948122264264 0 -388.13948122264264 -373.34225402976881 0 0 0 0 56.426275454882955 -87.478421390311553 0 -87.478421390311553 -38.229717038577363 0 0 0 0 268.20517974382528 -840.18638853697848 0 -840.18638853697848 -1666.550902483883 0 0 0 0 9.1875220355548208 -16.367400567561901 0 -16.367400567561901 17.111843157700662 0 0 0 0 -26.426869729097234 -227.58186469302746 0 -227.58186469302746 -201.38580680478481 0 0 0 0 -35.604581102949851 -433.80876181944029 0 -433.80876181944029 -1224.9615752125683 0 0 0 0 -752.87739126829547 -722.05709180326812 0 -722.05709180326812 -1095.5516647828226 0 0 0 0 -1052.1281069624529 -1191.0612943793349 0 -1191.0612943793349 -1353.7532541114251 0 0 0 0 -738.3699990879395 -584.59108735813788 0 -584.59108735813788 -1151.627984990293 0 0 0 0 -678.37195690956287 -723.11926713118919 0 -723.11926713118919 -1643.8584809640015 0 0 0 0 -833.03814163194329 -552.30657978876116 0 -552.30657978876116 -1439.1876593238267 0 0 0 0 -0.14754893076545272 3.0782724300427731 0 3.0782724300427731 -3.8576358830768527 0 0 0 0 -476.00961550154898 -492.68713391395431 0 -492.68713391395431 -1508.6843129487315 0 0 0 0 -294.80641682936403 -590.72973849940536 0 -590.72973849940536 -1449.326293550781 0 0 0 0 -731.41550892248051 -568.60995921243011 0 -568.60995921243011 -1445.9684301778707 0 0 0 0 -747.76730905429577 -661.52705816397975 0 -661.52705816397975 -1431.9863892165304 0 0 0 0 -473.80239198351046 -629.10651384256198 0 -629.10651384256198 -1548.0747797695658 0 0 0 0 -755.92974251947453 -619.58594706567783 0 -619.58594706567783 -1587.6560588749126 0 0 0 0 -1122.603851593376 -902.89378133043465 0 -902.89378133043465 -1580.998869779949 0 0 0 0 -1267.7309163833579 -795.2487839307596 0 -795.2487839307596 -1548.3544591807004 0 0 0 0 -1293.5940888907298 -1043.776603491398 0 -1043.776603491398 -2191.9344957491412 0 0 0 0 -2054.4814390740939 -980.65262807439285 0 -980.65262807439285 -1846.5780118965195 0 0 0 0 -1633.3167291702412 -1500.0910779038313 0 -1500.0910779038313 -2329.097865566815 0 0 0 0 -1055.5918615969276 -1123.3412251526315 0 -1123.3412251526315 -1936.3215991134202 0 0 0 0 -1482.7898145600338 -1119.0389711436655 0 -1119.0389711436655 -1407.9732544799335 0 0 0 0 -974.97029775028932 -883.83482326618105 0 -883.83482326618105 -1317.1794313875071 0 0 0 0 -641.57546739774989 -871.82923359408596 0 -871.82923359408596 -1650.8185298090611 0 0 0 0 -900.51322080972022 -906.15528093142348 0 -906.15528093142348 -1678.3647117740675 0 0 0 0 -803.67185289831832 -680.27393207679233 0 -680.27393207679233 -1411.8058259763202 0 0 0 0 -187.47326653709752 -752.13666007204665 0 -752.13666007204665 -1445.3304655980319 0 0 0 0 -579.0735109772977 -683.45509413530999 0 -683.45509413530999 -1286.7149832310097 0 0 0 0 -374.42671795171918 -788.02521642838838 0 -788.02521642838838 -1405.6756342815861 0 0 0 0 424.317805369501 -701.80948660342983 0 -701.80948660342983 -1437.0666658419359 0 0 0 0 -258.43806790909002 -556.11263364867045 0 -556.11263364867045 -1065.4244925504463 0 0 0 0 -187.93339710243163 -751.88444406508461 0 -751.88444406508461 -1438.0751315462549 0 0 0 0 -100.92790568905184 -637.16005037374271 0 -637.16005037374271 -1078.9065593408304 0 0 0 0 -471.64175099757267 -569.7080797445451 0 -569.7080797445451 -1260.0191712923588 0 0 0 0 -191.06704773474485 -451.17462706361403 0 -451.17462706361403 -1404.8920634556962 0 0 0 0 -324.07291833829368 -292.53666082130803 0 -292.53666082130803 -1417.2175905904369 0 0 0 0 -481.26322043129039 -514.2051420812877 0 -514.2051420812877 -1301.8256035152735 0 0 0 0 -39.49298349871242 -344.35336621360329 0 -344.35336621360329 -1266.5032768529054 0 0 0 0 -239.62055562957539 -433.75555245170472 0 -433.75555245170472 -1229.9879872656747 0 0 0 0 23.303270627046004 -488.86630433033133 0 -488.86630433033133 -933.98872133592886 0 0 0 0 -41.395683816546807 -602.10840180711966 0 -602.10840180711966 -1102.8489414773503 0 0 0 0 -73.95468521375733 -412.01584423872191 0 -412.01584423872191 -474.18214752065251 0 0 0 0 -157.18083287327318 -219.88000931618444 0 -219.88000931618444 -585.76178431013614 0 0 0 0 2.6407779437722638 -533.02870998073922 0 -533.02870998073922 -1642.1468138860218 0 0 0 0 2.4825209328888604 2.5673999239212932 0 2.5673999239212932 -3.6443751278133334 0 0 0 0 -239.47289012972033 -410.51450630056934 0 -410.51450630056934 -1137.60192902368 0 0 0 0 -255.02157327703208 -376.07907141730266 0 -376.07907141730266 -1299.7718388418871 0 0 0 0 -227.28000274720762 -550.45082603423634 0 -550.45082603423634 -1494.0193496412394 0 0 0 0 -6.7553051948780194 -443.97177371909493 0 -443.97177371909493 -1289.1081689956845 0 0 0 0 -115.82919827487785 -399.30695184179785 0 -399.30695184179785 -496.0831132579915 0 0 0 0 2.0779505177494002 2.6718910396953532 0 2.6718910396953532 -3.0571723871407883 0 0 0 0 56.146544074144913 -246.84248407959967 0 -246.84248407959967 -1194.7175048515182 0 0 0 0 -18.145415925144334 -674.25951843594157 0 -674.25951843594157 -1847.7953676437974 0 0 0 0 -94.511025126063032 -692.44034243721399 0 -692.44034243721399 -1791.3460819114698 0 0 0 0 8.4342319312978873 -3.2250870013769628 0 -3.2250870013769628 -8.3288653871038036 0 0 0 0 902.30538110253838 291.07194320089911 0 291.07194320089911 -900.57860378609621 0 0 0 0 -1629.5362871093675 -1650.7877282569389 0 -1650.7877282569389 -1587.4148199044575 0 0 0 0 -867.23998444162862 -375.09873357227116 0 -375.09873357227116 -844.62573920965951 0 0 0 0 236.14537009557534 -512.58715747436145 0 -512.58715747436145 -1372.1833001799023 0 0 0 0 -0.52718291941033613 -30.840862042565945 0 -30.840862042565945 10.426530980908311 0 0 0 0 -412.6686086023401 -281.72510475829222 0 -281.72510475829222 -770.99382967438578 0 0 0 0 -51.2574622298538 -94.205398689981649 0 -94.205398689981649 50.737396703617549 0 0 0 0 -1453.3285292862165 163.38422373642607 0 163.38422373642607 -922.72037704603281 0 0 0 0 -1074.1440030121157 -63.041818574492936 0 -63.041818574492936 -1201.5764058828063 0 0 0 0 -494.78718323570502 -30.035827880150464 0 -30.035827880150464 -1120.7118782593461 0 0 0 0 -1070.1508973092277 48.376630890881643 0 48.376630890881643 -1035.1763971486653 0 0 0 0 -1135.8849524410289 -136.61580023133865 0 -136.61580023133865 -779.02049805961724 0 0 0 0 -5.3795479622766607 -19.352055040821554 0 -19.352055040821554 8.4274435878546257 0 0 0 0 -932.47695896933146 -251.0878108466859 0 -251.0878108466859 -1767.1135925999006 0 0 0 0 -721.08204379335075 -446.91948468142073 0 -446.91948468142073 -1586.8345541306189 0 0 0 0 -12.540801299467603 -18.867335041477972 0 -18.867335041477972 9.9399427524289905 0 0 0 0 -1110.1211119537475 -275.6107165512949 0 -275.6107165512949 -1357.2831051277535 0 0 0 0 -1240.6590514513009 -120.48617432631727 0 -120.48617432631727 -1519.1222431567003 0 0 0 0 -41.690612338454827 -84.602831529549917 0 -84.602831529549917 45.285643929883008 0 0 0 0 -183.31982941145543 -373.06884804902438 0 -373.06884804902438 -1324.9806944248412 0 0 0 0 -361.95053131610621 -203.12909525575014 0 -203.12909525575014 -550.87316023739186 0 0 0 0 -207.04980020865332 -317.96937605170024 0 -317.96937605170024 -769.75359001446486 0 0 0 0 -49.065525893072923 -81.470826133217344 0 -81.470826133217344 44.17833492998281 0 0 0 0 -24.082346572976064 -36.250296031958307 0 -36.250296031958307 18.894845430510856 0 0 0 0 -694.34690151735413 73.937813495578666 0 73.937813495578666 -715.83144339351566 0 0 0 0 -461.95726858626585 68.810835695825517 0 68.810835695825517 -812.66432526586141 0 0 0 0 -670.16538468486397 -985.15559696761193 0 -985.15559696761193 -507.75530516558501 0 0 0 0 -917.62757785673602 869.26336875162815 0 869.26336875162815 -367.82478794085182 0 0 0 0 10.666093925289942 -31.537740308724153 0 -31.537740308724153 -16.399938525791079 0 0 0 0 -437.54267233217251 -647.56289972930972 0 -647.56289972930972 -961.34412574555608 0 0 0 0 -6.5995409979816486 -25.109166085713298 0 -25.109166085713298 10.694016860066604 0 0 0 0 -853.66706386796432 -654.80239457047719 0 -654.80239457047719 -36.738023785452242 0 0 0 0 -586.45005827140994 124.00277308652585 0 124.00277308652585 -445.76895978102402 0 0 0 0 -310.43865061183897 -467.89388896019773 0 -467.89388896019773 -4172.2724050333636 0 0 0 0 -342.09114359004889 144.6046627226533 0 144.6046627226533 -4415.2315310539307 0 0 0 0 -747.9002471039712 -484.31318294055745 0 -484.31318294055745 -2914.9227849820018 0 0 0 0 -1260.035814455121 488.53522609015909 0 488.53522609015909 -3901.1944513703929 0 0 0 0 -956.86203449545428 -648.01183240307728 0 -648.01183240307728 -3434.6928941992373 0 0 0 0 3.4421032532915774 -10.056504683550315 0 -10.056504683550315 -6.780601632274923 0 0 0 0 -669.01692784245824 -1823.5552375339321 0 -1823.5552375339321 1661.3665851048208 0 0 0 0 172.17449159410899 350.34180954700423 0 350.34180954700423 -6593.1393260569312 0 0 0 0 -331.14254399052152 -1170.1926549595119 0 -1170.1926549595119 -4157.5192921364796 0 0 0 0 -529.59677256867872 -408.02112111271708 0 -408.02112111271708 -2906.0737573702172 0 0 0 0 1416.0241439365782 -1988.7855109592492 0 -1988.7855109592492 -1291.7325189348194 0 0 0 0 858.98045316443313 -1083.8818913774739 0 -1083.8818913774739 -2727.7040587037554 0 0 0 0 121.83816855779151 -960.20300723670516 0 -960.20300723670516 -593.14586792091723 0 0 0 0 0.35133515699999407 -660.45170270979725 0 -660.45170270979725 -1109.7532093468908 0 0 0 0 118.34173094050493 -1010.7536226490411 0 -1010.7536226490411 -846.86630458911532 0 0 0 0 403.73536878230516 -1003.760338803404 0 -1003.760338803404 -932.95563923317968 0 0 0 0 195.7045463048853 -935.55119949774235 0 -935.55119949774235 -929.20274711134334 0 0 0 0 -455.04009698727168 -1958.809609014279 0 -1958.809609014279 -770.31014748004964 0 0 0 0 36.180230578116607 -1234.9398017013154 0 -1234.9398017013154 -1224.668769769487 0 0 0 0 30.105594197758364 -1035.8412428660383 0 -1035.8412428660383 -66.585676436283393 0 0 0 0 451.59798083364149 -200.14012670752709 0 -200.14012670752709 -2309.9167536691748 0 0 0 0 -1018.4154686594266 -437.33588843583129 0 -437.33588843583129 1206.0889694531434 0 0 0 0 708.43870625922864 -1328.2048287969155 0 -1328.2048287969155 -2774.3771583359776 0 0 0 0 466.93335886677232 -1431.3205399856161 0 -1431.3205399856161 -821.38254025098286 0 0 0 0 159.15995719885541 -1358.4481033693764 0 -1358.4481033693764 -816.67846105710487 0 0 0 0 0.89572032934160006 -7.5479534598345879 0 -7.5479534598345879 1.8587614396833629 0 0 0 0 1.1820820047274858 -978.31393024296631 0 -978.31393024296631 1517.4479603082727 0 0 0 0 -445.18552367172379 -593.55556624396195 0 -593.55556624396195 3606.6907134837238 0 0 0 0 -2.9250708512000188 -0.53778319869940105 0 -0.53778319869940105 6.7416101712458953 0 0 0 0 1129.8350292242249 -774.01304961598362 0 -774.01304961598362 1317.6658072611219 0 0 0 0 -539.05970579275163 -1733.5092076558794 0 -1733.5092076558794 1287.0006475681439 0 0 0 0 0.87993954115927409 -1.2503626030655823 0 -1.2503626030655823 2.0396216713852482 0 0 0 0 -566.98786984386606 -737.13031008908274 0 -737.13031008908274 41.823779952770565 0 0 0 0 -431.77063621659181 -4.1951302344532451 0 -4.1951302344532451 1069.8301888420829 0 0 0 0 66.521143890335225 205.66262834351801 0 205.66262834351801 1016.9623301097763 0 0 0 0 -164.73531087328593 -483.5477530880562 0 -483.5477530880562 1539.8055050797557 0 0 0 0 -796.60383883569739 334.6092507373105 0 334.6092507373105 2523.4212860088228 0 0 0 0 195.74117017298704 793.95798701469903 0 793.95798701469903 950.74168567507877 0 0 0 0 -517.10413871239871 -12.797149611113127 0 -12.797149611113127 1234.4345104718814 0 0 0 0 -430.07371922782841 -569.91285453180217 0 -569.91285453180217 -104.0459054314415 0 0 0 0 -490.29353811981855 -7.0564996075772797 0 -7.0564996075772797 1063.1280071005312 0 0 0 0 -1568.9095601937734 -1292.6425311898347 0 -1292.6425311898347 -265.26314664132951 0 0 0 0 -974.67492244931054 -600.69286813723738 0 -600.69286813723738 -160.39635681302025 0 0 0 0 -1996.9362682681603 -753.75675094358712 0 -753.75675094358712 -702.51822880371765 0 0 0 0 -3888.4540898305277 91.702804926804674 0 91.702804926804674 -612.75716246853699 0 0 0 0 -1881.300124711508 -909.91730001481483 0 -909.91730001481483 -488.48195296784979 0 0 0 0 -3225.3727666834602 -273.00485732266679 0 -273.00485732266679 474.98290098205325 0 0 0 0 -4410.1320795765787 -1678.5010421110928 0 -1678.5010421110928 209.93828819761984 0 0 0 0 -2081.8444392259116 -904.08170093822991 0 -904.08170093822991 798.28952386890887 0 0 0 0 -952.54502365662483 -527.27294807531143 0 -527.27294807531143 123.54354496562155 0 0 0 0 -1147.0761023327941 -658.73220379767008 0 -658.73220379767008 792.90691538178362 0 0 0 0 751.78531064547133 -503.47703734746028 0 -503.47703734746028 564.3040849274912 0 0 0 0 -603.12030199053333 -1008.1736575636905 0 -1008.1736575636905 177.61706271488219 0 0 0 0 -1876.0977991807176 -839.69143359783811 0 -839.69143359783811 341.84023629731382 0 0 0 0 -175.91160402045352 -385.08712526514137 0 -385.08712526514137 202.66461793934286 0 0 0 0 2313.8853134065794 -2741.6022854599323 0 -2741.6022854599323 -304.32357431491255 0 0 0 0 -6038.6124894721725 -196.09772778256593 0 -196.09772778256593 723.64605542352365 0 0 0 0 -5.3243252494295064 -7.5664166315124817 0 -7.5664166315124817 3.7011901256893225 0 0 0 0 -1087.2278426922858 -2645.7165350399155 0 -2645.7165350399155 637.4800199377205 0 0 0 0 -1045.9961875133449 471.51157868854352 0 471.51157868854352 -904.34537083610485 0 0 0 0 1111.8573758954008 -612.07977179121008 0 -612.07977179121008 -232.16991139404126 0 0 0 0 -2220.0166879124299 -850.11406648937555 0 -850.11406648937555 995.91810867584718 0 0 0 0 28.566567659935401 -86.49489654175656 0 -86.49489654175656 -18.837882626214835 0 0 0 0 -1243.432033652658 -955.97113679236281 0 -955.97113679236281 -1482.3670047237829 0 0 0 0 -2386.6736002579564 -111.18698529718677 0 -111.18698529718677 -1707.5656889585807 0 0 0 0 -2102.2563851797604 -900.8304836404277 0 -900.8304836404277 -1272.5446179670034 0 0 0 0 -1197.8339012804499 -1151.3322130722227 0 -1151.3322130722227 -625.34837126686762 0 0 0 0 26.619848418870845 -79.942918448008527 0 -79.942918448008527 -25.60736093081492 0 0 0 0 -1797.6331538506784 -741.6063617572654 0 -741.6063617572654 -2839.188301146758 0 0 0 0 -1877.1962640550919 -22.271048351016361 0 -22.271048351016361 -2478.6893428983458 0 0 0 0 2.1912701291601024 6.8172100891253109 0 6.8172100891253109 -27.328505465110666 0 0 0 0 -1892.99408331624 -274.50521246578137 0 -274.50521246578137 -1842.9504675865464 0 0 0 0 -1704.5954616669915 164.37617225926442 0 164.37617225926442 -2009.1920970039791 0 0 0 0 -1762.8265675693401 130.10401750184246 0 130.10401750184246 -673.97315007869111 0 0 0 0 -1569.1843502517913 -220.61109032211152 0 -220.61109032211152 -2067.2250454030873 0 0 0 0 -1562.3427461685496 -271.37514915099018 0 -271.37514915099018 -1855.9364425105996 0 0 0 0 -1575.3191804982489 -575.68992220735527 0 -575.68992220735527 -1656.2633279786751 0 0 0 0 -1707.9246259577776 -686.15944068263707 0 -686.15944068263707 -1505.2993868729973 0 0 0 0 -1848.0777925240691 -369.79168317760923 0 -369.79168317760923 -1802.9079590270849 0 0 0 0 -1796.8424337412143 -734.52519668796231 0 -734.52519668796231 -1401.5617706339108 0 0 0 0 -1068.7659138064191 -1071.1375161362448 0 -1071.1375161362448 -1553.9535067642792 0 0 0 0 -948.38189135183347 32.014425709945499 0 32.014425709945499 -2544.8427766022487 0 0 0 0 -572.89096462342422 10.210534007215756 0 10.210534007215756 -87.308994190949306 0 0 0 0 -2594.7832137045334 87.710706416080939 0 87.710706416080939 930.47449230950951 0 0 0 0 14.612772544115444 -43.452643673165255 0 -43.452643673165255 -6.0357058645701898 0 0 0 0 -1221.3078399205115 86.184177201008424 0 86.184177201008424 -2550.8203904788243 0 0 0 0 -6.5171093186363578 -35.117425027437577 0 -35.117425027437577 -9.4517337736632214 0 0 0 0 -1928.6747554193425 -494.49662517396791 0 -494.49662517396791 1371.8374557839852 0 0 0 0 -958.2864126561326 -803.19987536249391 0 -803.19987536249391 -285.83844784573012 0 0 0 0 -1549.3726596513297 213.82388511147292 0 213.82388511147292 -2279.3071277812123 0 0 0 0 -1470.5927555970848 -23.03569385924493 0 -23.03569385924493 -2318.0109245284948 0 0 0 0 -1558.8541999886511 -107.95715086850396 0 -107.95715086850396 -1929.9992289790243 0 0 0 0 -1216.1333998718765 -103.37891668794327 0 -103.37891668794327 -2612.614127780631 0 0 0 0 -1295.3655650824658 -119.83824829354126 0 -119.83824829354126 -2271.2034094902046 0 0 0 0 -1421.1057076060679 -334.5608142278943 0 -334.5608142278943 -1980.3133479445532 0 0 0 0 -1373.0279305235017 -257.23128797105164 0 -257.23128797105164 -2372.2546699223021 0 0 0 0 -1363.1851325184398 -519.8508099143146 0 -519.8508099143146 -2087.6656700938183 0 0 0 0 -1459.2205532639928 -448.2585743736272 0 -448.2585743736272 -2062.9172722805597 0 0 0 0 -1107.6833431713749 -466.19549711752916 0 -466.19549711752916 -2214.5230540912307 0 0 0 0 -1099.1029582135088 -432.35574324743357 0 -432.35574324743357 -2681.5282400009455 0 0 0 0 -782.78857528493972 -246.16995303396834 0 -246.16995303396834 -2571.9445098442411 0 0 0 0 -855.93138965719845 205.5985089140886 0 205.5985089140886 -3010.6275903165078 0 0 0 0 -740.72759361297358 -273.66160754754674 0 -273.66160754754674 -3193.4969733142498 0 0 0 0 -662.81553892669035 -546.71088841711025 0 -546.71088841711025 -2944.8165887965224 0 0 0 0 -1200.2515523969196 -906.8470141930884 0 -906.8470141930884 -2188.9086816421332 0 0 0 0 -678.46869249188967 -806.70836707907256 0 -806.70836707907256 -2427.9532775423431 0 0 0 0 -1355.2957360094442 -827.6205558993679 0 -827.6205558993679 -2087.7695863902482 0 0 0 0 -1254.5172641526442 -764.44672378293762 0 -764.44672378293762 -2065.8383828386004 0 0 0 0 -1389.4757070501073 -922.76613253759569 0 -922.76613253759569 -1849.6559269477584 0 0 0 0 -1274.1261144921009 -879.26785399080109 0 -879.26785399080109 -1833.5960470040663 0 0 0 0 -1.8495065597848281 -1.5288616243130946 0 -1.5288616243130946 1.2251537561045609 0 0 0 0 -1447.2195810968406 -1067.2793104973098 0 -1067.2793104973098 -2145.0446097738113 0 0 0 0 -2201.4581021213089 -495.55981572455494 0 -495.55981572455494 -1685.3119856393314 0 0 0 0 -1042.6154700113548 -1062.7089604776556 0 -1062.7089604776556 -1643.9850017348108 0 0 0 0 -1387.917145241081 -776.42886770484984 0 -776.42886770484984 -1766.307497056594 0 0 0 0 -1364.2235603329791 -870.33511175264539 0 -870.33511175264539 -1823.7801112299785 0 0 0 0 -1413.9172547619673 -831.5349843576696 0 -831.5349843576696 -1850.6423975134785 0 0 0 0 -1465.9982819563593 -832.25738753034238 0 -832.25738753034238 -1749.2473373179619 0 0 0 0 -1687.1778124537377 -873.02641597117326 0 -873.02641597117326 -1723.6821616170128 0 0 0 0 -1477.506007884338 -960.5482699250424 0 -960.5482699250424 -1894.1742223475012 0 0 0 0 -1226.2310314211354 -1048.6180554140228 0 -1048.6180554140228 -1869.8277969253213 0 0 0 0 -1106.0297052587193 -1606.0520320885266 0 -1606.0520320885266 -1636.0365309140034 0 0 0 0 -1007.0719438581873 -998.27124464901135 0 -998.27124464901135 -1542.4299238905805 0 0 0 0 -0.14800728967304622 -0.027506168798822728 0 -0.027506168798822728 0.095206734935146642 0 0 0 0 -1346.0730636209628 -1613.2118161534054 0 -1613.2118161534054 -2113.2919776357594 0 0 0 0 -2039.7383420059632 -1089.382507994982 0 -1089.382507994982 -1548.6540665352222 0 0 0 0 -3616.1370788060594 -2205.8233709878114 0 -2205.8233709878114 -2249.6493520681179 0 0 0 0 -1174.3225279353792 -1259.2957049386605 0 -1259.2957049386605 -1448.7186863576935 0 0 0 0 -1109.4516695936327 -1102.4241768471111 0 -1102.4241768471111 -1851.3814196358435 0 0 0 0 -1579.3766042600546 -1157.2643600079045 0 -1157.2643600079045 -1680.6743543410994 0 0 0 0 -968.8653566747962 -1006.5484547003216 0 -1006.5484547003216 -1821.7714340307575 0 0 0 0 -837.17225863773274 -426.33406277439735 0 -426.33406277439735 -1485.454549796159 0 0 0 0 596.27999481075676 -483.36489449071087 0 -483.36489449071087 -1699.8142780285489 0 0 0 0 22.44796283475705 -39.381533281906741 0 -39.381533281906741 -17.607162210592762 0 0 0 0 9.4819436703356246 -8.0900645633422812 0 -8.0900645633422812 -11.733904819969069 0 0 0 0 -4333.8854995464208 -1982.3771330337186 0 -1982.3771330337186 -2293.7270989561803 0 0 0 0 -2291.82928561687 -2617.5865332208341 0 -2617.5865332208341 -531.39087152518914 0 0 0 0 4.5126776150599994 -8.7975476625967133 0 -8.7975476625967133 3.0215517197543988 0 0 0 0 -2281.5402303335577 -1895.1605118692496 0 -1895.1605118692496 -3035.6701992467279 0 0 0 0 -3992.9821085449075 22.404166486143367 0 22.404166486143367 -4295.5012098505467 0 0 0 0 -899.87807180128584 -836.69639720972918 0 -836.69639720972918 -1076.8834273884713 0 0 0 0 -950.72007481304172 -500.88770253622715 0 -500.88770253622715 -1765.4844203319226 0 0 0 0 -865.43961699522333 -510.56701881132904 0 -510.56701881132904 -1102.6638777382868 0 0 0 0 -1324.7564348881569 -849.04651613723036 0 -849.04651613723036 -1215.3062558304809 0 0 0 0 -1120.157051819202 -1062.4837781545866 0 -1062.4837781545866 -1703.2123384768638 0 0 0 0 -1240.3016074293264 -726.11379379418577 0 -726.11379379418577 -1231.439096789647 0 0 0 0 -1051.1805906881928 -590.63832678396284 0 -590.63832678396284 -304.34346648044448 0 0 0 0 -1117.1747618709924 -913.87862494070578 0 -913.87862494070578 -1103.697364584179 0 0 0 0 -812.4153460678026 -284.87963139500971 0 -284.87963139500971 -720.9702428036835 0 0 0 0 -677.49986249467474 -104.61144748178776 0 -104.61144748178776 280.20124496999961 0 0 0 0 -1205.7431556283409 -560.85618031508784 0 -560.85618031508784 -272.66233709471999 0 0 0 0 -515.37485117424512 -98.231034178046684 0 -98.231034178046684 -343.26621821310073 0 0 0 0 3.4806918601714756 -10.039625332236142 0 -10.039625332236142 4.3479995273464596 0 0 0 0 -340.85622571401473 -511.10555753012886 0 -511.10555753012886 458.23776889265719 0 0 0 0 -192.56759467051597 -627.36824510460428 0 -627.36824510460428 -963.68911270684657 0 0 0 0 6.9878510622618251 -13.623939969300466 0 -13.623939969300466 0.82667338468427687 0 0 0 0 641.36884532711701 -569.49694690443357 0 -569.49694690443357 -1040.8710146869125 0 0 0 0 -947.44116791151464 -263.89076264580217 0 -263.89076264580217 -593.44546281716975 0 0 0 0 -1.9006349378929599 -9.1922061946621625 0 -9.1922061946621625 6.3411552705896668 0 0 0 0 -217.52527156309225 -882.8012514230868 0 -882.8012514230868 -1114.7060888992364 0 0 0 0 962.17306075413217 -1216.3826019337375 0 -1216.3826019337375 -2242.8621889764909 0 0 0 0 63.320384360893513 -765.41455818985196 0 -765.41455818985196 -2094.4974742257036 0 0 0 0 -252.79981866895105 -557.33677949984849 0 -557.33677949984849 -3580.2456192702375 0 0 0 0 -751.65202785746078 -659.11214161077805 0 -659.11214161077805 -2059.4533962207279 0 0 0 0 -515.14888121777039 -1131.4122674373357 0 -1131.4122674373357 -2115.8940171306967 0 0 0 0 -72.52442924479692 -471.51602599902435 0 -471.51602599902435 -3410.2051461976371 0 0 0 0 -307.87763702888333 -146.6801641335187 0 -146.6801641335187 -2596.7385709327136 0 0 0 0 0.31732501050836015 -509.48724415928422 0 -509.48724415928422 -3680.7536740249197 0 0 0 0 -735.44685860426398 -435.24443979992429 0 -435.24443979992429 -2111.6342439763539 0 0 0 0 -90.861107635690132 -175.71629001507972 0 -175.71629001507972 -4029.8341001496483 0 0 0 0 -577.37486197322869 -544.00442892577485 0 -544.00442892577485 -650.97536924691667 0 0 0 0 -113.41408059030073 -683.48061861441238 0 -683.48061861441238 -2165.7825242239378 0 0 0 0 -0.17800470817019232 -735.53752777905538 0 -735.53752777905538 -2140.8090104228249 0 0 0 0 -388.71891544442042 -156.35689305952837 0 -156.35689305952837 -496.13528267518268 0 0 0 0 -0.62444400064123329 -950.2229998141338 0 -950.2229998141338 -396.5947005327962 0 0 0 0 3.8380682343995431 -615.69761226963601 0 -615.69761226963601 -674.74837655626379 0 0 0 0 -568.81104817192681 -417.98153949355219 0 -417.98153949355219 1581.7331500533037 0 0 0 0 0.82215827421350696 -2.9438247101436446 0 -2.9438247101436446 -2.3113477825080082 0 0 0 0 -1.1585678718111012 -868.54863418290552 0 -868.54863418290552 -1893.6652202658152 0 0 0 0 166.64015640906291 -416.6887575099463 0 -416.6887575099463 -2823.5107991439781 0 0 0 0 -241.15859963139519 -507.74335064293518 0 -507.74335064293518 -1853.7425200843063 0 0 0 0 -5.2887847382662585 -625.30693697310198 0 -625.30693697310198 -1831.304607845319 0 0 0 0 -220.37461167893343 -392.11029910290654 0 -392.11029910290654 -974.20517837712396 0 0 0 0 -31.541248538909713 -228.4005003083912 0 -228.4005003083912 -3029.610362046802 0 0 0 0 20.373787712432829 -35.086324120465349 0 -35.086324120465349 -16.199495540436054 0 0 0 0 -8.0426072932690431 -10.241178969363432 0 -10.241178969363432 47.01128016994852 0 0 0 0 -908.34826897413586 -541.5828313986749 0 -541.5828313986749 -328.81561153288931 0 0 0 0 -141.40700301019388 -184.16010264276338 0 -184.16010264276338 -31.58585919716279 0 0 0 0 -46.970033223391511 -1014.2283110912977 0 -1014.2283110912977 -533.77467194543715 0 0 0 0 2.8685344729702251 -6.1775249196163884 0 -6.1775249196163884 6.2911762796582167 0 0 0 0 -488.50106625302578 -1237.5237633500255 0 -1237.5237633500255 735.74201136358897 0 0 0 0 -625.7208766057156 183.71796857713343 0 183.71796857713343 -3750.2607017969749 0 0 0 0 1.785310530034792 -7.3668743857360823 0 -7.3668743857360823 4.7140614539317482 0 0 0 0 -526.07321878088987 -409.08328860982874 0 -409.08328860982874 -481.73586920403613 0 0 0 0 -458.79736358204536 -1043.6746783682229 0 -1043.6746783682229 -842.93760270914936 0 0 0 0 -642.84046113141812 -678.87581740400492 0 -678.87581740400492 -855.43118134734686 0 0 0 0 -158.11642017147096 -1153.8293690174869 0 -1153.8293690174869 -2078.9120828096493 0 0 0 0 325.10481895876001 -753.7838807709195 0 -753.7838807709195 -130.47776042398618 0 0 0 0 -474.53181717222833 -538.04953603497052 0 -538.04953603497052 -160.31649926651153 0 0 0 0 -510.63859906647122 -1074.867210745484 0 -1074.867210745484 707.9128038786148 0 0 0 0 -338.77479126560502 -776.65226921851718 0 -776.65226921851718 120.08576629738673 0 0 0 0 -213.96792398692196 -1166.817086372108 0 -1166.817086372108 -522.07512125556241 0 0 0 0 86.610968086664798 -987.93769615082419 0 -987.93769615082419 -213.63964106258754 0 0 0 0 -606.37752807111247 -1306.6635043040551 0 -1306.6635043040551 1916.4015460157243 0 0 0 0 1.6374131999119186 -4.4809027390053942 0 -4.4809027390053942 3.6247624689284024 0 0 0 0 -581.06265216591419 240.47547753305844 0 240.47547753305844 3387.8603537123563 0 0 0 0 249.71969474319485 -627.67966813040402 0 -627.67966813040402 982.68598073893372 0 0 0 0 -371.4914187024915 -345.51914560983641 0 -345.51914560983641 1456.4062665569363 0 0 0 0 300.85410649675759 -335.01170299939258 0 -335.01170299939258 878.13705434371514 0 0 0 0 -0.30939147999743 -926.14745357072024 0 -926.14745357072024 -63.023157818126492 0 0 0 0 93.519523706636392 -678.5103699647334 0 -678.5103699647334 -879.26788036699872 0 0 0 0 -242.79260978761886 -667.66816053728689 0 -667.66816053728689 331.91033313256048 0 0 0 0 -56.372381179622607 -1257.0537478050464 0 -1257.0537478050464 897.02706613773626 0 0 0 0 -225.06127494760585 -823.27347702409679 0 -823.27347702409679 184.09254333579884 0 0 0 0 -308.78405311901588 -1683.4378696232634 0 -1683.4378696232634 677.12059421539379 0 0 0 0 -0.68710554637073074 -1256.8477988482009 0 -1256.8477988482009 -1673.7951362905442 0 0 0 0 -155.09355145625887 -2198.9578994606636 0 -2198.9578994606636 -3192.2966081793784 0 0 0 0 -645.03376946339267 -784.07597241950134 0 -784.07597241950134 -4867.5278586684908 0 0 0 0 -83.418870153400348 -2120.414690254715 0 -2120.414690254715 -6619.6187719062909 0 0 0 0 -564.66435472236481 -757.56343284661853 0 -757.56343284661853 1438.8471965784229 0 0 0 0 -710.01798658760526 -1570.5708749085552 0 -1570.5708749085552 2842.2717079223003 0 0 0 0 -0.51239858484314027 -10.133295688458531 0 -10.133295688458531 -2.7253258167257357 0 0 0 0 -167.7778150170052 -1295.6695067009969 0 -1295.6695067009969 -1568.5088722405053 0 0 0 0 -648.27986388168938 -560.24479467917627 0 -560.24479467917627 276.7293405351229 0 0 0 0 -546.09741331428813 -329.91445158943316 0 -329.91445158943316 -845.04831499935972 0 0 0 0 -1.4738241428472065 -29.025718308332188 0 -29.025718308332188 -1.7588173488626184 0 0 0 0 -618.1088941252965 -940.84641883272343 0 -940.84641883272343 -4339.4845170620101 0 0 0 0 -696.98035933183564 -337.17140421531622 0 -337.17140421531622 -3133.7151761478672 0 0 0 0 -1304.0500303301669 -1040.0072283322734 0 -1040.0072283322734 -3548.5972974208125 0 0 0 0 -683.63649632708984 -1633.7049501257807 0 -1633.7049501257807 -3212.4756410930422 0 0 0 0 -926.87134565673841 -950.70084469302947 0 -950.70084469302947 -3540.335466205921 0 0 0 0 -860.91062999502174 -1128.3092485635898 0 -1128.3092485635898 -3018.8659984974329 0 0 0 0 -1063.7498248683914 -1162.6111523443146 0 -1162.6111523443146 -2642.9136546488808 0 0 0 0 -1048.6052378981694 -1429.2815327410717 0 -1429.2815327410717 -2194.4067592749816 0 0 0 0 -1014.0606150614312 -1591.227735078832 0 -1591.227735078832 -2605.7666461317931 0 0 0 0 -951.05871725347242 -1798.3068962738216 0 -1798.3068962738216 -2207.2259161033326 0 0 0 0 -1023.3217429428623 -1412.4679465012232 0 -1412.4679465012232 -2808.2754868773955 0 0 0 0 -1047.4674042829138 -1442.0411492587846 0 -1442.0411492587846 -2851.2928031781553 0 0 0 0 -758.35970616841223 -1424.1183146739713 0 -1424.1183146739713 -2850.2165228895265 0 0 0 0 -471.12483047370915 -1683.2677756208905 0 -1683.2677756208905 -3391.8266144153531 0 0 0 0 0.93840885481040459 -1345.8645528449979 0 -1345.8645528449979 -3728.7099630849198 0 0 0 0 -1657.6405485095602 -696.06173061687878 0 -696.06173061687878 -1656.8886378515035 0 0 0 0 -1369.3090986040406 -837.10445608849466 0 -837.10445608849466 -1433.0570251261561 0 0 0 0 -1370.9910398498741 -868.01124573232255 0 -868.01124573232255 -1962.893277679028 0 0 0 0 -1570.0014520755794 -952.81721241035302 0 -952.81721241035302 -1715.8989410544236 0 0 0 0 -1580.515041189763 -889.4093452567522 0 -889.4093452567522 -2023.6183965333621 0 0 0 0 -1759.8976489207853 -924.96387931440768 0 -924.96387931440768 -1932.5194102920304 0 0 0 0 -9.5754603570601375 -2.498100285916621 0 -2.498100285916621 8.6030155372369705 0 0 0 0 -1006.666101661016 -1586.3011240832293 0 -1586.3011240832293 -2131.3541092477153 0 0 0 0 -1802.2327069586463 -769.97454215140897 0 -769.97454215140897 -2267.0273602841044 0 0 0 0 -935.87389961344888 -907.32362462544916 0 -907.32362462544916 -2228.5953467205641 0 0 0 0 -6.2356793360273741 -0.3484813425712332 0 -0.3484813425712332 3.7557803233912779 0 0 0 0 -1687.3067124305817 -549.97431289654378 0 -549.97431289654378 -2173.6443570030242 0 0 0 0 -951.44593064076616 -302.00383918986699 0 -302.00383918986699 -2061.6481911530427 0 0 0 0 -1031.9737164326652 -798.09669694135755 0 -798.09669694135755 -2255.7093995672294 0 0 0 0 15.494733533192459 -3.817548430969623 0 -3.817548430969623 -31.902360501381608 0 0 0 0 -1324.4520016161841 54.456677456964826 0 54.456677456964826 -1544.87060417865 0 0 0 0 -878.80069376417669 -511.97043728424433 0 -511.97043728424433 -2541.8821111159741 0 0 0 0 -2.0528896149402271 -40.474022173967143 0 -40.474022173967143 -9.5165903120110968 0 0 0 0 -308.36389917980705 -145.75852104150908 0 -145.75852104150908 -706.58778839785373 0 0 0 0 -0.60385925070698931 -21.717983563182571 0 -21.717983563182571 0.91672300815557861 0 0 0 0 -25.619283712016227 -48.096154715201777 0 -48.096154715201777 6.3153437747186558 0 0 0 0 -845.16536795021966 -164.43703402089886 0 -164.43703402089886 -726.9971805207897 0 0 0 0 -1003.536744821904 -603.92615248922812 0 -603.92615248922812 -293.70986684705713 0 0 0 0 -1241.994999377348 112.02704952851491 0 112.02704952851491 -1200.1604475411768 0 0 0 0 -8.7155395139855614 6.8205062388280737 0 6.8205062388280737 23.174243317374049 0 0 0 0 -0.3474226871219912 -7.0380259231729738 0 -7.0380259231729738 -16.724039062430478 0 0 0 0 -903.19070303684566 -149.29198639131937 0 -149.29198639131937 -999.75311585410964 0 0 0 0 51.114853262071449 0.38713259561549762 0 0.38713259561549762 -73.830794263165984 0 0 0 0 -883.93761418596841 -57.622792465983366 0 -57.622792465983366 -826.32562984030665 0 0 0 0 -1746.4940652940131 -71.686134852949181 0 -71.686134852949181 -1782.222932272407 0 0 0 0 39.668882529621783 -46.037139323347333 0 -46.037139323347333 -27.757707023566383 0 0 0 0 -1092.4488874915696 -429.00789268938388 0 -429.00789268938388 -1092.493787907064 0 0 0 0 14.840142045760047 -22.374002888346979 0 -22.374002888346979 24.585487204171102 0 0 0 0 -4.7730754515536091 -12.140905582325638 0 -12.140905582325638 -23.124134208201774 0 0 0 0 -1255.1464869252432 212.72603463004111 0 212.72603463004111 -1292.8337479790425 0 0 0 0 -16.568455733151211 -6.438766841075477 0 -6.438766841075477 17.942896424820191 0 0 0 0 -1489.2094910031883 186.2459993261109 0 186.2459993261109 -1289.825768852179 0 0 0 0 0.0059160012485790503 -1.3797873407416716 0 -1.3797873407416716 -3.3446560804933156 0 0 0 0 -1298.4613128579513 -214.43872436931997 0 -214.43872436931997 -1338.9009896278039 0 0 0 0 -1705.9552674692386 160.80247184787549 0 160.80247184787549 -1341.1261186888478 0 0 0 0 -1191.1761489262717 -397.62754861244775 0 -397.62754861244775 -1169.9248704181919 0 0 0 0 -1469.2092202207568 -156.0821594675117 0 -156.0821594675117 -954.37414989902391 0 0 0 0 -1116.7603789364512 -355.1263840935062 0 -355.1263840935062 -1845.0186858781599 0 0 0 0 -6.6224289504420994 -12.247024679125772 0 -12.247024679125772 3.0746663323386727 0 0 0 0 -1646.023497475253 -38.580552755184726 0 -38.580552755184726 -1847.9769400845144 0 0 0 0 39.774659850217574 -43.384255151888368 0 -43.384255151888368 -42.214097698741952 0 0 0 0 -1794.2345178883261 212.344782131393 0 212.344782131393 -795.70751810843649 0 0 0 0 -1251.0691855304758 -480.72032308093912 0 -480.72032308093912 -75.325548447828623 0 0 0 0 -1569.617001886043 -675.87920428145299 0 -675.87920428145299 -120.14530142341391 0 0 0 0 5.7243400768543324 -17.207029239366364 0 -17.207029239366364 21.867195829963322 0 0 0 0 -1457.9682623937988 -942.90249687517644 0 -942.90249687517644 -550.77051560940163 0 0 0 0 -1351.9361039541473 -841.09708336688482 0 -841.09708336688482 -65.508289236604469 0 0 0 0 -1398.0135989449627 -745.5537076576511 0 -745.5537076576511 -74.516775218580733 0 0 0 0 -1320.8635727171786 -629.61611234142765 0 -629.61611234142765 -241.29521517342073 0 0 0 0 -1213.009415850096 -643.77967725246117 0 -643.77967725246117 -18.704418702589464 0 0 0 0 -1237.7302571340188 -841.07875547547928 0 -841.07875547547928 -37.774870801498764 0 0 0 0 -1062.6790241413983 -677.96035704023234 0 -677.96035704023234 -38.985392762195261 0 0 0 0 -1180.5344955108958 -543.13825722855654 0 -543.13825722855654 -37.06189297111996 0 0 0 0 -1099.1085531813151 -434.29238642665223 0 -434.29238642665223 79.261319633180392 0 0 0 0 -342.78829544509063 -1159.1384944816891 0 -1159.1384944816891 1158.8349900375688 0 0 0 0 -4.8161863031424446 -13.760879441406047 0 -13.760879441406047 -11.05162326219471 0 0 0 0 -628.23827042835183 11.510212490909908 0 11.510212490909908 1484.5788950989518 0 0 0 0 -602.05455953449382 -120.93109694441046 0 -120.93109694441046 218.18733465386322 0 0 0 0 -452.41709178363089 -783.57114875424304 0 -783.57114875424304 304.27185693326464 0 0 0 0 -1236.9324899468629 -281.19555531528385 0 -281.19555531528385 -318.57129607233219 0 0 0 0 -1132.8721839358041 -832.18159117631149 0 -832.18159117631149 -108.72942909970152 0 0 0 0 -855.69671502680285 -1046.9359831504407 0 -1046.9359831504407 322.6015192789273 0 0 0 0 -1154.6058370413593 -865.0033835614795 0 -865.0033835614795 265.87836371942831 0 0 0 0 -728.34329111102852 -1115.67185608195 0 -1115.67185608195 -77.758407762166826 0 0 0 0 -744.02609006600687 -1004.8471910373992 0 -1004.8471910373992 -105.30568315619894 0 0 0 0 -745.23687574472569 -1088.3894141319397 0 -1088.3894141319397 409.83879856094427 0 0 0 0 -321.86827807623195 -1273.205101345091 0 -1273.205101345091 -92.355316782886803 0 0 0 0 -791.83054457980325 -338.74435332729627 0 -338.74435332729627 -1387.4575673376239 0 0 0 0 -459.07234116201289 -1188.7128150583503 0 -1188.7128150583503 -753.54559478371812 0 0 0 0 -626.40638993450557 -899.92957771122747 0 -899.92957771122747 -434.96628992148908 0 0 0 0 -651.25043683034164 -696.84138621172497 0 -696.84138621172497 -503.32438811962493 0 0 0 0 -911.34589419700205 -808.54429766451358 0 -808.54429766451358 -548.00230263861886 0 0 0 0 22.052883330462635 -37.750206964337536 0 -37.750206964337536 -24.24852172582878 0 0 0 0 -876.60634201552602 -321.67291799436498 0 -321.67291799436498 -849.15631602970279 0 0 0 0 -695.30508051613288 -455.82711744110202 0 -455.82711744110202 -130.02667445519182 0 0 0 0 -833.14924021679326 -490.35727187046723 0 -490.35727187046723 -79.28599371900782 0 0 0 0 -802.69124255725183 -553.7761724141601 0 -553.7761724141601 -276.0024557040706 0 0 0 0 -974.37453631215612 -828.89963461563457 0 -828.89963461563457 -57.352021488270111 0 0 0 0 -1063.8912641496427 -714.38652237704446 0 -714.38652237704446 -105.91596935888083 0 0 0 0 -708.04619165870827 -446.92398884647992 0 -446.92398884647992 -365.44231580832638 0 0 0 0 -846.98303431027489 -516.13127896211017 0 -516.13127896211017 -203.08698748156894 0 0 0 0 -587.78521335192636 -263.69733081640334 0 -263.69733081640334 -136.60472205260885 0 0 0 0 11.168042916259054 -33.028055268716116 0 -33.028055268716116 44.366743643331802 0 0 0 0 -1911.4147192780219 -1570.834410329182 0 -1570.834410329182 -1222.1739900121247 0 0 0 0 -1474.6194333371677 -1080.4099657625011 0 -1080.4099657625011 -803.12903813549201 0 0 0 0 -1911.390184450458 -1570.3071070894075 0 -1570.3071070894075 -1352.4175036040833 0 0 0 0 -1451.6209753702933 -1057.3834575486744 0 -1057.3834575486744 -804.1182246997123 0 0 0 0 8.439779215543183 -20.912330939172051 0 -20.912330939172051 39.019282704991156 0 0 0 0 -605.39894743654077 -174.67354009917653 0 -174.67354009917653 45.385236682122923 0 0 0 0 -1218.5292386990186 -818.93998470287988 0 -818.93998470287988 -566.28233895856101 0 0 0 0 -922.02728384516377 -1125.2569181355429 0 -1125.2569181355429 -1485.6646884421534 0 0 0 0 -893.45200187791488 -970.07420296007695 0 -970.07420296007695 -1142.746338741621 0 0 0 0 -553.46779865285498 -791.36276648708008 0 -791.36276648708008 -1113.4763821975939 0 0 0 0 25.830079634004505 -671.52788922693435 0 -671.52788922693435 -1335.3535596033471 0 0 0 0 -434.43668216632796 -906.40282921202743 0 -906.40282921202743 -1073.8461193296798 0 0 0 0 -422.93578876034735 -371.06456785167393 0 -371.06456785167393 -943.40912182693137 0 0 0 0 -302.64076374354772 -289.86451744768783 0 -289.86451744768783 -1537.4395685152631 0 0 0 0 -839.72306497249519 -798.42334439243859 0 -798.42334439243859 -1113.3061370904707 0 0 0 0 -1218.5099505208927 -813.41339510603939 0 -813.41339510603939 -759.87771725573839 0 0 0 0 -1325.9538514896121 -668.95710777982458 0 -668.95710777982458 -442.63914238688812 0 0 0 0 54.967336056404122 -61.578193273869232 0 -61.578193273869232 -49.932558812160181 0 0 0 0 -983.20901561569917 -618.09599225903912 0 -618.09599225903912 -618.55582140253682 0 0 0 0 -1015.7572115539069 -364.21562015721861 0 -364.21562015721861 -876.98264290508087 0 0 0 0 48.199436359792514 -52.315901141337662 0 -52.315901141337662 -52.460939799113433 0 0 0 0 -489.8445753925771 -806.92664037845316 0 -806.92664037845316 -632.24299445108409 0 0 0 0 -874.4571021129741 -706.52354827796535 0 -706.52354827796535 -646.85001908228878 0 0 0 0 -606.74069984132075 -1248.4830220944932 0 -1248.4830220944932 -1288.5464823825678 0 0 0 0 -1008.9659229135577 -451.35721463062237 0 -451.35721463062237 -1316.3168691774335 0 0 0 0 -1004.689176025975 -428.14692903706509 0 -428.14692903706509 -1222.721601852536 0 0 0 0 -1054.5703643233574 -524.89726156494362 0 -524.89726156494362 -1247.6082958488096 0 0 0 0 20.421290624623367 -17.674524088938341 0 -17.674524088938341 -25.551644590735918 0 0 0 0 -735.62317786100903 -272.20535405705959 0 -272.20535405705959 -1235.2703655157566 0 0 0 0 -742.19827227835776 -90.619908737637161 0 -90.619908737637161 -66.862380239581398 0 0 0 0 43.766100614000436 -48.342585606176954 0 -48.342585606176954 -43.31705156741701 0 0 0 0 -789.11210275994381 -352.41671767525986 0 -352.41671767525986 -481.67566050322785 0 0 0 0 -196.90442018918111 26.395935811702657 0 26.395935811702657 -226.56017842848087 0 0 0 0 -1060.0416963276948 -183.99468826665179 0 -183.99468826665179 -62.450354646702181 0 0 0 0 -666.82590536063071 -409.78334115085454 0 -409.78334115085454 -70.404397204973066 0 0 0 0 26.098358628166125 -34.142469061331099 0 -34.142469061331099 4.6842638670372594 0 0 0 0 -1438.6965186579182 -837.38049744893942 0 -837.38049744893942 -556.35571824885847 0 0 0 0 -590.17760374241334 -600.73466659659607 0 -600.73466659659607 -770.019564859198 0 0 0 0 -577.41072336987418 -440.16278220911045 0 -440.16278220911045 -581.40295970323496 0 0 0 0 -395.80007474193553 -483.45372575901274 0 -483.45372575901274 -1485.456220435095 0 0 0 0 -577.68590692974976 -436.44363671432802 0 -436.44363671432802 -900.53125528547389 0 0 0 0 -528.94205304058687 -183.54400735570016 0 -183.54400735570016 -1511.0755834863667 0 0 0 0 -545.25512524302394 -248.7213768638594 0 -248.7213768638594 -1119.1107939704234 0 0 0 0 -810.03989416836703 -165.36880211460084 0 -165.36880211460084 -1285.8663232619001 0 0 0 0 -790.024532276424 -203.72381290235353 0 -203.72381290235353 -1926.1669515007816 0 0 0 0 -1793.4794125521294 219.01976880175789 0 219.01976880175789 -1287.6137568679187 0 0 0 0 -1452.8425718039216 630.11667386147019 0 630.11667386147019 -2970.0654129260365 0 0 0 0 8.5984792383145248 -11.477476597490607 0 -11.477476597490607 1.7425150040575375 0 0 0 0 -479.91703121883756 -943.92504404637157 0 -943.92504404637157 -96.232294202112826 0 0 0 0 -487.29520674505329 -803.53876352611405 0 -803.53876352611405 -906.70308798528276 0 0 0 0 -588.13910559998476 -580.27501451649005 0 -580.27501451649005 -394.43955291747989 0 0 0 0 -0.28361188068569732 -14.125603392480095 0 -14.125603392480095 5.7362273885435968 0 0 0 0 -531.61375935424803 -273.86862456146082 0 -273.86862456146082 -1837.3349458574667 0 0 0 0 -2228.0882538815495 -427.68382550639944 0 -427.68382550639944 -124.99831913996604 0 0 0 0 69.643933350460173 -101.83789403998257 0 -101.83789403998257 60.211968610675996 0 0 0 0 -4434.6295939866468 -209.83653433933796 0 -209.83653433933796 -4238.7368540803145 0 0 0 0 -1834.694505329142 201.75733270709316 0 201.75733270709316 -2082.0612249861006 0 0 0 0 -25.600605894103609 -125.63463078633765 0 -125.63463078633765 64.947879954247185 0 0 0 0 -92.10507088458003 -33.570146106531162 0 -33.570146106531162 -2.9322353803601686 0 0 0 0 -35.944467917570591 -13.82354967213567 0 -13.82354967213567 -2.1325841722808718 0 0 0 0 -1849.2164159586027 384.96623938784069 0 384.96623938784069 -1746.3436493058834 0 0 0 0 -46.358414934755444 -100.49326879110023 0 -100.49326879110023 53.592831399442503 0 0 0 0 -794.83128226833651 -870.52904663822119 0 -870.52904663822119 -1135.7607504219177 0 0 0 0 -258.25470047397539 -614.65758512619868 0 -614.65758512619868 -1851.4660778050893 0 0 0 0 -311.04098901188991 -496.94851354347702 0 -496.94851354347702 -692.78490194524784 0 0 0 0 71.596825841997031 -82.963059841088096 0 -82.963059841088096 -31.556341768246604 0 0 0 0 -137.28205494451686 -136.48993922555019 0 -136.48993922555019 -2118.4381286324424 0 0 0 0 150.23105996588129 -287.96095392170355 0 -287.96095392170355 96.897428000742366 0 0 0 0 -658.69942024384 -120.26181210145523 0 -120.26181210145523 340.1111457157167 0 0 0 0 -87.835707397360068 -118.94513050923823 0 -118.94513050923823 146.56630312848188 0 0 0 0 -939.25791792248492 -938.09772348961451 0 -938.09772348961451 -279.5917395154338 0 0 0 0 -642.05445796668937 -1449.6341484834084 0 -1449.6341484834084 -2039.1441822486013 0 0 0 0 -1013.8250129028165 -1273.428912969388 0 -1273.428912969388 1134.6495360018162 0 0 0 0 -648.16970041089371 -71.498338049739687 0 -71.498338049739687 -53.910819383367198 0 0 0 0 -1025.3938812428241 75.163863629095431 0 75.163863629095431 127.08433238197176 0 0 0 0 -1807.0388072096102 -247.24223977657675 0 -247.24223977657675 234.44295906287152 0 0 0 0 -72.093683447186748 -126.62306346011528 0 -126.62306346011528 153.11252048404165 0 0 0 0 -1997.058749063679 -588.27753523903084 0 -588.27753523903084 -237.90717343517463 0 0 0 0 -2302.5277402161582 -1117.114610931907 0 -1117.114610931907 -403.71055927348789 0 0 0 0 -556.91266615762652 -511.30875651285351 0 -511.30875651285351 -469.14762931756559 0 0 0 0 -489.58963962344569 -268.74404082624096 0 -268.74404082624096 -327.11488511797506 0 0 0 0 0.27642577976605764 -9.6515156848285386 0 -9.6515156848285386 6.0574252742085548 0 0 0 0 -389.36009887064574 -339.131266832439 0 -339.131266832439 -293.84991845756304 0 0 0 0 -1501.0298133006436 -828.84374267260864 0 -828.84374267260864 -594.55566701486896 0 0 0 0 -1246.9091083535386 -476.56113074333553 0 -476.56113074333553 -119.73042169661494 0 0 0 0 -1234.3676317693344 -663.81499067548111 0 -663.81499067548111 -427.92779997878824 0 0 0 0 -1355.5249628069505 -397.22143844261154 0 -397.22143844261154 -164.21209863165859 0 0 0 0 -891.74227749249258 3.564818391285371 0 3.564818391285371 -156.15318876237211 0 0 0 0 -417.21743313282059 -51.278733719227603 0 -51.278733719227603 -522.56488176131097 0 0 0 0 -898.96428510343685 -13.447991256187379 0 -13.447991256187379 48.131993028113357 0 0 0 0 -634.55954223449226 -231.38367269287846 0 -231.38367269287846 -327.7509477752028 0 0 0 0 -3.0800853394906937 -3.1290695533161497 0 -3.1290695533161497 -1.5458649223821794 0 0 0 0 6.2889342256650878 -22.572212426940411 0 -22.572212426940411 -19.19236554906638 0 0 0 0 -636.10467703236645 -266.24448877142277 0 -266.24448877142277 -400.36902121445019 0 0 0 0 -554.45008869160665 -473.72073810322036 0 -473.72073810322036 -455.44403684624558 0 0 0 0 -619.41954766704384 -410.14757898252617 0 -410.14757898252617 -516.39340296792216 0 0 0 0 -1927.6366670233801 -1358.111886129449 0 -1358.111886129449 -1417.734035527752 0 0 0 0 -11.568574421731057 -15.912144228913107 0 -15.912144228913107 -21.824381706454858 0 0 0 0 -9.2420862639953043 -8.6130669554914832 0 -8.6130669554914832 -6.0146148492495115 0 0 0 0 -1173.2960600269435 -248.75013283549924 0 -248.75013283549924 -464.15214910422219 0 0 0 0 -1096.6880502111162 -527.28595030734141 0 -527.28595030734141 -787.80736017346499 0 0 0 0 -24.05438322226388 -60.777352063393671 0 -60.777352063393671 50.386536028600624 0 0 0 0 -25.53472822839565 -5.2717411292761547 0 -5.2717411292761547 4.693836213517443 0 0 0 0 -609.61459661028493 -75.28786309784482 0 -75.28786309784482 -556.88016728352522 0 0 0 0 -662.00236272480834 -82.070704987869249 0 -82.070704987869249 -713.12681886280188 0 0 0 0 -18.872289521074947 -50.667513129654424 0 -50.667513129654424 7.0461353696831814 0 0 0 0 19.153978621784645 -62.859452699737055 0 -62.859452699737055 -53.723706099600207 0 0 0 0 -806.45292500560026 65.993952718476066 0 65.993952718476066 -988.55201391107403 0 0 0 0 -1206.2190864214717 -503.50715875147216 0 -503.50715875147216 -600.69383992081566 0 0 0 0 -1616.3891786119893 -915.00206404299297 0 -915.00206404299297 -1710.8895478344202 0 0 0 0 -1272.4481636217824 -1258.4662605269787 0 -1258.4662605269787 -1950.8821496904138 0 0 0 0 -792.21564272084652 -1267.5669675787976 0 -1267.5669675787976 -1564.9584265841768 0 0 0 0 -27.016089712295781 -70.488696992788718 0 -70.488696992788718 32.442964927346864 0 0 0 0 -2243.4052413300378 -1209.5413347553404 0 -1209.5413347553404 -2126.0466741781711 0 0 0 0 -1002.3989690648268 -1.3119108028404298 0 -1.3119108028404298 140.40055073351687 0 0 0 0 -485.08753302426339 -1647.4061179879845 0 -1647.4061179879845 -4647.3837334053751 0 0 0 0 13.569311644729126 -177.94043170096839 0 -177.94043170096839 88.816954543492258 0 0 0 0 -43.39947890730501 17.916865150012427 0 17.916865150012427 -1.1474717574169375 0 0 0 0 -4717.9714330498828 1181.3946782881685 0 1181.3946782881685 -12151.869224965689 0 0 0 0 1180.5357394357743 -723.23852430235092 0 -723.23852430235092 -12607.556941085815 0 0 0 0 -11426.17135512011 -2275.0013694474646 0 -2275.0013694474646 -10857.128757753642 0 0 0 0 -38.05782750548309 -98.640732046074021 0 -98.640732046074021 52.959921565414078 0 0 0 0 -703.99666896993585 -1041.4898310164172 0 -1041.4898310164172 -2461.1318045178705 0 0 0 0 -189.96875605318928 -715.28387291045874 0 -715.28387291045874 -2331.7962915521348 0 0 0 0 -18.412116746723768 96.605754160961624 0 96.605754160961624 -2302.5638783010563 0 0 0 0 -45.501517390054651 -95.798427081125794 0 -95.798427081125794 21.977530298088212 0 0 0 0 160.34028752277118 9.5806861432488404 0 9.5806861432488404 1.083270626157173 0 0 0 0 -636.7275959804756 -1818.4027661862492 0 -1818.4027661862492 -2304.897569091554 0 0 0 0 3.319958480509726 -54.375145525568684 0 -54.375145525568684 29.220435464629546 0 0 0 0 -10.877515661920469 -51.547747115552511 0 -51.547747115552511 26.673905370165485 0 0 0 0 -6.9277207709734707 -99.650794718746226 0 -99.650794718746226 6.6623696174433036 0 0 0 0 168.12893635411456 -224.18687891215268 0 -224.18687891215268 -175.3242241352109 0 0 0 0 83.761795255020843 -54.322088225385414 0 -54.322088225385414 -47.933460790802201 0 0 0 0 74.277047260882682 -162.23953305389659 0 -162.23953305389659 -127.53181791111638 0 0 0 0 59.055239069726667 235.13590305138496 0 235.13590305138496 21.683684944498964 0 0 0 0 -313.70656780488571 -187.84239470954981 0 -187.84239470954981 25.72027858641377 0 0 0 0 700.29800849255025 -287.43214553363151 0 -287.43214553363151 -637.61413960826394 0 0 0 0 -1087.520939901282 -222.2898299706485 0 -222.2898299706485 425.85268441364133 0 0 0 0 -1435.5555351920739 -1051.9146343119919 0 -1051.9146343119919 -523.63611298923206 0 0 0 0 -141.51543247791415 -397.32252896912541 0 -397.32252896912541 -880.81068647791017 0 0 0 0 212.59946925044551 -705.70214604837179 0 -705.70214604837179 4.5839506111842638 0 0 0 0 -0.77238084091283099 0.94432262237253894 0 0.94432262237253894 3.2455161788437437 0 0 0 0 423.42777692241361 -2046.9650618682635 0 -2046.9650618682635 -1055.2508901241308 0 0 0 0 -4.9398507139861891 -3.1145830145971303 0 -3.1145830145971303 4.3674003025881376 0 0 0 0 -4312.0679410723897 -210.44968901681568 0 -210.44968901681568 -690.91521577754611 0 0 0 0 -3549.2902572497551 -1754.4769275243016 0 -1754.4769275243016 527.67857341846684 0 0 0 0 1.9670509893587393 -0.90381637522133929 0 -0.90381637522133929 -0.39485493873246469 0 0 0 0 -1238.0321090828529 -1300.2676568623378 0 -1300.2676568623378 -1496.0875133352565 0 0 0 0 -4.3628506240845581 -8.1344752460175371 0 -8.1344752460175371 1.5364562788673872 0 0 0 0 -896.05760401068255 -411.63683699503235 0 -411.63683699503235 -516.64223873707579 0 0 0 0 -1007.2338866373066 -19.555789233870655 0 -19.555789233870655 -1468.9613348712301 0 0 0 0 -795.30090859794291 -425.83846356858339 0 -425.83846356858339 -2095.705307125334 0 0 0 0 -433.83257512195996 235.06645721428504 0 235.06645721428504 -1325.5417237963229 0 0 0 0 -1020.3360327968185 -191.20714794518608 0 -191.20714794518608 -1102.3795392081956 0 0 0 0 -1053.5218120845675 -515.35330487180181 0 -515.35330487180181 -1166.7860813592006 0 0 0 0 -465.46891014567518 -250.75426513081584 0 -250.75426513081584 -1157.5597584691241 0 0 0 0 -269.80581889420864 -598.10952646408077 0 -598.10952646408077 -1859.4386412551721 0 0 0 0 -224.67838291067164 -659.60520344151246 0 -659.60520344151246 -2285.4838047637531 0 0 0 0 -410.96694539084274 141.29989457679949 0 141.29989457679949 -115.73635257617934 0 0 0 0 -124.00122661559726 345.19785321328027 0 345.19785321328027 -1375.7098898861441 0 0 0 0 -768.79808009312546 -754.82142783047675 0 -754.82142783047675 -2335.2997036791567 0 0 0 0 -1.4667802000302004 -2.8248397125592852 0 -2.8248397125592852 -0.16623663000108735 0 0 0 0 -1418.4055673838011 -345.68231232371181 0 -345.68231232371181 -820.76803944766289 0 0 0 0 -329.33312235157064 86.567681674781852 0 86.567681674781852 -1296.2157026753457 0 0 0 0 -1116.3106304653338 -12.054823812712129 0 -12.054823812712129 716.09413355257311 0 0 0 0 10.20895453797479 -7.2361320546335151 0 -7.2361320546335151 -11.018051384148322 0 0 0 0 -1143.6104896950128 -542.89307569096491 0 -542.89307569096491 -269.60056655447443 0 0 0 0 -1152.0774407362915 -673.90277226124999 0 -673.90277226124999 106.38408247194457 0 0 0 0 -1072.3392093487782 -697.65579828836599 0 -697.65579828836599 -465.072053260541 0 0 0 0 -978.91954679430637 -688.03450677851561 0 -688.03450677851561 -784.58906975701757 0 0 0 0 -805.09985474127461 -336.63273547028075 0 -336.63273547028075 -315.27108083108396 0 0 0 0 2.9657815405340955 -11.37768615045303 0 -11.37768615045303 -5.3765531663919717 0 0 0 0 -105.70967450721946 -252.10493118801696 0 -252.10493118801696 -138.57910499978988 0 0 0 0 -1549.3202965489472 -550.58986323319186 0 -550.58986323319186 -348.48657131822074 0 0 0 0 -1082.213445078698 -459.23490960425806 0 -459.23490960425806 -447.61150512379754 0 0 0 0 -1030.4981593325647 -804.8706950150081 0 -804.8706950150081 -1000.0738380284201 0 0 0 0 -995.70504964208521 -709.79138740942108 0 -709.79138740942108 -767.8609983238257 0 0 0 0 -840.05442091896839 -572.30451876145889 0 -572.30451876145889 -821.61915758747455 0 0 0 0 -942.89413722592872 -973.59270596807619 0 -973.59270596807619 -1201.0227040027248 0 0 0 0 -826.44855402695794 -675.51418835476557 0 -675.51418835476557 -695.48808104630734 0 0 0 0 -585.53225650681998 -36.490529611211969 0 -36.490529611211969 -415.19242170112557 0 0 0 0 -937.83754966736888 -843.60610683481718 0 -843.60610683481718 -1096.3519772175214 0 0 0 0 -1013.9079732231621 -151.53838027070515 0 -151.53838027070515 -1017.6035939370413 0 0 0 0 0.4540115475967923 -1.625516973922231 0 -1.625516973922231 -4.5950720091227879 0 0 0 0 -1197.2607708106952 -1252.3202732243353 0 -1252.3202732243353 -1650.4517962429654 0 0 0 0 -986.4980081577487 -1124.0181180236402 0 -1124.0181180236402 -1784.6886433235486 0 0 0 0 -1183.2302242867736 -1175.305919367288 0 -1175.305919367288 -1793.6847798364906 0 0 0 0 -1040.6770360285154 -1298.0347096712107 0 -1298.0347096712107 -1735.0361006550702 0 0 0 0 -1004.408097565014 -1271.7084618683102 0 -1271.7084618683102 -1706.7606251918996 0 0 0 0 -1008.3299285790708 -1227.9180559803699 0 -1227.9180559803699 -1771.3137796777864 0 0 0 0 -1010.3336346067408 -1072.385250651449 0 -1072.385250651449 -1493.9787560501863 0 0 0 0 -0.21412090418868956 -1.9298676967828783 0 -1.9298676967828783 -4.3539052022273594 0 0 0 0 -1283.9879867575073 -1038.0157847297469 0 -1038.0157847297469 -1184.8544882244878 0 0 0 0 -1930.7021769314597 -849.67567963760303 0 -849.67567963760303 -543.209424163937 0 0 0 0 14.512308781183521 -6.7409386583574928 0 -6.7409386583574928 2.4722125760589577 0 0 0 0 -1282.3565102763241 -1399.4951703767665 0 -1399.4951703767665 -1186.0746709378427 0 0 0 0 -1212.152838737602 -1305.9568375196795 0 -1305.9568375196795 -1316.8796775714836 0 0 0 0 -1529.3975706356287 -1562.6787876748322 0 -1562.6787876748322 -1507.4916707575649 0 0 0 0 0.15146421765729201 -1.7655972118468526 0 -1.7655972118468526 -3.9427951647490147 0 0 0 0 -1007.3969277525612 -1222.7923280450295 0 -1222.7923280450295 -1588.4154322621016 0 0 0 0 -913.36811907157244 -1288.9870725997425 0 -1288.9870725997425 -1887.4600512278485 0 0 0 0 -1106.6758464179002 -1513.0336872759272 0 -1513.0336872759272 -1721.7956514187681 0 0 0 0 -885.06552238747827 -1318.8959973726769 0 -1318.8959973726769 -1910.5547489390283 0 0 0 0 -928.57551916013472 -1495.4677929085829 0 -1495.4677929085829 -2290.5061473596015 0 0 0 0 -1100.3359438976331 -1505.2997895091685 0 -1505.2997895091685 -1813.2101062872298 0 0 0 0 -1118.8497625638847 -1623.5963855853388 0 -1623.5963855853388 -1915.5046089530506 0 0 0 0 -847.9142867467308 -1252.281998763603 0 -1252.281998763603 -2206.5269555803384 0 0 0 0 -711.15769163961158 -1122.9637681029287 0 -1122.9637681029287 -2431.8212370535384 0 0 0 0 -759.32861681106442 -1000.8758271068941 0 -1000.8758271068941 -1915.1985659689526 0 0 0 0 -829.23261514528713 -1043.707970106153 0 -1043.707970106153 -1896.895284609338 0 0 0 0 -922.8915389876347 -1207.2779239240699 0 -1207.2779239240699 -1960.6072111498843 0 0 0 0 -975.29412007241626 -1024.0097148761779 0 -1024.0097148761779 -1811.2576072702959 0 0 0 0 -935.46258628403302 -1178.4248965436491 0 -1178.4248965436491 -1714.144036610699 0 0 0 0 -995.18587801611284 -1038.9529144758544 0 -1038.9529144758544 -1682.9786285649402 0 0 0 0 -1023.431341577656 -1215.761573448764 0 -1215.761573448764 -1685.0185960299459 0 0 0 0 -1159.5085187608493 -1340.0727142254218 0 -1340.0727142254218 -1583.4928302548287 0 0 0 0 -1115.1093116727425 -1311.0133347969186 0 -1311.0133347969186 -1783.8159789577417 0 0 0 0 -947.27255269268062 -1271.900671902984 0 -1271.900671902984 -1796.4306884872149 0 0 0 0 -1020.7085043040079 -1259.5893701636976 0 -1259.5893701636976 -1788.347092665681 0 0 0 0 -794.32689817733399 -659.99072228886416 0 -659.99072228886416 138.39050047408819 0 0 0 0 -1132.292096546822 -1365.5196827592445 0 -1365.5196827592445 -311.36848862921761 0 0 0 0 -851.71252559356981 -1088.755990693131 0 -1088.755990693131 -38.856260536354966 0 0 0 0 -1008.2084291101783 -251.47449392796807 0 -251.47449392796807 -637.56682349095354 0 0 0 0 -495.55933392042061 -893.43878022076296 0 -893.43878022076296 -233.26978964043883 0 0 0 0 -2623.9229913244053 265.35753657528039 0 265.35753657528039 -779.36728404536007 0 0 0 0 233.82646929485782 -184.79041917761242 0 -184.79041917761242 20.450113085755504 0 0 0 0 -12.279404380095315 -5.2297158312667733 0 -5.2297158312667733 11.123352337740087 0 0 0 0 209.36170144003336 -165.5089076667773 0 -165.5089076667773 131.28322119946824 0 0 0 0 227.38758669268282 -100.75933563504077 0 -100.75933563504077 82.483649373662047 0 0 0 0 190.8212849154952 -74.627037126956566 0 -74.627037126956566 172.9053577569357 0 0 0 0 192.62053995072347 21.786628334235502 0 21.786628334235502 -17.681437939420903 0 0 0 0 0.40303062095767928 -0.20666230871960067 0 -0.20666230871960067 -0.022656733827702169 0 0 0 0 197.49012665919508 -177.6921691131538 0 -177.6921691131538 207.40947419081931 0 0 0 0 46.264125713747944 -102.28478540346325 0 -102.28478540346325 6.7780816337631222 0 0 0 0 23.494630162951552 -68.799352968766158 0 -68.799352968766158 29.271620530345466 0 0 0 0 136.67074240911461 -105.25405778313507 0 -105.25405778313507 176.21120957418316 0 0 0 0 585.65585920323792 -19.071282877195699 0 -19.071282877195699 -199.98911987285101 0 0 0 0 -231.81863928423991 -912.48717620458729 0 -912.48717620458729 -573.35009790818003 0 0 0 0 -1802.8183249755821 -901.17073663693373 0 -901.17073663693373 -528.60768285990798 0 0 0 0 -83.363262803148245 -1463.0130208772798 0 -1463.0130208772798 -1071.1719571562862 0 0 0 0 221.4618194399518 -107.92756374350574 0 -107.92756374350574 85.468270724173635 0 0 0 0 -2581.8087484537973 -1439.6451330944001 0 -1439.6451330944001 -836.67088499366218 0 0 0 0 130.71611758473983 -159.24608516680118 0 -159.24608516680118 43.584649176787828 0 0 0 0 63.608262114114055 -17.533477854567423 0 -17.533477854567423 1.097028986123 0 0 0 0 -1551.9667589813362 -1644.0036488779283 0 -1644.0036488779283 -1164.4793207495204 0 0 0 0 -1491.5834661010304 -2040.0263690698339 0 -2040.0263690698339 -1712.0549432735306 0 0 0 0 -1617.4779010747152 -1427.678826422889 0 -1427.678826422889 -945.35104993212826 0 0 0 0 -1129.0495436171295 -1698.0877525358028 0 -1698.0877525358028 -2383.9421622352202 0 0 0 0 -1403.6038364193519 -1734.1360609602566 0 -1734.1360609602566 -2350.1126795468917 0 0 0 0 -879.39542518882081 -1475.0792327667746 0 -1475.0792327667746 -2835.7007011316773 0 0 0 0 -1712.2288812715124 -1131.2375259215275 0 -1131.2375259215275 -2973.7022860692468 0 0 0 0 -4745.4526386505058 -2183.156438933649 0 -2183.156438933649 -3398.2707858139438 0 0 0 0 -1397.792414980584 -1737.8622859159723 0 -1737.8622859159723 -3468.0719895334119 0 0 0 0 -102.82000747523911 -109.83663331747276 0 -109.83663331747276 135.99474139694689 0 0 0 0 -2694.5094577861164 -2728.3450663627473 0 -2728.3450663627473 -2515.7889405404721 0 0 0 0 184.64387520546006 -91.606150533851178 0 -91.606150533851178 88.85481980120494 0 0 0 0 107.26196215488272 -158.70915689683068 0 -158.70915689683068 77.649577642810385 0 0 0 0 22.606111226243407 -12.54983454669842 0 -12.54983454669842 27.093011131899075 0 0 0 0 575.46368069312302 216.9070736963331 0 216.9070736963331 -1895.4938515048634 0 0 0 0 -45.24055124592941 7.2830676919331125 0 7.2830676919331125 21.618156150200647 0 0 0 0 2267.7908053926003 361.73558670372586 0 361.73558670372586 -1890.5292322312453 0 0 0 0 1048.4391623383563 -851.4996463189309 0 -851.4996463189309 -3048.6557299797914 0 0 0 0 906.07740732013826 -487.12777263176758 0 -487.12777263176758 -2131.4803171297754 0 0 0 0 345.5847006138647 112.55044162524791 0 112.55044162524791 -134.82492604163235 0 0 0 0 399.74780006170477 -947.46979666197876 0 -947.46979666197876 -1635.862345515332 0 0 0 0 -66.662743564404082 -562.01380638724186 0 -562.01380638724186 -1142.705975743047 0 0 0 0 -67.310658940485155 -797.52011532665711 0 -797.52011532665711 -230.84262086510716 0 0 0 0 286.19118458808043 -899.60905755982094 0 -899.60905755982094 -1544.726139297818 0 0 0 0 636.15614732502581 -1247.6278738349974 0 -1247.6278738349974 -2212.4347662993569 0 0 0 0 -2.6334447523352082 -5.3143734488578929 0 -5.3143734488578929 4.4299240379841649 0 0 0 0 -184.20602494850027 -1066.1531034071486 0 -1066.1531034071486 -2033.5180659576617 0 0 0 0 1094.6491572189188 -907.63342241685132 0 -907.63342241685132 -2624.6689045319799 0 0 0 0 913.74679576751078 -776.87311585416683 0 -776.87311585416683 -2495.409118059848 0 0 0 0 -792.52524554893171 -1530.246819717835 0 -1530.246819717835 -2153.7960925312727 0 0 0 0 135.0276555542805 -1557.789228201982 0 -1557.789228201982 -2978.3811649889226 0 0 0 0 -1806.1698379096706 -1831.1408377910193 0 -1831.1408377910193 -1821.5667145433654 0 0 0 0 -1066.7268261640129 -1110.8037486085523 0 -1110.8037486085523 -1359.8513130011961 0 0 0 0 -837.4212255981563 -871.39875927633125 0 -871.39875927633125 -3238.1726156150107 0 0 0 0 -636.10950069283717 -1258.2169515388068 0 -1258.2169515388068 -2960.2267481422864 0 0 0 0 -1552.1696423127505 -1428.8177544625194 0 -1428.8177544625194 -2595.6742254239689 0 0 0 0 -2034.8891436706017 -1220.5405694738674 0 -1220.5405694738674 -1219.6061232142602 0 0 0 0 -299.96345566269883 -314.69189057791732 0 -314.69189057791732 -2425.9726744952141 0 0 0 0 -140.31461411744971 -99.784033663233657 0 -99.784033663233657 135.33354720291791 0 0 0 0 -568.82265608639136 -52.102644196249457 0 -52.102644196249457 -525.40022099553244 0 0 0 0 -441.05131727917615 -688.67343553617957 0 -688.67343553617957 -1428.4912533968018 0 0 0 0 -519.41773205701611 -537.83545934121867 0 -537.83545934121867 -1215.4576536329478 0 0 0 0 -8.7819587667265466 -67.014955965379045 0 -67.014955965379045 29.953239642071921 0 0 0 0 -3.2872557553569379 -25.360144435108843 0 -25.360144435108843 3.5533800083518896 0 0 0 0 -838.23957571148276 -866.57554738199724 0 -866.57554738199724 -2567.9765928123852 0 0 0 0 -916.64710310161536 -445.70581661233155 0 -445.70581661233155 -1107.3582172783281 0 0 0 0 -1328.8347884804207 -916.12059863094328 0 -916.12059863094328 -1350.6094980683483 0 0 0 0 -884.05530791638193 -826.27698623698052 0 -826.27698623698052 -1377.2858378468009 0 0 0 0 -802.61192525465958 -1281.7197123250226 0 -1281.7197123250226 -1580.3656720899271 0 0 0 0 2090.0230180593644 -1085.6131589829201 0 -1085.6131589829201 -3782.1914988149429 0 0 0 0 0.56705275641836295 -11.462317313694385 0 -11.462317313694385 7.3864594517891931 0 0 0 0 2379.8379098243008 -3310.9791371284587 0 -3310.9791371284587 1104.3432997399941 0 0 0 0 -0.20204533879766018 -9.7241260937724192 0 -9.7241260937724192 6.1638365157468087 0 0 0 0 7436.4258522672171 -7364.7545259835897 0 -7364.7545259835897 9071.6655370683711 0 0 0 0 1944.6477523823851 -1239.774051725879 0 -1239.774051725879 -1939.0096228323255 0 0 0 0 -1028.5702909799002 -582.37684565157497 0 -582.37684565157497 -1135.517782330101 0 0 0 0 -1158.2191436679277 -476.13235348632497 0 -476.13235348632497 -1297.5396958623387 0 0 0 0 -1067.5169143103412 -726.62628884805963 0 -726.62628884805963 -1392.3029990860032 0 0 0 0 -2008.8952465424081 -395.14025971933188 0 -395.14025971933188 -1758.7920920686665 0 0 0 0 -1902.1823572066642 -1053.6288676616873 0 -1053.6288676616873 -1700.4480009397685 0 0 0 0 -1903.1263248773598 -545.39094718129672 0 -545.39094718129672 -2057.6512797317682 0 0 0 0 -1.1134589143759968 -1.5950943305047929 0 -1.5950943305047929 -2.0832872751209699 0 0 0 0 -2290.0448092895531 -488.11203285005786 0 -488.11203285005786 -1292.6574397169097 0 0 0 0 -1388.3322031665302 -1345.5966319753661 0 -1345.5966319753661 -743.04176089320026 0 0 0 0 -1177.5730290041247 -1060.0722362626639 0 -1060.0722362626639 -1256.5765918798716 0 0 0 0 -1157.7652425691922 -1014.2792863098298 0 -1014.2792863098298 -1554.0946197111225 0 0 0 0 -1132.014010023413 -856.24225862896037 0 -856.24225862896037 -1421.4119320189056 0 0 0 0 -916.28334427333903 -638.38091894789522 0 -638.38091894789522 -1527.8025916140396 0 0 0 0 -1093.2693300353785 -788.90915148010572 0 -788.90915148010572 -1613.5477995028159 0 0 0 0 -825.71919020806672 -853.91350233674893 0 -853.91350233674893 -1716.6769921230534 0 0 0 0 -834.73805704873666 -907.45302942649778 0 -907.45302942649778 -2001.9981185982069 0 0 0 0 -713.12546989036491 -627.08058995771626 0 -627.08058995771626 -1795.2342264689551 0 0 0 0 -594.14909552730387 -676.55079019547929 0 -676.55079019547929 -2162.4941255981785 0 0 0 0 -761.40848897557589 -771.46345843198014 0 -771.46345843198014 -1942.6351798811529 0 0 0 0 -776.03673828972387 -168.32033714515183 0 -168.32033714515183 -1142.0892469286828 0 0 0 0 -553.91914243300562 -363.30999930265034 0 -363.30999930265034 -1827.0719554526895 0 0 0 0 -809.59927139081992 -530.37093839702356 0 -530.37093839702356 -1499.6090323649078 0 0 0 0 -921.69917586516385 -703.68730455505647 0 -703.68730455505647 -1544.1105741299416 0 0 0 0 -875.71694995716098 -614.73765393391295 0 -614.73765393391295 -1379.6168527157088 0 0 0 0 -790.24038999545155 -474.72904522734189 0 -474.72904522734189 -1307.2874249920005 0 0 0 0 -830.86041570597445 -407.53419236236914 0 -407.53419236236914 -1130.5052620594349 0 0 0 0 -854.77097776746268 -590.31425753820668 0 -590.31425753820668 -1079.2883587921569 0 0 0 0 -751.38655299891252 -667.16197155483223 0 -667.16197155483223 -435.93641318206016 0 0 0 0 -2.1422446238690327 0.27947540688330719 0 0.27947540688330719 3.8985722318584548 0 0 0 0 -731.73464106477331 -719.78409773532258 0 -719.78409773532258 -428.04602561795832 0 0 0 0 -768.49708805320552 -824.68796726594155 0 -824.68796726594155 -724.69120146014666 0 0 0 0 -896.61090230513946 -593.09457377433955 0 -593.09457377433955 -662.75295189362078 0 0 0 0 -714.61214491464489 -728.10115096534992 0 -728.10115096534992 -646.59623919911337 0 0 0 0 -148.89184745956175 -103.48994762378362 0 -103.48994762378362 141.21167631599033 0 0 0 0 -744.09459825034719 -673.44981752615604 0 -673.44981752615604 -738.14733235587482 0 0 0 0 -885.60118702147156 -486.95062119474824 0 -486.95062119474824 -890.22801871259207 0 0 0 0 -310.86009840460611 -596.42659027131958 0 -596.42659027131958 -1384.8774137773853 0 0 0 0 -49.311133741933077 -15.898787204318211 0 -15.898787204318211 17.926786792494124 0 0 0 0 -175.87474762002802 -53.383838577633071 0 -53.383838577633071 70.624042036964283 0 0 0 0 -81.695083129147406 -121.93742443292429 0 -121.93742443292429 142.81482344935017 0 0 0 0 -766.67873772897292 -233.62377656174795 0 -233.62377656174795 -469.38422404768062 0 0 0 0 -23.610490500412652 -178.27804193685429 0 -178.27804193685429 138.97366473591697 0 0 0 0 -1328.100487261574 -1596.5041014038143 0 -1596.5041014038143 -1773.3449648831993 0 0 0 0 -1465.7230172521085 -1033.7779438039195 0 -1033.7779438039195 468.00651841014587 0 0 0 0 -4.0255035145323745 -10.971501777692879 0 -10.971501777692879 2.8697698354437318 0 0 0 0 -1695.1533035238099 -566.21199623856978 0 -566.21199623856978 -186.30893398499575 0 0 0 0 8.2676433401309168 -8.8018880160354911 0 -8.8018880160354911 8.3898259763502292 0 0 0 0 -33.246093400695827 -28.792133748482257 0 -28.792133748482257 4.44710588307181 0 0 0 0 -1411.9833538889652 -1491.9023809097525 0 -1491.9023809097525 -1989.3022076125035 0 0 0 0 20.436341147395467 -42.356953083087099 0 -42.356953083087099 15.679507082356029 0 0 0 0 -2177.9155001243635 -848.64380589897792 0 -848.64380589897792 -1599.9062030546629 0 0 0 0 0.37634819410243381 2.8607195287694704 0 2.8607195287694704 -1.6358965528683977 0 0 0 0 -1477.8857900553539 -1172.2481962982044 0 -1172.2481962982044 -1051.9636910547274 0 0 0 0 -1330.22749621002 -1225.1914602819411 0 -1225.1914602819411 -1055.6517353805659 0 0 0 0 2.806573793489747 -1.6536008346399456 0 -1.6536008346399456 -1.2725395226111398 0 0 0 0 -1517.6314060021832 -1297.1160919496197 0 -1297.1160919496197 -1056.5263719232348 0 0 0 0 -1660.4494615065923 -1119.9533591566687 0 -1119.9533591566687 -1091.0940643195063 0 0 0 0 -1541.1016915564542 -975.3818084008094 0 -975.3818084008094 -1685.1551844771993 0 0 0 0 -3.1965619303439325 -2.2714107326837052 0 -2.2714107326837052 -1.3376452323547046 0 0 0 0 -1626.0210867836722 -1228.8295056407583 0 -1228.8295056407583 -1249.8225337714375 0 0 0 0 -1723.2023215935151 -802.02545430832697 0 -802.02545430832697 -1263.6923821918181 0 0 0 0 -1370.6866492594709 -1424.8075312964274 0 -1424.8075312964274 -489.53904756874272 0 0 0 0 -1307.3176347382396 -1104.5692570055355 0 -1104.5692570055355 -1168.3009485866114 0 0 0 0 -1457.5605923887306 -991.09036601852836 0 -991.09036601852836 -1052.9215582997958 0 0 0 0 -1652.0743306443619 -1087.5408090579276 0 -1087.5408090579276 -525.20859465599688 0 0 0 0 -1745.4207920957415 -760.80060844941772 0 -760.80060844941772 -764.89269539789098 0 0 0 0 -912.14773734740447 -715.55073280245369 0 -715.55073280245369 -775.45327960414011 0 0 0 0 -1582.4769577614097 -855.64057367202827 0 -855.64057367202827 -1182.9404881106439 0 0 0 0 -1492.5530155637862 -472.54047979895756 0 -472.54047979895756 -1427.1510551329529 0 0 0 0 -2266.0839401642734 -654.48621424649514 0 -654.48621424649514 -571.21979290458376 0 0 0 0 -3352.2422362965881 -1172.2398501713928 0 -1172.2398501713928 -826.94347634229177 0 0 0 0 -1911.1857219463272 -337.45327123184302 0 -337.45327123184302 -1365.2925744929516 0 0 0 0 -9.1434323178867771 -0.16426896667110213 0 -0.16426896667110213 10.876326147024074 0 0 0 0 -1766.988084975761 -1071.5884076771108 0 -1071.5884076771108 -1757.7325676713854 0 0 0 0 -2153.2786601737316 -676.15627991911242 0 -676.15627991911242 -1167.4719246978848 0 0 0 0 -6.783650288096851 1.1051879599989718 0 1.1051879599989718 5.4368540609654339 0 0 0 0 -1110.2520953950007 -1541.7172733851326 0 -1541.7172733851326 -1196.1946924049989 0 0 0 0 -1554.1382681607502 -1331.517590112745 0 -1331.517590112745 -812.83975995555397 0 0 0 0 -1435.5774047062587 -1421.9337669786973 0 -1421.9337669786973 -1443.83276837011 0 0 0 0 -1866.8835206457261 -1596.6483233969982 0 -1596.6483233969982 -1013.3389254348476 0 0 0 0 -1227.0373485426244 -1777.7557275578883 0 -1777.7557275578883 -861.98258273595093 0 0 0 0 -1484.4062411187915 -1434.418964088567 0 -1434.418964088567 -1098.0138670215256 0 0 0 0 -1276.7924861872161 -1495.7689081996723 0 -1495.7689081996723 -1357.63219954942 0 0 0 0 -3.0596851387563788 -2.0246681017232504 0 -2.0246681017232504 0.35918162734813919 0 0 0 0 -595.22292824368924 546.44917828956022 0 546.44917828956022 1341.6895600826429 0 0 0 0 -665.29360208037542 102.26033892735722 0 102.26033892735722 382.56680317463906 0 0 0 0 -301.56095802722848 267.89379244876636 0 267.89379244876636 -127.26876806102337 0 0 0 0 -2509.976851031417 -1774.0255118712312 0 -1774.0255118712312 -1106.7711653506904 0 0 0 0 -2549.4640319828177 -2532.6525877155 0 -2532.6525877155 -3036.1816745085434 0 0 0 0 -1891.4755693954376 -1231.1237286928663 0 -1231.1237286928663 -645.57915420254722 0 0 0 0 170.38977118211915 -991.28054646327928 0 -991.28054646327928 -299.77264068809359 0 0 0 0 -1638.849557982292 -1478.1870978943789 0 -1478.1870978943789 -403.96778538232684 0 0 0 0 -1292.3649563861691 -151.23391801992693 0 -151.23391801992693 -127.88804923599037 0 0 0 0 -845.22899258014513 -406.24776672121789 0 -406.24776672121789 834.97976203929284 0 0 0 0 -693.29052920936374 -655.33682151198036 0 -655.33682151198036 294.00622596850371 0 0 0 0 -689.06885859607428 -250.4639156510857 0 -250.4639156510857 -334.53775784320305 0 0 0 0 -600.00474862833653 -296.12582348585101 0 -296.12582348585101 -312.6074841438749 0 0 0 0 -569.66357934513508 -668.86070861735379 0 -668.86070861735379 -320.54190882162584 0 0 0 0 330.03334716273821 -515.01332655804117 0 -515.01332655804117 -749.32465604600293 0 0 0 0 847.17944590192928 -847.07334476368578 0 -847.07334476368578 -775.64951545521944 0 0 0 0 -4.0895584894712087 -6.7720427734029727 0 -6.7720427734029727 1.110712667989219 0 0 0 0 -102.31266132509336 -144.52512164911366 0 -144.52512164911366 -871.42958170156078 0 0 0 0 -6.8377475126689617 -21.710794231708007 0 -21.710794231708007 3.5245180745706932 0 0 0 0 34.75536618316255 -38.349180189295055 0 -38.349180189295055 -176.71617229041613 0 0 0 0 -1.0099238333996254 0.49997086269567603 0 0.49997086269567603 9.546565001848581 0 0 0 0 -429.35150454321411 -188.53131881149352 0 -188.53131881149352 -159.52502053611317 0 0 0 0 -162.26241341515561 -52.186128928295489 0 -52.186128928295489 -314.41170688230613 0 0 0 0 -189.48589355277363 -284.97278473346478 0 -284.97278473346478 -203.35501623807386 0 0 0 0 -208.2766770797607 -16.770066079739081 0 -16.770066079739081 -227.81306721790725 0 0 0 0 -239.4972194966831 -69.552697853976312 0 -69.552697853976312 -270.0583752357482 0 0 0 0 -244.9939655296912 -43.609736444711643 0 -43.609736444711643 -408.59876551797356 0 0 0 0 -278.20064367423765 -216.76788932175663 0 -216.76788932175663 -186.53299536703003 0 0 0 0 -417.87811662111199 -352.5432946530791 0 -352.5432946530791 -294.40761260314366 0 0 0 0 2.2487353233154863 7.0604198830751557 0 7.0604198830751557 -5.0385087807972013 0 0 0 0 3.888152053332476 -3.5090334110961692 0 -3.5090334110961692 -3.4247866346681626 0 0 0 0 -2.593293934527594 1.8518132078430938 0 1.8518132078430938 4.1655402711800988 0 0 0 0 -78.098447132797446 -169.73222670211726 0 -169.73222670211726 72.038389641187223 0 0 0 0 265.63320725057565 95.343674593598735 0 95.343674593598735 -100.58743181880982 0 0 0 0 -622.86949167991406 -446.57527984128092 0 -446.57527984128092 -250.25368991523646 0 0 0 0 8.014579891690147 -5.8950514387042006 0 -5.8950514387042006 -5.8690346142653169 0 0 0 0 0.6123486141525234 -32.910520324980894 0 -32.910520324980894 -9.2117573728923041 0 0 0 0 -43.749794868024765 -168.97811671996715 0 -168.97811671996715 -404.30719004450293 0 0 0 0 5.5774218853313187 -30.856208194066852 0 -30.856208194066852 12.277782718318599 0 0 0 0 -427.8433500516694 1.4842280210893932 0 1.4842280210893932 13.095410218527832 0 0 0 0 -308.28494820056949 -164.35685057322826 0 -164.35685057322826 -133.41598382018537 0 0 0 0 -207.16036520243506 -57.8081177780183 0 -57.8081177780183 -163.30724945724648 0 0 0 0 -3.799308497729271 1.7123208590120953 0 1.7123208590120953 3.8052467459924761 0 0 0 0 0.046284195620141688 -343.45348544968203 0 -343.45348544968203 -203.44955827295689 0 0 0 0 -287.77203365179594 -230.71848975506805 0 -230.71848975506805 -132.5342596001222 0 0 0 0 -333.99918011645786 -171.43678218238801 0 -171.43678218238801 -202.66339043555581 0 0 0 0 -293.57733384269523 -198.45661114809445 0 -198.45661114809445 -147.28087025932291 0 0 0 0 -176.07682434973685 -268.80968289690708 0 -268.80968289690708 -204.9826205397203 0 0 0 0 -2.803397931525069 1.1148551363644685 0 1.1148551363644685 3.2853720185838 0 0 0 0 -2.3074248531313515 0.75164144548415379 0 0.75164144548415379 3.3100421645131721 0 0 0 0 -507.74109874817077 -285.07139890503413 0 -285.07139890503413 -198.14171436386096 0 0 0 0 -522.71237859758548 -336.0023600587283 0 -336.0023600587283 -196.00232638814396 0 0 0 0 -0.06619975870125927 -383.67079121598908 0 -383.67079121598908 -51.025433278265155 0 0 0 0 -3.7615813524549253 1.689268670082015 0 1.689268670082015 3.9733595942345215 0 0 0 0 -178.23566976949223 -248.07511341905865 0 -248.07511341905865 -152.98666244476954 0 0 0 0 -97.026337847491959 -289.0588043607604 0 -289.0588043607604 -181.51485945434979 0 0 0 0 -41.755205861889408 -74.12380736040086 0 -74.12380736040086 -173.28823409153847 0 0 0 0 6.3871490371842299 -8.1753383415822327 0 -8.1753383415822327 -3.9863848690543762 0 0 0 0 -317.16826025165574 -311.30177468230602 0 -311.30177468230602 -139.65507621932466 0 0 0 0 -258.03148019733635 -167.50819982747407 0 -167.50819982747407 -118.49808167061201 0 0 0 0 -0.1144932606985094 -216.54302781919432 0 -216.54302781919432 -211.07151282327322 0 0 0 0 -54.231875029974617 -91.37917961101266 0 -91.37917961101266 -126.35434167502535 0 0 0 0 -66.594715150771663 -199.76897389885016 0 -199.76897389885016 -179.98984472451048 0 0 0 0 7.6075180886474598 -57.512532572419531 0 -57.512532572419531 -3.6881925613569564 0 0 0 0 -285.81137258844683 -224.50231812405309 0 -224.50231812405309 99.308025989823363 0 0 0 0 22.257676534322627 -4.6123875530158784 0 -4.6123875530158784 0.95420565742886509 0 0 0 0 -418.34855825117847 -768.00608192676509 0 -768.00608192676509 220.41388876318524 0 0 0 0 -151.32354080100049 -32.423791742304502 0 -32.423791742304502 -134.27394770573301 0 0 0 0 -3.7757563447688085 1.6586185339018584 0 1.6586185339018584 4.1124099579171247 0 0 0 0 -54.425691205251496 -93.552642776190623 0 -93.552642776190623 -191.97316437866903 0 0 0 0 -159.6913012505629 -144.75069443935908 0 -144.75069443935908 -70.897934451025321 0 0 0 0 -88.82432909522322 -121.345911948305 0 -121.345911948305 -188.01877135841596 0 0 0 0 -69.388821424683556 -88.365659319822953 0 -88.365659319822953 -142.43956868603345 0 0 0 0 22.643613915819316 -56.052046497882628 0 -56.052046497882628 -16.092591435320152 0 0 0 0 -95.440915249171667 -125.06769491318482 0 -125.06769491318482 -165.72529749707064 0 0 0 0 -857.61112247314304 13.95857565148799 0 13.95857565148799 71.568203617118343 0 0 0 0 -1072.8469993597828 208.84130481524244 0 208.84130481524244 34.20012720343675 0 0 0 0 -157.03117584099527 -68.415580088740171 0 -68.415580088740171 -213.40201921697735 0 0 0 0 -691.49936402570529 -115.41821950278063 0 -115.41821950278063 -481.85154468771725 0 0 0 0 234.76485673489515 -1364.8049522708025 0 -1364.8049522708025 -2064.1322073476804 0 0 0 0 -22.660225305016695 -12.698590030658238 0 -12.698590030658238 9.1447728741008376 0 0 0 0 -3246.0502624312212 -1746.2674972267478 0 -1746.2674972267478 -2064.7468125967243 0 0 0 0 6.1190179180108117 -10.232534955736895 0 -10.232534955736895 -2.9804638541153992 0 0 0 0 -77.691144490614533 -135.61926815365314 0 -135.61926815365314 -207.25802696088067 0 0 0 0 -72.715327299869386 -154.18646916244143 0 -154.18646916244143 -138.59440288124779 0 0 0 0 42.333690264446204 -28.510653715750223 0 -28.510653715750223 -2.8958598177647659 0 0 0 0 -4.3556009379454395 -7.8299565301008442 0 -7.8299565301008442 13.584124975332813 0 0 0 0 -1341.8466177070077 -1583.3347573409046 0 -1583.3347573409046 -2067.4879410201806 0 0 0 0 -1346.7561351580835 -1530.0131390226697 0 -1530.0131390226697 -2126.1992817819046 0 0 0 0 -2127.3310206954775 -1803.8804535993113 0 -1803.8804535993113 -2089.7249378058432 0 0 0 0 3.4650069124097627 -2.6802788756596669 0 -2.6802788756596669 -3.4571419985223599 0 0 0 0 52.874424812325742 -93.646396082465799 0 -93.646396082465799 -173.70005893729467 0 0 0 0 0.092346217090380378 -164.04933468938725 0 -164.04933468938725 -161.06221823970736 0 0 0 0 74.072445985533705 -208.78896469388155 0 -208.78896469388155 -246.78262460746919 0 0 0 0 -199.13263169882703 -206.63493415660923 0 -206.63493415660923 -203.99990190500466 0 0 0 0 -3.0885294802075691 -5.7568975806331082 0 -5.7568975806331082 9.9228586402342458 0 0 0 0 -209.6732991865465 -265.21247389471637 0 -265.21247389471637 -240.8941471234757 0 0 0 0 23.67488537386879 -8.8284766157192394 0 -8.8284766157192394 -3.0230411537155177 0 0 0 0 -139.78743129604845 -154.19923025586831 0 -154.19923025586831 -193.34853344632893 0 0 0 0 -110.81481725760386 -210.67964704945371 0 -210.67964704945371 -246.87866762850172 0 0 0 0 -52.979604034731892 -167.18993418518039 0 -167.18993418518039 -241.36577572632814 0 0 0 0 -43.218844722759968 -207.75910442062468 0 -207.75910442062468 -237.28695891839016 0 0 0 0 10.119785134483777 -3.2166862353932828 0 -3.2166862353932828 -5.2719205422955966 0 0 0 0 -17.454244052481954 -172.38280814538484 0 -172.38280814538484 -245.88354364535917 0 0 0 0 -0.22554385935654864 -188.9547972572509 0 -188.9547972572509 -254.61977446202582 0 0 0 0 -1012.4965448606526 -1492.945810073008 0 -1492.945810073008 -1439.0151779916887 0 0 0 0 -1026.7487766970007 -1403.3065924213136 0 -1403.3065924213136 -1868.4333485204806 0 0 0 0 -1060.7719065830461 -1490.4872219686713 0 -1490.4872219686713 -1981.6108813575393 0 0 0 0 -1138.8545465185598 -1662.1984778699007 0 -1662.1984778699007 -1691.1588637474997 0 0 0 0 -384.5393449049152 -1827.1735378878184 0 -1827.1735378878184 -2545.3230352245882 0 0 0 0 -2.9534810651527299 -2334.8787857392203 0 -2334.8787857392203 -1886.8177233682254 0 0 0 0 -1052.2675624431868 -1519.6123779533864 0 -1519.6123779533864 -2021.2853264017867 0 0 0 0 -1130.8315288490412 -1616.4104779723716 0 -1616.4104779723716 -1983.3027491690627 0 0 0 0 -1116.9221807921422 -1653.513439307957 0 -1653.513439307957 -2129.5204715484961 0 0 0 0 -13.806310112058043 -3.501578308615251 0 -3.501578308615251 12.259677183174944 0 0 0 0 -1075.2134732871564 -1736.6188366162746 0 -1736.6188366162746 -2104.9600194010309 0 0 0 0 -1825.2718005340284 -1265.2431474311998 0 -1265.2431474311998 -2054.465024416706 0 0 0 0 -1787.2203253607295 -1261.5227755206115 0 -1261.5227755206115 -2306.9838868146471 0 0 0 0 -1874.8731019304978 -1311.8063344506181 0 -1311.8063344506181 -1901.2488143689552 0 0 0 0 -1881.193111618777 -1361.3778888947782 0 -1361.3778888947782 -2099.1842503663465 0 0 0 0 -1715.7666827600333 -1190.7732926169338 0 -1190.7732926169338 -1927.1961977841565 0 0 0 0 -1854.9989584439027 -1303.5827843007391 0 -1303.5827843007391 -1998.6567597320184 0 0 0 0 -1740.8559028613381 -1111.041823849946 0 -1111.041823849946 -1987.4437684985533 0 0 0 0 -1708.2352384155456 -1181.8691695250391 0 -1181.8691695250391 -1961.2144454624322 0 0 0 0 -1521.8659035240125 -1049.8754596971703 0 -1049.8754596971703 -1889.911763400065 0 0 0 0 -1437.6273818737827 -1185.7876804262087 0 -1185.7876804262087 -1861.6713875788928 0 0 0 0 -1333.3783058663175 -1055.3998731147612 0 -1055.3998731147612 -1790.4606736180722 0 0 0 0 -1434.6073247893764 -1134.5823771658997 0 -1134.5823771658997 -1828.4387855497007 0 0 0 0 -1216.5420640912635 -1279.8551909548132 0 -1279.8551909548132 -1849.4592984802157 0 0 0 0 -1441.5754601701883 -1165.2921653943229 0 -1165.2921653943229 -1925.6639079768429 0 0 0 0 -1709.0738948943035 -1236.3335208366043 0 -1236.3335208366043 -1857.7643271012539 0 0 0 0 -1699.6137574218446 -1301.8853671483002 0 -1301.8853671483002 -1850.6336249817396 0 0 0 0 -1512.2922002228588 -1139.0717561764895 0 -1139.0717561764895 -1804.5144392528382 0 0 0 0 -1330.6355152578908 -1288.4827147016076 0 -1288.4827147016076 -1823.0593207138375 0 0 0 0 -1187.691836831058 -1177.0705539807832 0 -1177.0705539807832 -1758.7073298834257 0 0 0 0 -1329.6131464348582 -1389.5127440783854 0 -1389.5127440783854 -1618.3332581710029 0 0 0 0 -1201.0280715713161 -1210.4675353478633 0 -1210.4675353478633 -1411.2998564586869 0 0 0 0 -1703.6824752909888 -1463.7337921719654 0 -1463.7337921719654 -1426.4160968514434 0 0 0 0 -1326.2738066341017 -1325.1217667560941 0 -1325.1217667560941 -1884.3639944346396 0 0 0 0 -1704.5783722131018 -1504.925188834326 0 -1504.925188834326 -2231.2526206868388 0 0 0 0 -2130.355711010081 -1388.729674023607 0 -1388.729674023607 -1791.0150765622675 0 0 0 0 -2322.4507456299034 -1720.2207004219108 0 -1720.2207004219108 -2388.4110996697091 0 0 0 0 -2315.5619073231355 -1473.1495996039848 0 -1473.1495996039848 -2362.1019902475582 0 0 0 0 -2036.7342934509506 -1498.2912589831467 0 -1498.2912589831467 -2247.5673871271574 0 0 0 0 -2253.9048005180375 -1572.2184248103222 0 -1572.2184248103222 -2172.0458372424255 0 0 0 0 -2213.8904343186878 -1618.4351525938764 0 -1618.4351525938764 -2155.0252831029029 0 0 0 0 -2051.7430981827929 -1304.2139246231843 0 -1304.2139246231843 -2034.4260324754432 0 0 0 0 -1990.0005092824285 -1388.2024508825561 0 -1388.2024508825561 -1940.2605032816846 0 0 0 0 -1993.7932231815357 -1253.9016772870982 0 -1253.9016772870982 -1844.3267618394657 0 0 0 0 -1748.8137511055902 -1206.544124727794 0 -1206.544124727794 -1985.8866201545679 0 0 0 0 -1070.5334512996346 -1472.8466450585797 0 -1472.8466450585797 295.25464862030276 0 0 0 0 -1496.5385916172445 -1328.6461412109984 0 -1328.6461412109984 439.02626389229772 0 0 0 0 -1152.1443881391224 -1112.8192054907959 0 -1112.8192054907959 25.949142506966382 0 0 0 0 -493.82851575776567 -1382.9719976482229 0 -1382.9719976482229 56.320944647011402 0 0 0 0 -0.13290933464442389 -0.40925254693426183 0 -0.40925254693426183 1.0956143963514648 0 0 0 0 -1010.3675589510908 -1059.3230367462456 0 -1059.3230367462456 -339.88866714998949 0 0 0 0 -1173.8723000055286 -745.32263616314731 0 -745.32263616314731 -638.21100892181857 0 0 0 0 -1401.0060473372346 -1050.8348438133926 0 -1050.8348438133926 -45.358610447456158 0 0 0 0 -1444.3929082388809 -1237.3203192240344 0 -1237.3203192240344 422.74342055760644 0 0 0 0 -1412.6051484399502 -1203.3510947179466 0 -1203.3510947179466 450.90478916964639 0 0 0 0 -1507.098577237967 -1341.303640869779 0 -1341.303640869779 587.67252176550573 0 0 0 0 -1920.470767386621 -1333.81422553425 0 -1333.81422553425 670.66491898681124 0 0 0 0 -1722.3909877162118 -1017.2737400477927 0 -1017.2737400477927 47.83932188248582 0 0 0 0 -1604.4943720411993 -872.76251421774214 0 -872.76251421774214 222.74058647779566 0 0 0 0 -1555.8873980150827 -1085.7316087576 0 -1085.7316087576 1085.762145492572 0 0 0 0 -1178.8676719105829 -1707.5541895131319 0 -1707.5541895131319 889.38312534736906 0 0 0 0 -1234.4119619124456 -1104.6918391591025 0 -1104.6918391591025 799.01048777843607 0 0 0 0 -403.27823572329589 -1663.7056033514054 0 -1663.7056033514054 675.83031751657836 0 0 0 0 815.34984773022643 -1982.8669568588448 0 -1982.8669568588448 707.38590733896854 0 0 0 0 -989.26871982618854 -97.892720362455293 0 -97.892720362455293 2017.3639684150485 0 0 0 0 -916.739108714125 -1826.8001129580152 0 -1826.8001129580152 2409.3588537744363 0 0 0 0 5.2002924281953282 -13.094453303291047 0 -13.094453303291047 17.85053840280122 0 0 0 0 -54.95510685167028 -1137.5190805422899 0 -1137.5190805422899 1557.9573316773894 0 0 0 0 80.438246744397929 -2150.9444390847384 0 -2150.9444390847384 1256.6610421671958 0 0 0 0 78.21200294758853 -745.06286399616965 0 -745.06286399616965 173.51122957631742 0 0 0 0 1996.0019757606792 -1764.4280813689766 0 -1764.4280813689766 -284.42650436784606 0 0 0 0 127.14627208015418 -2240.6050539083844 0 -2240.6050539083844 319.92101345067204 0 0 0 0 1093.8252238959512 -1662.6092616720925 0 -1662.6092616720925 146.61477271698823 0 0 0 0 -37.198358051281517 -56.398583910434489 0 -56.398583910434489 33.566680717584717 0 0 0 0 -536.68263790875938 -479.16467243922671 0 -479.16467243922671 11.163243212005909 0 0 0 0 14.807225418692703 -11.60009518461225 0 -11.60009518461225 7.3111462185049447 0 0 0 0 -224.80376527104136 62.586709718772909 0 62.586709718772909 -620.75498352013165 0 0 0 0 -50.33894456757389 -631.17033934300707 0 -631.17033934300707 300.39200234512828 0 0 0 0 -3.3639453901629262 0.6496040694121632 0 0.6496040694121632 2.8236304861093657 0 0 0 0 941.82619519746095 -876.80801175942179 0 -876.80801175942179 277.9944258054602 0 0 0 0 -2867.7813806932754 -665.07434893198661 0 -665.07434893198661 -851.74055381333164 0 0 0 0 -2849.9363844761683 -744.00855261382458 0 -744.00855261382458 -739.24540560551395 0 0 0 0 -2505.6600269091578 -337.34258252055952 0 -337.34258252055952 -237.0605039226939 0 0 0 0 -2358.8235911920856 -324.35668326952873 0 -324.35668326952873 -975.27862025193463 0 0 0 0 31.548825574803011 -17.081497970374407 0 -17.081497970374407 -1.6532307842887803 0 0 0 0 -1584.1527824957539 -322.49230507842185 0 -322.49230507842185 -610.04545111123298 0 0 0 0 -1778.4146038242761 -38.54628099700858 0 -38.54628099700858 -690.34059675787648 0 0 0 0 -2204.1878780468523 -627.94557114254712 0 -627.94557114254712 -599.55799777802167 0 0 0 0 -2506.6598699179522 -439.91393608357612 0 -439.91393608357612 -590.47370505472281 0 0 0 0 -2499.1080690847848 -398.11180510016857 0 -398.11180510016857 -645.28369574020326 0 0 0 0 -2765.7961376268395 -821.75843407888715 0 -821.75843407888715 -735.11404858149763 0 0 0 0 -2428.6002815092579 -644.87839162112869 0 -644.87839162112869 -791.5283025511817 0 0 0 0 -2099.359919686598 -150.17320943189407 0 -150.17320943189407 -493.4542920840704 0 0 0 0 -2178.5155744684098 -526.13736063458964 0 -526.13736063458964 -832.03201674415322 0 0 0 0 -1368.2007834732649 248.95810741679088 0 248.95810741679088 -304.58887783760292 0 0 0 0 -1757.8978422856962 -457.80447179185467 0 -457.80447179185467 -520.95320078521763 0 0 0 0 -1157.4066199419613 -221.0557721619698 0 -221.0557721619698 -658.64107464740118 0 0 0 0 -6.3480219876827562 2.8708004862560941 0 2.8708004862560941 3.5409762269933225 0 0 0 0 -1918.2094988383469 -135.69136872188392 0 -135.69136872188392 -876.01298700419284 0 0 0 0 -2223.689484734532 -230.12106809846409 0 -230.12106809846409 -756.77318675112474 0 0 0 0 -1925.5561732416209 -332.39254646703193 0 -332.39254646703193 -974.73657900132821 0 0 0 0 -410.65656965480503 -821.84169282818038 0 -821.84169282818038 -328.95410907425685 0 0 0 0 -716.61211770127647 -363.45474068337899 0 -363.45474068337899 -753.30110884053283 0 0 0 0 -1001.5797611850812 -472.91234047160833 0 -472.91234047160833 -305.2542300538928 0 0 0 0 -33.813555318493819 -56.029869335724818 0 -56.029869335724818 32.391892426147223 0 0 0 0 -1147.4846207533462 -106.11051821038564 0 -106.11051821038564 -427.46281626644122 0 0 0 0 -697.40247738113248 -218.52144071993825 0 -218.52144071993825 -762.1661404837505 0 0 0 0 -1156.8117029802688 -213.98938492619391 0 -213.98938492619391 -575.72363055294409 0 0 0 0 -375.9636628889275 -204.5698836508509 0 -204.5698836508509 -997.53923700164523 0 0 0 0 -33.462488667251911 -53.660504626190914 0 -53.660504626190914 31.096493439665721 0 0 0 0 -1492.663805658276 8.0224977028665307 0 8.0224977028665307 -825.82338853486135 0 0 0 0 -915.98358874309224 -317.09268911727122 0 -317.09268911727122 -749.7994707959333 0 0 0 0 -1148.8420717277277 -478.11906634210027 0 -478.11906634210027 -784.3498575026606 0 0 0 0 -1764.1471408196685 -10.335527979157632 0 -10.335527979157632 -1053.7629078001228 0 0 0 0 -1502.0666004362356 -75.415413905349851 0 -75.415413905349851 -1084.9246920847436 0 0 0 0 -1011.3117709741637 -277.051833615129 0 -277.051833615129 -1080.9324444162085 0 0 0 0 14.710768490787814 -12.525720324313916 0 -12.525720324313916 7.3675614425173137 0 0 0 0 -1204.7000329565271 -175.31501190201016 0 -175.31501190201016 -1068.2920246184271 0 0 0 0 -499.48172697139671 -427.58227110268126 0 -427.58227110268126 -1376.8608591164448 0 0 0 0 -754.76949340374995 -171.57116295050946 0 -171.57116295050946 -1234.221609041786 0 0 0 0 13.742538125765307 -11.342705986847548 0 -11.342705986847548 5.918444466154952 0 0 0 0 -30.692600344951284 -47.503519985911346 0 -47.503519985911346 27.607768632079114 0 0 0 0 -1766.7769309499427 -86.805823987116128 0 -86.805823987116128 -1756.0990785470058 0 0 0 0 -1768.3508750091296 26.07596927204213 0 26.07596927204213 -968.54703346991846 0 0 0 0 -29.012435957680069 -14.639168108785626 0 -14.639168108785626 11.456480032902803 0 0 0 0 -1540.7818642315979 -207.49861737752144 0 -207.49861737752144 -1038.2744516466955 0 0 0 0 -1903.1181653359781 -265.53935159337379 0 -265.53935159337379 -969.03130562027218 0 0 0 0 -2015.3589849608543 -216.83739726830026 0 -216.83739726830026 -885.4546066940311 0 0 0 0 -1295.9930189241422 -53.995356308798364 0 -53.995356308798364 -963.06041063343946 0 0 0 0 -1465.0279721630504 -253.75014958414613 0 -253.75014958414613 -1137.5343728619678 0 0 0 0 -1289.4532086694744 -409.07147191345757 0 -409.07147191345757 -1249.5892931600356 0 0 0 0 -1325.2870456978453 -370.42045175360363 0 -370.42045175360363 -1118.2855601276387 0 0 0 0 -2013.4997183985297 -340.83867173464751 0 -340.83867173464751 -996.87642535789928 0 0 0 0 -1551.726951183271 -391.88985753418092 0 -391.88985753418092 -1136.4702716735337 0 0 0 0 -2056.9010561198738 -556.47124460216219 0 -556.47124460216219 -1189.8839886426977 0 0 0 0 -1392.7052521128721 -348.13363649640075 0 -348.13363649640075 -1608.5889159363469 0 0 0 0 -1389.5746738122466 -308.05324130878262 0 -308.05324130878262 -1170.3372090216944 0 0 0 0 -934.94622807903943 -363.07189122045747 0 -363.07189122045747 -1341.5582837907132 0 0 0 0 -945.78807898698142 408.04873130173655 0 408.04873130173655 -860.29688739525591 0 0 0 0 -52.155847946883114 -57.430254237902773 0 -57.430254237902773 -236.56974932338744 0 0 0 0 20.918890565990651 -2.7872222685822976 0 -2.7872222685822976 -43.234944497197809 0 0 0 0 -1560.9760188331638 427.61181114237115 0 427.61181114237115 -831.20204150580685 0 0 0 0 54.761985833032959 -47.72994827671846 0 -47.72994827671846 -37.774084682159824 0 0 0 0 -1463.7700565052946 -1378.1307422761038 0 -1378.1307422761038 -1596.5836801728074 0 0 0 0 -1329.749870260639 -996.56542575257754 0 -996.56542575257754 -617.74583531608641 0 0 0 0 67.126920366037481 -52.343456852773208 0 -52.343456852773208 -71.882158458794521 0 0 0 0 44.065354126299894 -1.6761239835487842 0 -1.6761239835487842 -80.09773821864448 0 0 0 0 -25.868922064898701 -44.473768167144669 0 -44.473768167144669 25.643267769267595 0 0 0 0 -1586.0055264157322 247.37345937392547 0 247.37345937392547 -857.85808891303896 0 0 0 0 -225.80755213108205 -381.18266585843412 0 -381.18266585843412 -687.80722504704318 0 0 0 0 -931.72614200576936 -401.60769684333354 0 -401.60769684333354 -1342.2089437333107 0 0 0 0 -17.286740889966637 -9.5369010461384249 0 -9.5369010461384249 4.6981719487969258 0 0 0 0 -454.60367901381323 -122.28700884914542 0 -122.28700884914542 -522.84117135033739 0 0 0 0 -973.35229175889253 196.93684542781557 0 196.93684542781557 -1894.0290190312116 0 0 0 0 -990.17858181298652 -125.75757354001689 0 -125.75757354001689 -519.95400942618653 0 0 0 0 -578.44477445627854 117.58025101998646 0 117.58025101998646 -1060.4585090619512 0 0 0 0 1.1720307541297359 -4.8450992879109691 0 -4.8450992879109691 -41.662311571585875 0 0 0 0 -862.78374277478724 87.562433090741251 0 87.562433090741251 -1063.5221879447781 0 0 0 0 -591.76596921635792 99.42745390314667 0 99.42745390314667 -1206.3450836878292 0 0 0 0 -22.34553751956301 -34.097215169947916 0 -34.097215169947916 11.23475107861843 0 0 0 0 -590.02942223857099 -440.37031396934435 0 -440.37031396934435 -663.43722779696691 0 0 0 0 -2521.5590792697458 -215.57661325234403 0 -215.57661325234403 -1372.6170821053356 0 0 0 0 -2486.5611156234991 -481.54936999220081 0 -481.54936999220081 -1501.1233316629059 0 0 0 0 -2427.4764712635133 -475.94635456654396 0 -475.94635456654396 -1764.282729525672 0 0 0 0 -2137.9834444912258 -508.80253059029292 0 -508.80253059029292 -1945.4625723800309 0 0 0 0 -2843.5786504078023 -868.00093201766504 0 -868.00093201766504 -1906.9389478865369 0 0 0 0 -1674.2064094809302 153.94993142149906 0 153.94993142149906 -965.0802731568765 0 0 0 0 -1795.9552951708611 208.08743712263822 0 208.08743712263822 -713.50341912773365 0 0 0 0 -1744.9871345696265 313.71574339523067 0 313.71574339523067 -660.32818704202327 0 0 0 0 -14.096281806387637 -19.764834706444162 0 -19.764834706444162 13.985572518052315 0 0 0 0 -1751.6229371304482 162.02377712614498 0 162.02377712614498 -666.07694348845689 0 0 0 0 -6.1680714940172763 3.5510886181918195 0 3.5510886181918195 1.4246620989029566 0 0 0 0 -1998.4533778253435 -524.69347285166168 0 -524.69347285166168 -958.44735054380726 0 0 0 0 -1702.1928844766808 82.972164503040403 0 82.972164503040403 -2104.3161269894772 0 0 0 0 4.6794776433254412 2.2718234390281822 0 2.2718234390281822 -2.0770428502702742 0 0 0 0 -1724.7708751518644 -103.49398642489837 0 -103.49398642489837 -574.02841027302929 0 0 0 0 -1713.9989047515901 64.707484705781098 0 64.707484705781098 -569.88094482915039 0 0 0 0 -1411.9945032798778 -727.6442948535223 0 -727.6442948535223 -247.48457270057588 0 0 0 0 -1497.4546939628108 -405.74020707595264 0 -405.74020707595264 -1094.3170454045539 0 0 0 0 -1376.006123570432 -1138.6584568569729 0 -1138.6584568569729 -127.90039737234474 0 0 0 0 -1436.678765980349 -790.77734533035618 0 -790.77734533035618 -374.87743930326906 0 0 0 0 -1674.5584587212215 -704.11017182644537 0 -704.11017182644537 -518.21010906983429 0 0 0 0 -1338.5614248579004 -451.07917183352765 0 -451.07917183352765 -1065.3496909210407 0 0 0 0 -1830.4176594094874 -1141.3732029768726 0 -1141.3732029768726 -117.07137563417655 0 0 0 0 -1575.9141950877743 -706.66818998394592 0 -706.66818998394592 -110.92261266275455 0 0 0 0 -1444.1474528419651 -905.95167105118162 0 -905.95167105118162 -8.3773972569433681 0 0 0 0 -1374.399241410121 -1393.6810370513958 0 -1393.6810370513958 -1037.3525358844199 0 0 0 0 -2486.8261641759036 -1888.2548249049314 0 -1888.2548249049314 -1811.4041798350081 0 0 0 0 -2.8724492280922753 -4.522641502330039 0 -4.522641502330039 -0.23226019788710062 0 0 0 0 -2366.5709585814966 -1202.0559946560643 0 -1202.0559946560643 -3241.7264342995859 0 0 0 0 -1750.5662090944975 -159.4186406057388 0 -159.4186406057388 656.02896274192972 0 0 0 0 -2387.9439309304207 -1580.7583165391934 0 -1580.7583165391934 -2190.4737557384869 0 0 0 0 -2857.2858503604366 -1239.5189977757655 0 -1239.5189977757655 -2188.7429143659738 0 0 0 0 -2614.8997529197313 -1641.4433826218701 0 -1641.4433826218701 -1974.0587400719141 0 0 0 0 -2368.0134621320021 -2095.6325688697816 0 -2095.6325688697816 -1827.9756371149779 0 0 0 0 -2081.8515580262183 -2556.0296585898941 0 -2556.0296585898941 -2437.5524383612683 0 0 0 0 -2331.1334498887372 -2636.1797476164793 0 -2636.1797476164793 -1649.7102136707617 0 0 0 0 -2510.7688431127581 -2333.8944684232301 0 -2333.8944684232301 -2138.8820849898184 0 0 0 0 -2279.4053961587092 -1583.0703935159727 0 -1583.0703935159727 -1444.6452579058096 0 0 0 0 -1703.2504523523439 -1893.131553718973 0 -1893.131553718973 -2716.8401014463598 0 0 0 0 -2134.2465818446303 -1661.4228270625281 0 -1661.4228270625281 -1790.1336546640268 0 0 0 0 -1719.9622154113999 -2327.4320523146489 0 -2327.4320523146489 -2638.9734209082762 0 0 0 0 -2513.7618482798316 -1926.2827786714643 0 -1926.2827786714643 -2821.220795510766 0 0 0 0 -1864.7457432059214 -3100.1943694774986 0 -3100.1943694774986 -5212.7748340394392 0 0 0 0 -2015.5791163567319 -2692.904670046275 0 -2692.904670046275 -2221.7462503227944 0 0 0 0 -3350.0927797141776 -4300.6459249119725 0 -4300.6459249119725 -3859.6908279686613 0 0 0 0 -1403.9126524518197 -802.37017803607523 0 -802.37017803607523 -5548.6487174089307 0 0 0 0 -548.67689771573623 -2816.1021281477733 0 -2816.1021281477733 -9392.0599508874911 0 0 0 0 -1740.4356904948986 -2767.3321518319462 0 -2767.3321518319462 -3919.9095615410079 0 0 0 0 -1442.5428704461301 -1271.8642869028663 0 -1271.8642869028663 -3151.6277633401269 0 0 0 0 -602.24090004184268 -1676.6886837031489 0 -1676.6886837031489 -3476.751637460613 0 0 0 0 -950.23260507862778 -2155.298029399215 0 -2155.298029399215 -1966.0207373320482 0 0 0 0 -1028.0950139781871 -2539.3915579370114 0 -2539.3915579370114 -3151.9372644849977 0 0 0 0 -1407.6927784039526 -2654.6037490561721 0 -2654.6037490561721 -2214.4385476520438 0 0 0 0 -1681.2259727173359 -2097.2574008021238 0 -2097.2574008021238 -2501.6305667064225 0 0 0 0 -1257.6212047418137 -2224.3465696529493 0 -2224.3465696529493 -1495.6639225401595 0 0 0 0 -1858.6690183833766 -1881.5736905238418 0 -1881.5736905238418 -1663.7617869783571 0 0 0 0 -851.28465372167739 -2810.5930285909699 0 -2810.5930285909699 -1791.9418237574719 0 0 0 0 -1272.4413341129402 -2273.3947054821856 0 -2273.3947054821856 -1499.0931371416737 0 0 0 0 -989.85031727744354 -2530.1291527471731 0 -2530.1291527471731 -1377.972248306336 0 0 0 0 -801.94084718029649 -2218.621071072856 0 -2218.621071072856 -932.40228736242716 0 0 0 0 -489.50396092143001 -1860.8343116011056 0 -1860.8343116011056 -905.74598149272788 0 0 0 0 -1306.5148474877033 -1932.5086577965922 0 -1932.5086577965922 -764.14020006243663 0 0 0 0 -989.656261588029 -1761.8082423259166 0 -1761.8082423259166 -663.88474416150166 0 0 0 0 -1278.2852521688017 -751.40547527438503 0 -751.40547527438503 -45.786636209788412 0 0 0 0 -1643.4632420656053 -1046.7635805670252 0 -1046.7635805670252 -1344.2011386265281 0 0 0 0 -1722.4606091834353 -1469.1713831794805 0 -1469.1713831794805 -778.81439625654457 0 0 0 0 -1694.0619729168836 -2001.413258543342 0 -2001.413258543342 -1587.5082178841258 0 0 0 0 1795.8533476242683 -2690.7351878635973 0 -2690.7351878635973 -449.98958532417601 0 0 0 0 771.35451780157018 -1510.3385354581587 0 -1510.3385354581587 -1470.6018171025244 0 0 0 0 511.60419061502762 -1845.8901765493501 0 -1845.8901765493501 1467.6623164866396 0 0 0 0 965.06742470342579 -1484.1263382028264 0 -1484.1263382028264 1216.9622310529667 0 0 0 0 463.42641218578501 -1435.5105849586653 0 -1435.5105849586653 6927.4452170901277 0 0 0 0 303.10205145388682 -1364.2338692210869 0 -1364.2338692210869 2107.7982406736337 0 0 0 0 587.37600139216374 -760.75021430466586 0 -760.75021430466586 246.72750308194554 0 0 0 0 777.632095841298 -2175.6131412651057 0 -2175.6131412651057 -320.06150017635082 0 0 0 0 118.30868449008631 -1946.6759185675146 0 -1946.6759185675146 -398.10412821031423 0 0 0 0 6.6807340511600231 1.5832124711061937 0 1.5832124711061937 -6.0849015157035211 0 0 0 0 479.08902690338437 -2252.2815516558076 0 -2252.2815516558076 -1291.5190576112436 0 0 0 0 13.124777322990603 -16.396234198948534 0 -16.396234198948534 17.166471688557124 0 0 0 0 -459.86880370604013 -691.46888097455485 0 -691.46888097455485 -691.71953320243483 0 0 0 0 -60.426146508594684 -523.48172707904087 0 -523.48172707904087 -1648.7678035064673 0 0 0 0 -34.173436452936585 -894.6672546952359 0 -894.6672546952359 -2403.2991527910181 0 0 0 0 -476.38765822306596 -2101.4976373974132 0 -2101.4976373974132 -2664.4136044136412 0 0 0 0 -537.54239625400805 -1714.432494084158 0 -1714.432494084158 -1416.7632340623913 0 0 0 0 -443.89573351657054 -2488.816829667172 0 -2488.816829667172 -1548.0789070456376 0 0 0 0 -551.8853696157621 -2386.3944254620437 0 -2386.3944254620437 -1222.2896157684863 0 0 0 0 -656.36612292157088 -2592.2461557447036 0 -2592.2461557447036 -1453.4166159238448 0 0 0 0 -531.67772475190577 -2354.6517357187731 0 -2354.6517357187731 -1518.1640751237828 0 0 0 0 -551.68770199941537 -2168.3125081772578 0 -2168.3125081772578 -1829.7130216399964 0 0 0 0 -395.61798469425321 -2628.928849040477 0 -2628.928849040477 -1174.1618477400334 0 0 0 0 193.90836179626785 -2339.1100498356391 0 -2339.1100498356391 -1524.9444294720888 0 0 0 0 -52.7319864233923 -1991.051282601511 0 -1991.051282601511 -1397.7599724500906 0 0 0 0 867.80992848314054 -2520.9165125633081 0 -2520.9165125633081 -1118.1788308999458 0 0 0 0 185.37618831509826 -2082.6817035930762 0 -2082.6817035930762 -1616.8089912258911 0 0 0 0 -96.893640657237484 -1809.5220956067642 0 -1809.5220956067642 -1876.7257214770943 0 0 0 0 403.35805225568765 -1167.9703818619382 0 -1167.9703818619382 -2258.5780038263583 0 0 0 0 -1.0028268807836298 -3.5502679182337005 0 -3.5502679182337005 2.4137049937512813 0 0 0 0 -272.57486575524308 -1115.1332557323076 0 -1115.1332557323076 -2091.911704672033 0 0 0 0 954.84083151995401 -1680.6675023961634 0 -1680.6675023961634 -1882.6852991870546 0 0 0 0 -1937.1261937780509 -1430.0681056232461 0 -1430.0681056232461 -2432.0065407627044 0 0 0 0 610.81851103548797 -1339.4151918493553 0 -1339.4151918493553 -1189.2330619322383 0 0 0 0 0.049461944287941151 -0.24771570530784004 0 -0.24771570530784004 0.39530641770264197 0 0 0 0 -492.94208329009416 -1502.7091801638089 0 -1502.7091801638089 -883.49394292737998 0 0 0 0 -285.16630395286847 -1079.8658972111516 0 -1079.8658972111516 -2155.8298324971038 0 0 0 0 -1104.4711818178257 -1836.9625547676078 0 -1836.9625547676078 -1808.7128066734876 0 0 0 0 -1662.1885785901031 -1155.3292144905099 0 -1155.3292144905099 -2157.4668694554366 0 0 0 0 -916.55343497102876 -1818.7764537180901 0 -1818.7764537180901 -3358.623931192531 0 0 0 0 -391.39788646546731 -2182.8457975779329 0 -2182.8457975779329 -5170.2907813249258 0 0 0 0 -2074.395364975644 -2824.0286273863203 0 -2824.0286273863203 -3289.5815047316728 0 0 0 0 -2858.0613434737097 -2122.449077630954 0 -2122.449077630954 -152.61127631033014 0 0 0 0 -427.25843916694794 -1057.5125454394365 0 -1057.5125454394365 -3492.9084757454002 0 0 0 0 -1210.1907004313125 -1819.691930653802 0 -1819.691930653802 -1915.3281915925436 0 0 0 0 -519.69573561710058 -2222.5810252419924 0 -2222.5810252419924 -1969.340650336304 0 0 0 0 -398.44919995468081 -2120.7999973072674 0 -2120.7999973072674 -1740.3377165507227 0 0 0 0 -431.15535813961105 -1197.2531178460831 0 -1197.2531178460831 -1171.2540503779283 0 0 0 0 -342.42215240989935 -1418.0224952855151 0 -1418.0224952855151 -841.69482566198712 0 0 0 0 123.43115343879253 -1220.9512644146671 0 -1220.9512644146671 1311.4934716648822 0 0 0 0 630.17575165231756 -1337.1231060324844 0 -1337.1231060324844 -237.56970642573651 0 0 0 0 -1.2812072563673595 -36.827607743378202 0 -36.827607743378202 2.9093130806288041 0 0 0 0 -118.5664828782501 -1597.753867052932 0 -1597.753867052932 2976.1120133012955 0 0 0 0 -207.40567077200467 -1028.6901851309631 0 -1028.6901851309631 1006.3303824784816 0 0 0 0 156.87746161285759 -1411.6080165718922 0 -1411.6080165718922 1357.7830233050663 0 0 0 0 1422.4156155733372 -1165.5524046545238 0 -1165.5524046545238 90.883253447245806 0 0 0 0 -3760.0064812410783 -1127.4799342143178 0 -1127.4799342143178 517.73022001602658 0 0 0 0 4.4775770496189153 -0.50866388865064494 0 -0.50866388865064494 -0.1258918320254736 0 0 0 0 152.31214568326686 -1426.1660734845209 0 -1426.1660734845209 1406.0704707486129 0 0 0 0 -763.29733559508895 -755.93236922822689 0 -755.93236922822689 3561.9099416593526 0 0 0 0 120.03318307829977 -1237.7020269573077 0 -1237.7020269573077 1490.9428993420443 0 0 0 0 -2125.8315507269872 -1667.4117778679138 0 -1667.4117778679138 4937.9573068018462 0 0 0 0 -2.3630667695789214 -20.746347370201846 0 -20.746347370201846 1.7332225037410414 0 0 0 0 -887.76521831609148 -2750.1566585224641 0 -2750.1566585224641 1174.9444424506946 0 0 0 0 -2064.5924637472344 -2537.2445201798982 0 -2537.2445201798982 4157.9036451049178 0 0 0 0 -935.15044881616632 -1553.820491028946 0 -1553.820491028946 1340.8140767418226 0 0 0 0 -2168.5645238170109 -2095.9808195551959 0 -2095.9808195551959 1103.144024331843 0 0 0 0 -1322.0172758413319 -1070.5337167916023 0 -1070.5337167916023 521.79574248519202 0 0 0 0 -2209.3821312071377 -986.89065222065256 0 -986.89065222065256 -83.48541608414962 0 0 0 0 -1660.8512220368866 -1506.3700729757184 0 -1506.3700729757184 161.91506356245009 0 0 0 0 -1467.41366409476 -1023.5653886244472 0 -1023.5653886244472 -477.71530644294398 0 0 0 0 -1905.7932227570418 -1651.1315732778676 0 -1651.1315732778676 2206.6989631045435 0 0 0 0 -1923.9307899986743 -1355.0527359304688 0 -1355.0527359304688 642.42926678444928 0 0 0 0 -1611.2795707386394 -1465.9633008830642 0 -1465.9633008830642 505.99626874312526 0 0 0 0 -1953.4931776064432 -1046.1020506246837 0 -1046.1020506246837 310.1987050632888 0 0 0 0 -1723.7932226437551 -1523.1616725834538 0 -1523.1616725834538 388.14522074521119 0 0 0 0 -1746.6031418304774 -1098.2327230911724 0 -1098.2327230911724 -473.71578624101744 0 0 0 0 -2889.9970737342519 -1210.9838936754677 0 -1210.9838936754677 -260.66258936128997 0 0 0 0 -1777.7347767953615 -1146.5279167470653 0 -1146.5279167470653 -264.25122135625497 0 0 0 0 -2111.4511566090514 -949.89794078850537 0 -949.89794078850537 198.65526811020391 0 0 0 0 -1466.8988946607715 -1008.9141340026399 0 -1008.9141340026399 119.463514049472 0 0 0 0 -1100.8147360131115 -1503.8055693338029 0 -1503.8055693338029 295.11182402959003 0 0 0 0 -1825.0032038977952 -1406.7501451812932 0 -1406.7501451812932 307.42676069861045 0 0 0 0 -1813.3107969086923 -1449.5286621404375 0 -1449.5286621404375 912.92428991726774 0 0 0 0 -1588.4274095878936 -2010.5127185556994 0 -2010.5127185556994 842.19180027806669 0 0 0 0 -929.35285369333042 -1947.6901965175505 0 -1947.6901965175505 138.03902289796679 0 0 0 0 -1587.0683118534398 -2313.7498159268753 0 -2313.7498159268753 -281.2642456189933 0 0 0 0 -1740.4857533997274 -1633.2933025262901 0 -1633.2933025262901 26.353710038863937 0 0 0 0 -1478.3437754622064 -1887.0990850469971 0 -1887.0990850469971 2.4350505251059076 0 0 0 0 -1478.0502894410088 -591.22412333557077 0 -591.22412333557077 3848.9878901360698 0 0 0 0 -1.3366773417814186 -11.717074937512173 0 -11.717074937512173 1.7280304922265612 0 0 0 0 -1237.149366613183 -1545.3518587735944 0 -1545.3518587735944 671.7127037967366 0 0 0 0 -1667.6401499532149 -1101.1682982048223 0 -1101.1682982048223 805.17149124416392 0 0 0 0 -1256.1770499780041 -1435.9810199844433 0 -1435.9810199844433 351.37136463989009 0 0 0 0 -327.02397686382301 -1047.4892784635622 0 -1047.4892784635622 252.92491601052097 0 0 0 0 -732.99724211524426 -2304.0923031203129 0 -2304.0923031203129 -877.93119500805005 0 0 0 0 -502.47470079995571 -1706.492831382305 0 -1706.492831382305 -339.59711563858582 0 0 0 0 177.22122536447205 -1052.6848812007065 0 -1052.6848812007065 -954.02891461634863 0 0 0 0 -762.66663069824153 -824.2242045369876 0 -824.2242045369876 1717.2613101722509 0 0 0 0 -0.40763308195103676 -29.146695315179016 0 -29.146695315179016 2.7517562770071375 0 0 0 0 52.947790498121321 -505.3994450205937 0 -505.3994450205937 -2185.4903921577038 0 0 0 0 333.96185503191555 -1593.5090553971386 0 -1593.5090553971386 911.50850409181294 0 0 0 0 466.79201639927669 651.31523458310403 0 651.31523458310403 -301.92726503013546 0 0 0 0 992.9701818147314 -1480.6045159790938 0 -1480.6045159790938 921.61895706735231 0 0 0 0 2812.5365812270556 1122.0453720370715 0 1122.0453720370715 2370.4608353722942 0 0 0 0 2891.7446065615932 -3267.313870271606 0 -3267.313870271606 2556.2484177002771 0 0 0 0 -914.38320639314588 18.271722034811319 0 18.271722034811319 1503.7432784372068 0 0 0 0 17.829119028776404 -1006.2163205790202 0 -1006.2163205790202 846.62039909449959 0 0 0 0 -1928.6324753370238 -1153.7913034129997 0 -1153.7913034129997 636.13421415328776 0 0 0 0 -1376.014724754793 -885.24653497523468 0 -885.24653497523468 -245.80687381099324 0 0 0 0 -1218.824241004899 -263.67147252072937 0 -263.67147252072937 -77.279751730366115 0 0 0 0 -1991.9242820079401 -1584.3185317255975 0 -1584.3185317255975 -155.01623470861159 0 0 0 0 -1190.8062682748537 -1006.8255129868721 0 -1006.8255129868721 -3018.535051076281 0 0 0 0 -1773.4034033775861 -856.98993167229492 0 -856.98993167229492 -252.80054947531517 0 0 0 0 -1993.6985494975806 -927.06926544483758 0 -927.06926544483758 -23.070858885264897 0 0 0 0 -1547.8957956029162 -1176.28965018073 0 -1176.28965018073 97.482873705841484 0 0 0 0 -1716.4606521357562 -919.17985475219757 0 -919.17985475219757 -294.60820677412266 0 0 0 0 -1056.8241594830215 -747.71703276103199 0 -747.71703276103199 -267.49800978231724 0 0 0 0 25.695003016380436 -17.535698164155093 0 -17.535698164155093 -24.337914479895687 0 0 0 0 -1833.8365954131586 -1612.9505908158899 0 -1612.9505908158899 -517.53408730874071 0 0 0 0 -1333.1868303876836 -1218.4285685246086 0 -1218.4285685246086 -745.53186101451593 0 0 0 0 -1608.8751635283534 -1330.3444706770897 0 -1330.3444706770897 -268.35424459428759 0 0 0 0 -1804.4380139257191 -1579.031827479499 0 -1579.031827479499 63.359282800403889 0 0 0 0 -1617.3316654809169 -1149.1628857848436 0 -1149.1628857848436 -28.700849197499338 0 0 0 0 -1152.7713643371717 -1883.3062120380055 0 -1883.3062120380055 983.12643503623076 0 0 0 0 73.574668358217423 -858.02582459494442 0 -858.02582459494442 -824.35009999117756 0 0 0 0 -1770.8358378022131 -180.06231709034546 0 -180.06231709034546 -696.28056782659132 0 0 0 0 -2400.535208267198 -1292.9700851661873 0 -1292.9700851661873 -52.385807515514898 0 0 0 0 1766.5284489673013 658.89444095717408 0 658.89444095717408 -3907.9828511605674 0 0 0 0 -177.2007915359718 -797.68464177105852 0 -797.68464177105852 3859.1282797364802 0 0 0 0 -307.31807991146667 72.660627303972433 0 72.660627303972433 -663.88396105193533 0 0 0 0 22.26883175863022 -18.710234150298092 0 -18.710234150298092 15.44233035826548 0 0 0 0 5002.2167165419514 -2023.5702480984037 0 -2023.5702480984037 -3457.9135192961621 0 0 0 0 1011.3477729277802 -2855.4481467212609 0 -2855.4481467212609 3364.0948010475113 0 0 0 0 3623.1603904298804 -1060.6299209023018 0 -1060.6299209023018 -541.18857049805229 0 0 0 0 249.60423562041024 -3697.2436899140448 0 -3697.2436899140448 2761.8826034400699 0 0 0 0 8.6989462337879857 -6.3580584456878455 0 -6.3580584456878455 -6.6533755793221303 0 0 0 0 1562.8927887683078 -1105.8027201884615 0 -1105.8027201884615 399.54565391020151 0 0 0 0 2841.1322671596627 -3129.4117217505445 0 -3129.4117217505445 820.37291583429032 0 0 0 0 31.917995379404601 -2382.4159726984217 0 -2382.4159726984217 1471.1084662456778 0 0 0 0 -135.10386996851025 -2813.1856831356235 0 -2813.1856831356235 1731.7709397571452 0 0 0 0 -368.21673468437029 -1962.873270829079 0 -1962.873270829079 1143.5999504099891 0 0 0 0 -457.7424392187495 -1609.8955218230112 0 -1609.8955218230112 760.95078875768377 0 0 0 0 -354.37369032993627 -774.66154707200621 0 -774.66154707200621 532.65336907566234 0 0 0 0 -1332.5407074920806 -1074.9036961327583 0 -1074.9036961327583 764.8244537984574 0 0 0 0 -427.94420016274853 -2100.3079076062568 0 -2100.3079076062568 933.67378164449474 0 0 0 0 -1037.6663234078223 -2510.8797146549259 0 -2510.8797146549259 3130.9995207034081 0 0 0 0 -800.76764448211179 -1826.9583560198662 0 -1826.9583560198662 2726.2583318264442 0 0 0 0 -355.46725172154788 -1192.6062586521302 0 -1192.6062586521302 1119.8807551028876 0 0 0 0 -152.8405140621459 -2361.909499768105 0 -2361.909499768105 445.25596187774499 0 0 0 0 -1824.0437456461545 -2331.5282759028305 0 -2331.5282759028305 604.59385131817544 0 0 0 0 -189.449699003148 -1347.3033012316409 0 -1347.3033012316409 -468.70800006360514 0 0 0 0 -488.75447543594055 -1889.6304764981178 0 -1889.6304764981178 427.70674840909487 0 0 0 0 -647.26286916066874 -1255.5578226144571 0 -1255.5578226144571 -281.78234492198681 0 0 0 0 -641.94894243778435 -1235.2524364932833 0 -1235.2524364932833 -459.88903073857364 0 0 0 0 -1298.4805490142799 -1245.810550830538 0 -1245.810550830538 -72.330613158235792 0 0 0 0 -1245.3859610988736 -522.48090600311843 0 -522.48090600311843 -1296.0648216756817 0 0 0 0 -1014.2162038648821 -2132.3157089553315 0 -2132.3157089553315 -52.964811032812577 0 0 0 0 -1026.8403013972729 -2108.101548675666 0 -2108.101548675666 728.65678246557945 0 0 0 0 0.92107529710267499 2.5164504142919952 0 2.5164504142919952 0.13911679064432292 0 0 0 0 -474.45324534434258 -1819.3234804517851 0 -1819.3234804517851 638.1181669792204 0 0 0 0 -320.63758227326616 -2203.300835173708 0 -2203.300835173708 -946.48593547726341 0 0 0 0 -299.71268670219524 -1890.4260802477547 0 -1890.4260802477547 -515.34289828062174 0 0 0 0 -667.69734397856701 -1531.9357383274328 0 -1531.9357383274328 649.53908617586421 0 0 0 0 -339.93818967272546 -953.9677909978418 0 -953.9677909978418 -947.23884627310588 0 0 0 0 -165.79438951004431 -1420.4029551162021 0 -1420.4029551162021 -2081.4865294860465 0 0 0 0 -0.30648074482243892 -0.57381866583654073 0 -0.57381866583654073 1.7757401743275523 0 0 0 0 -1132.9134500131279 -758.59558365116754 0 -758.59558365116754 -932.63750574171718 0 0 0 0 -1292.2854285331157 -749.99791596298564 0 -749.99791596298564 -1137.1525746515254 0 0 0 0 -1318.3436776042281 -652.05931077342393 0 -652.05931077342393 -1164.0516341150797 0 0 0 0 -1005.1169853023193 -721.95550330673723 0 -721.95550330673723 -1299.6478588751997 0 0 0 0 -1376.891392126493 -1450.8928114932496 0 -1450.8928114932496 -355.7669750989844 0 0 0 0 0.319482235874327 0.12477373837853634 0 0.12477373837853634 -0.73324773507175678 0 0 0 0 -1258.1995331910914 -175.22922795973136 0 -175.22922795973136 -1618.5472537793248 0 0 0 0 -780.52446281485391 -675.4822884025707 0 -675.4822884025707 -1638.5691949177958 0 0 0 0 -876.64148539942335 -162.46913766285616 0 -162.46913766285616 -1311.9316438496462 0 0 0 0 2666.634747272019 -1864.1992247610469 0 -1864.1992247610469 -636.67634185259521 0 0 0 0 -751.73117988570925 -796.5877848738819 0 -796.5877848738819 344.15903847364098 0 0 0 0 -75.044676507051122 -338.36771081058032 0 -338.36771081058032 -369.47211073830113 0 0 0 0 -563.12260839207568 -1750.6086138895516 0 -1750.6086138895516 -815.63006824974582 0 0 0 0 -4.0621061127727627 -9.867495914413432 0 -9.867495914413432 4.1784478518723347 0 0 0 0 415.96911888586061 -2555.4754223326127 0 -2555.4754223326127 1141.408072127233 0 0 0 0 -3411.6973769391871 -768.54466824890915 0 -768.54466824890915 339.8621984231213 0 0 0 0 -353.05983443447894 -1972.4330129478039 0 -1972.4330129478039 1526.2967264165782 0 0 0 0 -3882.8665320051273 -2205.8355651648094 0 -2205.8355651648094 -1135.0335703068704 0 0 0 0 451.68137902980379 -133.16493015518063 0 -133.16493015518063 -1181.3023236953886 0 0 0 0 -3.0470814018137347 -1.9353119438188457 0 -1.9353119438188457 -1.0648509954182401 0 0 0 0 -821.65892548006377 284.41945535273408 0 284.41945535273408 -954.2108425030201 0 0 0 0 -697.85681913117878 40.642309171464149 0 40.642309171464149 -1010.1078628039832 0 0 0 0 -3882.9282825689515 -2379.6064004193177 0 -2379.6064004193177 -641.3113729704055 0 0 0 0 -3835.9650514510395 -1956.044477069905 0 -1956.044477069905 -1625.1722710370523 0 0 0 0 -3927.2578871164587 -2022.6191680892807 0 -2022.6191680892807 -1238.0243263695156 0 0 0 0 -1737.0225546851507 -1145.0327373853688 0 -1145.0327373853688 -1379.6057103814674 0 0 0 0 -77.232172010590148 -995.37777503974212 0 -995.37777503974212 -1029.4968466008359 0 0 0 0 -1581.7165710791669 -1116.6957176880787 0 -1116.6957176880787 -974.43197085277643 0 0 0 0 -1138.197633882126 -1196.9938035487939 0 -1196.9938035487939 -1001.2343679791775 0 0 0 0 -1392.4610059291208 -632.01854090444431 0 -632.01854090444431 -800.18623893761833 0 0 0 0 -2613.7895683153438 -40.316363780847496 0 -40.316363780847496 -1115.7112876962201 0 0 0 0 15.015588909230928 -5.9199367391139646 0 -5.9199367391139646 -6.7974266846026552 0 0 0 0 -1278.8752505941993 -797.93695711142573 0 -797.93695711142573 -699.08011611393158 0 0 0 0 -1555.9395339972325 -698.19228773432587 0 -698.19228773432587 -488.80019811435341 0 0 0 0 -1337.1538214735338 -481.22146000204339 0 -481.22146000204339 -555.39725702329451 0 0 0 0 -575.11696880762247 -278.16089754538689 0 -278.16089754538689 -549.98169757840151 0 0 0 0 -909.30824994112481 -456.78904111937118 0 -456.78904111937118 -645.99481697574811 0 0 0 0 -99.636539955433705 -125.28156148328344 0 -125.28156148328344 -280.04995955552658 0 0 0 0 2.3122954626664889 -39.50231629867892 0 -39.50231629867892 20.72856558211268 0 0 0 0 -38.639608467583457 -79.186479155781853 0 -79.186479155781853 -7.3517181036695547 0 0 0 0 18.774384172892916 -56.464286101180299 0 -56.464286101180299 29.624927628775822 0 0 0 0 572.01135262991011 -247.45254830028352 0 -247.45254830028352 -606.71146436156778 0 0 0 0 46.853697419461518 -27.021701611587439 0 -27.021701611587439 -1.1292631010895491 0 0 0 0 -164.44849515218084 193.24610213262349 0 193.24610213262349 -507.66000766553771 0 0 0 0 424.0958360261393 -1067.272577147698 0 -1067.272577147698 -268.78039252055169 0 0 0 0 64.713267480598475 -52.207874296717009 0 -52.207874296717009 27.501722095167892 0 0 0 0 329.93696907549202 -529.224483745822 0 -529.224483745822 -337.06054855069669 0 0 0 0 137.60408349420868 -683.32803559549757 0 -683.32803559549757 1089.3362728464417 0 0 0 0 179.66200390516678 -147.69458165445758 0 -147.69458165445758 -372.35857490781927 0 0 0 0 -357.32470691734488 -75.360756246918754 0 -75.360756246918754 962.95435658282076 0 0 0 0 295.65672641305252 -981.67519444346544 0 -981.67519444346544 400.2302480021317 0 0 0 0 1271.2313906153975 1140.6551785305128 0 1140.6551785305128 -430.89486776857302 0 0 0 0 902.26615171002447 -159.46030578429054 0 -159.46030578429054 99.589749513139395 0 0 0 0 3.9461672305573501 -7.9917104505248204 0 -7.9917104505248204 13.332403008293596 0 0 0 0 84.963280066479342 13.410041414834268 0 13.410041414834268 -24.093370546674123 0 0 0 0 930.88455323646645 -894.67779508105741 0 -894.67779508105741 521.36729786258365 0 0 0 0 709.89830862925464 -486.61044051154022 0 -486.61044051154022 -456.69157255578102 0 0 0 0 -740.90832618494005 -934.46790323358437 0 -934.46790323358437 -1630.2188113709071 0 0 0 0 -107.97330506807612 -151.17149995632644 0 -151.17149995632644 -231.32309523465665 0 0 0 0 -4.996322205589065 -13.137313719588377 0 -13.137313719588377 5.0986863943812395 0 0 0 0 -156.70421005521689 -440.32392300062929 0 -440.32392300062929 -1285.7609991309 0 0 0 0 -836.70152995877106 -677.89104010853043 0 -677.89104010853043 -897.12882010092289 0 0 0 0 -856.10264061194403 -786.56242982229742 0 -786.56242982229742 -1179.6074129596382 0 0 0 0 -201.7539342793516 -258.62409470931016 0 -258.62409470931016 -1033.2091832630031 0 0 0 0 -329.98740644750819 -276.65896758101553 0 -276.65896758101553 -906.70587279582105 0 0 0 0 -36.18457994383607 -179.32573287587729 0 -179.32573287587729 -383.80794240946125 0 0 0 0 -2.0828132863933551 -50.361353168208467 0 -50.361353168208467 -0.41391782472963357 0 0 0 0 18.923031401611219 -99.788354100736726 0 -99.788354100736726 -17.98529375114245 0 0 0 0 -822.9414897779352 31.424616882464761 0 31.424616882464761 -580.05584456225552 0 0 0 0 -84.941774772666179 -35.144026763651176 0 -35.144026763651176 67.724401642483713 0 0 0 0 -1310.8759733724364 256.89963172184071 0 256.89963172184071 -372.77878497245547 0 0 0 0 -18.774385671439205 -12.61116104343958 0 -12.61116104343958 50.488761003675819 0 0 0 0 -1883.6131512180727 287.04734317888506 0 287.04734317888506 -2154.6934056936007 0 0 0 0 -42.969838963900685 -114.86683608052755 0 -114.86683608052755 21.599832117102601 0 0 0 0 -1346.6848167903081 280.4903838735263 0 280.4903838735263 -353.09817262049182 0 0 0 0 -1374.2357790889146 -285.23355998426268 0 -285.23355998426268 -478.90117859232851 0 0 0 0 -1397.2255182417866 -557.2396373474985 0 -557.2396373474985 -710.22821572340035 0 0 0 0 13.527828537338511 -113.53828025457037 0 -113.53828025457037 -20.402691401459435 0 0 0 0 -9.6314359015283912 -4.1159140096441149 0 -4.1159140096441149 20.716411975986119 0 0 0 0 -490.43039607520041 -490.65947441010576 0 -490.65947441010576 -593.24723663758778 0 0 0 0 -5.7855464494428759 -13.921020016307196 0 -13.921020016307196 19.703167896758561 0 0 0 0 -771.6715764012115 -330.03758759671473 0 -330.03758759671473 -542.92073519788391 0 0 0 0 -401.80512764241575 -290.69950761784639 0 -290.69950761784639 -743.47575442383095 0 0 0 0 -556.71146874903934 -266.93037332800668 0 -266.93037332800668 -239.54008197030635 0 0 0 0 -116.07352649622771 10.886459392484539 0 10.886459392484539 -26.47540784249577 0 0 0 0 0.847441304240796 -26.45685019349623 0 -26.45685019349623 -21.444707022158141 0 0 0 0 -557.20755415430995 -264.44272000206684 0 -264.44272000206684 -236.70538743756333 0 0 0 0 -269.95709397767496 -191.66132800419655 0 -191.66132800419655 -241.64097671894706 0 0 0 0 -45.822455861230907 -24.735957682897077 0 -24.735957682897077 26.279199522771393 0 0 0 0 -12.22237080720241 -26.027042279298826 0 -26.027042279298826 -29.830413899207485 0 0 0 0 -762.86946429356612 210.28768630111063 0 210.28768630111063 -875.27451464701153 0 0 0 0 -38.161899585911513 -1.8335635748380099 0 -1.8335635748380099 50.247660615843309 0 0 0 0 10.014135782668518 -1.5400759165706717 0 -1.5400759165706717 -8.7325151440475963 0 0 0 0 -724.85329734684274 -308.90866603037466 0 -308.90866603037466 -674.95691712493135 0 0 0 0 -620.84053419718521 -469.0461120311179 0 -469.0461120311179 -687.55519392699352 0 0 0 0 -668.65173272600077 -408.03559039325046 0 -408.03559039325046 -532.76713735071098 0 0 0 0 -592.22238199017738 -274.43734427984964 0 -274.43734427984964 -621.06374461927044 0 0 0 0 -735.92902227090963 -277.26665902211244 0 -277.26665902211244 -499.71988476026308 0 0 0 0 -744.63864655975249 -212.81063616909705 0 -212.81063616909705 -758.61806423250528 0 0 0 0 18.538856380268466 -110.42960487069871 0 -110.42960487069871 -19.88545255894789 0 0 0 0 -838.74932052013901 -358.56758536240159 0 -358.56758536240159 -608.60404672621371 0 0 0 0 -1136.2167377630642 -448.56098197172105 0 -448.56098197172105 -677.79056693513121 0 0 0 0 -972.56982142424954 -493.72110276153398 0 -493.72110276153398 -696.74224013245112 0 0 0 0 -677.77776352956585 -324.11833267450129 0 -324.11833267450129 -602.53102289457456 0 0 0 0 -978.35186265585753 -715.69691115950263 0 -715.69691115950263 -685.46730718789331 0 0 0 0 -869.87229581472548 -713.7991338588763 0 -713.7991338588763 -920.54401473833059 0 0 0 0 -1204.064290994429 -710.95978538318923 0 -710.95978538318923 -520.14620595551969 0 0 0 0 -1100.5536944139103 -792.93643951825652 0 -792.93643951825652 -646.64803006430884 0 0 0 0 -1174.2204420855969 -720.77289627965365 0 -720.77289627965365 -531.48104846308706 0 0 0 0 -1293.2357179381884 -518.22692704394922 0 -518.22692704394922 -560.53462982643396 0 0 0 0 -1276.7913479798099 -212.37120881504961 0 -212.37120881504961 -777.92370109925469 0 0 0 0 -1324.5404232580622 -335.662891122367 0 -335.662891122367 -883.91100191399164 0 0 0 0 -1504.0162939610368 -350.15027071181248 0 -350.15027071181248 -829.33326157667761 0 0 0 0 -1573.1357886224978 -158.77145114448649 0 -158.77145114448649 -1069.4118637874708 0 0 0 0 -1552.50899010065 -391.04777745314277 0 -391.04777745314277 -600.19726008512953 0 0 0 0 17.532839868976023 -109.41998105990163 0 -109.41998105990163 -19.696610220995979 0 0 0 0 -283.93937286412893 -197.75211057909382 0 -197.75211057909382 -903.20604108310363 0 0 0 0 -1549.7379288167122 -462.1781319573638 0 -462.1781319573638 -840.06617517945415 0 0 0 0 -252.54946357794688 52.415677009339561 0 52.415677009339561 -950.44319338444984 0 0 0 0 -391.57874037922011 -301.98794442138023 0 -301.98794442138023 -993.76544453629776 0 0 0 0 -411.42121153126209 -234.55959993336728 0 -234.55959993336728 -1156.2919779303775 0 0 0 0 -554.49805726939667 -495.69853694044377 0 -495.69853694044377 -909.19250691233901 0 0 0 0 -550.94642565997492 -305.96729384862556 0 -305.96729384862556 -683.63426428994353 0 0 0 0 -596.77829700225266 -398.08250052277435 0 -398.08250052277435 -784.46011004987668 0 0 0 0 -530.42793978958434 -451.64658006606624 0 -451.64658006606624 -236.54770557906159 0 0 0 0 -1605.4113076004146 -236.21826561667694 0 -236.21826561667694 -864.70502304226102 0 0 0 0 -1820.1316553485412 -1157.9186902754373 0 -1157.9186902754373 -266.28960420722433 0 0 0 0 -1271.9945698285546 -844.95259763631475 0 -844.95259763631475 -172.00392240158544 0 0 0 0 -1237.3493337588684 -849.72574747313411 0 -849.72574747313411 -555.59113406119286 0 0 0 0 -352.291119360435 -748.1842045644953 0 -748.1842045644953 -877.99413045363326 0 0 0 0 -8.4632000799935057 -17.667616296947934 0 -17.667616296947934 7.530350969141125 0 0 0 0 -620.3343723005728 -378.79839698789874 0 -378.79839698789874 -1328.2061536082033 0 0 0 0 -750.80240057578362 -884.10801961868856 0 -884.10801961868856 -1111.4481167347112 0 0 0 0 -1186.2491405833066 -750.34963440278807 0 -750.34963440278807 -936.76163196584093 0 0 0 0 -866.46456021300855 -836.79586059227586 0 -836.79586059227586 -974.64634004642721 0 0 0 0 -948.88419557356974 -688.25009288509318 0 -688.25009288509318 -682.93396829658013 0 0 0 0 -1111.4090547693822 -930.30181295145303 0 -930.30181295145303 -615.54376817683078 0 0 0 0 -996.79077908163254 -826.24422853523356 0 -826.24422853523356 -951.44670634382055 0 0 0 0 -964.22017871235857 -819.00096869835761 0 -819.00096869835761 -487.58251354928143 0 0 0 0 -1106.4883120051388 -764.75868083436944 0 -764.75868083436944 -507.9722056714163 0 0 0 0 -476.67239180927368 -840.66461511787838 0 -840.66461511787838 -658.80852465197677 0 0 0 0 -970.89019297600316 -827.28109190298346 0 -827.28109190298346 -81.013427332887659 0 0 0 0 -205.88212448981176 -1005.7508847767094 0 -1005.7508847767094 -190.49294658383587 0 0 0 0 -1033.0263915067394 -683.43306385432879 0 -683.43306385432879 55.914270478519029 0 0 0 0 -1163.8260285374718 -478.45730658737011 0 -478.45730658737011 -571.89985276120569 0 0 0 0 -1182.0343468811016 -732.32324255716958 0 -732.32324255716958 -249.32267265766859 0 0 0 0 -1169.9158372949678 -495.63860293777543 0 -495.63860293777543 -310.72095474329035 0 0 0 0 -1096.3249841588895 -314.31547905800107 0 -314.31547905800107 -430.90189208468837 0 0 0 0 -952.84458021021419 -607.03953846823424 0 -607.03953846823424 -371.17809753463371 0 0 0 0 -985.68337388455984 -486.4424832536024 0 -486.4424832536024 -205.85586282967415 0 0 0 0 -467.36848044930275 -1563.3833284792108 0 -1563.3833284792108 243.29479347397864 0 0 0 0 -1046.9097863278703 -475.15127351810952 0 -475.15127351810952 -159.01627797952824 0 0 0 0 127.1048875793058 -378.48992054278642 0 -378.48992054278642 -141.44899354128302 0 0 0 0 0.36407670414338611 -2.3863152706673922 0 -2.3863152706673922 0.41347317322987465 0 0 0 0 528.01633561608651 -330.66544683316897 0 -330.66544683316897 -448.30176792929342 0 0 0 0 1385.1306200799932 -1483.8412647623336 0 -1483.8412647623336 -236.73760316890548 0 0 0 0 -3753.0266332627307 -204.80092553053692 0 -204.80092553053692 -111.76861176317107 0 0 0 0 -4.9352565662756547 -8.5619860018789282 0 -8.5619860018789282 3.6836074051714434 0 0 0 0 -2516.7225281225892 -1159.1678859930362 0 -1159.1678859930362 -267.17128952762869 0 0 0 0 -1595.900714079361 -1059.0035196182434 0 -1059.0035196182434 -385.39517652413633 0 0 0 0 -1966.376869175333 -1223.1116893238541 0 -1223.1116893238541 -276.41236238591955 0 0 0 0 -1594.2715656353748 -872.09632715165208 0 -872.09632715165208 124.49255420654663 0 0 0 0 -2178.4860603507814 -1027.8466613489945 0 -1027.8466613489945 -303.54630206595175 0 0 0 0 -2189.2580470674311 -1064.166677830588 0 -1064.166677830588 -403.39496443875669 0 0 0 0 -2087.1438804308136 -1151.4042042842411 0 -1151.4042042842411 -471.44308054216071 0 0 0 0 -2037.4483593890027 -1156.6118683434652 0 -1156.6118683434652 -562.70068331119546 0 0 0 0 -1879.4498515658015 -1175.6232491708106 0 -1175.6232491708106 -469.50084357017477 0 0 0 0 -2033.1583576719747 -1026.0473705289733 0 -1026.0473705289733 -401.83028476120671 0 0 0 0 -1793.7159329603146 -1149.0942782183847 0 -1149.0942782183847 -438.23135493886548 0 0 0 0 -2253.7970830254662 -760.1503285063427 0 -760.1503285063427 -473.7951194854395 0 0 0 0 -2018.8333841439171 -1011.4064301348772 0 -1011.4064301348772 -397.25828842984265 0 0 0 0 -1943.5667220198384 -1255.3151577756289 0 -1255.3151577756289 -506.30719604906153 0 0 0 0 -1681.0428026822497 -1414.3780633190181 0 -1414.3780633190181 -790.02298843643803 0 0 0 0 -1898.6828284384342 -1304.5190778131364 0 -1304.5190778131364 -697.49102628298715 0 0 0 0 -1745.8884637420438 -1316.449713981172 0 -1316.449713981172 -494.77936048493575 0 0 0 0 -1768.054571037133 -1231.2859378821231 0 -1231.2859378821231 -328.75462076139047 0 0 0 0 -1953.3415755629298 -1162.9425254664893 0 -1162.9425254664893 -336.75190484585619 0 0 0 0 -1713.8773454386642 -1217.4205984685395 0 -1217.4205984685395 -331.55456312653405 0 0 0 0 -1616.404383517006 -1235.7218044917659 0 -1235.7218044917659 -201.13944213430659 0 0 0 0 -1470.4828044290957 -1236.2639118368388 0 -1236.2639118368388 -225.875531002348 0 0 0 0 -1695.9055448487786 -1321.5034559553915 0 -1321.5034559553915 -254.12709289457416 0 0 0 0 -1776.3999760541105 -1238.7149417895416 0 -1238.7149417895416 -144.60607552234251 0 0 0 0 -1807.3685291281772 -1182.5919627441217 0 -1182.5919627441217 -165.85407648538239 0 0 0 0 -1778.4138137828738 -1105.7498762823889 0 -1105.7498762823889 -36.610115177001717 0 0 0 0 -0.46702645527675668 0.33357292311173126 0 0.33357292311173126 0.38436898175365286 0 0 0 0 -1647.5404369701057 -1122.197083896277 0 -1122.197083896277 -39.333095588044671 0 0 0 0 -1387.6942550922622 -1210.8293218477666 0 -1210.8293218477666 -268.40451768440835 0 0 0 0 -1718.2829499792945 -1343.4087914277234 0 -1343.4087914277234 -59.698669251039973 0 0 0 0 -1979.7231042056567 -1196.6517122532277 0 -1196.6517122532277 454.29891434324236 0 0 0 0 -1744.8772765873578 -1021.8564029294212 0 -1021.8564029294212 -682.4504669017042 0 0 0 0 -1866.5969539040298 -1228.4244204281222 0 -1228.4244204281222 -161.99225322269194 0 0 0 0 -1835.0900781426708 -1142.3865619839216 0 -1142.3865619839216 77.893709238451265 0 0 0 0 -1921.0276627382486 -1176.160121076573 0 -1176.160121076573 -135.3187083806406 0 0 0 0 -1799.5562709250644 -1245.1109685774281 0 -1245.1109685774281 -124.07815967372062 0 0 0 0 -1767.7045941256367 -1062.3955152172784 0 -1062.3955152172784 -45.869796074402984 0 0 0 0 -1754.4827919574736 -1048.5366626985706 0 -1048.5366626985706 73.361848573482575 0 0 0 0 -1586.70919655117 -973.33410164723819 0 -973.33410164723819 -217.5204603447055 0 0 0 0 -1503.6894216625728 -554.69852526818067 0 -554.69852526818067 448.837731400883 0 0 0 0 0.66475411334775192 -5.2249326904291422 0 -5.2249326904291422 0.88723701527652565 0 0 0 0 -1979.4299329331982 -2288.7278225182981 0 -2288.7278225182981 -610.26728027724312 0 0 0 0 -1017.5705015363661 -1413.0953226637394 0 -1413.0953226637394 -1040.3870368502903 0 0 0 0 27.731448756258889 -21.129852939252572 0 -21.129852939252572 -18.010299885332465 0 0 0 0 -2064.6878546213211 -1001.8272155628038 0 -1001.8272155628038 -81.094693861557062 0 0 0 0 -1413.8233049883511 -616.48472871518243 0 -616.48472871518243 -173.07001396862506 0 0 0 0 13.236813830370952 -36.579451498827929 0 -36.579451498827929 52.492843782644712 0 0 0 0 -2069.2106342026759 -1368.1717173023874 0 -1368.1717173023874 -402.97342574287904 0 0 0 0 -1900.8571300187523 -1300.4488476965598 0 -1300.4488476965598 -612.86952763578665 0 0 0 0 1.1590822030894854 -4.1886478511699465 0 -4.1886478511699465 11.611221080930179 0 0 0 0 -1586.7446232599423 -1064.948972946735 0 -1064.948972946735 -408.79492103399025 0 0 0 0 -1587.2940293107906 -1077.4440298057925 0 -1077.4440298057925 -246.88072710893175 0 0 0 0 -1285.7225829385338 -994.90269985656414 0 -994.90269985656414 -433.72308583553968 0 0 0 0 -1237.991411841529 -1197.0505227787216 0 -1197.0505227787216 -503.95910880409792 0 0 0 0 -1408.7271645568289 -973.74348525140522 0 -973.74348525140522 -744.42295549243499 0 0 0 0 -1868.6771473566191 -950.07475737249297 0 -950.07475737249297 -390.4002906261594 0 0 0 0 8.4951073924779283 -28.732556857770732 0 -28.732556857770732 47.357439003144279 0 0 0 0 -1099.5179925815551 -775.49415443027465 0 -775.49415443027465 -1113.5988297540316 0 0 0 0 -2449.1680797904128 -1704.0516095467356 0 -1704.0516095467356 -622.79118605963777 0 0 0 0 -252.31819241995163 -2646.9744705125959 0 -2646.9744705125959 -1194.6620859820687 0 0 0 0 -1514.3845654387451 -852.18811443536106 0 -852.18811443536106 -192.83839879730658 0 0 0 0 -994.12994851396104 -391.80524176993731 0 -391.80524176993731 16.819984659014153 0 0 0 0 -1620.2837908714009 -729.55420344147205 0 -729.55420344147205 59.828087037407386 0 0 0 0 -1901.5596940357782 -1101.0882294790426 0 -1101.0882294790426 -555.94685924815349 0 0 0 0 -1393.5968380646398 -677.50912156321374 0 -677.50912156321374 -314.40022656029032 0 0 0 0 1526.6111084907789 -2108.2901752895814 0 -2108.2901752895814 635.31563332330552 0 0 0 0 6642.2011964354706 -3593.4855084311894 0 -3593.4855084311894 587.7728061238995 0 0 0 0 -11.215394142170883 -20.045999603344754 0 -20.045999603344754 11.648001222888041 0 0 0 0 -3044.3816976092348 -1269.0892328189984 0 -1269.0892328189984 -719.26860519761249 0 0 0 0 -7036.3803409250413 572.59480864379293 0 572.59480864379293 327.09969551131508 0 0 0 0 -4668.307344515657 -823.93639502928863 0 -823.93639502928863 -32.51297403301578 0 0 0 0 -4446.9524006295505 685.97148184352409 0 685.97148184352409 -1359.3852153246262 0 0 0 0 -3450.5716938775731 -153.64797610572714 0 -153.64797610572714 -1218.1886927079868 0 0 0 0 -3844.6261298349709 -544.54756694357275 0 -544.54756694357275 -834.31958614099131 0 0 0 0 -3105.9605372870865 -750.45884779451444 0 -750.45884779451444 -798.55848763963149 0 0 0 0 -3420.172016897196 -258.12159702810459 0 -258.12159702810459 -980.76149735154468 0 0 0 0 -3293.1458796867519 -174.55633594812389 0 -174.55633594812389 -957.66864420667571 0 0 0 0 2346.1029224284594 -2358.599116978723 0 -2358.599116978723 -345.27155305037741 0 0 0 0 -23.893963422749565 -48.389023941332525 0 -48.389023941332525 27.593079269719567 0 0 0 0 -3352.6021006903502 356.21681538444318 0 356.21681538444318 -1338.103246896404 0 0 0 0 1277.292577682666 -2444.401962373151 0 -2444.401962373151 -76.869370297958085 0 0 0 0 621.35567416141521 -2129.6854355381438 0 -2129.6854355381438 100.92998775196065 0 0 0 0 -260.93677673843558 -2787.2958304953645 0 -2787.2958304953645 234.34771531601291 0 0 0 0 516.76838541640882 -1728.8478874512002 0 -1728.8478874512002 -677.91360130348039 0 0 0 0 -304.56675934710893 -1252.9415975313786 0 -1252.9415975313786 -617.98463886704849 0 0 0 0 -699.36835804033467 -1684.6678678227163 0 -1684.6678678227163 67.463712831988232 0 0 0 0 1589.3160128492927 -2269.5566902026439 0 -2269.5566902026439 -225.08696078594221 0 0 0 0 -358.36749760720022 -1994.7386846551053 0 -1994.7386846551053 996.8454695929031 0 0 0 0 -851.18782824294499 -770.15531667043706 0 -770.15531667043706 -655.61054156032333 0 0 0 0 -628.21473446130904 -1241.0534444966761 0 -1241.0534444966761 -630.23854162553471 0 0 0 0 -818.29206156447299 -1006.2521644958579 0 -1006.2521644958579 -57.541368913429324 0 0 0 0 -824.43482973707751 -807.08314897258242 0 -807.08314897258242 -318.62675228855005 0 0 0 0 -806.57503484793097 -1323.9763753649586 0 -1323.9763753649586 -397.86690615187399 0 0 0 0 -1003.0396407376627 -1060.1122542238227 0 -1060.1122542238227 -450.74985179876239 0 0 0 0 -572.3450373616306 -1176.4622256804068 0 -1176.4622256804068 -719.66330317837856 0 0 0 0 -381.34162354411546 -1278.7686166217682 0 -1278.7686166217682 -733.6063598992132 0 0 0 0 -774.83112484723461 -1301.2396203264361 0 -1301.2396203264361 -549.94015553726058 0 0 0 0 -231.15347253687878 -943.31558718198357 0 -943.31558718198357 -1073.7822937559977 0 0 0 0 -272.11293527478711 -1452.1921763668688 0 -1452.1921763668688 -650.58747047148063 0 0 0 0 563.84755243260497 -1479.741874183972 0 -1479.741874183972 -975.85139551803877 0 0 0 0 554.88309521125859 -1662.6920520968397 0 -1662.6920520968397 -936.17260366230039 0 0 0 0 423.20931458496489 -1847.0217798400845 0 -1847.0217798400845 -139.69746789968485 0 0 0 0 320.82248980173608 -1854.1698213489944 0 -1854.1698213489944 -139.52853782563761 0 0 0 0 119.62401568905693 -1065.9570113152258 0 -1065.9570113152258 -1064.9005089469865 0 0 0 0 -4.8554934171331432 -8.1178159440159661 0 -8.1178159440159661 9.9866937214703739 0 0 0 0 3967.8338816711985 -4226.4371093554 0 -4226.4371093554 1364.0232877064263 0 0 0 0 -5050.689452757344 -2195.2303530409408 0 -2195.2303530409408 231.37553591174947 0 0 0 0 -3409.1179217300296 -184.00006270300037 0 -184.00006270300037 -501.13463954213512 0 0 0 0 569.44104272920777 -1642.9050651325742 0 -1642.9050651325742 -272.14160077097767 0 0 0 0 688.83462848953786 -1810.3654594109321 0 -1810.3654594109321 -273.21017430878419 0 0 0 0 342.56388289845563 -1642.1296117446473 0 -1642.1296117446473 -188.77013358860859 0 0 0 0 532.44645525781743 -1665.7449171288681 0 -1665.7449171288681 -186.51828697748351 0 0 0 0 -4998.3086080253997 -1813.0144292493717 0 -1813.0144292493717 -814.89022551025846 0 0 0 0 0.20774359474369675 -9.3684729151159232 0 -9.3684729151159232 -0.55674988231700695 0 0 0 0 -4416.3652785236554 -1735.2546573729778 0 -1735.2546573729778 -1739.5027056989493 0 0 0 0 -4442.5739200946173 -1588.2795723937234 0 -1588.2795723937234 -1034.128721349698 0 0 0 0 -4109.2437321947145 -1302.8695035578712 0 -1302.8695035578712 -1955.3568451721221 0 0 0 0 825.69154266241094 -1198.5810627888277 0 -1198.5810627888277 -2583.527105724439 0 0 0 0 481.11156313133688 -1656.7306213567499 0 -1656.7306213567499 -713.60215039888863 0 0 0 0 523.70366488207947 -1648.3081941135315 0 -1648.3081941135315 -711.96577702208015 0 0 0 0 -14.068262032151067 -13.125589658552141 0 -13.125589658552141 17.89792727858071 0 0 0 0 518.09514764790129 -1719.9281460384009 0 -1719.9281460384009 -840.09935012453934 0 0 0 0 282.17498045792127 -1704.7281931503385 0 -1704.7281931503385 -742.75539550511166 0 0 0 0 296.58881836362252 -1616.5598786335395 0 -1616.5598786335395 -755.48290549719241 0 0 0 0 101.0550805884227 -1696.1805628677757 0 -1696.1805628677757 -622.10146713789436 0 0 0 0 -76.524043972561685 -1624.9861015002716 0 -1624.9861015002716 -648.27547377688461 0 0 0 0 54.665721168543314 -1485.365276454555 0 -1485.365276454555 -818.29525794932852 0 0 0 0 -100.11566248056533 -1646.8763522053268 0 -1646.8763522053268 -578.39037904559518 0 0 0 0 246.31817841311477 -1861.9287709098062 0 -1861.9287709098062 -505.43268505882588 0 0 0 0 437.98679758395338 -1700.1198255784893 0 -1700.1198255784893 -718.71342679107329 0 0 0 0 433.12474095349012 -1796.0307350083267 0 -1796.0307350083267 -728.45995516789844 0 0 0 0 552.88991577521665 -1771.971244620916 0 -1771.971244620916 -724.71709293489403 0 0 0 0 572.66105424584202 -1686.7935620954377 0 -1686.7935620954377 -717.39482599097028 0 0 0 0 34.257349676468039 -1764.8374023473007 0 -1764.8374023473007 -506.82073912737587 0 0 0 0 707.86085928372449 -2212.8058127156546 0 -2212.8058127156546 -418.94004545763892 0 0 0 0 -162.11851569607279 -1898.2958313589806 0 -1898.2958313589806 -313.28669293335406 0 0 0 0 -284.70153646306244 -1684.4648312606005 0 -1684.4648312606005 -335.28891898049278 0 0 0 0 -164.72575486890128 -2090.0970517613387 0 -2090.0970517613387 -201.19130934678105 0 0 0 0 -7.2674201498892241 -5.7165011803259063 0 -5.7165011803259063 8.1155438817526147 0 0 0 0 -4418.9522791939944 -598.52563949775868 0 -598.52563949775868 -1233.663081664421 0 0 0 0 2067.9152458327403 -3175.9508812246213 0 -3175.9508812246213 -775.26578909458476 0 0 0 0 -3428.5938454425586 290.42086462836232 0 290.42086462836232 -1865.712769008971 0 0 0 0 1174.2012595155129 -1662.2169336392908 0 -1662.2169336392908 -767.14410837312607 0 0 0 0 -1213.7282422992769 -1232.3496638733486 0 -1232.3496638733486 -273.26932331279386 0 0 0 0 -1215.1970860739748 -1249.7976026777192 0 -1249.7976026777192 -381.95798319850292 0 0 0 0 -845.62028750985019 -1486.1535630613653 0 -1486.1535630613653 -310.4990077906823 0 0 0 0 -780.81882120625892 -1418.6647056258171 0 -1418.6647056258171 -447.12999026065518 0 0 0 0 -251.7729173499265 -1391.4788879972039 0 -1391.4788879972039 -654.66353130981679 0 0 0 0 -347.3864832416275 -1464.9514023691372 0 -1464.9514023691372 -501.51884395626257 0 0 0 0 -305.48058287471395 -1738.2652014792693 0 -1738.2652014792693 -377.37286586916889 0 0 0 0 -366.25254939009119 -1576.9273957117693 0 -1576.9273957117693 -425.22183792723808 0 0 0 0 -509.91625864210073 -1518.212183449592 0 -1518.212183449592 -412.55661352585412 0 0 0 0 -516.73728442770789 -1675.3057669663831 0 -1675.3057669663831 -366.89483384876985 0 0 0 0 -685.33527301588447 -1840.233224884787 0 -1840.233224884787 -229.58572601692867 0 0 0 0 -880.69098847319378 -1449.2627880926593 0 -1449.2627880926593 -349.40807719405711 0 0 0 0 -875.71205703312921 -1621.4671260174036 0 -1621.4671260174036 -244.79404154423537 0 0 0 0 -1078.1175459244164 -1346.1296677978389 0 -1346.1296677978389 -339.43366416369281 0 0 0 0 -1312.7860244074373 -1456.168306240008 0 -1456.168306240008 -269.94054542105732 0 0 0 0 -1502.3794647003856 -1468.2115039146483 0 -1468.2115039146483 -475.10023454658221 0 0 0 0 -1320.1848631690034 -1308.0564066276456 0 -1308.0564066276456 -348.7038727342624 0 0 0 0 -921.68674682728488 -1623.5873857716506 0 -1623.5873857716506 -564.22160902911855 0 0 0 0 -1279.5514058004574 -1606.6092920558976 0 -1606.6092920558976 -309.32492440167698 0 0 0 0 -1372.2160200509593 -1509.8048154678072 0 -1509.8048154678072 -553.90450191455739 0 0 0 0 -1706.5803985122502 -1338.0350322736413 0 -1338.0350322736413 -514.40754713631941 0 0 0 0 -1326.7649174602939 -1576.7843402228027 0 -1576.7843402228027 -886.53140121389879 0 0 0 0 -1313.085672126253 -2117.0805148383697 0 -2117.0805148383697 -808.11534196545836 0 0 0 0 367.19829969033549 -3218.2932641107791 0 -3218.2932641107791 -16.646120683835761 0 0 0 0 -863.55074887244859 -2643.9980278323851 0 -2643.9980278323851 -193.13933564423496 0 0 0 0 18.277208315349526 -1915.2410528494293 0 -1915.2410528494293 -440.16206083261204 0 0 0 0 -916.41517960018996 -1565.4743833913235 0 -1565.4743833913235 -392.89931471617456 0 0 0 0 -524.42361114612459 -2145.9709121720152 0 -2145.9709121720152 -314.99964336938865 0 0 0 0 -932.85194961437355 -1689.3818616227509 0 -1689.3818616227509 -614.7454229248724 0 0 0 0 -941.02574975438426 -1877.4345921416607 0 -1877.4345921416607 -1035.0089472779364 0 0 0 0 -1153.0934902615627 -2379.4739576222346 0 -2379.4739576222346 -1235.6131875855062 0 0 0 0 -1482.2029005384093 -1918.1974306775519 0 -1918.1974306775519 -1028.3299234925071 0 0 0 0 -1178.0502760484671 -1919.9833386598966 0 -1919.9833386598966 -1386.7895093860716 0 0 0 0 -1780.6386172775142 -2150.9440489446424 0 -2150.9440489446424 -1471.3920647588675 0 0 0 0 -620.92380254202726 -2219.6176749072256 0 -2219.6176749072256 -1785.1913988043307 0 0 0 0 -1612.0048578146514 -3051.7848112289721 0 -3051.7848112289721 -2415.8289393194209 0 0 0 0 -3665.9344133382347 -3388.5822476169706 0 -3388.5822476169706 -1853.40563581065 0 0 0 0 -1967.62761362382 -1891.0934118299456 0 -1891.0934118299456 -1801.285477518104 0 0 0 0 -1994.6739887089861 -2274.3539394046675 0 -2274.3539394046675 -2107.4167703899802 0 0 0 0 -3224.3312970901115 -2053.1563416293902 0 -2053.1563416293902 -1626.5968109402893 0 0 0 0 -2154.7850626833306 -1627.5449038018487 0 -1627.5449038018487 -1469.2967566332663 0 0 0 0 4.4810841436836935 -5.6871564457495509 0 -5.6871564457495509 -7.0307078634385789 0 0 0 0 1798.5141540072113 -60.537125890237803 0 -60.537125890237803 -152.20910135890881 0 0 0 0 -2038.3978615778487 -1811.8360597215942 0 -1811.8360597215942 -1873.1515251063574 0 0 0 0 -2070.1966634270752 -1916.6566007915953 0 -1916.6566007915953 -2052.4949179561154 0 0 0 0 -2119.8987352982631 -1959.7667125969786 0 -1959.7667125969786 -1974.0439200328692 0 0 0 0 -1961.0445692746198 -1988.7624956616783 0 -1988.7624956616783 -1997.7942800210803 0 0 0 0 -2007.7330876117776 -1904.5678587131843 0 -1904.5678587131843 -1870.7723268510381 0 0 0 0 -1837.9046963928404 -1952.2731532882171 0 -1952.2731532882171 -1869.8114019054337 0 0 0 0 -1892.8003075797806 -1727.2318581787185 0 -1727.2318581787185 -1596.3361810909992 0 0 0 0 -1906.2672760228943 -1859.2791460876761 0 -1859.2791460876761 -1857.1741564751719 0 0 0 0 -1735.3446578965272 -1743.2411535120191 0 -1743.2411535120191 -1596.1763734015985 0 0 0 0 -1928.17709230938 -1603.0236295098366 0 -1603.0236295098366 -1199.3600437022105 0 0 0 0 -1727.881948685799 -1708.2977235642297 0 -1708.2977235642297 -1602.4007661897049 0 0 0 0 -1861.2027890448453 -1758.2712231043042 0 -1758.2712231043042 -1278.0451578683173 0 0 0 0 -1376.987477112852 -1683.4046775186107 0 -1683.4046775186107 -1285.4962324206831 0 0 0 0 -1665.1143027304006 -1549.8739851386963 0 -1549.8739851386963 -1195.7465608337952 0 0 0 0 -1748.6596856139472 -1587.05881773277 0 -1587.05881773277 -884.36330221099342 0 0 0 0 -1890.8872422179998 -1468.9820852241337 0 -1468.9820852241337 -1074.4880042655132 0 0 0 0 -1917.7297622910355 -1398.9997806842512 0 -1398.9997806842512 -790.77321566981345 0 0 0 0 -2078.8404216515191 -1295.8956672949862 0 -1295.8956672949862 -697.9001905991172 0 0 0 0 -2029.4458854872992 -1341.0120759817837 0 -1341.0120759817837 -908.17706247851311 0 0 0 0 -2039.7555482271355 -1553.9666962643423 0 -1553.9666962643423 -1395.273845696167 0 0 0 0 -2233.592640235358 -1421.1862414764691 0 -1421.1862414764691 -926.0961049709731 0 0 0 0 -1895.5584189432639 -1669.8331251190721 0 -1669.8331251190721 -1507.5164676647983 0 0 0 0 -2079.5361847623699 -1500.3400566486343 0 -1500.3400566486343 -1075.7981244854764 0 0 0 0 -2078.9913662191793 -1242.9553523676223 0 -1242.9553523676223 -442.06469947203732 0 0 0 0 -2185.6071310577963 -1144.9261730318021 0 -1144.9261730318021 -525.80260146090586 0 0 0 0 -2216.584245131422 -1220.3037599292948 0 -1220.3037599292948 -557.19693198482082 0 0 0 0 -2140.7610912025257 -1287.1385110489955 0 -1287.1385110489955 -752.68923679366708 0 0 0 0 -2150.8437092000231 -1417.2846318615339 0 -1417.2846318615339 -1209.8832927357871 0 0 0 0 -2307.9610221198673 -1344.9805490332292 0 -1344.9805490332292 -749.5349595317075 0 0 0 0 -2178.8116353663072 -1247.1822323538581 0 -1247.1822323538581 -986.28196200064849 0 0 0 0 -2188.7824787667532 -1369.0815075744576 0 -1369.0815075744576 -646.98436473669426 0 0 0 0 -2442.5223434921681 -1319.7682849435296 0 -1319.7682849435296 -1207.0879631770295 0 0 0 0 -2297.826549410709 -1415.9975494904211 0 -1415.9975494904211 -1521.9239269004611 0 0 0 0 -2305.1551767448773 -1160.3155281598574 0 -1160.3155281598574 -1029.2354682885634 0 0 0 0 -2269.3364149244135 -1445.1056080564085 0 -1445.1056080564085 -1127.819645337775 0 0 0 0 -2265.1252807678347 -1468.2136466577067 0 -1468.2136466577067 -1575.9084602422372 0 0 0 0 -2389.4025181999405 -1538.3718571522986 0 -1538.3718571522986 -1240.9261921681464 0 0 0 0 -2358.7324674791362 -1517.1022070078034 0 -1517.1022070078034 -2088.1708700667805 0 0 0 0 -2551.1846286532782 -1694.7144138354633 0 -1694.7144138354633 -1632.789715594643 0 0 0 0 -2588.3147119236528 -1524.9413709018118 0 -1524.9413709018118 -1889.4003701698211 0 0 0 0 -2623.2927529363851 -1349.4290157228297 0 -1349.4290157228297 -1535.0483859242813 0 0 0 0 -2041.4002319748288 -1736.812116210458 0 -1736.812116210458 -1820.9368195686984 0 0 0 0 -2085.9602875182118 -1663.9638280528452 0 -1663.9638280528452 -1505.3883922691457 0 0 0 0 -2180.6774263466741 -1552.3062945233687 0 -1552.3062945233687 -1728.5591309157608 0 0 0 0 -2289.445231888958 -1620.3317135823308 0 -1620.3317135823308 -1403.4264141077765 0 0 0 0 -2303.3360302475912 -1550.3606964998089 0 -1550.3606964998089 -2060.675556696151 0 0 0 0 -2360.6562429206697 -1740.3442879812792 0 -1740.3442879812792 -1795.7454189663913 0 0 0 0 -2205.6910431249362 -1783.6455409688533 0 -1783.6455409688533 -2260.7960692681809 0 0 0 0 -2306.1457423657721 -1650.1778269769638 0 -1650.1778269769638 -1840.3233022004697 0 0 0 0 -2191.3832040546704 -1895.8457362272202 0 -1895.8457362272202 -2758.9331508196919 0 0 0 0 -2424.7868733246378 -1733.3592965449861 0 -1733.3592965449861 -2271.7409604867808 0 0 0 0 -2324.890949286556 -1638.2918415061558 0 -1638.2918415061558 -2493.3268812767928 0 0 0 0 -2515.1568723118944 -1737.4925746298104 0 -1737.4925746298104 -2544.5989230533305 0 0 0 0 1.924304930243494 -2.8825877818095051 0 -2.8825877818095051 4.1885606356816822 0 0 0 0 -2137.6518498382011 -1329.0148105060434 0 -1329.0148105060434 -3386.8671153571777 0 0 0 0 -2661.7725056417912 -477.34128885601967 0 -477.34128885601967 -3357.520291926121 0 0 0 0 -2716.2672519628959 -1323.7770256220938 0 -1323.7770256220938 -2581.609230721122 0 0 0 0 -2509.1503094414547 -1715.3551753761894 0 -1715.3551753761894 -2488.2292440456295 0 0 0 0 -2927.298374824557 -1737.9911060388986 0 -1737.9911060388986 -1904.2422176116152 0 0 0 0 -2497.7407619850128 -1505.2715948133482 0 -1505.2715948133482 -2087.2309930219221 0 0 0 0 -2496.0054168967254 -1788.1255933138091 0 -1788.1255933138091 -2235.4503947577032 0 0 0 0 -2751.0010428362075 -1373.7289564411803 0 -1373.7289564411803 -2546.3656753433024 0 0 0 0 -2452.8881344086949 -1579.2172973182387 0 -1579.2172973182387 -2600.621823096837 0 0 0 0 -2962.5278881793156 -1098.2369951351275 0 -1098.2369951351275 -2972.6088411744131 0 0 0 0 -3091.074578324271 -1428.1299931688263 0 -1428.1299931688263 -2390.982834793751 0 0 0 0 -2793.7378839604553 -1824.8320233150516 0 -1824.8320233150516 -2086.0918676664733 0 0 0 0 -3007.8626530578367 -1537.1019488386119 0 -1537.1019488386119 -2492.4805837715667 0 0 0 0 -2830.8559752021047 -1625.2145836193558 0 -1625.2145836193558 -2461.6243823126133 0 0 0 0 -0.0194038115275319 -1.6277459623614448 0 -1.6277459623614448 -11.656396597922864 0 0 0 0 40.653577140030706 -16.921366744044633 0 -16.921366744044633 -33.347664913167478 0 0 0 0 -3138.0379104036429 -2311.2310444256364 0 -2311.2310444256364 -6178.378824888423 0 0 0 0 -3272.8303695173108 -963.70463216586359 0 -963.70463216586359 1138.1596059985313 0 0 0 0 -3049.9640304111099 -1664.5349430765273 0 -1664.5349430765273 -2027.2929496598372 0 0 0 0 -2616.2997302558724 -1838.8827821021187 0 -1838.8827821021187 -2297.8402403348591 0 0 0 0 -1668.747675349643 -2591.9296110342275 0 -2591.9296110342275 -2527.9119561024927 0 0 0 0 354.37360866689414 372.26997622306953 0 372.26997622306953 -949.04363034730704 0 0 0 0 -2215.2527445024871 -2431.2648334217929 0 -2431.2648334217929 -2519.0211395564475 0 0 0 0 -4.9240687778234715 -3.2962411226738482 0 -3.2962411226738482 6.189673651188329 0 0 0 0 -3071.6212061536216 -1960.2868223113574 0 -1960.2868223113574 -2412.9939355408133 0 0 0 0 -2124.0140885236615 -1864.9660043212789 0 -1864.9660043212789 -2558.4157507233758 0 0 0 0 -2595.6852210384604 -1786.0115569681802 0 -1786.0115569681802 -2558.2909777954296 0 0 0 0 -2031.0063898823319 -2168.8982907629834 0 -2168.8982907629834 -2720.0231666808395 0 0 0 0 -2428.5082073268495 -2732.024329407941 0 -2732.024329407941 -2186.9736200882035 0 0 0 0 15.19589408106313 -40.118158291150053 0 -40.118158291150053 7.5774365059650677 0 0 0 0 316.67734570939501 -802.63814981291944 0 -802.63814981291944 -1235.5978524442216 0 0 0 0 -2728.4461123053661 -2235.7207597594897 0 -2235.7207597594897 -2653.4166506869951 0 0 0 0 -0.17138241469325521 -4.6388074601811695 0 -4.6388074601811695 13.451816840677992 0 0 0 0 230.60137766517073 -1021.8777925023896 0 -1021.8777925023896 -1239.8616290687517 0 0 0 0 5.0142369412263577 -5.1450036112757687 0 -5.1450036112757687 -9.7243771847915355 0 0 0 0 -697.18288225166179 -23.994754477414972 0 -23.994754477414972 -1823.2890899216436 0 0 0 0 42.53782368715094 -45.725380600900166 0 -45.725380600900166 -58.337992846411282 0 0 0 0 -1732.3667561215734 -346.33353313132102 0 -346.33353313132102 -1521.8600665841659 0 0 0 0 -1676.0552124424212 -321.69957921555033 0 -321.69957921555033 -1516.5167520268551 0 0 0 0 -1772.8362278366476 -551.91433908996987 0 -551.91433908996987 -1566.0581139915957 0 0 0 0 -968.06583822287575 481.99966579386091 0 481.99966579386091 202.21900368911156 0 0 0 0 -18.871118454936564 -32.203488079889667 0 -32.203488079889667 17.860038159540139 0 0 0 0 19.700886687907229 23.088479342790805 0 23.088479342790805 38.848392477582991 0 0 0 0 -990.00932688635658 -667.23056030496082 0 -667.23056030496082 -1641.83981060519 0 0 0 0 -30.396335542437285 -21.769436022497246 0 -21.769436022497246 32.559929605979818 0 0 0 0 -1195.8218431064342 978.95229032319912 0 978.95229032319912 -288.99549188348465 0 0 0 0 -1943.0609493983156 -1884.8650997633449 0 -1884.8650997633449 -240.76686606060684 0 0 0 0 42.213380845385757 -46.32576856275081 0 -46.32576856275081 -58.85464465606853 0 0 0 0 -2755.0123467314133 -2713.261027665234 0 -2713.261027665234 -2268.6687473655184 0 0 0 0 -893.68221646164602 278.03923896484775 0 278.03923896484775 -850.28517689857108 0 0 0 0 -23.061339252866219 -42.639362109865715 0 -42.639362109865715 -2.2851084544148534 0 0 0 0 54.874656145267657 -43.65681733802586 0 -43.65681733802586 -16.237649759861313 0 0 0 0 58.619113221804234 -32.149581944258422 0 -32.149581944258422 -48.613716084864848 0 0 0 0 -3640.7166502469772 -98.795138820772991 0 -98.795138820772991 -3674.8703928971518 0 0 0 0 -4501.1079684090837 -587.7709513912705 0 -587.7709513912705 -4536.2013752135681 0 0 0 0 -15.94384992276116 -29.845342445182609 0 -29.845342445182609 -4.3168287523204611 0 0 0 0 -3453.9138080662515 -800.38714412494846 0 -800.38714412494846 -1737.3202803983149 0 0 0 0 23.842984913161196 -15.337382865080244 0 -15.337382865080244 -19.84929531430123 0 0 0 0 -4164.1176348730196 -2262.8430064388849 0 -2262.8430064388849 -1461.2846825403103 0 0 0 0 -1339.6009484420792 -1552.3782809813856 0 -1552.3782809813856 -2472.6952672692641 0 0 0 0 -1243.7872565377729 -1127.9511624258812 0 -1127.9511624258812 -613.61157312960859 0 0 0 0 -129.90847068158473 -2647.4531342016053 0 -2647.4531342016053 978.10324536666303 0 0 0 0 1260.6916908236017 -2040.6065728941612 0 -2040.6065728941612 -600.03623495244756 0 0 0 0 529.40113166019 -1434.7170854019569 0 -1434.7170854019569 -1538.8450967250683 0 0 0 0 43.969470947893569 -2076.1861070555751 0 -2076.1861070555751 -554.11200128390192 0 0 0 0 -208.80231217675646 -1485.8778654736161 0 -1485.8778654736161 -1514.54416098191 0 0 0 0 -444.46765216724998 -1620.5369213155282 0 -1620.5369213155282 -2145.4181519721533 0 0 0 0 24.341499018521063 -1856.4811211848719 0 -1856.4811211848719 -2028.0202968439698 0 0 0 0 -37.563233557949275 -1302.4168856600413 0 -1302.4168856600413 -1992.4769828870922 0 0 0 0 -1814.7138021151877 -1956.7042396687611 0 -1956.7042396687611 -1716.397360685085 0 0 0 0 -1129.2450429222281 -1953.9905690774613 0 -1953.9905690774613 -1914.0740738261738 0 0 0 0 -356.57614685131921 -1974.198782175461 0 -1974.198782175461 -1775.2689612838294 0 0 0 0 -1182.0045050113295 -1716.853828116582 0 -1716.853828116582 -1775.9417216312868 0 0 0 0 -418.60048061456837 -1851.046216710507 0 -1851.046216710507 -2017.0715887456681 0 0 0 0 -635.55327668827522 -1458.9843561645903 0 -1458.9843561645903 -2037.5784321052197 0 0 0 0 -1228.458008830833 -1547.8683058561728 0 -1547.8683058561728 -2043.4562324922299 0 0 0 0 5.3861475605477125 -28.155467942105815 0 -28.155467942105815 2.0405005195403589 0 0 0 0 -374.89308938826207 -1244.1424287823011 0 -1244.1424287823011 -2447.7995171635703 0 0 0 0 -221.36172159515445 -1623.9142886272239 0 -1623.9142886272239 -2252.5424781846086 0 0 0 0 -646.88946553287496 -1379.6109210317882 0 -1379.6109210317882 -2371.1658136114929 0 0 0 0 -450.28700810463852 -1214.1901576479322 0 -1214.1901576479322 -2572.9741452789895 0 0 0 0 -218.38197289078971 -160.46877687743108 0 -160.46877687743108 31.840303841199784 0 0 0 0 15.642834036875367 -21.337629208868471 0 -21.337629208868471 -26.105770931125505 0 0 0 0 -1793.6613618922029 -1432.0671813627014 0 -1432.0671813627014 -1707.5015001750289 0 0 0 0 230.21920812533244 -63.516869852219315 0 -63.516869852219315 -494.22412489546696 0 0 0 0 -1879.1045747086155 -1677.2078491587599 0 -1677.2078491587599 -1821.2144191722655 0 0 0 0 -1893.8824297121218 -1667.1988372202741 0 -1667.1988372202741 -1826.6061782825127 0 0 0 0 -2374.3688547766997 -1666.7995406360787 0 -1666.7995406360787 -2120.7409777864159 0 0 0 0 -1977.6110759143821 -1906.7969137588043 0 -1906.7969137588043 -2234.001498496058 0 0 0 0 -2364.8224396920241 -1531.9311465742048 0 -1531.9311465742048 -2087.1796335369872 0 0 0 0 -2459.9978665275412 -1346.732355804319 0 -1346.732355804319 -2344.4066942287027 0 0 0 0 -1672.0779640547607 -1485.5181555347153 0 -1485.5181555347153 -2569.432622135886 0 0 0 0 -1391.4389394748723 -207.62268810171372 0 -207.62268810171372 47.929805519117508 0 0 0 0 -51.014362123394612 -44.346551456655149 0 -44.346551456655149 23.794883467665485 0 0 0 0 -1561.0612294050879 -870.41950983265997 0 -870.41950983265997 -1226.412686333395 0 0 0 0 -429.12958507159965 -24.220962192251136 0 -24.220962192251136 -758.00599181569123 0 0 0 0 -1530.3595072926837 -263.309772887078 0 -263.309772887078 -1312.8482756114827 0 0 0 0 -1537.0306620319025 -149.56380869052373 0 -149.56380869052373 -709.68384639133546 0 0 0 0 -1707.346713299823 -629.60615622007026 0 -629.60615622007026 -971.76908859117975 0 0 0 0 -1728.7146655089855 -566.30290347160008 0 -566.30290347160008 -774.90818223569659 0 0 0 0 -2246.3469363069671 -332.5090501349041 0 -332.5090501349041 -581.06025988668262 0 0 0 0 17.587808728972767 -83.266366801351865 0 -83.266366801351865 -15.025975604344012 0 0 0 0 -1787.8798998236653 -23.291274285969848 0 -23.291274285969848 -688.7361921001575 0 0 0 0 -34.561164897605366 -55.475591121075169 0 -55.475591121075169 4.6783878471990477 0 0 0 0 -563.9524879539531 -50.777217658320296 0 -50.777217658320296 -1886.8479913494521 0 0 0 0 -389.78313382278429 -211.39093316614162 0 -211.39093316614162 -1752.6162681747956 0 0 0 0 -6.3330205332065361 -21.780507964545521 0 -21.780507964545521 -6.4756820095622913 0 0 0 0 -311.66809537896188 129.48405119136078 0 129.48405119136078 -567.5524092891792 0 0 0 0 -500.75634234341612 -346.2346883191982 0 -346.2346883191982 -386.11968162682024 0 0 0 0 -260.17234122214722 -195.61412965649652 0 -195.61412965649652 -2028.9484932518099 0 0 0 0 0.52091849763749565 1.5755933657151928 0 1.5755933657151928 -5.2186885310123117 0 0 0 0 -91.095709010784049 -298.59058249273221 0 -298.59058249273221 -1969.330265995377 0 0 0 0 -10.581662214652169 -342.65501615224639 0 -342.65501615224639 -1953.7690278813534 0 0 0 0 -338.4967692384962 -158.43409299018094 0 -158.43409299018094 -1456.4553640359518 0 0 0 0 11.043446294912144 -6.4061219968835132 0 -6.4061219968835132 -3.941403787504413 0 0 0 0 -214.57128020595701 149.42110177679569 0 149.42110177679569 -1384.1561514086898 0 0 0 0 -99.382169703334512 93.916295098824776 0 93.916295098824776 -1263.3503715383558 0 0 0 0 -2040.0029292772488 -217.68170987153735 0 -217.68170987153735 -802.00979678641306 0 0 0 0 17.838970542283164 -104.70295181156658 0 -104.70295181156658 -18.858322911354662 0 0 0 0 -1700.1505696987861 -464.12491507349478 0 -464.12491507349478 -682.58048574857639 0 0 0 0 -12.765433999129023 -47.413783520068193 0 -47.413783520068193 -2.0692549574413306 0 0 0 0 -2149.0009169557734 -284.84824242606555 0 -284.84824242606555 -2047.426150940868 0 0 0 0 -491.84632549335947 -37.031354021135485 0 -37.031354021135485 -436.92170564038679 0 0 0 0 2.3761950978726603 -73.491409796262957 0 -73.491409796262957 -13.154325002306109 0 0 0 0 -122.16681993383099 -141.54367751829341 0 -141.54367751829341 -259.8616289520869 0 0 0 0 129.30785313002733 -77.799450724285492 0 -77.799450724285492 -38.304412223094033 0 0 0 0 -22.705773625085953 -140.34399490009443 0 -140.34399490009443 -26.421828155118703 0 0 0 0 0.57369633019767718 -84.845101076470982 0 -84.845101076470982 -15.167928477898442 0 0 0 0 118.18554266051797 -224.46003953004583 0 -224.46003953004583 -2041.1088698438834 0 0 0 0 -376.08048970496748 139.43185586800973 0 139.43185586800973 -2268.5378897912888 0 0 0 0 -2427.7504174227597 -120.21708516465969 0 -120.21708516465969 -2450.7443166041194 0 0 0 0 -1449.2008821939853 -533.42659393398935 0 -533.42659393398935 -1963.5746583085274 0 0 0 0 39.17458069308212 -28.620707198733498 0 -28.620707198733498 2.6636824284393299 0 0 0 0 -1323.0253978793917 -238.88790636832709 0 -238.88790636832709 -1355.8010868556448 0 0 0 0 -3.9065309398021881 -5.4390671425704227 0 -5.4390671425704227 5.9369622740898222 0 0 0 0 -1484.8141328387019 -450.6448702175021 0 -450.6448702175021 -1462.7192038316934 0 0 0 0 -1723.3201538149979 -318.46985000739369 0 -318.46985000739369 -1048.3949427035623 0 0 0 0 -1399.6128971691992 -210.83191934470415 0 -210.83191934470415 -1019.5924223863985 0 0 0 0 -1242.8917449980163 -80.77282576791913 0 -80.77282576791913 -1057.7231713811598 0 0 0 0 -1337.7628985792821 -332.6265590801886 0 -332.6265590801886 -949.10537997698702 0 0 0 0 -4.6854241464115702 -7.213589345438578 0 -7.213589345438578 2.620104428649384 0 0 0 0 -869.0656152255533 328.71989209303138 0 328.71989209303138 -874.09101328419638 0 0 0 0 -1172.9433694951176 -131.51743816895396 0 -131.51743816895396 -1102.4864859708323 0 0 0 0 -1041.5686131768607 196.35744187777527 0 196.35744187777527 -890.80702002291218 0 0 0 0 -578.23959643700437 -211.01380413230072 0 -211.01380413230072 -666.15304951290454 0 0 0 0 -15.792906088047321 5.3944757402141903 0 5.3944757402141903 16.285862140033316 0 0 0 0 -774.95327217861268 -182.58509959687217 0 -182.58509959687217 -1018.3766907132704 0 0 0 0 -13.023737375590514 5.1892437966959335 0 5.1892437966959335 11.335223102355258 0 0 0 0 -1709.8768828456014 -116.11455396475503 0 -116.11455396475503 -830.71710736403475 0 0 0 0 -1475.8047522687502 171.50631234652974 0 171.50631234652974 -962.43584335914056 0 0 0 0 -1317.7330013902829 -166.72168639754091 0 -166.72168639754091 -848.31806419722125 0 0 0 0 -1069.9729515496983 182.37712337750418 0 182.37712337750418 -967.19226800330398 0 0 0 0 -703.94049484438983 134.31586555490503 0 134.31586555490503 -456.06653445653501 0 0 0 0 -630.78062258329737 230.22654818749288 0 230.22654818749288 -813.83579059766271 0 0 0 0 -842.31631637248574 12.206700595670554 0 12.206700595670554 -903.13708928320557 0 0 0 0 -1323.1087721127478 -64.735986358537048 0 -64.735986358537048 -758.48995446460322 0 0 0 0 -1132.7505475187118 -495.55813228983607 0 -495.55813228983607 -431.41528384987032 0 0 0 0 -2.7192377619750943 -8.1005747677347486 0 -8.1005747677347486 -2.4844879361027949 0 0 0 0 -706.2559723121085 -240.92215119464527 0 -240.92215119464527 -1002.3517875659891 0 0 0 0 -35.450661694509378 -11.420753796444174 0 -11.420753796444174 19.4784240615746 0 0 0 0 -1366.1123656052885 -113.0587410579019 0 -113.0587410579019 -1023.9921868225356 0 0 0 0 -699.45209301511204 332.32728369969118 0 332.32728369969118 -692.42121434700948 0 0 0 0 -817.13994004579217 171.25067140437022 0 171.25067140437022 -664.10993575707835 0 0 0 0 -1375.3036805548491 -710.15536420445642 0 -710.15536420445642 -1145.2137587716279 0 0 0 0 5.3465856247410315 -14.929984150943536 0 -14.929984150943536 -10.291220436356866 0 0 0 0 -1335.4993661535373 -365.43386081774952 0 -365.43386081774952 -932.04080998817517 0 0 0 0 -3199.7646267991004 -856.36699599998246 0 -856.36699599998246 -841.441241301829 0 0 0 0 -1559.5201864801966 -934.15763237724605 0 -934.15763237724605 -770.51895857642194 0 0 0 0 4.0843182413824479 -4.7279372973204374 0 -4.7279372973204374 5.2058230324401507 0 0 0 0 22.37545623433342 -14.716851320281165 0 -14.716851320281165 -3.091051302358153 0 0 0 0 -1670.1570188988226 418.64588525114596 0 418.64588525114596 -1143.4862961306644 0 0 0 0 -3259.7046854010732 -570.05049721270916 0 -570.05049721270916 -1568.2047774481325 0 0 0 0 -0.76478916642045647 -6.0690064891885456 0 -6.0690064891885456 -3.735294223488097 0 0 0 0 -3138.7293397182884 592.2874788652698 0 592.2874788652698 -522.73494703334291 0 0 0 0 -2622.3562723127125 -237.04524925017904 0 -237.04524925017904 -679.59872457935126 0 0 0 0 4.4054227408503976 -17.867335311904036 0 -17.867335311904036 -12.104162601690916 0 0 0 0 -2480.2484647148904 -462.98442373856233 0 -462.98442373856233 -1987.150117862031 0 0 0 0 -2765.224678124312 -737.32236925557663 0 -737.32236925557663 -2036.3079250693845 0 0 0 0 -2138.6455868725106 -379.81515110327746 0 -379.81515110327746 -1441.3053449060826 0 0 0 0 -2160.6959321022896 -554.60670705138909 0 -554.60670705138909 -1608.8991660097527 0 0 0 0 -2668.0210104969556 -249.89017995547329 0 -249.89017995547329 -1791.3623555885861 0 0 0 0 -17.581855175260706 -5.4735214202634666 0 -5.4735214202634666 10.089388035578395 0 0 0 0 -1043.8352417167334 512.61804985926938 0 512.61804985926938 -1032.3955284123676 0 0 0 0 -1771.8501891865417 -52.813903968271916 0 -52.813903968271916 -1761.394015712096 0 0 0 0 -19.135336457856372 -3.815570437463478 0 -3.815570437463478 15.821733854413964 0 0 0 0 -523.15736583999205 173.79783304866169 0 173.79783304866169 -1242.2421984028915 0 0 0 0 -1644.0602909159752 -520.73411895401659 0 -520.73411895401659 -840.26818668266969 0 0 0 0 -1119.1514893590877 80.04203537984904 0 80.04203537984904 -985.71302431619551 0 0 0 0 -1152.6315143370684 -401.12367236097634 0 -401.12367236097634 -551.37296140944818 0 0 0 0 -1221.4964220452202 -9.1522831408183265 0 -9.1522831408183265 -795.4272445642564 0 0 0 0 -1055.2373535096422 -256.66566504295042 0 -256.66566504295042 -479.9971943240671 0 0 0 0 -6.0558813333749093 -9.1443239309257365 0 -9.1443239309257365 4.5331192194431367 0 0 0 0 -926.41696945975855 -164.52486121918628 0 -164.52486121918628 -419.5883812121865 0 0 0 0 -1.0804740342074926 -7.2998235931169226 0 -7.2998235931169226 2.6498424341580744 0 0 0 0 -1.7180219155018079 -2.7379106334664129 0 -2.7379106334664129 0.35967980509002473 0 0 0 0 -0.84361334199032534 -11.623960664342984 0 -11.623960664342984 -7.4819301260440056 0 0 0 0 -1618.97652831708 452.61916339214804 0 452.61916339214804 -227.16784567300783 0 0 0 0 -1335.0258131942653 -890.56249857237435 0 -890.56249857237435 -640.85998898497201 0 0 0 0 -1253.4121544807958 7.9553142934009884 0 7.9553142934009884 -79.344800469320035 0 0 0 0 -2157.0871487128024 -1156.483177902046 0 -1156.483177902046 -2628.851264134777 0 0 0 0 -7.4561954161462687 -4.3544887521397015 0 -4.3544887521397015 -0.31794039458395673 0 0 0 0 -1763.9200907902814 -751.62877341965213 0 -751.62877341965213 -1733.8027406784531 0 0 0 0 -2137.8354309624856 -910.79639944519658 0 -910.79639944519658 -1100.0851437512611 0 0 0 0 -1698.3806212576055 -933.66469656741538 0 -933.66469656741538 -1174.870000489107 0 0 0 0 -1978.4362568213037 -966.81335823664267 0 -966.81335823664267 -1172.9241134904441 0 0 0 0 -1846.1287830981637 -1060.2960238432861 0 -1060.2960238432861 -738.48751399082539 0 0 0 0 -1484.965638848611 -843.39709408961062 0 -843.39709408961062 -661.81441864361113 0 0 0 0 -1539.5049323035055 -622.84410528303124 0 -622.84410528303124 -973.00491149404115 0 0 0 0 -999.36231826581206 -216.46320289167488 0 -216.46320289167488 14.082421247207094 0 0 0 0 -1611.3500973100945 -910.00310032485868 0 -910.00310032485868 -311.61184365046211 0 0 0 0 -1489.8697679910256 -701.42467310119537 0 -701.42467310119537 -177.24975859379629 0 0 0 0 -1360.7262543884353 -497.56284110099659 0 -497.56284110099659 -48.108164256918826 0 0 0 0 -1726.3255814881049 -878.69878557500488 0 -878.69878557500488 -372.86094175738981 0 0 0 0 -1698.2362050361548 -1188.3827609965401 0 -1188.3827609965401 -598.39521640710882 0 0 0 0 -1363.0962435549263 -876.4833536750084 0 -876.4833536750084 -497.74818847117422 0 0 0 0 -1266.890126025663 -1104.4246428439465 0 -1104.4246428439465 -424.60177373714396 0 0 0 0 -1214.7136932346064 -634.93999427280323 0 -634.93999427280323 -231.17701042478438 0 0 0 0 -940.96043057958013 -525.58858179722665 0 -525.58858179722665 -315.80963462791988 0 0 0 0 -1136.731279846741 -712.98404367726471 0 -712.98404367726471 -201.62808846484586 0 0 0 0 -2069.8049350437486 -1110.6095332701661 0 -1110.6095332701661 -213.89270313059387 0 0 0 0 -1774.7356528160562 -974.39313019902329 0 -974.39313019902329 -349.75504650153744 0 0 0 0 -1747.0495696088014 -1220.2890750354823 0 -1220.2890750354823 -566.93483720248332 0 0 0 0 -2064.7827889902219 -1256.8036613275181 0 -1256.8036613275181 -546.45237484219615 0 0 0 0 -2051.5270257250831 -1171.5043422901581 0 -1171.5043422901581 -866.98268271647976 0 0 0 0 -1835.7181482521373 -1008.659143354249 0 -1008.659143354249 -782.09933139570057 0 0 0 0 -1929.2101379610576 -1204.9308300373086 0 -1204.9308300373086 -917.52392881140986 0 0 0 0 -2155.6076699645309 -1010.4384833860386 0 -1010.4384833860386 -1056.4594674702748 0 0 0 0 -2216.5891810107787 -1275.7668341450481 0 -1275.7668341450481 -888.92658257615403 0 0 0 0 -2053.0556756684673 -1227.4047727047 0 -1227.4047727047 -1138.2447346246772 0 0 0 0 -2120.4682611664393 -1136.4223807578674 0 -1136.4223807578674 -1236.7859034638823 0 0 0 0 -2546.8397158219232 -1203.6611398348832 0 -1203.6611398348832 -1243.7048528072273 0 0 0 0 -2276.0052487588 -1004.9767406765823 0 -1004.9767406765823 -1326.3596397619549 0 0 0 0 -2448.3260799107011 -810.40260785119608 0 -810.40260785119608 -1290.6029637478932 0 0 0 0 -2235.2322145165854 -852.07145164992835 0 -852.07145164992835 -1304.9896817519475 0 0 0 0 -1910.1492591402348 -913.99682349509385 0 -913.99682349509385 -1345.4374073906802 0 0 0 0 -2125.7594047804996 -477.35553515900392 0 -477.35553515900392 -1491.9700835501208 0 0 0 0 -2066.2757749833872 -574.76287428902288 0 -574.76287428902288 -1354.4477496406471 0 0 0 0 -2439.6903450306127 -557.13653768341464 0 -557.13653768341464 -1340.3955428328991 0 0 0 0 -2330.5119054277366 -724.16014484057087 0 -724.16014484057087 -1231.4462722451135 0 0 0 0 -2606.1821887699189 -797.46476591398823 0 -797.46476591398823 -1113.1597909192787 0 0 0 0 -2276.1906719464369 -313.64907955978924 0 -313.64907955978924 -1018.185220311454 0 0 0 0 -2704.8939421545092 -771.25595788567443 0 -771.25595788567443 -830.27672950917622 0 0 0 0 -2906.2716561123016 -582.65876856989053 0 -582.65876856989053 -948.13482869352447 0 0 0 0 -2861.7039718556789 -1048.3581548432303 0 -1048.3581548432303 -1143.104385053739 0 0 0 0 -2765.4095452276379 -993.16604708022351 0 -993.16604708022351 -1291.6488635332062 0 0 0 0 -3040.7202877821328 -1494.9549344894331 0 -1494.9549344894331 -1649.5098959852476 0 0 0 0 -2788.6111444026283 -1158.4096108123485 0 -1158.4096108123485 -1367.33215424644 0 0 0 0 -2684.7796204559199 -1177.1039347361293 0 -1177.1039347361293 -1384.732108085067 0 0 0 0 -2908.1366236587091 -1991.9047075351846 0 -1991.9047075351846 -2667.0423796619725 0 0 0 0 -2846.1026690133494 -1428.595071936712 0 -1428.595071936712 -1821.7722089339222 0 0 0 0 -3144.7674109503787 -1712.5490848539885 0 -1712.5490848539885 -1453.193679852382 0 0 0 0 -3287.2581850444039 -1463.4749564986923 0 -1463.4749564986923 -316.33378252176044 0 0 0 0 -0.22543861975148616 1.8057889082017198 0 1.8057889082017198 -14.484146519166224 0 0 0 0 -3593.6269521169725 -985.02609931841289 0 -985.02609931841289 -858.41386517449428 0 0 0 0 -3222.5945819633553 -1393.1107607791637 0 -1393.1107607791637 -1988.9790249341349 0 0 0 0 33.402043827716312 -12.854363318843866 0 -12.854363318843866 -30.375893491169705 0 0 0 0 -3016.4026838349419 -1729.8928264616916 0 -1729.8928264616916 -1949.8392981609813 0 0 0 0 -3384.5321399713175 -317.88715844077797 0 -317.88715844077797 -7020.8277818834904 0 0 0 0 -3029.3857990795168 -1458.4825588444801 0 -1458.4825588444801 -2606.6943283537184 0 0 0 0 -3622.041612871184 -684.41650654117984 0 -684.41650654117984 -3376.1458179669644 0 0 0 0 -3082.2458565227439 -1717.7640399177435 0 -1717.7640399177435 -1805.5503823531035 0 0 0 0 39.983648439065476 -12.039960519132762 0 -12.039960519132762 -45.810739121355482 0 0 0 0 -2955.9202576020789 -1544.2753287879677 0 -1544.2753287879677 -2157.4910315574671 0 0 0 0 -2764.997337508782 -1973.6874789866524 0 -1973.6874789866524 -1879.9522767157177 0 0 0 0 -2882.7506304003664 -1841.5582401709325 0 -1841.5582401709325 -1922.2115672976215 0 0 0 0 -2530.0899701154522 -2273.766465442779 0 -2273.766465442779 -1712.3019505318298 0 0 0 0 -2988.5401101083589 -2152.5528769542725 0 -2152.5528769542725 -1405.7931499828555 0 0 0 0 -3050.7143556142246 -2049.413417949876 0 -2049.413417949876 -1575.4783028599049 0 0 0 0 -3178.3762191001051 -1755.1203617079809 0 -1755.1203617079809 -1448.9867454460473 0 0 0 0 -2928.1492304277945 -1503.2833060120465 0 -1503.2833060120465 -1269.9079722294191 0 0 0 0 -3182.1229623397712 -2047.9096410645834 0 -2047.9096410645834 -783.60597350803437 0 0 0 0 -2961.8307010232838 -2632.6909236569627 0 -2632.6909236569627 -1137.5510089757954 0 0 0 0 -3938.1298777391457 -2902.528135931545 0 -2902.528135931545 1003.2769857799576 0 0 0 0 3.6861676806163217 -11.896297650984451 0 -11.896297650984451 6.668235836788412 0 0 0 0 -4359.024617857086 -2112.563995419714 0 -2112.563995419714 186.30434863636037 0 0 0 0 -3542.1654884114714 -1600.3690568909951 0 -1600.3690568909951 -1283.5720886985946 0 0 0 0 -5.1470982942231274 -14.710151530593965 0 -14.710151530593965 36.266712857432481 0 0 0 0 -1776.6370026089635 -1194.2755674032305 0 -1194.2755674032305 -2124.9672346058869 0 0 0 0 0.70912910722568157 -11.178862355101465 0 -11.178862355101465 -7.0843947248473 0 0 0 0 -3405.1571430210697 -1664.9632986198412 0 -1664.9632986198412 -1689.1014470045338 0 0 0 0 -3042.3932041019534 -1759.1829074561683 0 -1759.1829074561683 -1764.3480028718914 0 0 0 0 -2489.796794402062 -2088.5853247680789 0 -2088.5853247680789 -2999.1726375469443 0 0 0 0 -26.426795185172523 -43.431190067713032 0 -43.431190067713032 -39.114028488009353 0 0 0 0 8.3949481345154986 -29.089410227279416 0 -29.089410227279416 -28.968814807753901 0 0 0 0 -4148.4337901472936 -190.22185571606678 0 -190.22185571606678 -558.19756567844888 0 0 0 0 -3771.439675514117 445.61900135538599 0 445.61900135538599 -507.36097955422883 0 0 0 0 14.26458973740165 -10.625325452313888 0 -10.625325452313888 1.5439839845224697 0 0 0 0 -3081.2386793723344 -1147.2039977867971 0 -1147.2039977867971 -508.32055371519527 0 0 0 0 -2239.3239275064043 -997.27708313528274 0 -997.27708313528274 -784.39125097829674 0 0 0 0 -1853.1397274607516 -458.30944938477842 0 -458.30944938477842 -810.04889336063934 0 0 0 0 0.069337968827388963 3.0675668333624913 0 3.0675668333624913 1.9912427051963846 0 0 0 0 20.914674798256669 -76.437141353379886 0 -76.437141353379886 -13.348484801673557 0 0 0 0 -1529.298426453076 -434.84583982795084 0 -434.84583982795084 -1126.3831444918324 0 0 0 0 10.547337812998096 -50.424189631298205 0 -50.424189631298205 6.3081076059480097 0 0 0 0 -1333.4436515929356 -473.31771361309802 0 -473.31771361309802 -831.60276206964045 0 0 0 0 17.602775402582893 -65.434668332395034 0 -65.434668332395034 4.8553446013563146 0 0 0 0 -1108.7334790280329 -585.56410307482292 0 -585.56410307482292 -903.96441891994618 0 0 0 0 3.8724258697897369 -17.294373379381085 0 -17.294373379381085 43.964879161765786 0 0 0 0 -55.649656934063096 -44.015963201615449 0 -44.015963201615449 36.370656254238895 0 0 0 0 -662.3603927825252 299.80154798936928 0 299.80154798936928 -436.86637117850478 0 0 0 0 -55.023654883819518 -60.454213288802585 0 -60.454213288802585 39.482665401261386 0 0 0 0 -159.10426990922133 -83.699274975951994 0 -83.699274975951994 -40.756829804227891 0 0 0 0 -893.61451698014935 -276.75551562815963 0 -276.75551562815963 -850.57838250543864 0 0 0 0 -987.44289174086953 -327.06621799166169 0 -327.06621799166169 -876.57875814520958 0 0 0 0 -15.522544790134418 -44.632848937630939 0 -44.632848937630939 -13.693575364210631 0 0 0 0 -1235.545303877866 -325.46200582122947 0 -325.46200582122947 -724.50836678218911 0 0 0 0 -1241.7670207071533 -304.70435670280131 0 -304.70435670280131 -708.02423861002899 0 0 0 0 -1551.4074117676564 -405.12114815679524 0 -405.12114815679524 -681.42465253647242 0 0 0 0 -1257.5117359442793 -541.99531868631675 0 -541.99531868631675 -405.23841465498845 0 0 0 0 -1195.3659913101874 -326.03669703956984 0 -326.03669703956984 -708.9441152351792 0 0 0 0 15.166032943047355 -44.028027566706868 0 -44.028027566706868 -33.256099227423377 0 0 0 0 -1282.1926485864969 -353.01222284187679 0 -353.01222284187679 -91.471028284890053 0 0 0 0 -988.764632673493 -409.94539298508607 0 -409.94539298508607 -1275.0009180641064 0 0 0 0 9.9616515138651955 -16.278642430329466 0 -16.278642430329466 -11.192765584897359 0 0 0 0 46.032655886312128 -138.99884397450052 0 -138.99884397450052 -34.916355067024611 0 0 0 0 -1521.9975314697585 -428.94301085094776 0 -428.94301085094776 -235.17243611277081 0 0 0 0 24.085545607112238 -30.760019897131656 0 -30.760019897131656 -31.188967015652054 0 0 0 0 -1539.5210142870492 -435.09475360634679 0 -435.09475360634679 -201.83805381919956 0 0 0 0 -1523.8533477721649 -282.77354698588897 0 -282.77354698588897 -499.46868290155544 0 0 0 0 -1602.1089297559847 -363.90659089991459 0 -363.90659089991459 -275.14894310579984 0 0 0 0 -1181.5912092475701 -419.45973272615811 0 -419.45973272615811 -585.73041359035415 0 0 0 0 -1408.7320240803529 -467.10121403750964 0 -467.10121403750964 -239.85810458947162 0 0 0 0 -1299.0546217791489 -293.54866682364081 0 -293.54866682364081 -720.62628957728157 0 0 0 0 -1493.7761680853291 -235.01803041431413 0 -235.01803041431413 -697.68164529051865 0 0 0 0 -1677.8830151515067 -353.49071025104058 0 -353.49071025104058 -258.68629836881883 0 0 0 0 -1535.2616069428477 -166.68534846405964 0 -166.68534846405964 -310.39752291185141 0 0 0 0 11.788189950413599 -46.006638755069865 0 -46.006638755069865 -14.804347119778129 0 0 0 0 -1750.6196017905022 -297.50791137409396 0 -297.50791137409396 -445.45874421871849 0 0 0 0 -1058.3763143332326 -296.41599025118921 0 -296.41599025118921 -446.19257978967198 0 0 0 0 23.515101751026435 -72.19092596373315 0 -72.19092596373315 -2.9782743216045375 0 0 0 0 -1717.7009912847716 -296.10128414726933 0 -296.10128414726933 137.75829952784989 0 0 0 0 -669.19747306026693 57.143550229651737 0 57.143550229651737 -471.93113083933713 0 0 0 0 20.70677089626065 -64.428469110296646 0 -64.428469110296646 7.7196329326126971 0 0 0 0 -1095.0242142838688 -156.01501363790885 0 -156.01501363790885 -444.72250093218099 0 0 0 0 216.57017939857906 -131.68357834097696 0 -131.68357834097696 -457.2192234898539 0 0 0 0 8.6038834128324773 -25.32964615499796 0 -25.32964615499796 -4.5960299840659786 0 0 0 0 -52.022620499725889 -40.600579976310442 0 -40.600579976310442 32.531885397965766 0 0 0 0 -25.301979173985622 -34.994947639105789 0 -34.994947639105789 24.520849605069429 0 0 0 0 -178.1379821474693 -109.78405474212923 0 -109.78405474212923 -1.2398571403027745 0 0 0 0 -169.01259395480156 -95.780319974248414 0 -95.780319974248414 20.067619702003867 0 0 0 0 -79.604472512422575 -12.158200155632876 0 -12.158200155632876 74.23115150711925 0 0 0 0 -617.79692444732245 -431.02716773279371 0 -431.02716773279371 -657.73104983188387 0 0 0 0 -241.4617321715632 -184.04897864395753 0 -184.04897864395753 -125.93120082348469 0 0 0 0 -11.673781090939812 -31.37601191102722 0 -31.37601191102722 -11.360385768407468 0 0 0 0 -480.19824840097863 -85.075899996954831 0 -85.075899996954831 -813.16698052922948 0 0 0 0 -47.319066242201977 -107.97567379680729 0 -107.97567379680729 -18.91935809684594 0 0 0 0 -126.76882880004804 -19.242538158933371 0 -19.242538158933371 118.4772027464723 0 0 0 0 -1568.4226621314538 -77.818603448125941 0 -77.818603448125941 -621.64711724818335 0 0 0 0 -1358.466712691843 304.0205992955307 0 304.0205992955307 -1134.3160639019916 0 0 0 0 -40.580614239464005 -13.767679441719274 0 -13.767679441719274 1.6648895656337572 0 0 0 0 -2283.6091245650491 33.625399512997319 0 33.625399512997319 -379.51356189166836 0 0 0 0 -1694.2505046579463 -83.805577458886546 0 -83.805577458886546 -554.09526883465878 0 0 0 0 10.265057741341973 -75.814231085218722 0 -75.814231085218722 -13.633072513925811 0 0 0 0 -0.37186578112357438 0.5960058326785429 0 0.5960058326785429 11.628826814939842 0 0 0 0 -1701.6940145482004 142.65070222693612 0 142.65070222693612 -158.97600736413733 0 0 0 0 -1616.6996106627339 130.33375412359601 0 130.33375412359601 -840.70297544775531 0 0 0 0 -444.35755089508893 14.954994080137112 0 14.954994080137112 -753.14052076132793 0 0 0 0 -472.06076380103605 0.74257413829309371 0 0.74257413829309371 -704.68242651585024 0 0 0 0 32.27569307267936 -38.380206362295525 0 -38.380206362295525 -24.560652931250218 0 0 0 0 -1670.3105413280136 -1050.1063857111294 0 -1050.1063857111294 -1151.9154742659593 0 0 0 0 -3522.3406310328282 -1261.7620294962471 0 -1261.7620294962471 -525.35562777585437 0 0 0 0 -2137.9592824004503 -903.01535567390601 0 -903.01535567390601 -1265.3765703748286 0 0 0 0 -2089.3610935514262 -694.62019722584228 0 -694.62019722584228 -766.48289129250043 0 0 0 0 24.326100436052755 -40.179148319018097 0 -40.179148319018097 -39.988176150278264 0 0 0 0 -3232.7366864415962 -1193.7763921170372 0 -1193.7763921170372 -10.949048721115105 0 0 0 0 -2393.9811585313491 -972.63886302627725 0 -972.63886302627725 -435.45056782211759 0 0 0 0 -2032.6115783565328 -196.53711380349705 0 -196.53711380349705 68.557026791459066 0 0 0 0 -3036.116497042909 -417.37667408467678 0 -417.37667408467678 25.625394494330976 0 0 0 0 -2058.7987279677036 -162.61770890087064 0 -162.61770890087064 -828.3454244430468 0 0 0 0 -1305.2144796644279 -696.58530157836503 0 -696.58530157836503 -458.97430330901989 0 0 0 0 -1494.5783959327964 -490.18582072561549 0 -490.18582072561549 259.11876382312039 0 0 0 0 -672.5151571368915 233.21280436436064 0 233.21280436436064 -37.85751901994081 0 0 0 0 -1615.3286968984175 -333.81034704772173 0 -333.81034704772173 87.951346050889697 0 0 0 0 -989.52517878852086 -128.94372342300994 0 -128.94372342300994 -666.93562138554989 0 0 0 0 -860.47717748419382 110.51930738810915 0 110.51930738810915 336.61064298602287 0 0 0 0 -7.1733469150953795 -58.136322469787444 0 -58.136322469787444 -7.1973454054934294 0 0 0 0 -1054.0185336448558 -658.09593475185102 0 -658.09593475185102 -24.551720745046623 0 0 0 0 -2083.8828712156028 -846.32268164414381 0 -846.32268164414381 -124.82228958868654 0 0 0 0 -678.38243232548371 -542.13896380425149 0 -542.13896380425149 -133.15707977200509 0 0 0 0 -841.04272504321125 78.048581040507997 0 78.048581040507997 -306.3497277929855 0 0 0 0 -2268.6362580668865 -624.4812263316926 0 -624.4812263316926 -283.14373413551948 0 0 0 0 -1546.182750761749 -311.56851883241325 0 -311.56851883241325 -150.97853089729324 0 0 0 0 -12.772208382939233 -0.93155911987965112 0 -0.93155911987965112 0.020907058773047993 0 0 0 0 -3017.1718736983021 -1627.0425697368046 0 -1627.0425697368046 -708.4620337470551 0 0 0 0 -19.755606166157236 -158.68237880081671 0 -158.68237880081671 30.153032485294119 0 0 0 0 -4011.9056690059952 -517.25257154527935 0 -517.25257154527935 -1891.3798238716226 0 0 0 0 -1804.5964366939443 -328.17461587049183 0 -328.17461587049183 128.52558728420991 0 0 0 0 -235.01229483584757 -868.67906767496606 0 -868.67906767496606 -788.16082449187525 0 0 0 0 1.4925605243850271 -40.061144944097848 0 -40.061144944097848 -12.668607769776202 0 0 0 0 -2044.2641327160854 -685.60971805459121 0 -685.60971805459121 -2208.4438759193636 0 0 0 0 -2.6153450378588019 -21.004775337379215 0 -21.004775337379215 3.738679564587013 0 0 0 0 -2284.6197961717335 -1774.009746269614 0 -1774.009746269614 1532.8750917685247 0 0 0 0 -2265.5839935310323 -591.40980466941983 0 -591.40980466941983 -270.8644262476937 0 0 0 0 -1442.3386291021307 -782.97638820163411 0 -782.97638820163411 -329.77332630835008 0 0 0 0 -27.492430731978398 2.9410995361733185 0 2.9410995361733185 16.036554985735336 0 0 0 0 -3441.4500618770107 -1378.6160667382064 0 -1378.6160667382064 -643.0516624263837 0 0 0 0 -1612.1910635460554 -1295.5105406235962 0 -1295.5105406235962 -1855.9181014693459 0 0 0 0 -3287.7352768049159 -999.58385749825356 0 -999.58385749825356 -2669.8985119372956 0 0 0 0 -3258.0048295218003 -1311.9670837463491 0 -1311.9670837463491 -919.5962560994958 0 0 0 0 -8134.0222659777737 -2311.5873284625268 0 -2311.5873284625268 -2270.2168818821665 0 0 0 0 -2197.9300140356427 -1964.6606250797922 0 -1964.6606250797922 -1144.1185707049699 0 0 0 0 -4286.4385139208389 -1871.7977413305925 0 -1871.7977413305925 -378.92289023382182 0 0 0 0 -19.530985243293316 -5.1146344089264204 0 -5.1146344089264204 13.533328359212305 0 0 0 0 -2170.3448412624634 797.11377899788772 0 797.11377899788772 2604.0556106986041 0 0 0 0 -2064.4534350572776 -1190.6893756356549 0 -1190.6893756356549 -937.17968717392068 0 0 0 0 -2230.6134828972536 -199.93686226775026 0 -199.93686226775026 689.9280418062699 0 0 0 0 -41.061988939446636 -7.9380654415328422 0 -7.9380654415328422 34.288266815604828 0 0 0 0 -4233.2510509289241 -1702.9940337325606 0 -1702.9940337325606 -2284.2338307885984 0 0 0 0 -3017.0579793959114 -740.0286749040315 0 -740.0286749040315 -1530.0768742338078 0 0 0 0 -6742.4018162148877 -92.223361054173438 0 -92.223361054173438 -2581.6706385651778 0 0 0 0 -5.8726467214618765 -7.0512356569665968 0 -7.0512356569665968 17.235074392411548 0 0 0 0 -5512.5273164244427 -1981.3288125555118 0 -1981.3288125555118 -889.75615488513358 0 0 0 0 -7246.553949332676 -3243.0638916939934 0 -3243.0638916939934 -562.35322664753767 0 0 0 0 -3158.7960142401425 -2940.7224034249375 0 -2940.7224034249375 -571.67083988455124 0 0 0 0 -5551.6821223190527 -2138.1431424070979 0 -2138.1431424070979 -381.32220025057904 0 0 0 0 -6589.5698788876034 -4916.4917734609626 0 -4916.4917734609626 -3305.5915156359079 0 0 0 0 -4318.3871975937082 -1503.1785118504877 0 -1503.1785118504877 -640.95797918291646 0 0 0 0 -4855.5047358437187 -1597.7818448620383 0 -1597.7818448620383 -174.35557197035087 0 0 0 0 -3945.9788600826123 -2367.5845517326088 0 -2367.5845517326088 -1435.2058473663201 0 0 0 0 -4166.418408683181 -204.06829765555449 0 -204.06829765555449 -4109.9053419417469 0 0 0 0 -4265.1151436145919 -1829.1989963128435 0 -1829.1989963128435 -888.71997087725322 0 0 0 0 -3918.0375662996375 -1373.6028745794902 0 -1373.6028745794902 -3552.4514708251809 0 0 0 0 -2910.3514793938102 -2370.6815949672236 0 -2370.6815949672236 -1450.885481615449 0 0 0 0 -3945.7868127748457 -2383.0543986642047 0 -2383.0543986642047 -761.07737186411396 0 0 0 0 -3119.8402947895011 -2579.0758836676105 0 -2579.0758836676105 -771.87293060863158 0 0 0 0 -4865.4687228229113 -2290.0081626814272 0 -2290.0081626814272 -274.91379680245882 0 0 0 0 -2983.5604273792524 -1894.0982610678329 0 -1894.0982610678329 -278.38339934372789 0 0 0 0 -2296.2164434748993 -2320.3391748832873 0 -2320.3391748832873 -1150.8481124414247 0 0 0 0 -3031.6668680735092 -2792.4647309861757 0 -2792.4647309861757 -259.49613436858363 0 0 0 0 -2881.6474882223774 -2273.7009067868858 0 -2273.7009067868858 -1455.1290668168003 0 0 0 0 -2714.5607605562273 -2511.3167954430901 0 -2511.3167954430901 -1119.4449428011139 0 0 0 0 -2412.5206627126863 -2399.9023196331764 0 -2399.9023196331764 -1093.2506729822344 0 0 0 0 -2643.2615731642236 -2098.3438915822699 0 -2098.3438915822699 -1374.7852881994622 0 0 0 0 -1557.1685609796987 -2315.0260524207843 0 -2315.0260524207843 -491.64049200563022 0 0 0 0 -2571.7050535960443 -2199.9830924577836 0 -2199.9830924577836 -478.07824166837963 0 0 0 0 -2318.3790930381037 -1748.5795332608468 0 -1748.5795332608468 190.84829687690944 0 0 0 0 -1692.9126133834288 -2360.8414501625157 0 -2360.8414501625157 345.82923218715587 0 0 0 0 -535.83058585015533 -3993.4474122691026 0 -3993.4474122691026 1106.155458510163 0 0 0 0 -2763.6148613425539 -2739.2592525822984 0 -2739.2592525822984 1221.1239607606403 0 0 0 0 3734.710287320795 -3145.5467561476507 0 -3145.5467561476507 -970.50095216391492 0 0 0 0 -10583.794823968998 395.89046817573762 0 395.89046817573762 1854.7041692138882 0 0 0 0 -14.230463499769872 -17.986851704896651 0 -17.986851704896651 10.396895941805269 0 0 0 0 -2016.7769642755047 -923.17487020000408 0 -923.17487020000408 -398.09640340459009 0 0 0 0 -1342.5716867710753 -1962.8750202162264 0 -1962.8750202162264 509.15126560692443 0 0 0 0 -2981.9906735876648 -3842.8740658397728 0 -3842.8740658397728 -769.30513206603791 0 0 0 0 -3367.9993322294686 -461.25590141284556 0 -461.25590141284556 -1854.5348631428205 0 0 0 0 -8.3118270478749352 -17.889731855052922 0 -17.889731855052922 5.3543946245136453 0 0 0 0 -7006.4061675899338 -1237.0409370466659 0 -1237.0409370466659 -145.62965436074592 0 0 0 0 -1885.166471712324 -2008.3375909461902 0 -2008.3375909461902 -2019.0503172620083 0 0 0 0 -27.849435843067255 -39.646788907846386 0 -39.646788907846386 22.669028443027685 0 0 0 0 -5219.7673612973886 -1126.8142463819968 0 -1126.8142463819968 -1172.3643514105934 0 0 0 0 -3917.065017437315 -898.38497853511763 0 -898.38497853511763 -1705.9076397628523 0 0 0 0 -140.45588049598155 -2687.1996264828995 0 -2687.1996264828995 -1732.5291830102797 0 0 0 0 -4787.7658197707933 56.999949793185806 0 56.999949793185806 -1296.7712802754104 0 0 0 0 -2573.4329131409613 -609.43163166680461 0 -609.43163166680461 -2061.5655013758515 0 0 0 0 -3433.3977892375478 220.19007660557691 0 220.19007660557691 -2025.4033905951655 0 0 0 0 -24.485862977204221 -36.889668464386602 0 -36.889668464386602 20.996510073002014 0 0 0 0 -3485.6791195404257 1934.4716453755391 0 1934.4716453755391 -1622.8986392319493 0 0 0 0 -3827.8027736989388 -906.10551444292651 0 -906.10551444292651 -1208.0699485283112 0 0 0 0 4763.8742937118714 -2567.3186785802354 0 -2567.3186785802354 -1526.5443318959733 0 0 0 0 -10.260035043855446 -14.938097144793105 0 -14.938097144793105 8.5250252950492609 0 0 0 0 -7180.2196771554009 911.18510453942872 0 911.18510453942872 323.41554193981574 0 0 0 0 -4473.5432990676672 -2491.6411428880892 0 -2491.6411428880892 -4.8125402574369218 0 0 0 0 -196.00946814264898 -3488.9973861491817 0 -3488.9973861491817 1.2303588222566759 0 0 0 0 -1657.456705420409 -1615.5797989897692 0 -1615.5797989897692 -46.211001924311859 0 0 0 0 -4480.3812874831565 -1789.0660797751043 0 -1789.0660797751043 -1301.8361721492984 0 0 0 0 -2803.6834816953415 -3491.8757713185623 0 -3491.8757713185623 -465.02925537285046 0 0 0 0 -3127.3719602627898 -1318.4027364275244 0 -1318.4027364275244 11.177343560571899 0 0 0 0 -4396.0804740730637 -3182.5668485671013 0 -3182.5668485671013 -904.61292751177098 0 0 0 0 -7526.2337503961608 -2216.2394277855637 0 -2216.2394277855637 -3.6385235921043204 0 0 0 0 -7625.6144501936178 -3754.8981018400154 0 -3754.8981018400154 -573.32205932690226 0 0 0 0 0.093227871580381816 -7.7151935700316585 0 -7.7151935700316585 17.56731093279566 0 0 0 0 -9376.3516306491219 193.61062331096036 0 193.61062331096036 -2980.0895868315315 0 0 0 0 -2.3959583487917726 -32.210677003837425 0 -32.210677003837425 -22.720808882426581 0 0 0 0 -17.48862077106498 -32.694247388049476 0 -32.694247388049476 116.44125198132667 0 0 0 0 -5233.0323833760158 -718.50021240628121 0 -718.50021240628121 -366.76658303980366 0 0 0 0 -7834.4162293515437 -3258.2546091404874 0 -3258.2546091404874 420.54551016789628 0 0 0 0 -3661.5316171516915 -927.27212866167974 0 -927.27212866167974 -722.5650283057621 0 0 0 0 -9.1298755522380475 -15.855977947596202 0 -15.855977947596202 67.871641733820979 0 0 0 0 -5453.060732547503 -3289.5888662776633 0 -3289.5888662776633 -927.91527542244512 0 0 0 0 -3743.0417911317354 -1983.4175760534445 0 -1983.4175760534445 -1399.2704946993035 0 0 0 0 -4824.1520450649896 -1608.1140915786236 0 -1608.1140915786236 -1401.5546253553475 0 0 0 0 -4779.8879441446697 -2024.3960907102664 0 -2024.3960907102664 -367.81170555223071 0 0 0 0 -3339.567392018922 -1112.4174915999538 0 -1112.4174915999538 -1367.0442522355297 0 0 0 0 -4440.2290832252393 -2315.4531879763144 0 -2315.4531879763144 -2317.4787735571153 0 0 0 0 -4192.4966969220259 -939.40517185723729 0 -939.40517185723729 -1401.9210314731317 0 0 0 0 -4691.3268787141569 -1138.8049170075101 0 -1138.8049170075101 -129.68548721091065 0 0 0 0 -4663.168238564278 -867.72205862803821 0 -867.72205862803821 -817.16371887101559 0 0 0 0 1.001242611815286 -81.179527355412034 0 -81.179527355412034 9.6825132869986152 0 0 0 0 -6209.2675692557059 -925.72599967487258 0 -925.72599967487258 -446.59568842462613 0 0 0 0 -4816.8885380224165 -436.81566378920616 0 -436.81566378920616 -619.08472635311773 0 0 0 0 -4972.5957729073707 28.311214273941005 0 28.311214273941005 -3.5217771043536916 0 0 0 0 -4546.1946837616779 -600.94794317791093 0 -600.94794317791093 -563.1820798985209 0 0 0 0 -4585.1821755686578 -199.25219141216394 0 -199.25219141216394 -901.18980351285427 0 0 0 0 1.0095900310160175 -81.530159022834681 0 -81.530159022834681 -3.4012818430912057 0 0 0 0 -2434.3752529561752 -8.6196639480185695 0 -8.6196639480185695 0.89479767422017176 0 0 0 0 -4713.3206825932029 -312.08788836980602 0 -312.08788836980602 19.938007355318405 0 0 0 0 -3206.973008166693 613.1338868446619 0 613.1338868446619 -834.4351205851126 0 0 0 0 -2299.0194912625884 -180.81220207028673 0 -180.81220207028673 41.622068924276391 0 0 0 0 1.0022404249304486 -81.180469397775312 0 -81.180469397775312 0.86424268092838252 0 0 0 0 -2342.6416276737218 -230.4843684119478 0 -230.4843684119478 -1498.5277477721284 0 0 0 0 -2871.8955774390197 -829.05891142608016 0 -829.05891142608016 -2551.129024734124 0 0 0 0 -2524.5863353474197 78.48185406079574 0 78.48185406079574 -1428.5826629842541 0 0 0 0 31.527967102485832 -38.537173657187175 0 -38.537173657187175 -39.936900533575113 0 0 0 0 -55.88634120001791 -13.592072150240448 0 -13.592072150240448 40.379469160183959 0 0 0 0 -2850.5911106268504 -428.74813499849188 0 -428.74813499849188 -1915.693318864578 0 0 0 0 -3357.2670901136662 -213.8801526571915 0 -213.8801526571915 -974.1292445964209 0 0 0 0 -2506.866362322733 -230.14185803919827 0 -230.14185803919827 -1583.4442578528397 0 0 0 0 -3359.3770185993635 -917.41576129560417 0 -917.41576129560417 -1968.9997129566036 0 0 0 0 -46.207965721536723 -7.6771679176345202 0 -7.6771679176345202 41.41738762332227 0 0 0 0 -1302.1458318211644 -1698.4016170405448 0 -1698.4016170405448 -2105.3803065103566 0 0 0 0 -2663.1019771617439 -2524.8227259464111 0 -2524.8227259464111 -2297.4845919514046 0 0 0 0 -2621.6911251814454 -3141.1354302131222 0 -3141.1354302131222 -328.39091752280365 0 0 0 0 -1964.5423438212147 -2519.9045179967034 0 -2519.9045179967034 -1351.9793076966889 0 0 0 0 -2432.7850879638427 -3702.9240163756549 0 -3702.9240163756549 -2619.5950954999062 0 0 0 0 -2775.7458410535846 -3133.7475874692609 0 -3133.7475874692609 -1549.4940705211775 0 0 0 0 -29.192770948246121 -51.996585109007469 0 -51.996585109007469 57.452865896169072 0 0 0 0 -549.61492218692456 -1090.5875591577787 0 -1090.5875591577787 -1231.9674555171077 0 0 0 0 -492.07477931078392 -955.64181063233991 0 -955.64181063233991 -1528.0632752213132 0 0 0 0 -648.03936352918663 -1101.806569774948 0 -1101.806569774948 -1665.0389366704185 0 0 0 0 -1001.504018185208 -1006.970462648871 0 -1006.970462648871 -1373.6727115842223 0 0 0 0 -1029.0103815536359 -1064.3022995187785 0 -1064.3022995187785 -1319.8794682552398 0 0 0 0 -1401.9036316034599 -1214.5809231791063 0 -1214.5809231791063 -1426.7518733903653 0 0 0 0 -658.41011281371539 -1415.3255783596251 0 -1415.3255783596251 -2010.2229963908612 0 0 0 0 -1489.1818655655698 -1212.0661808370132 0 -1212.0661808370132 -1576.2566123792785 0 0 0 0 -1440.8888756621254 -1125.7175645560492 0 -1125.7175645560492 -1431.5399075134428 0 0 0 0 -2008.8197862473339 -1241.6194322635929 0 -1241.6194322635929 -1562.2482961976202 0 0 0 0 -1449.8260670648626 -1874.8131135145377 0 -1874.8131135145377 -2198.550664737093 0 0 0 0 -50.270028656635915 -42.755323142505461 0 -42.755323142505461 56.938269496072081 0 0 0 0 -2338.0272486295889 -419.34007111430401 0 -419.34007111430401 -1617.1139173195843 0 0 0 0 -582.91423364371985 -969.57912302696786 0 -969.57912302696786 -1627.2474756607953 0 0 0 0 -1031.377602303337 -1276.5209428226153 0 -1276.5209428226153 -5415.9813031070953 0 0 0 0 -1353.3524785838417 -2279.4166512094162 0 -2279.4166512094162 -2697.7067808363208 0 0 0 0 -17.019235546514945 -47.610213177112968 0 -47.610213177112968 5.2784294719955227 0 0 0 0 -36.208574390072492 -44.032884927320538 0 -44.032884927320538 53.301217830305802 0 0 0 0 -2142.5768206477769 -1809.980033945234 0 -1809.980033945234 -2198.7840685676201 0 0 0 0 -1659.1869768757497 -321.63332577173423 0 -321.63332577173423 -2693.4456575789663 0 0 0 0 569.14548337851102 230.11453299604545 0 230.11453299604545 -7784.3498735614994 0 0 0 0 658.75739208446976 -3238.0482158466184 0 -3238.0482158466184 -4911.6995663416164 0 0 0 0 180.06987681608007 -332.6779091770004 0 -332.6779091770004 -4406.9832753569935 0 0 0 0 -0.18981144163561225 -3.82091087423467 0 -3.82091087423467 22.483224232376529 0 0 0 0 -1962.2761031784867 -2272.9502918457438 0 -2272.9502918457438 -4554.8452173009546 0 0 0 0 2.9957776149342941 -0.37230742993402544 0 -0.37230742993402544 -1.5139423493825745 0 0 0 0 -229.09733329150185 -905.08862297763699 0 -905.08862297763699 1290.3375121374411 0 0 0 0 -604.08898433380091 1124.3790476565264 0 1124.3790476565264 -826.81681909541658 0 0 0 0 2.4808848263779382 -46.307204502684215 0 -46.307204502684215 4.6716874829768784 0 0 0 0 -1443.9108571918166 -1616.7178007119091 0 -1616.7178007119091 -173.26211081292422 0 0 0 0 14.844751603069859 -21.82781648221561 0 -21.82781648221561 7.733621326602929 0 0 0 0 -2738.0530379321885 -2274.6378303902529 0 -2274.6378303902529 -1716.5431111537619 0 0 0 0 -1867.4121564898742 -615.09527351350698 0 -615.09527351350698 -1837.9206596601507 0 0 0 0 -3127.4710209171826 430.59902396307734 0 430.59902396307734 -99.844069262951962 0 0 0 0 -2250.2293658534186 318.37811783650977 0 318.37811783650977 -2975.2985697867989 0 0 0 0 34.28986892737074 -40.31095346050887 0 -40.31095346050887 -37.981147375488234 0 0 0 0 -3742.5914921774875 -531.19089681543119 0 -531.19089681543119 -2457.1914120812216 0 0 0 0 -2782.9757076529431 -1567.2081408201848 0 -1567.2081408201848 -1566.336156623569 0 0 0 0 -22.36693734469177 -61.748970152432122 0 -61.748970152432122 16.447916349342321 0 0 0 0 -6451.0243393198107 -3651.2729917562101 0 -3651.2729917562101 5230.7265203570714 0 0 0 0 -3455.6501753120665 -1121.586790631598 0 -1121.586790631598 -796.79243341307665 0 0 0 0 -4696.2216116678283 -894.91147250359063 0 -894.91147250359063 -1671.5289161562905 0 0 0 0 43.914395719107119 -35.509894199761128 0 -35.509894199761128 -48.180365723796626 0 0 0 0 -1264.4996975208014 -608.77747480230755 0 -608.77747480230755 -1769.3386650675893 0 0 0 0 198.28075350878134 -588.42979608109454 0 -588.42979608109454 -2116.874953600287 0 0 0 0 298.09642632305258 -526.49926174941356 0 -526.49926174941356 -2178.3477188989855 0 0 0 0 -282.87725457764463 -599.73698026734928 0 -599.73698026734928 -1869.7419048580341 0 0 0 0 1533.2363427877717 -1284.2460986402584 0 -1284.2460986402584 -1857.6783894299642 0 0 0 0 -246.40338781191531 -1317.9919195235707 0 -1317.9919195235707 -1135.4733441987773 0 0 0 0 -2943.4957651288587 674.43231692329573 0 674.43231692329573 -2294.6458270483708 0 0 0 0 -2333.5723122081399 -1666.5637757556251 0 -1666.5637757556251 256.00043539091712 0 0 0 0 -986.65562754622079 -1187.7680827925069 0 -1187.7680827925069 -985.50129432586255 0 0 0 0 32.455544316246232 -1788.4415234345215 0 -1788.4415234345215 -153.19738404641976 0 0 0 0 -403.57812624110011 -1913.7679499052028 0 -1913.7679499052028 -149.6516932642262 0 0 0 0 -1290.9436527173675 -2247.349432819763 0 -2247.349432819763 1341.4864733799186 0 0 0 0 -1898.2937595363092 -1418.2553620692197 0 -1418.2553620692197 276.55591584753711 0 0 0 0 -788.28246275620404 -1861.1611130364327 0 -1861.1611130364327 1438.6928978511132 0 0 0 0 -1435.916290205776 -684.76569392936653 0 -684.76569392936653 1098.8458433400738 0 0 0 0 1425.5835691908942 15.149207980692154 0 15.149207980692154 2934.6979300719977 0 0 0 0 5992.2580901672263 -2367.9728790625522 0 -2367.9728790625522 670.5011992987711 0 0 0 0 -2241.6498808633842 -1654.5247835285845 0 -1654.5247835285845 1372.7063771982503 0 0 0 0 377.24350081814919 -1406.2688911170699 0 -1406.2688911170699 8104.67506670898 0 0 0 0 8.3889202959730227 -11.492610351391733 0 -11.492610351391733 -14.052230447354759 0 0 0 0 708.5003422086811 -5804.4359164677007 0 -5804.4359164677007 7164.5580665231682 0 0 0 0 18.022522999173319 -21.995304299906337 0 -21.995304299906337 -15.543758181243504 0 0 0 0 792.24126872522902 1287.2056900475291 0 1287.2056900475291 -2523.601622463495 0 0 0 0 3979.5711861169548 479.80642851308221 0 479.80642851308221 -4862.2938152622519 0 0 0 0 1041.7466092575851 -3658.5163775019464 0 -3658.5163775019464 3310.1687173741302 0 0 0 0 1049.2489607671496 -1194.696352508985 0 -1194.696352508985 -1509.9951262096292 0 0 0 0 5117.9844190254753 -2691.5193167952166 0 -2691.5193167952166 -2557.0304570288863 0 0 0 0 -2614.6123590230641 -1867.9255230066719 0 -1867.9255230066719 -527.01643472822616 0 0 0 0 -3029.1233516384473 -2315.5318655103838 0 -2315.5318655103838 -313.37908854408306 0 0 0 0 -2716.1661489669859 -2572.3770751638658 0 -2572.3770751638658 -1564.9359107294003 0 0 0 0 -2712.9323366325443 -1857.2444592647953 0 -1857.2444592647953 76.56355334399268 0 0 0 0 -2268.7782349877671 -1839.6831582854502 0 -1839.6831582854502 -92.777762749698013 0 0 0 0 -2253.6463233334271 -1735.5800223548213 0 -1735.5800223548213 443.28816034374177 0 0 0 0 -2444.5513889639005 -1496.110434493894 0 -1496.110434493894 142.90392442229495 0 0 0 0 -2424.522023151465 -1162.1696013492183 0 -1162.1696013492183 654.05515207723874 0 0 0 0 -2433.4882226451773 -1235.026381686388 0 -1235.026381686388 62.976797625582549 0 0 0 0 -2591.0124214436601 -1640.5174596569923 0 -1640.5174596569923 209.21488041637349 0 0 0 0 -2775.491143829573 -1973.7781976577899 0 -1973.7781976577899 -317.0505676381581 0 0 0 0 -2192.4417573413266 -1595.3025452541769 0 -1595.3025452541769 -143.63926542824629 0 0 0 0 -2543.7381733604707 -1554.3552023535449 0 -1554.3552023535449 -168.41518841673314 0 0 0 0 -1857.840114098788 -1870.7478673746227 0 -1870.7478673746227 -192.99007275786425 0 0 0 0 -2304.5455972364098 -1764.7146832504859 0 -1764.7146832504859 158.11321278329706 0 0 0 0 -2380.7858644748826 -1424.6238816346613 0 -1424.6238816346613 -267.91165672757779 0 0 0 0 -1996.9381012619815 -1656.0957874118685 0 -1656.0957874118685 -161.85258352315577 0 0 0 0 -1740.5767034691426 -1726.6050997986058 0 -1726.6050997986058 -2137.9454556790442 0 0 0 0 -2029.1919455360839 -1727.1223576132907 0 -1727.1223576132907 -313.25308155646781 0 0 0 0 908.68914149425109 -3785.8662550432346 0 -3785.8662550432346 -1168.3210600915991 0 0 0 0 528.36885129316579 -4207.7515007325419 0 -4207.7515007325419 -212.7383777391442 0 0 0 0 -258.20128094133543 -1954.0965425474424 0 -1954.0965425474424 723.59980908394937 0 0 0 0 1465.6080502652112 -827.33462273347686 0 -827.33462273347686 -590.01136078851414 0 0 0 0 -1854.9327304951039 -1358.3360125579493 0 -1358.3360125579493 59.393805041559972 0 0 0 0 -1631.1190751426548 -529.88050802942598 0 -529.88050802942598 -215.54147509899121 0 0 0 0 -1546.6667621879678 -2603.2834383391601 0 -2603.2834383391601 -1507.6681233718191 0 0 0 0 -2109.054562708865 -1406.7206778686377 0 -1406.7206778686377 -2337.9293744834431 0 0 0 0 -2469.9214035657697 -4344.5907768347679 0 -4344.5907768347679 -5026.2108810893624 0 0 0 0 -429.41183104021366 -1637.9468314896112 0 -1637.9468314896112 -3459.7570513147803 0 0 0 0 -679.4609878521369 -1137.1185919305208 0 -1137.1185919305208 818.62821486711618 0 0 0 0 -7.376502166444773 -47.575853383530557 0 -47.575853383530557 44.352122769982429 0 0 0 0 0.081333927928540106 -19.579427587531882 0 -19.579427587531882 15.00017992846881 0 0 0 0 -526.94242914717961 -1678.0632336135714 0 -1678.0632336135714 914.32285544261686 0 0 0 0 -2020.8387813362206 -1254.8955537073853 0 -1254.8955537073853 6521.5522047418635 0 0 0 0 -603.72323770207913 -1917.2342580232762 0 -1917.2342580232762 175.052449572162 0 0 0 0 2119.1293483665013 -3481.8772998427303 0 -3481.8772998427303 -1851.3607296823466 0 0 0 0 -7.3513376690734731 -2264.0714552134268 0 -2264.0714552134268 -372.0036391785834 0 0 0 0 -2285.5061907076815 -5233.7661429330255 0 -5233.7661429330255 -6101.9670120695519 0 0 0 0 -2208.1010050859259 -3684.6698577157003 0 -3684.6698577157003 -307.85154833410343 0 0 0 0 -1503.3882972890606 -3526.447853844129 0 -3526.447853844129 128.31252827480785 0 0 0 0 -4319.0500057137542 -2020.0369009250553 0 -2020.0369009250553 -231.07751199640916 0 0 0 0 -14.165826060195309 -26.576885077706393 0 -26.576885077706393 7.9910430793416367 0 0 0 0 -3231.699284985345 -1101.5505134589912 0 -1101.5505134589912 466.47531757358229 0 0 0 0 -3058.6945986800201 -275.50783146673348 0 -275.50783146673348 -1790.4442788658489 0 0 0 0 -3676.7168834917302 -1778.2283994633908 0 -1778.2283994633908 346.67859877558658 0 0 0 0 -4489.8892124504073 -2547.5441967999504 0 -2547.5441967999504 -3.3022041468211683 0 0 0 0 -1399.7563764006536 -1775.2154313710489 0 -1775.2154313710489 -1483.280729340011 0 0 0 0 -8777.214179962597 215.28439214902755 0 215.28439214902755 125.22075823938212 0 0 0 0 -644.91077521278203 -939.15321178844169 0 -939.15321178844169 -2167.7368123230117 0 0 0 0 -11.936123500225129 -10.092465001129199 0 -10.092465001129199 3.1690360283885184 0 0 0 0 -1589.55691430552 -2629.6760375517406 0 -2629.6760375517406 729.71177467931557 0 0 0 0 -727.06429985185787 -2918.2842259299941 0 -2918.2842259299941 -0.21156849598628469 0 0 0 0 -46.054525253949578 -2895.4225296138029 0 -2895.4225296138029 -0.0058910931111313403 0 0 0 0 -562.34790581121797 -2672.7530140612798 0 -2672.7530140612798 29.738365309254732 0 0 0 0 723.98624507252339 -2781.014070860726 0 -2781.014070860726 1085.7517621209263 0 0 0 0 720.25205759966957 -2663.9057729267079 0 -2663.9057729267079 -430.28445099599776 0 0 0 0 -127.26842431329351 -2152.8362359367893 0 -2152.8362359367893 -835.6104720508738 0 0 0 0 692.51984671616992 -2713.7517857928178 0 -2713.7517857928178 -451.98253441403358 0 0 0 0 -190.0680476339603 -2482.8727236071136 0 -2482.8727236071136 125.95808846572618 0 0 0 0 -475.84090453027511 -1963.8866596773114 0 -1963.8866596773114 -198.25656958037871 0 0 0 0 -333.62284220055153 -1884.3905202315364 0 -1884.3905202315364 -187.2266108202457 0 0 0 0 -177.06648951948046 -1885.1811221026728 0 -1885.1811221026728 -566.86180274371873 0 0 0 0 -403.17345877247681 -1548.0197990624438 0 -1548.0197990624438 -866.06080752321577 0 0 0 0 -410.15379282805134 -1478.1885622459631 0 -1478.1885622459631 -763.75218696094817 0 0 0 0 -364.33923556716036 -1038.953186928411 0 -1038.953186928411 -1219.605500726102 0 0 0 0 -675.06427787265693 -1059.9526895889576 0 -1059.9526895889576 -468.27847247995669 0 0 0 0 -1075.9455098607659 -1044.0356919877522 0 -1044.0356919877522 -1214.7460400764976 0 0 0 0 -988.20460683668898 -961.2427587271668 0 -961.2427587271668 -1273.5219328503008 0 0 0 0 -1189.3999375473277 -1048.0011146732577 0 -1048.0011146732577 -1298.1999355971057 0 0 0 0 -868.93576830223174 -1088.4033991953911 0 -1088.4033991953911 -1359.38685823782 0 0 0 0 -666.02105936828411 -1182.7356758096139 0 -1182.7356758096139 -1238.6767165104829 0 0 0 0 -860.98951900141856 -1012.7881418124307 0 -1012.7881418124307 -1137.4495350727957 0 0 0 0 -593.6764433181861 -1076.3880477929815 0 -1076.3880477929815 -1083.7672015193966 0 0 0 0 49.195276247658057 -1505.6228477535769 0 -1505.6228477535769 -1190.457848287886 0 0 0 0 -896.07438825008103 -1272.3982695313753 0 -1272.3982695313753 -1181.0345425426131 0 0 0 0 -938.27545627843483 -1157.0290350127543 0 -1157.0290350127543 -1405.3011038200639 0 0 0 0 -922.81925285093803 -1019.1108256621374 0 -1019.1108256621374 -1134.6666625740472 0 0 0 0 -1031.8680715200899 -1065.6337281582237 0 -1065.6337281582237 -1278.5281899810652 0 0 0 0 -969.25788559908915 -1103.2604082397374 0 -1103.2604082397374 -1283.7935284409614 0 0 0 0 9.774693002355594 -15.181844022334928 0 -15.181844022334928 12.667751556124358 0 0 0 0 -258.499201211951 -737.67246138158953 0 -737.67246138158953 -10.368391994008562 0 0 0 0 -1182.75532976062 -1511.0188078060037 0 -1511.0188078060037 -1331.6332353679754 0 0 0 0 -531.04535805551131 -1085.3180023352907 0 -1085.3180023352907 -1353.1580800647789 0 0 0 0 378.00632783277797 -1536.4479074114206 0 -1536.4479074114206 -1230.0078300268069 0 0 0 0 -1107.329010745648 -637.83324304638882 0 -637.83324304638882 -1544.431095840293 0 0 0 0 292.71231066601558 -1665.9659038660866 0 -1665.9659038660866 -1420.6636648848653 0 0 0 0 1095.1041807366746 -1567.5321578766743 0 -1567.5321578766743 -1454.4442977844192 0 0 0 0 1981.9236742309254 -2048.8330469328212 0 -2048.8330469328212 2.8288910474657314 0 0 0 0 4.9741455810216557 -8.1291245079021905 0 -8.1291245079021905 5.9405420640114244 0 0 0 0 -222.51354506776829 -1219.1720493284083 0 -1219.1720493284083 293.28725066456536 0 0 0 0 1788.3372317081084 -2766.847252752661 0 -2766.847252752661 -723.69733416166855 0 0 0 0 953.53296022827021 505.39361481463857 0 505.39361481463857 -739.90833294266486 0 0 0 0 1.2880332931644585 -1.4791842014921315 0 -1.4791842014921315 -2.5115267246303574 0 0 0 0 50.675537050057756 -2420.6315734305899 0 -2420.6315734305899 -80.825557997403948 0 0 0 0 -1064.3584112876251 -666.47516276908573 0 -666.47516276908573 -1.1537042411171803 0 0 0 0 -1839.472219635612 -575.32286047558591 0 -575.32286047558591 -437.64294176179101 0 0 0 0 0.97855143214989782 -6.2928994552484596 0 -6.2928994552484596 5.9530296537750473 0 0 0 0 -903.62835695404738 -656.31190055595289 0 -656.31190055595289 -823.52082128563779 0 0 0 0 10.736416869187028 -18.026745387170735 0 -18.026745387170735 13.108796634908686 0 0 0 0 -327.06186552984946 -1563.9422647659958 0 -1563.9422647659958 -852.48204221521746 0 0 0 0 337.82413392476064 137.35383186607578 0 137.35383186607578 -530.58861203222477 0 0 0 0 -194.21595537115991 -1036.0971077185022 0 -1036.0971077185022 -880.44554692175006 0 0 0 0 -777.91557820220441 -995.42936603055568 0 -995.42936603055568 -262.48968270997284 0 0 0 0 -662.08476045224961 -798.9903888621775 0 -798.9903888621775 0.042531641884124838 0 0 0 0 -729.90770377978151 -1096.3513219148444 0 -1096.3513219148444 240.59887926811643 0 0 0 0 1.4131576261090224 -4.0101415065096262 0 -4.0101415065096262 3.2497405051068426 0 0 0 0 -298.65440237256917 -1669.4136675203044 0 -1669.4136675203044 -480.37724318981054 0 0 0 0 -1779.7323498421238 339.57456099010233 0 339.57456099010233 -476.46144687611377 0 0 0 0 -1138.7411087995888 -1356.6674449693401 0 -1356.6674449693401 -230.17240140697686 0 0 0 0 -1157.3096341683813 -1221.0239355625672 0 -1221.0239355625672 182.46192259765667 0 0 0 0 1384.6251622454574 -2800.7695488041936 0 -2800.7695488041936 -242.88207963109016 0 0 0 0 -18.539683474236881 -499.6756874122766 0 -499.6756874122766 -627.83458200763562 0 0 0 0 3948.3743987544613 -2125.7862455101567 0 -2125.7862455101567 -1657.6005949537794 0 0 0 0 1649.7620699868021 -665.72768256335257 0 -665.72768256335257 -603.78958994557615 0 0 0 0 979.74065590490864 -1612.0588129245734 0 -1612.0588129245734 -1569.8291815992416 0 0 0 0 -253.40574861628738 -1326.7532058736106 0 -1326.7532058736106 -3067.635279155249 0 0 0 0 -12.727571828756076 -3.1810184541393483 0 -3.1810184541393483 9.4613599509958703 0 0 0 0 -16.175463716198649 -25.516915805251216 0 -25.516915805251216 25.539095240555298 0 0 0 0 -1455.172374591637 -24.84601401364489 0 -24.84601401364489 120.25043859051948 0 0 0 0 -401.78234150029311 -1187.7359927345533 0 -1187.7359927345533 -269.35150970940595 0 0 0 0 0.45729797728888144 -11.069934994765561 0 -11.069934994765561 7.2251493018135875 0 0 0 0 450.64352278442311 -784.44910069748585 0 -784.44910069748585 -706.37744936005765 0 0 0 0 114.99680101893136 -1594.522244250089 0 -1594.522244250089 -710.49192171118921 0 0 0 0 -207.41703432843906 -516.67289446820632 0 -516.67289446820632 -764.80437195720151 0 0 0 0 -333.10335804374654 -1341.4331918894422 0 -1341.4331918894422 -575.48638920171652 0 0 0 0 -16.35973471226653 -28.104337051969452 0 -28.104337051969452 15.706276336549934 0 0 0 0 902.89534021251711 -1573.5953820008781 0 -1573.5953820008781 -641.75247031878098 0 0 0 0 940.7766824202663 -1357.6882934163441 0 -1357.6882934163441 -726.89529017774476 0 0 0 0 10.481234302689352 -5.9327093918903699 0 -5.9327093918903699 -12.384244401862247 0 0 0 0 -1037.8341786923602 -1064.7371574223653 0 -1064.7371574223653 -1350.2569497060322 0 0 0 0 1.2469255475032401 -14.107709350181182 0 -14.107709350181182 13.187202415837874 0 0 0 0 -1012.874742579872 -1074.5252452268614 0 -1074.5252452268614 -1351.1150799459647 0 0 0 0 -1025.3532695254853 -1054.6878991059784 0 -1054.6878991059784 -1340.7301710926986 0 0 0 0 -1040.8338087468328 -1022.5709361354238 0 -1022.5709361354238 -1321.0628364278091 0 0 0 0 -1025.1924124166553 -1089.5845376813086 0 -1089.5845376813086 -1302.3911548922188 0 0 0 0 -1031.1759595128278 -1103.0359827232314 0 -1103.0359827232314 -1262.6210598698235 0 0 0 0 -483.82420741215537 -292.03791218788683 0 -292.03791218788683 -493.29029599773639 0 0 0 0 -193.72957831166059 -488.21336679802334 0 -488.21336679802334 -670.27722465152328 0 0 0 0 -6.1998265721921362 -18.007533662487532 0 -18.007533662487532 10.663294030718873 0 0 0 0 3.0886870507969313 -4.067631798921127 0 -4.067631798921127 -6.708051301311059 0 0 0 0 -704.57310804147983 -898.53706636921561 0 -898.53706636921561 -1808.9369505161303 0 0 0 0 258.40199497455433 -2113.5482090273581 0 -2113.5482090273581 -1196.9402805141872 0 0 0 0 -1151.4635509712848 -1345.9299416011054 0 -1345.9299416011054 -1881.6976908789366 0 0 0 0 381.0149845981058 -621.34590770388604 0 -621.34590770388604 -1884.8350740481401 0 0 0 0 -442.73754096574203 -805.40023410372669 0 -805.40023410372669 -1886.1510187031236 0 0 0 0 -655.14911986824836 -807.30137796243071 0 -807.30137796243071 -1843.6242185702431 0 0 0 0 -628.10926315963297 -703.59762601535476 0 -703.59762601535476 -1615.6793379034498 0 0 0 0 -923.04365509236413 -901.66310894160415 0 -901.66310894160415 -1746.4387390568154 0 0 0 0 -973.32035416354665 -646.68392078723991 0 -646.68392078723991 -1466.7004839067813 0 0 0 0 -938.81434470014301 -760.02348851639545 0 -760.02348851639545 -1504.2784192503605 0 0 0 0 -1061.4956717363893 -845.43366340143257 0 -845.43366340143257 -1508.2535483220709 0 0 0 0 -1023.9624654469171 -1023.7526003879029 0 -1023.7526003879029 -1479.8490089507541 0 0 0 0 -1056.4957261333477 -971.05747232353679 0 -971.05747232353679 -1397.2960805862094 0 0 0 0 -1211.2633637674535 -837.45155900267127 0 -837.45155900267127 -1309.9536404252285 0 0 0 0 -1053.3121194220166 -886.37420646470855 0 -886.37420646470855 -1304.1481112526963 0 0 0 0 -1362.5225314545842 -823.51985144925129 0 -823.51985144925129 -1254.3160240352445 0 0 0 0 -1243.4764179892027 -536.64775255059067 0 -536.64775255059067 -1243.5026064105623 0 0 0 0 -1590.5341969664423 -649.17556067014812 0 -649.17556067014812 -1268.5577275756514 0 0 0 0 -1139.859893072095 12.593783255222661 0 12.593783255222661 -1261.8906538966694 0 0 0 0 -1912.4807943258993 -1087.2276014383096 0 -1087.2276014383096 -1346.8559118981066 0 0 0 0 -1713.929702965708 -586.64924248779425 0 -586.64924248779425 -1232.897984804411 0 0 0 0 -1302.0045223126303 -841.05291716497595 0 -841.05291716497595 -1273.6720799633185 0 0 0 0 -2947.0875336747868 -500.11571202664345 0 -500.11571202664345 -1257.0097998250276 0 0 0 0 -5.3571750063346659 -5.9819744977632894 0 -5.9819744977632894 6.2907386452249625 0 0 0 0 -2254.3985709379867 -871.52986935296212 0 -871.52986935296212 -1295.1401271483628 0 0 0 0 -2114.3438752676057 -76.386415319808293 0 -76.386415319808293 -1269.9707072747988 0 0 0 0 -3111.9824551124639 -1284.9970829228405 0 -1284.9970829228405 -1549.1841427436448 0 0 0 0 -2428.6481112868823 -764.60488283494487 0 -764.60488283494487 -1357.7882758548367 0 0 0 0 -2229.7381552400043 -1517.9816219199856 0 -1517.9816219199856 -1808.798450086033 0 0 0 0 6427.4241752761609 -180.37502065212175 0 -180.37502065212175 -1276.8700800642255 0 0 0 0 3.2357569899535799 -13.277932890188708 0 -13.277932890188708 -2.9432115885138614 0 0 0 0 4313.9951696682347 -1096.235681923532 0 -1096.235681923532 -685.90505668512196 0 0 0 0 -6202.6217128426342 -3021.4761113402437 0 -3021.4761113402437 -643.12331621319754 0 0 0 0 4534.4978544349269 -2725.7570002011198 0 -2725.7570002011198 -1689.5282607690897 0 0 0 0 3818.7086246355548 217.37887523180689 0 217.37887523180689 -807.73360206588404 0 0 0 0 -9.9121921980568004 -2719.4657196864282 0 -2719.4657196864282 -203.12563161650905 0 0 0 0 -519.60266099040427 -691.8167547230405 0 -691.8167547230405 -1753.7139557967021 0 0 0 0 -9.3680061566266524 -15.957658544446289 0 -15.957658544446289 15.830664915670695 0 0 0 0 -949.65000244277417 -604.9982103825896 0 -604.9982103825896 -1624.1010675485595 0 0 0 0 -480.71809156164636 -378.71724684107176 0 -378.71724684107176 -1587.9197687757842 0 0 0 0 -303.838290765907 -2707.0752729993255 0 -2707.0752729993255 -1787.8441642761463 0 0 0 0 -1046.7775980080041 -2072.1922256542603 0 -2072.1922256542603 -807.54952405448421 0 0 0 0 -814.58491251224405 -1657.3415056103113 0 -1657.3415056103113 -976.26805305364542 0 0 0 0 -1030.4384759912973 -1700.0868664416193 0 -1700.0868664416193 -93.724354548787232 0 0 0 0 -5.0154717965633608 -2177.7206552872667 0 -2177.7206552872667 -1009.3616881796625 0 0 0 0 -1212.8135374695448 -1286.7974104612658 0 -1286.7974104612658 -1645.3244642522477 0 0 0 0 -1603.082707377951 -3404.3512240290002 0 -3404.3512240290002 -1942.2169289288286 0 0 0 0 -2251.2710520582186 -2164.6861504206754 0 -2164.6861504206754 -996.88992453640094 0 0 0 0 1195.5239238987579 -1249.973857114659 0 -1249.973857114659 -285.61126875071204 0 0 0 0 1366.9577171012643 -713.59403484065842 0 -713.59403484065842 -1974.378367236146 0 0 0 0 -487.07723282523511 -970.26450849823595 0 -970.26450849823595 -2505.9413547930744 0 0 0 0 -603.01540594932521 -632.21061023298535 0 -632.21061023298535 -2723.5586280493735 0 0 0 0 -18.576010785742866 -31.519975174300196 0 -31.519975174300196 17.630921171110174 0 0 0 0 19.444192010528624 0.95563473204596505 0 0.95563473204596505 -10.20210390872478 0 0 0 0 1142.8722703786334 -2253.2978288878221 0 -2253.2978288878221 -1374.0032635855605 0 0 0 0 -752.01343922120577 -839.72354169137543 0 -839.72354169137543 -1978.2753812360543 0 0 0 0 -1149.875386518801 -1966.644408279506 0 -1966.644408279506 -2218.6948031390493 0 0 0 0 -3418.769378276038 -583.18056217311823 0 -583.18056217311823 -1403.5785690355115 0 0 0 0 -3066.8666371897489 -890.78176407754654 0 -890.78176407754654 -1082.2444400732638 0 0 0 0 0.11168703000323887 -26.757851767898956 0 -26.757851767898956 36.170267287520517 0 0 0 0 -2114.7390914229036 -1116.816924962026 0 -1116.816924962026 -1892.9405593033007 0 0 0 0 -2397.2712618466976 -1189.711495719559 0 -1189.711495719559 -1741.0407937204 0 0 0 0 -3349.0504394535092 -463.70497718159822 0 -463.70497718159822 -1517.7410631337552 0 0 0 0 -2041.6006438726627 -114.73641137156301 0 -114.73641137156301 -588.45739749760833 0 0 0 0 -2318.6262468194473 -983.5568579009414 0 -983.5568579009414 -1900.8316395046932 0 0 0 0 499.99434434546856 -1409.2463077678985 0 -1409.2463077678985 -445.74737902385095 0 0 0 0 2527.6733376856027 -1248.8120259556745 0 -1248.8120259556745 -1907.9276177769643 0 0 0 0 -2.1192346207214463 -6.7392260609702959 0 -6.7392260609702959 3.6441228157061687 0 0 0 0 368.61315549368737 -920.33485183861922 0 -920.33485183861922 -1456.0594797762169 0 0 0 0 1021.1261290881739 -329.19167471650871 0 -329.19167471650871 -945.1610641645384 0 0 0 0 -697.24390051949013 -2532.7925110772048 0 -2532.7925110772048 -3797.518897161819 0 0 0 0 26.696491333911837 -112.41423588672612 0 -112.41423588672612 94.050786160503435 0 0 0 0 -154.3484856436844 -1470.7847113770113 0 -1470.7847113770113 -2312.2408223774892 0 0 0 0 558.53710467055816 -475.6895531317291 0 -475.6895531317291 -1740.9975067104388 0 0 0 0 -69.578102212042722 -753.55457572924206 0 -753.55457572924206 -1856.9252516072447 0 0 0 0 505.03919769419304 -1623.509783316224 0 -1623.509783316224 -1944.8405842541251 0 0 0 0 -674.71696967236494 -867.43423994320619 0 -867.43423994320619 -1758.6193983293633 0 0 0 0 -612.59250020000036 -1012.275855601998 0 -1012.275855601998 -2275.6862052720862 0 0 0 0 -1918.2059312518795 -725.0468179738964 0 -725.0468179738964 -2603.0467626729514 0 0 0 0 -1976.8251775743411 -517.79739685927052 0 -517.79739685927052 -2709.153537042177 0 0 0 0 -15.339896631084798 -25.827503966611346 0 -25.827503966611346 -42.706529005901757 0 0 0 0 -2283.0905773650738 -1313.3101679061365 0 -1313.3101679061365 -4327.1326275730098 0 0 0 0 99.225834441388628 -273.93125051585076 0 -273.93125051585076 -68.019701157440693 0 0 0 0 -2.3892668650130133 -11.941768718194709 0 -11.941768718194709 -35.098682972269472 0 0 0 0 -1368.4637550097777 -2084.0712617662466 0 -2084.0712617662466 -4083.3337830716991 0 0 0 0 62.906030768182973 -826.86602492962265 0 -826.86602492962265 -2431.6890328607406 0 0 0 0 -1221.3671991080882 -295.00159263622481 0 -295.00159263622481 -1622.4437100223149 0 0 0 0 -2107.917749120068 -1396.7996068427892 0 -1396.7996068427892 -4343.7061068332114 0 0 0 0 -82.742590252806252 -132.98418779691414 0 -132.98418779691414 217.93483524024194 0 0 0 0 -781.70684192984481 -131.77159050192859 0 -131.77159050192859 -796.84478297019086 0 0 0 0 4.9874963405458796 -104.39792316433346 0 -104.39792316433346 -25.448136073007475 0 0 0 0 46.464088009010325 3.9457410076727228 0 3.9457410076727228 -134.51691863760013 0 0 0 0 28.125043177457741 -47.925918017800015 0 -47.925918017800015 51.980374457271466 0 0 0 0 -3576.0219755029466 -5216.8879427774082 0 -5216.8879427774082 -4978.6321106001942 0 0 0 0 -254.36333287238358 -3543.4544925425944 0 -3543.4544925425944 -2618.2624873274181 0 0 0 0 -1174.1335276750847 -1871.1179666479147 0 -1871.1179666479147 -5556.0534553529287 0 0 0 0 -3338.133111751155 -1896.7713659156834 0 -1896.7713659156834 -2625.7442251552129 0 0 0 0 -5.222734721639676 -73.063867310708986 0 -73.063867310708986 45.650543756747766 0 0 0 0 522.78079006637381 -3663.679372066108 0 -3663.679372066108 -4537.418307283835 0 0 0 0 -1885.5059805337255 -2500.0175283963508 0 -2500.0175283963508 -4949.9212537270505 0 0 0 0 -14.7347210351861 -21.963084767702696 0 -21.963084767702696 -21.684808039002604 0 0 0 0 -1080.6729406976801 -3912.1635186703388 0 -3912.1635186703388 3844.3754280038411 0 0 0 0 -28.022643547245025 -780.88700084394077 0 -780.88700084394077 587.74622601211013 0 0 0 0 4.8057611402440585 -14.603071466788009 0 -14.603071466788009 0.88402704041514824 0 0 0 0 -1663.5923290417977 -558.43411559813103 0 -558.43411559813103 6461.0389805841405 0 0 0 0 1556.9236999077912 -2585.3267977010692 0 -2585.3267977010692 -11826.195252635574 0 0 0 0 454.84049509288889 -3182.6606561933295 0 -3182.6606561933295 -11047.185419650486 0 0 0 0 -247.97403090539228 -1328.950419832734 0 -1328.950419832734 2975.4255571385538 0 0 0 0 659.50156912898456 841.8273217969836 0 841.8273217969836 3152.9650845746482 0 0 0 0 1501.430172927714 291.47503878443968 0 291.47503878443968 1156.9189974621186 0 0 0 0 673.69412503525746 -856.59582835822948 0 -856.59582835822948 1961.7788332945347 0 0 0 0 -3271.6688872102677 -542.83381497833761 0 -542.83381497833761 -2410.7956501270528 0 0 0 0 1154.4467138375085 -1623.6787008684478 0 -1623.6787008684478 -5465.1099764320534 0 0 0 0 -983.92459889160455 -4423.5076794401393 0 -4423.5076794401393 -2610.8229460828588 0 0 0 0 -3129.4476243204117 -348.37653585037333 0 -348.37653585037333 -6567.0241408114671 0 0 0 0 -2895.8100035116586 -1584.7252809265046 0 -1584.7252809265046 -1934.6350057005184 0 0 0 0 -2841.2246801396227 -1645.2248718404899 0 -1645.2248718404899 -1890.6923011253821 0 0 0 0 -2843.398188547505 -1688.939678003866 0 -1688.939678003866 -1846.0782298610429 0 0 0 0 -256.82053832193924 -2801.5409700048913 0 -2801.5409700048913 -1444.6142966698535 0 0 0 0 -3010.1796313990526 -1417.5458511422039 0 -1417.5458511422039 -2161.1058683192823 0 0 0 0 2645.9592799391503 -2363.9601554592664 0 -2363.9601554592664 -1459.9645677391673 0 0 0 0 1771.3685586117226 -1387.5772085530753 0 -1387.5772085530753 -1577.8969187277253 0 0 0 0 1.313540366393837 -48.242722354474708 0 -48.242722354474708 -11.742131654704622 0 0 0 0 2271.6730647426557 -1152.6057037349383 0 -1152.6057037349383 -1684.4913731680717 0 0 0 0 1931.0374326743413 -2745.7006659947801 0 -2745.7006659947801 -3848.4716191691696 0 0 0 0 -2264.1782022599873 -1183.6479682779027 0 -1183.6479682779027 -2240.1752985367202 0 0 0 0 -1181.9057933484728 -958.2879300370987 0 -958.2879300370987 -2595.1620274222969 0 0 0 0 -1613.0690386019924 -768.72209533907881 0 -768.72209533907881 -2609.6511543880551 0 0 0 0 -1473.3929042404634 -527.92414311965695 0 -527.92414311965695 -3573.6610541484115 0 0 0 0 -5.0567599260732834 -5.4324858804120879 0 -5.4324858804120879 0.28502565914274669 0 0 0 0 -1238.1907151720807 -653.03050890933082 0 -653.03050890933082 -3181.6394717730027 0 0 0 0 -958.8474939581647 -1080.5737585746174 0 -1080.5737585746174 -3261.7338267666782 0 0 0 0 -777.33640688353626 -602.75679244102503 0 -602.75679244102503 -3121.8447525690717 0 0 0 0 -983.05509686691767 -915.64522820606726 0 -915.64522820606726 -2783.7583843981847 0 0 0 0 -1139.3097972653686 -541.44798231559616 0 -541.44798231559616 -1537.4308655407513 0 0 0 0 -1005.3653269653769 -610.48609230603324 0 -610.48609230603324 -2866.5875697634474 0 0 0 0 -1233.2479981590441 71.280502471214277 0 71.280502471214277 -1144.5416036656243 0 0 0 0 -671.68829306507541 16.801030121132499 0 16.801030121132499 -2165.9407334415591 0 0 0 0 -1291.8493598364585 -138.03707491743262 0 -138.03707491743262 -275.03465953254636 0 0 0 0 -1508.6303439559706 -979.74281853239518 0 -979.74281853239518 -409.02904365858558 0 0 0 0 20.938402792800275 -12.321294946908466 0 -12.321294946908466 16.529896150801164 0 0 0 0 -1954.4737277497879 -511.95563162480539 0 -511.95563162480539 -1158.2963487490779 0 0 0 0 -951.28254390766961 -372.31562663560908 0 -372.31562663560908 -1152.4472685284532 0 0 0 0 -1899.7716241448506 48.979788720323995 0 48.979788720323995 140.98288953420706 0 0 0 0 -2291.6864847023753 28.511029236251488 0 28.511029236251488 -1182.1684596443811 0 0 0 0 -1400.3559289518598 189.84007403800206 0 189.84007403800206 -1301.4360206888177 0 0 0 0 -765.6404130621986 -658.61093306097973 0 -658.61093306097973 -1812.9129422533442 0 0 0 0 1.3075845940703701 4.9386262689514098 0 4.9386262689514098 -5.6459225122478074 0 0 0 0 -443.51114519443217 -637.43228801636724 0 -637.43228801636724 -1569.9816501654714 0 0 0 0 -548.7383208101528 -512.63115029633627 0 -512.63115029633627 -1655.3632741392503 0 0 0 0 -726.79705494522568 -382.62666254102078 0 -382.62666254102078 -1565.259141400049 0 0 0 0 -244.75539179533371 -356.14095407462446 0 -356.14095407462446 -1654.2944453179953 0 0 0 0 -460.18683148511627 -499.03287089016521 0 -499.03287089016521 -1535.603352858263 0 0 0 0 38.12545813984616 -383.93925584699173 0 -383.93925584699173 -1753.5271303162444 0 0 0 0 -467.51072644270062 -441.62839327340953 0 -441.62839327340953 -1754.9415012609097 0 0 0 0 -1085.3696422999419 -377.04087074843119 0 -377.04087074843119 -1662.7736769642797 0 0 0 0 -1368.2178102543839 -87.478600606016698 0 -87.478600606016698 -2442.3002292199235 0 0 0 0 -271.48087749959086 -541.79444974660873 0 -541.79444974660873 -2264.563367707713 0 0 0 0 -228.5825354217377 -789.32851478990051 0 -789.32851478990051 -1444.8276430303667 0 0 0 0 593.92658660085726 -1138.1175381015055 0 -1138.1175381015055 -2241.8077109179867 0 0 0 0 -1019.5338283992055 -964.48367537842751 0 -964.48367537842751 -2122.7875295972626 0 0 0 0 -1845.0324701386489 -1222.5058472687233 0 -1222.5058472687233 -2133.3133892564083 0 0 0 0 -2190.5494108013518 278.19794078938139 0 278.19794078938139 -4332.0992035092786 0 0 0 0 6.5511223528004479 -11.741377486453075 0 -11.741377486453075 -5.8870233687185589 0 0 0 0 163.77425088827658 -660.11622444661771 0 -660.11622444661771 -10858.74805581136 0 0 0 0 1088.747961913688 -1767.323201811525 0 -1767.323201811525 -2141.9333069812274 0 0 0 0 538.26165534459142 -1761.3673756367352 0 -1761.3673756367352 -1775.0815714619821 0 0 0 0 389.81919097952778 -993.97850101743825 0 -993.97850101743825 -3803.6842686112504 0 0 0 0 212.75041383845382 -2728.4117446430901 0 -2728.4117446430901 -2744.6735100071819 0 0 0 0 135.31787433949648 -2051.0459225268423 0 -2051.0459225268423 -953.38827954500448 0 0 0 0 -0.028960630004867483 -0.38563195724385935 0 -0.38563195724385935 0.53350383425481596 0 0 0 0 -2099.9429210480575 -539.39983481105446 0 -539.39983481105446 -1246.7038359091384 0 0 0 0 712.28749095706007 -2765.3632961151015 0 -2765.3632961151015 -1029.2100138011456 0 0 0 0 850.17554543679216 -3916.2772875439041 0 -3916.2772875439041 2660.3665290800272 0 0 0 0 666.76567818109834 -2432.4013814170321 0 -2432.4013814170321 -398.52717617654707 0 0 0 0 -1284.6747443342319 -2063.9718388003603 0 -2063.9718388003603 2669.7312368015118 0 0 0 0 -742.20684981659724 -4103.7112282871094 0 -4103.7112282871094 5502.6291881883371 0 0 0 0 -1075.732151329732 -1683.4631646344278 0 -1683.4631646344278 1551.4683851262853 0 0 0 0 11.228904739501246 -35.388534056768265 0 -35.388534056768265 -5.1741728494774293 0 0 0 0 -1684.9598671498752 -395.49656719734776 0 -395.49656719734776 -3372.366132957337 0 0 0 0 -2041.1757029803571 -863.71880495384903 0 -863.71880495384903 -6294.6161552901904 0 0 0 0 8.3970876644813757 -5.6038775940075283 0 -5.6038775940075283 3.6512551293520232 0 0 0 0 -1849.2821560381963 -1182.4902273193247 0 -1182.4902273193247 -3605.25823830234 0 0 0 0 -1359.072184975681 -624.18640524795046 0 -624.18640524795046 -3182.75996852957 0 0 0 0 -726.45684655908917 -766.36627290310571 0 -766.36627290310571 -4692.3205816010232 0 0 0 0 -107.48226123868153 -130.69530366098115 0 -130.69530366098115 127.05080594566243 0 0 0 0 33.335109628685302 -73.161441391411273 0 -73.161441391411273 -24.839173230346745 0 0 0 0 -11.685865569327603 -14.599966615970956 0 -14.599966615970956 38.670032714991521 0 0 0 0 -302.75958725324017 -1336.4072482496704 0 -1336.4072482496704 219.09244158637011 0 0 0 0 -795.88491840369898 -1587.252916694164 0 -1587.252916694164 352.18985435269133 0 0 0 0 677.88692634516701 -507.36920348057174 0 -507.36920348057174 793.74529100296786 0 0 0 0 1527.3164296840005 -1463.2322755037894 0 -1463.2322755037894 -432.65847673288954 0 0 0 0 -276.19031523034755 -1088.8965078537731 0 -1088.8965078537731 -1301.0831428101956 0 0 0 0 -2826.7869205827992 -365.55660947306751 0 -365.55660947306751 -711.78286103738355 0 0 0 0 -1127.4682741825563 -744.35444441599248 0 -744.35444441599248 -1810.1525077895058 0 0 0 0 -1704.1529765266096 -1511.5339410885208 0 -1511.5339410885208 337.70250392769958 0 0 0 0 -4682.8130580252691 402.78431188804825 0 402.78431188804825 -501.68169299345755 0 0 0 0 -5.8254519812273919 -10.192538840470448 0 -10.192538840470448 6.3569411704094705 0 0 0 0 -2230.9949757468203 -1758.1333905213396 0 -1758.1333905213396 -302.67320433424902 0 0 0 0 -857.25313416230529 -744.77553141388489 0 -744.77553141388489 -219.13023001527472 0 0 0 0 -1226.3348390721512 -1075.3951010119199 0 -1075.3951010119199 -44.038536770443898 0 0 0 0 -1101.2902375052108 -1001.1046970451425 0 -1001.1046970451425 0.086802725287270732 0 0 0 0 924.78791129954334 -1238.6664429163538 0 -1238.6664429163538 -140.47889528190717 0 0 0 0 1115.379821934559 -992.42014867725084 0 -992.42014867725084 -607.01426805304072 0 0 0 0 -428.42145917432026 -1149.7164520355436 0 -1149.7164520355436 -0.40235427895095199 0 0 0 0 219.8702439273693 -640.12359454857506 0 -640.12359454857506 -255.42324922254193 0 0 0 0 871.3723219793028 -1293.2153712460822 0 -1293.2153712460822 0.78659657537355088 0 0 0 0 1378.2610557768439 -1468.8828715084746 0 -1468.8828715084746 -4.8441773729282431 0 0 0 0 1477.0857219299614 -1249.1460485375574 0 -1249.1460485375574 -337.83141814597184 0 0 0 0 -1885.0189228375311 -306.16138566161681 0 -306.16138566161681 -767.26684750881032 0 0 0 0 -2213.34757937635 -460.64562684945122 0 -460.64562684945122 -73.10092608735431 0 0 0 0 -2561.8243046348944 121.35989061494183 0 121.35989061494183 -568.36261212238242 0 0 0 0 -2.9067292035408343 -2.256063364603726 0 -2.256063364603726 3.3917633205609263 0 0 0 0 -2197.0824430922949 -509.17257766760304 0 -509.17257766760304 -6.1391942866757745 0 0 0 0 -1898.3384464221454 -462.39868904528703 0 -462.39868904528703 -275.67988199516549 0 0 0 0 -1740.8054351951851 -695.17349000215108 0 -695.17349000215108 1.208883729588706 0 0 0 0 -1756.2347784718222 -681.94079978598165 0 -681.94079978598165 -432.6729685740529 0 0 0 0 -2065.0823193120759 -305.75919796745075 0 -305.75919796745075 -406.47583945914812 0 0 0 0 -2430.86382205064 -963.42081595985655 0 -963.42081595985655 -362.40431888581952 0 0 0 0 -2340.4829680013636 -1783.9997475514569 0 -1783.9997475514569 -1733.5234664626769 0 0 0 0 -2117.7378297877294 -765.55694351378042 0 -765.55694351378042 -117.06644114751543 0 0 0 0 -1526.7091179682102 -565.34550021584437 0 -565.34550021584437 -750.50785080771311 0 0 0 0 -1658.1631021676731 -285.72782213051687 0 -285.72782213051687 39.928919803387544 0 0 0 0 -1069.1654053604998 -582.81519672549257 0 -582.81519672549257 155.42609449406154 0 0 0 0 -479.65272729403659 180.53221798327286 0 180.53221798327286 -29.602325958462757 0 0 0 0 -1236.378600168111 -347.53005638497416 0 -347.53005638497416 -36.349226764243213 0 0 0 0 -11.004682126528017 -6.49255832448452 0 -6.49255832448452 10.82687961975256 0 0 0 0 -1009.5782327966735 -559.73252618359402 0 -559.73252618359402 -737.27830485823506 0 0 0 0 -2415.386699034374 -383.97813218283409 0 -383.97813218283409 -173.5244896695076 0 0 0 0 -2135.4631310218974 -588.17378909556282 0 -588.17378909556282 -373.80932900469634 0 0 0 0 -2495.7884608949826 -640.78384566413297 0 -640.78384566413297 -146.65895194205041 0 0 0 0 -2238.9838260709948 -445.00533830983477 0 -445.00533830983477 0.79977194832463283 0 0 0 0 -1833.5314309707792 -639.50347511564178 0 -639.50347511564178 -123.78448900383955 0 0 0 0 -2021.9102868925947 -386.58492654893416 0 -386.58492654893416 -16.45967408339493 0 0 0 0 -1561.6844536810167 -392.48907951961883 0 -392.48907951961883 439.77864833698777 0 0 0 0 -700.15283153518976 471.56179002921272 0 471.56179002921272 463.28127614830805 0 0 0 0 -1538.4825808894529 -239.54625455611676 0 -239.54625455611676 -348.65642232047685 0 0 0 0 -1438.8143012466571 -344.21229584085813 0 -344.21229584085813 -0.65383126688539051 0 0 0 0 -14.675069378644764 -2.3160503347195913 0 -2.3160503347195913 15.940738208306527 0 0 0 0 -1786.6346776592545 -561.26040257934073 0 -561.26040257934073 -1045.5738670712672 0 0 0 0 -17.047370288538986 -14.919548041310406 0 -14.919548041310406 -11.126194612204301 0 0 0 0 -1828.0180622481548 -658.0719183149431 0 -658.0719183149431 -1225.9299662932171 0 0 0 0 31.504165385786933 -98.240036536929665 0 -98.240036536929665 -27.95265122330067 0 0 0 0 -1486.3064217562496 -40.78328141757811 0 -40.78328141757811 -361.91924623104751 0 0 0 0 -1400.8855281287433 -399.16941024150583 0 -399.16941024150583 -329.67805387961562 0 0 0 0 -1443.520639552502 -98.240727156298817 0 -98.240727156298817 -824.01293116579473 0 0 0 0 -1957.8229182459909 -516.91062695324945 0 -516.91062695324945 -516.73523964575725 0 0 0 0 -1731.6847471516812 -449.52215496500867 0 -449.52215496500867 -1251.8419517914735 0 0 0 0 31.532273427397683 -97.998418363037928 0 -97.998418363037928 -32.153577030289483 0 0 0 0 -2321.8651094772649 -382.73315286535944 0 -382.73315286535944 -1226.3215216238823 0 0 0 0 -2271.7393729922624 -441.35796785817001 0 -441.35796785817001 -1545.5411630235612 0 0 0 0 -2082.8437192200363 -317.71975620469675 0 -317.71975620469675 -436.5832791790599 0 0 0 0 -2580.6229699220567 -619.59112587668642 0 -619.59112587668642 -613.4868498963624 0 0 0 0 -2116.2694675654056 1252.0773354885878 0 1252.0773354885878 -1660.4498024770874 0 0 0 0 -4122.0479212387145 523.87592496898105 0 523.87592496898105 -1460.4325320752105 0 0 0 0 -3680.9641935990439 998.71023738107033 0 998.71023738107033 -1359.2975516918523 0 0 0 0 -2735.7900792205837 -806.59817774527801 0 -806.59817774527801 -2638.7136965407408 0 0 0 0 -4491.768942436116 -541.30102360722958 0 -541.30102360722958 -2425.889319183756 0 0 0 0 -2464.4886346009444 460.02416356869799 0 460.02416356869799 -2146.4827067242222 0 0 0 0 4.8493459074670113 -10.244440200740002 0 -10.244440200740002 -5.5596733700165544 0 0 0 0 -4.7793352261037683 -5.5750282138693308 0 -5.5750282138693308 -6.495908744728581 0 0 0 0 -1333.0559784766556 -512.99373170827312 0 -512.99373170827312 -2287.3006116875913 0 0 0 0 -2057.6540955829259 -863.14634749750257 0 -863.14634749750257 -1993.528098999901 0 0 0 0 0.59905110714606735 -1.4438481683997111 0 -1.4438481683997111 0.90292114687207459 0 0 0 0 -1583.87990317808 -156.77543533993594 0 -156.77543533993594 -949.78556476467929 0 0 0 0 -14.908397171002093 -20.185970341966311 0 -20.185970341966311 -27.031927949627999 0 0 0 0 -1727.5505205437366 -765.16604312256095 0 -765.16604312256095 -2343.8268222663028 0 0 0 0 -2172.3814817239909 -1204.7006988673202 0 -1204.7006988673202 -2674.0128807404544 0 0 0 0 -2348.587589255796 -398.30313322033908 0 -398.30313322033908 -2283.5859347707228 0 0 0 0 -2878.6412263053935 -437.07561577178421 0 -437.07561577178421 -2871.5823585337057 0 0 0 0 -2497.1735751085071 -1252.0442882053321 0 -1252.0442882053321 -3369.7238767902309 0 0 0 0 -2252.4639343818853 -880.08146147958178 0 -880.08146147958178 -2829.2735967210028 0 0 0 0 -1491.2504822350165 -893.69387123853085 0 -893.69387123853085 -2827.5635323186871 0 0 0 0 -1542.0423576294561 -1081.5835297091689 0 -1081.5835297091689 -2935.7526012367452 0 0 0 0 -1799.8315537991512 -1440.0615757076448 0 -1440.0615757076448 -3359.8040962274536 0 0 0 0 -1879.9083613016101 -1103.4131171439076 0 -1103.4131171439076 -2265.2203565402742 0 0 0 0 -1763.6725540088082 -649.76040340494365 0 -649.76040340494365 -2029.3335742514937 0 0 0 0 -1671.9614114596779 -649.29921108859617 0 -649.29921108859617 -2133.7182564235554 0 0 0 0 -1977.2429709713288 -314.19660017505521 0 -314.19660017505521 -2498.4659562617016 0 0 0 0 -1054.9293414082786 -344.88779187635373 0 -344.88779187635373 -2928.6240802763423 0 0 0 0 -1333.0719384134845 -550.62350835777761 0 -550.62350835777761 -2702.2745410375646 0 0 0 0 -868.45880277987453 -324.12221835095261 0 -324.12221835095261 -2957.0902566440927 0 0 0 0 -825.43924796284045 -179.7132106547997 0 -179.7132106547997 -3083.5248026496265 0 0 0 0 -139.81359538373363 643.56316963552672 0 643.56316963552672 -2342.2427786826447 0 0 0 0 -831.59673783752442 -881.59404531221298 0 -881.59404531221298 2044.6415912607044 0 0 0 0 -1131.5219007144187 205.27201071685704 0 205.27201071685704 -1798.5060605708277 0 0 0 0 33.928098040596808 -99.504343911121452 0 -99.504343911121452 -33.702390337228294 0 0 0 0 -1167.7058118959976 -717.45169513464498 0 -717.45169513464498 1970.4534677981355 0 0 0 0 213.30505026732862 434.33197147455212 0 434.33197147455212 1493.6849204071259 0 0 0 0 47.547156247173291 -79.591955297091616 0 -79.591955297091616 -46.730407586132529 0 0 0 0 -419.29426530573255 -476.78637951292694 0 -476.78637951292694 2394.8592653735832 0 0 0 0 -284.86354610988928 -600.86462341906008 0 -600.86462341906008 1796.1629288104596 0 0 0 0 -506.8728268162813 -852.48110450523382 0 -852.48110450523382 1753.1305227240191 0 0 0 0 -120.22569645111798 -932.88186030209181 0 -932.88186030209181 1853.0551198187532 0 0 0 0 -1034.8621215612002 -1216.4624145510534 0 -1216.4624145510534 -4398.4921007288794 0 0 0 0 110.60994169094192 -374.44769555763924 0 -374.44769555763924 -3937.0142507329583 0 0 0 0 -1306.55943172361 -1122.6652512904984 0 -1122.6652512904984 -3529.2990682094751 0 0 0 0 -699.48603142207867 -827.70505560431593 0 -827.70505560431593 -3413.9836178981932 0 0 0 0 -1354.0629017421124 -985.21919535838606 0 -985.21919535838606 -3556.9416461228975 0 0 0 0 -3003.5674582653955 -3.9058786201567273 0 -3.9058786201567273 -4480.5179223977029 0 0 0 0 -3542.9471895453898 -525.37815680941276 0 -525.37815680941276 -3437.3001103832103 0 0 0 0 -1.4680526570041366 5.8840009299230047 0 5.8840009299230047 -17.529013872496009 0 0 0 0 -2659.470727744847 -1594.3644889874777 0 -1594.3644889874777 -3670.2383070925425 0 0 0 0 9.9064049767392248 -5.9106849674896651 0 -5.9106849674896651 27.549866421457153 0 0 0 0 -3166.8530345328181 -396.26451827459096 0 -396.26451827459096 3031.9708477352979 0 0 0 0 -123.28269443556201 138.77153974056273 0 138.77153974056273 1496.0775888849748 0 0 0 0 -2823.1362471585344 -1580.417284098161 0 -1580.417284098161 1221.81113811658 0 0 0 0 -3224.8424629530637 -1957.429713271471 0 -1957.429713271471 2069.9148002198344 0 0 0 0 -2791.8146239179841 -1753.1701809898805 0 -1753.1701809898805 616.30767386873777 0 0 0 0 -3261.3920306163927 -2231.5115387845799 0 -2231.5115387845799 1091.7016280901735 0 0 0 0 -2711.5330510447129 -1991.2063009499234 0 -1991.2063009499234 -1652.3572541614121 0 0 0 0 -3013.3242463438364 -950.366938343941 0 -950.366938343941 -7234.5118735315627 0 0 0 0 72.288917521501418 -34.738118342299892 0 -34.738118342299892 -54.151639966785467 0 0 0 0 -4141.4591873659519 -1081.8932300382439 0 -1081.8932300382439 -1709.8995248066694 0 0 0 0 -3111.8630382823176 -1189.3785378644825 0 -1189.3785378644825 -4171.8968657208898 0 0 0 0 -2826.5967946862511 -2177.7601439304271 0 -2177.7601439304271 -1774.3420608364831 0 0 0 0 -1206.1394626637848 276.02725729602389 0 276.02725729602389 -2751.0081646340841 0 0 0 0 -630.95362088627371 -377.80837371635425 0 -377.80837371635425 -3989.4113686974888 0 0 0 0 -582.58057555758205 -82.724763098834956 0 -82.724763098834956 -3173.4596658737314 0 0 0 0 -1318.6513873694666 -888.48563905248466 0 -888.48563905248466 -3249.218471704633 0 0 0 0 27.012391846875374 -83.763800738918349 0 -83.763800738918349 -29.968997883217327 0 0 0 0 -1538.4111593131383 310.26661778586276 0 310.26661778586276 -2713.4459972971636 0 0 0 0 -1646.1733817839049 -23.132686193952395 0 -23.132686193952395 -2716.7892846856121 0 0 0 0 30.1745090249984 -93.541397270491871 0 -93.541397270491871 -33.79797107433383 0 0 0 0 -1541.1389213706207 63.489042763758334 0 63.489042763758334 -2909.6724502459256 0 0 0 0 -1479.1033110656826 25.117686679568578 0 25.117686679568578 -2629.352275312398 0 0 0 0 -1417.94969016908 31.83918263031228 0 31.83918263031228 -2710.9989484540502 0 0 0 0 -1544.5659940819387 159.52137076495274 0 159.52137076495274 -2732.575545272266 0 0 0 0 -1793.6059256349836 153.58386801845336 0 153.58386801845336 -2702.7213506974513 0 0 0 0 -2053.5400589524797 224.9644281543151 0 224.9644281543151 -2658.7341242469556 0 0 0 0 5.0619346218529415 -1.831864606608093 0 -1.831864606608093 -2.083743944614298 0 0 0 0 -1033.4253075773449 -39.318573962853407 0 -39.318573962853407 -2368.1612668846137 0 0 0 0 -978.96816670008138 228.72736654246182 0 228.72736654246182 -2568.1369308531721 0 0 0 0 -1431.1457636359919 -2008.4669335508806 0 -2008.4669335508806 -877.55096346343271 0 0 0 0 35.592018091872205 -104.91591721566364 0 -104.91591721566364 -28.964583354266168 0 0 0 0 -1113.0317651799451 -363.22797979313054 0 -363.22797979313054 762.31602030724753 0 0 0 0 -1382.0437564505737 88.131091514835134 0 88.131091514835134 -2134.2433797042177 0 0 0 0 -1.3470850776405996 -10.58874526149387 0 -10.58874526149387 -39.67623722340528 0 0 0 0 -1725.2000709267559 -320.27552042288153 0 -320.27552042288153 -2024.0126117402688 0 0 0 0 -21.405611776540667 -39.599815046244657 0 -39.599815046244657 -70.999081712899908 0 0 0 0 -2235.1879984612169 -149.78032467004959 0 -149.78032467004959 -2310.9375347967944 0 0 0 0 35.086717863985314 -102.94738387705283 0 -102.94738387705283 -34.260230947207916 0 0 0 0 -1532.4850913834962 -844.17821465580346 0 -844.17821465580346 183.33941640650664 0 0 0 0 -1563.630316751689 -972.46294908295386 0 -972.46294908295386 -2786.9984731463774 0 0 0 0 -2953.6281181172235 138.60406189213973 0 138.60406189213973 -2403.8174282814434 0 0 0 0 48.08611396771758 -45.539521098026754 0 -45.539521098026754 42.024197728216393 0 0 0 0 -1766.7086544673039 -444.78993296799308 0 -444.78993296799308 -2452.0518782344589 0 0 0 0 -2097.1449163677353 -137.12144150503173 0 -137.12144150503173 -2629.3193073891161 0 0 0 0 -1406.1327830329101 -436.64728169731097 0 -436.64728169731097 -3152.3912047738168 0 0 0 0 -1460.9638118127295 -301.96209613539395 0 -301.96209613539395 -2596.080321160669 0 0 0 0 -950.11352228497708 -866.41209304814402 0 -866.41209304814402 -3252.0604604702057 0 0 0 0 -1048.0867323343264 -869.82706057203177 0 -869.82706057203177 -2644.7850387580547 0 0 0 0 -1778.9092974102678 -930.97753950723563 0 -930.97753950723563 -2916.3915211480562 0 0 0 0 -1692.9747627007891 -1173.7951466115192 0 -1173.7951466115192 -2624.8614473086782 0 0 0 0 -6.2227582124501737 -7.9967720148268313 0 -7.9967720148268313 -5.352045382098396 0 0 0 0 -1428.5868388649542 -1365.7942187386216 0 -1365.7942187386216 -605.91765020613093 0 0 0 0 -1395.5578438586454 -845.85420357323892 0 -845.85420357323892 -1798.0182560873509 0 0 0 0 7.5159237465096709 -3.5027739855695756 0 -3.5027739855695756 -9.6966032447540158 0 0 0 0 40.304203238161392 -117.36723658167254 0 -117.36723658167254 -50.012827243862382 0 0 0 0 -1316.1790857181168 -1713.5264703072062 0 -1713.5264703072062 -1631.9765273292433 0 0 0 0 -1198.4763953738293 -518.23382614788716 0 -518.23382614788716 -1483.2039438769752 0 0 0 0 16.911495109588174 -16.957994092593374 0 -16.957994092593374 16.848832636179452 0 0 0 0 -2857.5503568439963 1315.6550366763986 0 1315.6550366763986 -212.24566750009399 0 0 0 0 -1406.060522755819 -1543.7034024589921 0 -1543.7034024589921 -2273.1272948250917 0 0 0 0 10.895446033770412 -13.923840238808253 0 -13.923840238808253 -12.116770423260192 0 0 0 0 -1718.0773350284794 1634.8203302324023 0 1634.8203302324023 -3409.8183715870764 0 0 0 0 -1711.7691256610342 -2999.2103319091621 0 -2999.2103319091621 2138.6761698082337 0 0 0 0 -1717.6712613818745 -1611.7503595207236 0 -1611.7503595207236 -552.60363808003785 0 0 0 0 -724.37558798080863 -1771.1020446821894 0 -1771.1020446821894 -1493.3556490854971 0 0 0 0 -1426.8089284480229 -700.08380431152909 0 -700.08380431152909 -214.76244179927744 0 0 0 0 -1584.4320263108457 -717.7530167813984 0 -717.7530167813984 16.98417888856784 0 0 0 0 -1636.2235831643829 -257.31970819600792 0 -257.31970819600792 1825.7558499299266 0 0 0 0 -1383.9775675315032 -818.91266572630775 0 -818.91266572630775 -67.450079536269186 0 0 0 0 -1269.0936198784693 -1533.0469809392889 0 -1533.0469809392889 363.69087768573081 0 0 0 0 -1074.9923441424271 -909.95473500601565 0 -909.95473500601565 -51.590951999183744 0 0 0 0 -1067.9533457058569 -1149.9561343874047 0 -1149.9561343874047 -1133.1736351708023 0 0 0 0 -1373.8230088026248 -1273.2776640185475 0 -1273.2776640185475 -1106.5977365910221 0 0 0 0 -1765.7596152778278 -1051.3909430628337 0 -1051.3909430628337 101.09563595752843 0 0 0 0 -1713.9548682646418 -1135.6848835182609 0 -1135.6848835182609 -2875.9629069794319 0 0 0 0 -1845.0456333090624 -1947.4962466140059 0 -1947.4962466140059 -1326.4739847164656 0 0 0 0 -1270.9424958693271 -1442.2709478055549 0 -1442.2709478055549 -2023.7149659063944 0 0 0 0 -2012.7761550265168 -885.98394890780082 0 -885.98394890780082 -1206.8698163035151 0 0 0 0 -2470.3716006294417 -1757.2636608782486 0 -1757.2636608782486 -1090.9545463619215 0 0 0 0 -1143.4722069299023 846.78011982977114 0 846.78011982977114 3544.134520051186 0 0 0 0 -2239.7808413474631 -3467.0211706373157 0 -3467.0211706373157 -4602.2477553630233 0 0 0 0 -13.880107864859099 -10.520296752341864 0 -10.520296752341864 10.853459874127779 0 0 0 0 -1567.7746470964412 -34.922211497476383 0 -34.922211497476383 2067.6814915252617 0 0 0 0 -447.29702343016834 -860.88804858537333 0 -860.88804858537333 33.253784335014643 0 0 0 0 -803.72731169182998 -1076.5319535584167 0 -1076.5319535584167 -254.47863547185261 0 0 0 0 -707.65514362842077 -285.29876915154455 0 -285.29876915154455 238.48374608871381 0 0 0 0 -1970.8781530726847 -1019.1460876103374 0 -1019.1460876103374 715.68782946329884 0 0 0 0 -1682.7181752515462 -724.20224967550894 0 -724.20224967550894 -582.92633652153017 0 0 0 0 -32.939662143938136 -26.893465098402132 0 -26.893465098402132 32.639580652375301 0 0 0 0 -2244.3098525096757 -1882.8604061307124 0 -1882.8604061307124 -1499.1400384657463 0 0 0 0 -809.48614497257222 -2544.3691169645681 0 -2544.3691169645681 -4179.8450823504754 0 0 0 0 -2128.6044843429045 -768.61654930517034 0 -768.61654930517034 421.32432681665523 0 0 0 0 -2571.753886762468 -681.14654779468401 0 -681.14654779468401 1182.1583118313647 0 0 0 0 1.5485448468564869 -8.667104522025852 0 -8.667104522025852 -0.33914337131544059 0 0 0 0 -2060.3258983325431 -494.0547642059646 0 -494.0547642059646 762.56364671186748 0 0 0 0 -1436.3340386947166 234.46564731502076 0 234.46564731502076 1558.4633435372671 0 0 0 0 -1259.6755232444666 -662.56437420490693 0 -662.56437420490693 -850.08245496104064 0 0 0 0 -1766.9479942596663 -501.01200010960747 0 -501.01200010960747 307.03719110370548 0 0 0 0 -1239.5464552636404 -710.30228517485375 0 -710.30228517485375 -1022.9697242668408 0 0 0 0 -570.27891995835671 -685.4291002965183 0 -685.4291002965183 1356.2562122975651 0 0 0 0 1.0128758466403553 -5.6604275665969936 0 -5.6604275665969936 -0.44149520206536153 0 0 0 0 -584.0996727634556 -745.54033185261505 0 -745.54033185261505 1426.8570423255806 0 0 0 0 -212.60008679199382 -594.6814171194128 0 -594.6814171194128 1377.6423729849485 0 0 0 0 -1081.0105990998127 -1109.6825964310628 0 -1109.6825964310628 1216.3915488895927 0 0 0 0 -607.44129629695817 -608.82024129246565 0 -608.82024129246565 1296.7629034310958 0 0 0 0 -961.50336169973889 -1476.7461369598532 0 -1476.7461369598532 884.24165070019353 0 0 0 0 -1242.4375407808911 -1306.402055271501 0 -1306.402055271501 -238.29195284684101 0 0 0 0 -1021.0248128061066 -773.78650903750531 0 -773.78650903750531 -1084.0657367821623 0 0 0 0 -1327.7795531106303 -1104.7616501976981 0 -1104.7616501976981 -1140.1003314182744 0 0 0 0 -1268.210416323629 -1193.6219743519541 0 -1193.6219743519541 -1240.5645368273763 0 0 0 0 -1301.6059121764338 -1044.3108082113904 0 -1044.3108082113904 -1228.7113322591431 0 0 0 0 -1332.8562555674525 -935.89410443561383 0 -935.89410443561383 -699.20732493790274 0 0 0 0 -1420.5857825123094 -1215.8364383686057 0 -1215.8364383686057 -1016.8184991392409 0 0 0 0 -1322.4508816338202 -1150.0250375727956 0 -1150.0250375727956 -1050.4052370652917 0 0 0 0 -1279.0025132087321 -1170.5011470237368 0 -1170.5011470237368 -1336.1500706556544 0 0 0 0 -1444.7096375300534 -1652.6590171876815 0 -1652.6590171876815 -1643.1104562277906 0 0 0 0 -1413.9863090680738 -1409.0071605692137 0 -1409.0071605692137 -901.86437118101458 0 0 0 0 -1873.6525657543025 -1559.3616151719361 0 -1559.3616151719361 -56.586967150706187 0 0 0 0 -1372.379492292237 -1081.8393957564267 0 -1081.8393957564267 -699.91515839740896 0 0 0 0 -1326.4363824593602 -688.99624047294128 0 -688.99624047294128 -1115.2531279969589 0 0 0 0 -1288.1197669190988 -1097.9274597311787 0 -1097.9274597311787 -1273.919320633453 0 0 0 0 -1304.6687528548027 -1019.2035786860943 0 -1019.2035786860943 -1616.5223079091884 0 0 0 0 -1319.6686192489942 -898.57228012816995 0 -898.57228012816995 -1409.395094304793 0 0 0 0 -1393.2022125592557 -933.29725962802695 0 -933.29725962802695 -1031.1733400145968 0 0 0 0 -1456.1990107647453 -1017.2612642915565 0 -1017.2612642915565 -894.23683726175659 0 0 0 0 -1565.3666374735694 -1297.4308633137043 0 -1297.4308633137043 -1070.3826793893677 0 0 0 0 -1651.1740654128807 -1000.4625877505787 0 -1000.4625877505787 -784.55501692758116 0 0 0 0 -1654.5097684493667 -863.55015602145431 0 -863.55015602145431 -692.86090031064668 0 0 0 0 -1684.5759567474088 -923.5913090432914 0 -923.5913090432914 -599.77951308505362 0 0 0 0 -1612.0883650207579 -756.96368614421317 0 -756.96368614421317 -649.20110553610721 0 0 0 0 -1416.9916081006741 -667.85663447116531 0 -667.85663447116531 -932.24124129186748 0 0 0 0 -1645.7452941339216 -622.43032868665978 0 -622.43032868665978 -605.07892533629638 0 0 0 0 -1249.6248414881848 -390.59029067117081 0 -390.59029067117081 -853.57301733952045 0 0 0 0 -1639.9471988675068 -558.73045888505294 0 -558.73045888505294 -356.28198899429117 0 0 0 0 -1413.8687918304979 -712.26494873353317 0 -712.26494873353317 -1072.0728590014332 0 0 0 0 -538.33483648319088 -1553.547602043458 0 -1553.547602043458 -598.22828934906283 0 0 0 0 -2590.8316657293763 -2330.516778143894 0 -2330.516778143894 -152.04513457018038 0 0 0 0 -2611.5836143979268 -1182.3348663335853 0 -1182.3348663335853 590.97847141610691 0 0 0 0 -1396.8079720468813 -1967.9183506481349 0 -1967.9183506481349 -45.110771142150043 0 0 0 0 -1968.4477220893023 -942.46066120988689 0 -942.46066120988689 414.16699913941557 0 0 0 0 -1941.9219287572851 -1080.6077708488447 0 -1080.6077708488447 -125.66957088932395 0 0 0 0 -372.23069415378268 -695.57484964251853 0 -695.57484964251853 -594.55569270042179 0 0 0 0 -47.826870632583635 -25.103882598869308 0 -25.103882598869308 53.114510303338477 0 0 0 0 -2329.6722158126759 -141.0421117636688 0 -141.0421117636688 -76.786668800210464 0 0 0 0 -219.57571423503396 -636.12835957854986 0 -636.12835957854986 -669.9076796156005 0 0 0 0 -2067.0504750826804 -627.39812659472227 0 -627.39812659472227 -186.3565582102201 0 0 0 0 -2653.9477220859553 -603.6648314074846 0 -603.6648314074846 2063.9387459007557 0 0 0 0 -2597.9688234804489 -561.14308171397715 0 -561.14308171397715 714.40784107454238 0 0 0 0 -19.86527316057888 -12.816477745841297 0 -12.816477745841297 25.624378738979047 0 0 0 0 -2053.9213300858828 -1834.3769895269288 0 -1834.3769895269288 -292.14298952679383 0 0 0 0 -3905.061002865099 543.01559251818981 0 543.01559251818981 -9363.2319704642723 0 0 0 0 -1659.0484977632404 -2311.3522607207124 0 -2311.3522607207124 -1193.8249688140932 0 0 0 0 -1043.3160885868201 -1558.3040780794599 0 -1558.3040780794599 -1175.2454274280026 0 0 0 0 -480.55905087899009 -339.78667596307787 0 -339.78667596307787 -380.2281310816179 0 0 0 0 35.913807018529354 -48.220565672425295 0 -48.220565672425295 32.03774442571131 0 0 0 0 4.4098737532161749 -10.22217664614007 0 -10.22217664614007 11.461312477324867 0 0 0 0 -2427.6592119765719 -1730.6898192981726 0 -1730.6898192981726 -132.74482304966659 0 0 0 0 -12.895558332631481 800.37797224120914 0 800.37797224120914 -463.29442487510096 0 0 0 0 -2020.1166907680345 480.84374879813367 0 480.84374879813367 -812.00540203857236 0 0 0 0 -3096.4405881653365 -1962.5309639255174 0 -1962.5309639255174 -1876.3876481437183 0 0 0 0 -1183.0311138032557 -288.75451598396467 0 -288.75451598396467 -1393.051011737658 0 0 0 0 -807.18938042804075 -1171.955620153054 0 -1171.955620153054 199.51447451984859 0 0 0 0 -1678.8013785857547 -1189.6158269931475 0 -1189.6158269931475 239.80511997057329 0 0 0 0 -1576.8526324308332 -1221.0205772233717 0 -1221.0205772233717 -833.86356864095433 0 0 0 0 -1658.2964553059137 -1260.4001540994177 0 -1260.4001540994177 -723.86553097741853 0 0 0 0 -1644.8289260010461 -956.77814224280519 0 -956.77814224280519 -491.9185736454092 0 0 0 0 -1767.996625042193 -1276.4150321489469 0 -1276.4150321489469 -602.05755621891603 0 0 0 0 -475.36230217888806 -1369.2709406193026 0 -1369.2709406193026 -596.35556561787962 0 0 0 0 -433.67611805988417 -849.47926521954651 0 -849.47926521954651 -705.58456149313133 0 0 0 0 2.4059308639454855 -7.3644509765788086 0 -7.3644509765788086 6.0230618311045987 0 0 0 0 -1499.8820546260758 -951.73776579300102 0 -951.73776579300102 -689.02127901616041 0 0 0 0 -1742.0994477294444 -1041.2960559930507 0 -1041.2960559930507 -717.34472736257885 0 0 0 0 8.9471341490701093 -18.717124659164796 0 -18.717124659164796 19.747181901003188 0 0 0 0 -1249.1051928399211 -930.82259896150208 0 -930.82259896150208 -695.6564344632086 0 0 0 0 -1353.1565105756235 -1142.8510705373719 0 -1142.8510705373719 -1000.5487920509622 0 0 0 0 -1115.9878687283053 -1216.2720020357192 0 -1216.2720020357192 -919.34919666081987 0 0 0 0 -985.21219526904315 -1021.0960830480253 0 -1021.0960830480253 -646.55572476306043 0 0 0 0 -1039.1130185748989 -1046.1540604045585 0 -1046.1540604045585 -609.40221819723956 0 0 0 0 -1568.5557120433659 -1157.0425641010224 0 -1157.0425641010224 -124.97431472541211 0 0 0 0 -968.76084006192104 -805.39383894025377 0 -805.39383894025377 -645.46741277426554 0 0 0 0 -1192.9964261306086 -534.39756545073396 0 -534.39756545073396 -674.86164168824325 0 0 0 0 -1619.5559547555376 -265.7691597305934 0 -265.7691597305934 -711.84165220883733 0 0 0 0 -1667.2619879033591 -661.25237805709912 0 -661.25237805709912 -458.11703308440337 0 0 0 0 -1561.8595787015074 -822.47289949201513 0 -822.47289949201513 -228.421622900285 0 0 0 0 -1284.9712253180187 -2090.3064490243196 0 -2090.3064490243196 -1691.4467520676189 0 0 0 0 11.760646230623038 -27.670003819315411 0 -27.670003819315411 23.338733127241341 0 0 0 0 -1271.0503094118867 -2227.8448655051179 0 -2227.8448655051179 -1051.9662156697887 0 0 0 0 -1316.7374612244312 -898.28169551002793 0 -898.28169551002793 -2137.6897512827418 0 0 0 0 -20.762652626735296 -15.818695652728685 0 -15.818695652728685 29.481415813080019 0 0 0 0 -1577.2047310099661 -782.08839389090826 0 -782.08839389090826 -1628.6695058116165 0 0 0 0 -1488.7857309584069 -632.43231708664098 0 -632.43231708664098 -1753.9307610941323 0 0 0 0 -1237.9374913311112 -705.63618274025066 0 -705.63618274025066 -1853.6029519387521 0 0 0 0 -1385.4131983646948 -630.76456228429743 0 -630.76456228429743 -1788.398963962667 0 0 0 0 -1426.1070178157024 -700.0587979205593 0 -700.0587979205593 -1765.3403122443415 0 0 0 0 -1311.4067897282366 -637.74892485622695 0 -637.74892485622695 -1808.0233490986284 0 0 0 0 -1326.284994510228 -855.0840945525706 0 -855.0840945525706 -1865.1502986011183 0 0 0 0 -1313.4927064650255 -780.28382620347838 0 -780.28382620347838 -1924.4320502631599 0 0 0 0 -1253.1496977063944 -885.57955608633347 0 -885.57955608633347 -1949.3436850136932 0 0 0 0 -1312.0318160497372 -762.33871811297104 0 -762.33871811297104 -1731.4809122753795 0 0 0 0 -1387.7924296840902 -938.55897899123374 0 -938.55897899123374 -1622.1000218812842 0 0 0 0 -1495.4197761447322 -851.53128642186493 0 -851.53128642186493 -1669.08580112872 0 0 0 0 -1451.7027828787513 -1008.0970579671866 0 -1008.0970579671866 -1673.6343090391165 0 0 0 0 -1328.0089318097889 -1201.916594661292 0 -1201.916594661292 -1495.6150078506471 0 0 0 0 -1348.1763298162405 -1154.9933943315045 0 -1154.9933943315045 -1557.7213233991351 0 0 0 0 -1303.2269906768051 -878.95436513949244 0 -878.95436513949244 -1886.3243969227769 0 0 0 0 -1241.2338166069239 -998.51844022185833 0 -998.51844022185833 -1807.314747363358 0 0 0 0 -1240.0307597467763 -1185.206654656271 0 -1185.206654656271 -1937.1299463266405 0 0 0 0 -1429.2380698561028 -1262.5775706054119 0 -1262.5775706054119 -1073.6942976044083 0 0 0 0 -1323.5024250483111 -1351.9747549301828 0 -1351.9747549301828 -1573.9929923636219 0 0 0 0 -1415.3402919768778 -1320.7110875066392 0 -1320.7110875066392 -1175.2165128063061 0 0 0 0 -1449.1486585548191 -1173.6591824578281 0 -1173.6591824578281 -1455.3471510775926 0 0 0 0 -2004.713295647045 -1907.5599143303261 0 -1907.5599143303261 -3106.1342457015708 0 0 0 0 -1502.7657617402074 -1215.0151980243027 0 -1215.0151980243027 -2550.4002554079634 0 0 0 0 -1221.3636905424501 -1012.7959993758377 0 -1012.7959993758377 -2250.1979421874275 0 0 0 0 -1247.9026029752858 -856.9392114848888 0 -856.9392114848888 -2050.500599907522 0 0 0 0 -1311.8845096513542 -1366.6065708995447 0 -1366.6065708995447 -2154.3276660956253 0 0 0 0 -1400.0762682813147 -1186.0643894146197 0 -1186.0643894146197 -2343.987084674678 0 0 0 0 -2462.4898106836772 -2168.1833328981738 0 -2168.1833328981738 -1860.8651272550851 0 0 0 0 -1457.8103995803758 -1564.4866184839193 0 -1564.4866184839193 -1655.0661479930604 0 0 0 0 -1295.0551530681259 -1170.896657333702 0 -1170.896657333702 -1777.2102823182358 0 0 0 0 -1641.7963249957356 -1256.5008224445173 0 -1256.5008224445173 -788.13260025842465 0 0 0 0 -1555.3078621598761 -1121.7054331424151 0 -1121.7054331424151 -1046.5187127218232 0 0 0 0 -22.289873919016827 -227.57747678675514 0 -227.57747678675514 -134.84163887036266 0 0 0 0 -1290.8035744059016 -328.14949148328742 0 -328.14949148328742 315.22746470780112 0 0 0 0 -319.66514509446279 479.66867714858381 0 479.66867714858381 907.00247606103949 0 0 0 0 -2878.2091632339689 -2951.6248460752504 0 -2951.6248460752504 -3002.0370275872992 0 0 0 0 -33.275597255754114 -4.5269986436563556 0 -4.5269986436563556 29.450039479054652 0 0 0 0 -325.04090419616841 -663.07339224310999 0 -663.07339224310999 -703.66050340162474 0 0 0 0 -418.21257022923965 -566.3004743490892 0 -566.3004743490892 -918.54768227356544 0 0 0 0 -913.92820178328839 -633.73169753406546 0 -633.73169753406546 -683.79195518840424 0 0 0 0 -776.39812053740025 -913.3955981664003 0 -913.3955981664003 -939.37983362462546 0 0 0 0 -1283.0734318622854 -846.6255501966516 0 -846.6255501966516 -704.79603891710576 0 0 0 0 -864.68423552059539 -692.72000720435608 0 -692.72000720435608 -786.30903926366591 0 0 0 0 -1157.3388385159851 -1124.1702281198304 0 -1124.1702281198304 -1127.9432527937315 0 0 0 0 -1333.2763629986875 -1177.7375909528819 0 -1177.7375909528819 -1145.1853561938642 0 0 0 0 -1374.3342596403181 -1193.3591119925259 0 -1193.3591119925259 -808.88430440315278 0 0 0 0 -695.43124472205818 -996.00860784439647 0 -996.00860784439647 -1108.3475462910537 0 0 0 0 -1041.7531150454361 -972.45458184629751 0 -972.45458184629751 -912.26400532353728 0 0 0 0 -357.47944310612365 -483.9199998920958 0 -483.9199998920958 -821.39882245935951 0 0 0 0 -1654.1897977640183 -1281.4142963446866 0 -1281.4142963446866 -1024.7637220980505 0 0 0 0 -1625.9673810521981 -1132.5002300819069 0 -1132.5002300819069 -996.15799216814048 0 0 0 0 -1461.2911921619525 -1280.7935989515609 0 -1280.7935989515609 -1083.1295657507799 0 0 0 0 -1993.7436297002459 -1283.0959433520839 0 -1283.0959433520839 -985.39784643207531 0 0 0 0 -990.90548440609928 -1118.5297473834034 0 -1118.5297473834034 -1328.5879502366515 0 0 0 0 -1637.4714594673414 -1245.2925441437037 0 -1245.2925441437037 -986.08374473720323 0 0 0 0 -1431.9289665497645 -1342.9101392589673 0 -1342.9101392589673 -1059.1981149781204 0 0 0 0 -1634.0101669131873 -1310.5319515898627 0 -1310.5319515898627 -972.15245473271716 0 0 0 0 -1580.2266146155634 -1216.4350335836061 0 -1216.4350335836061 -1164.4931804283115 0 0 0 0 -1573.8614202259087 -1262.3118510658969 0 -1262.3118510658969 -1118.6222734816256 0 0 0 0 -1575.8937193830334 -1248.0326106745788 0 -1248.0326106745788 -996.53700416707579 0 0 0 0 -1591.2067802631063 -1208.4670641618723 0 -1208.4670641618723 -1027.813005122407 0 0 0 0 -1576.446544607963 -1238.7904155603824 0 -1238.7904155603824 -1150.9262799652934 0 0 0 0 -1595.3953518264034 -1133.2337275170016 0 -1133.2337275170016 -1212.8286412082525 0 0 0 0 -1463.8130582810713 -1270.8423811378734 0 -1270.8423811378734 -1266.8715079602844 0 0 0 0 -1550.3892065478976 -1183.8913046079979 0 -1183.8913046079979 -1314.8561364380876 0 0 0 0 -1431.8893000652843 -1097.153905115475 0 -1097.153905115475 -1483.5521047725779 0 0 0 0 -1571.2376931391627 -1104.1580643213747 0 -1104.1580643213747 -1370.8921720567887 0 0 0 0 -1632.8732060042385 -965.8095991699447 0 -965.8095991699447 -1505.9151962018532 0 0 0 0 -1564.6713702029156 -1018.3127118578959 0 -1018.3127118578959 -1538.1933372782223 0 0 0 0 -1682.059775823247 -1031.8496408464853 0 -1031.8496408464853 -1359.4908115296366 0 0 0 0 -1839.1544854478052 -966.23389615298947 0 -966.23389615298947 -1524.2259771880581 0 0 0 0 -1791.5589575813792 -652.93252944709093 0 -652.93252944709093 -1679.9900481482764 0 0 0 0 -1554.6082894530864 -1074.9446580718031 0 -1074.9446580718031 -1258.2069474860837 0 0 0 0 -1768.111398383815 -1027.2511550972849 0 -1027.2511550972849 -1419.5958373949793 0 0 0 0 -1566.6826335464411 -1159.6294369799616 0 -1159.6294369799616 -1416.9207274160071 0 0 0 0 -1458.571202305171 -1265.9726176569566 0 -1265.9726176569566 -1259.1775188506799 0 0 0 0 -1434.0061937194005 -1063.1829585771775 0 -1063.1829585771775 -1378.766348376359 0 0 0 0 -1358.4959150194136 -1257.8635525476602 0 -1257.8635525476602 -1262.4420954844245 0 0 0 0 -1417.5373008015158 -1268.3729427847429 0 -1268.3729427847429 -1241.1363017469994 0 0 0 0 -1068.1991132047733 -1382.3670717972291 0 -1382.3670717972291 -1221.9340341135976 0 0 0 0 -1297.0614703891133 -1120.55996839816 0 -1120.55996839816 -1129.1037090323371 0 0 0 0 -1377.0144062318432 -1313.3527362926761 0 -1313.3527362926761 -998.13276408889942 0 0 0 0 -1456.9293195357131 -1153.8423385735114 0 -1153.8423385735114 -1094.7525616882194 0 0 0 0 -890.24141897732716 -1929.2638842628839 0 -1929.2638842628839 -1189.7488873287293 0 0 0 0 -1014.7658600945369 -1458.8695773437285 0 -1458.8695773437285 -1233.02741953652 0 0 0 0 -1204.0281661082372 -1545.935946396392 0 -1545.935946396392 -1174.4018895803056 0 0 0 0 -1157.538966611658 -1451.3374449540333 0 -1451.3374449540333 -1173.4070024181783 0 0 0 0 -734.37389774638518 -1890.2378201267802 0 -1890.2378201267802 -1259.4814976594353 0 0 0 0 1174.763215784511 -1328.9419219077899 0 -1328.9419219077899 -1108.4480091075711 0 0 0 0 -567.61475151005016 -1909.104425483838 0 -1909.104425483838 -1299.566303541942 0 0 0 0 -338.1241752604692 -1302.9107591433567 0 -1302.9107591433567 -1149.2461850333657 0 0 0 0 -533.8996479544121 -1351.1483963781975 0 -1351.1483963781975 -817.19975070300279 0 0 0 0 -486.48343723030848 -1570.2335340854042 0 -1570.2335340854042 131.05301191155013 0 0 0 0 -1336.2615284023705 -1246.0168496738988 0 -1246.0168496738988 -1040.0428728597835 0 0 0 0 -1107.3890628774607 -1299.2225550904914 0 -1299.2225550904914 -1052.1347576237458 0 0 0 0 -1125.6741205987164 -1330.5174611187831 0 -1330.5174611187831 -692.24841784513046 0 0 0 0 -960.46215856211347 -1512.5219891063607 0 -1512.5219891063607 -973.91305534474122 0 0 0 0 -1354.4230235715895 -1250.940174352545 0 -1250.940174352545 -891.5156056848864 0 0 0 0 -1345.0048936828789 -1168.683937929789 0 -1168.683937929789 -1147.6285037809721 0 0 0 0 -789.13823199663602 -1838.482932772451 0 -1838.482932772451 -834.7604043000174 0 0 0 0 -376.30967594220419 -1329.1162328335558 0 -1329.1162328335558 -1292.170651544162 0 0 0 0 -1429.2332382199202 -863.85630511425552 0 -863.85630511425552 -985.77177839723299 0 0 0 0 -1132.4482307023595 -1495.1265337921661 0 -1495.1265337921661 -619.31176566772046 0 0 0 0 -1127.485174924459 -1607.4079053409187 0 -1607.4079053409187 -985.69839460078219 0 0 0 0 4070.4140024988101 -431.87983598314895 0 -431.87983598314895 -1572.5106083206556 0 0 0 0 -5489.6778427719437 -1761.2486111360158 0 -1761.2486111360158 -1193.911324948338 0 0 0 0 1.7988768051158281 -15.576408442554193 0 -15.576408442554193 -2.9125160044287668 0 0 0 0 1408.5453247071073 -2348.2267764676872 0 -2348.2267764676872 -1511.4591081635444 0 0 0 0 275.31321271802608 -362.48803368283734 0 -362.48803368283734 -2346.8188208985375 0 0 0 0 -1174.7430246621916 -977.01188702947547 0 -977.01188702947547 -989.72732401519784 0 0 0 0 -549.75328759317927 -1216.2318197622226 0 -1216.2318197622226 -2557.4296500378987 0 0 0 0 7.2390616340254859 -5.8567159979660062 0 -5.8567159979660062 3.2712138634065298 0 0 0 0 339.5129003217703 -891.21901823415283 0 -891.21901823415283 568.40684636260266 0 0 0 0 -600.19008866820013 -1157.5484658683836 0 -1157.5484658683836 -2580.7837497900182 0 0 0 0 -1564.6400737706717 -2800.5034552494944 0 -2800.5034552494944 -1613.1924444270117 0 0 0 0 -522.85359908170176 -1265.825404658528 0 -1265.825404658528 -2680.2619490156503 0 0 0 0 -1261.7915206437319 -1498.5781469071007 0 -1498.5781469071007 -2378.2046521016018 0 0 0 0 -522.83116423890715 -1290.383213747722 0 -1290.383213747722 -2444.0351061542606 0 0 0 0 175.03867905057996 -1689.9797099297575 0 -1689.9797099297575 -1699.2343609029485 0 0 0 0 -162.48093995480667 -1094.8896677121447 0 -1094.8896677121447 -1523.1949706324376 0 0 0 0 -196.786416797122 -1543.9448811716575 0 -1543.9448811716575 -2236.0356851096512 0 0 0 0 -415.01427172061676 -986.76217210870163 0 -986.76217210870163 -2174.0019781640585 0 0 0 0 -982.34497415095484 -688.78874632090083 0 -688.78874632090083 -1512.2166271198948 0 0 0 0 -278.83659787701981 -1354.2672153423046 0 -1354.2672153423046 -2007.1463173270677 0 0 0 0 -1218.6228437112322 -1026.362786658312 0 -1026.362786658312 -1946.6607858036587 0 0 0 0 -2087.2399223693033 -737.98585173423999 0 -737.98585173423999 -1849.5856673532253 0 0 0 0 -2053.2929286798517 -682.99109879867683 0 -682.99109879867683 -2052.2398953438242 0 0 0 0 -3045.414869548752 -1409.1505670694387 0 -1409.1505670694387 -1942.8128087503428 0 0 0 0 -2201.18636274146 -469.96650535173831 0 -469.96650535173831 -1222.0371855713165 0 0 0 0 -3787.2400854479934 709.49584271632921 0 709.49584271632921 -1156.1495557165472 0 0 0 0 -3656.4525136380812 -296.0308577272217 0 -296.0308577272217 -560.84912885329686 0 0 0 0 -909.84608769581519 -418.67963625583798 0 -418.67963625583798 -1212.6117833450407 0 0 0 0 20.527833594217771 -7.2011495258054055 0 -7.2011495258054055 0.34402689519649243 0 0 0 0 -2278.7092392991572 -766.70017030597955 0 -766.70017030597955 -3187.7037962323011 0 0 0 0 -2352.9452094614508 -605.36826798740367 0 -605.36826798740367 -216.4384658641502 0 0 0 0 -128.11514835335947 -445.79424681574164 0 -445.79424681574164 -861.37956570037932 0 0 0 0 -1054.4579604161077 -1268.2137142059319 0 -1268.2137142059319 364.64571263288963 0 0 0 0 -1539.337125277325 -689.4747032012383 0 -689.4747032012383 -1317.4618781802237 0 0 0 0 -1507.4951818259697 -558.19966031850709 0 -558.19966031850709 -794.31817145965761 0 0 0 0 1417.5387518131465 -862.47061684683649 0 -862.47061684683649 293.16978024147102 0 0 0 0 -338.24073585835504 -1020.904494250979 0 -1020.904494250979 -1453.7440574108987 0 0 0 0 -210.73380842494771 -755.79431549685978 0 -755.79431549685978 -969.00992915101233 0 0 0 0 359.73105255234623 -769.4992815075675 0 -769.4992815075675 400.7991646046612 0 0 0 0 310.09911399217162 -1347.470720885427 0 -1347.470720885427 -813.70733171873144 0 0 0 0 804.00997466062836 -922.11683701907168 0 -922.11683701907168 440.33212190933409 0 0 0 0 1026.4421543830085 -1580.4888185132295 0 -1580.4888185132295 -838.06220541222137 0 0 0 0 156.67631753458772 -1409.7727947345484 0 -1409.7727947345484 -837.70688440804952 0 0 0 0 526.65135644386464 -1383.0278794223268 0 -1383.0278794223268 -1515.7318089539058 0 0 0 0 1237.2191876427969 -2461.1378550098943 0 -2461.1378550098943 -452.93690421487554 0 0 0 0 1075.6910991743143 -873.14409813509656 0 -873.14409813509656 -576.64381581252383 0 0 0 0 255.62812105002922 -2760.4510565013334 0 -2760.4510565013334 1549.630447404139 0 0 0 0 7.7070258545300874 -3.5440707847865411 0 -3.5440707847865411 -7.4772843987787923 0 0 0 0 -1218.9042010514095 1185.5922876722834 0 1185.5922876722834 -3100.5432255156993 0 0 0 0 282.15322177547205 -1134.9071894722292 0 -1134.9071894722292 -633.98083678111288 0 0 0 0 976.43433792606811 -494.33370491866299 0 -494.33370491866299 -1844.7874003436591 0 0 0 0 -4451.4869373997444 -792.03876289704931 0 -792.03876289704931 -567.1840907058795 0 0 0 0 8.2686681259807209 -41.89720887937591 0 -41.89720887937591 -10.304386829516886 0 0 0 0 268.27460182551295 -31.526767149582156 0 -31.526767149582156 -2013.8486662504438 0 0 0 0 486.06896661605242 -582.16498364931795 0 -582.16498364931795 -2499.1266597323702 0 0 0 0 -438.58298677709899 -310.60113340934186 0 -310.60113340934186 -1519.3188582931471 0 0 0 0 -135.74562916072568 -2082.9361686249872 0 -2082.9361686249872 -1532.8056158687396 0 0 0 0 494.88998246015763 -1125.0186890053883 0 -1125.0186890053883 -818.43640776513348 0 0 0 0 -2398.938568791782 -405.93680482152558 0 -405.93680482152558 -4176.5954810967687 0 0 0 0 -0.26275620154630985 -2.8588638763362439 0 -2.8588638763362439 -3.1284103700621841 0 0 0 0 48.345929929488335 -115.93760521518695 0 -115.93760521518695 78.546776983002815 0 0 0 0 358.55546533523375 -3076.7464856279403 0 -3076.7464856279403 -1872.6603524058155 0 0 0 0 -1008.2211843565383 -1245.8804625433113 0 -1245.8804625433113 -1843.7583999256676 0 0 0 0 -1509.007224222587 -1072.2386923943413 0 -1072.2386923943413 -1886.7226242332545 0 0 0 0 -250.23504054957766 -1795.9114341708673 0 -1795.9114341708673 -2475.1425445612695 0 0 0 0 -1660.4953970159549 352.74862172012217 0 352.74862172012217 -2664.4561426235814 0 0 0 0 -373.41711122432025 -1532.2801846135335 0 -1532.2801846135335 -78.166632890177425 0 0 0 0 10.17524086306581 -15.105217812500939 0 -15.105217812500939 21.98527745125152 0 0 0 0 -1696.1963682758724 -727.95223703875672 0 -727.95223703875672 -817.89420835058263 0 0 0 0 -2584.4920686990299 -923.31386927877247 0 -923.31386927877247 -1138.4695202566145 0 0 0 0 -1966.7816084183069 -998.59866198687087 0 -998.59866198687087 1044.4105861190765 0 0 0 0 -1427.8321966385138 -964.49659396609422 0 -964.49659396609422 -3726.4877889142663 0 0 0 0 -1.8984757805933299 7.9730154737698058 0 7.9730154737698058 -27.048444192035234 0 0 0 0 108.41738116406145 -78.530404985214247 0 -78.530404985214247 -44.97652089697155 0 0 0 0 -1455.1770841074467 -1099.0025239543756 0 -1099.0025239543756 -1196.1714702500158 0 0 0 0 -2199.4873963175669 -217.76597004551149 0 -217.76597004551149 -1517.9281699231287 0 0 0 0 -2125.8620256671638 -1485.2215528432716 0 -1485.2215528432716 -188.66456423577984 0 0 0 0 -855.69710009379196 -574.21285433403682 0 -574.21285433403682 17.919662185653578 0 0 0 0 52.363434950975467 -113.52949589664249 0 -113.52949589664249 -71.466194170032509 0 0 0 0 -550.02928013160817 -1600.8773516903202 0 -1600.8773516903202 -2685.9209518369025 0 0 0 0 -1703.8903118117214 561.55412432977755 0 561.55412432977755 -3269.4160488676425 0 0 0 0 -1195.1772567634821 -931.32918191299541 0 -931.32918191299541 -3355.5091503465228 0 0 0 0 -1096.5908403407188 -2224.5778421752784 0 -2224.5778421752784 -1465.3915288467033 0 0 0 0 22.741515491525618 -7.9697112634725755 0 -7.9697112634725755 -9.9323962432431188 0 0 0 0 15.796131855401548 -22.807708810469066 0 -22.807708810469066 -4.8380830241576263 0 0 0 0 -48.641715264656099 -37.431326140429675 0 -37.431326140429675 35.849919682416854 0 0 0 0 -1403.1911099353747 -1215.5082635319995 0 -1215.5082635319995 -2139.4458921105916 0 0 0 0 -1217.5474184090544 -1430.6883316281637 0 -1430.6883316281637 -2733.8671796414674 0 0 0 0 -1104.7742952886219 -1396.5058325662394 0 -1396.5058325662394 -2122.9319977085252 0 0 0 0 -140.46945757523827 -216.95830767610823 0 -216.95830767610823 -1629.476769653651 0 0 0 0 -1367.4002572396375 462.73555090605623 0 462.73555090605623 -1753.570375515963 0 0 0 0 2.5438522296983948 -6.5873310668760325 0 -6.5873310668760325 16.845727360662679 0 0 0 0 212.68287601164047 -683.02002609469491 0 -683.02002609469491 -1133.3325323322788 0 0 0 0 -2381.0958782093476 -866.40153447084685 0 -866.40153447084685 -517.20923559280345 0 0 0 0 -1556.3136970272608 -440.52935763540154 0 -440.52935763540154 -351.84898416211945 0 0 0 0 -1693.2103276185808 -1384.2074468376377 0 -1384.2074468376377 -680.70260604914802 0 0 0 0 -46.26767383393981 -36.540734460484458 0 -36.540734460484458 30.506502266317639 0 0 0 0 -1189.4202913896297 -1539.645245849897 0 -1539.645245849897 -632.90527342880523 0 0 0 0 -1806.7584113844714 -805.01974964392866 0 -805.01974964392866 -554.6133036608735 0 0 0 0 -2381.0958782093949 -866.40153447078774 0 -866.40153447078774 -517.20923559251241 0 0 0 0 -2381.0958782093439 -866.40153447082776 0 -866.40153447082776 -517.20923559262883 0 0 0 0 -2381.0958782093658 -866.40153447084595 0 -866.40153447084595 -517.20923559257062 0 0 0 0 -2381.0958782093221 -866.40153447075863 0 -866.40153447075863 -517.20923559257062 0 0 0 0 -1169.5912874837959 -1199.1231442285134 0 -1199.1231442285134 -311.73232023184391 0 0 0 0 -928.69981252666184 -1269.7389386350478 0 -1269.7389386350478 -533.92390506550146 0 0 0 0 -709.58062827742106 -620.65198916278132 0 -620.65198916278132 21.570436098976643 0 0 0 0 -1429.369371252993 -1068.2416266340661 0 -1068.2416266340661 174.43744617122866 0 0 0 0 -872.27494289073366 -949.66921786935563 0 -949.66921786935563 -382.64600348673412 0 0 0 0 5.4040272422566886 -25.128697104205827 0 -25.128697104205827 22.487451085827416 0 0 0 0 -1163.7640430640249 -365.93724748743807 0 -365.93724748743807 1259.3009164779069 0 0 0 0 -621.63195564868511 -1313.3626840065772 0 -1313.3626840065772 379.21395056416804 0 0 0 0 -5.2782908790010126 -8.3707644553736742 0 -8.3707644553736742 8.0919122372345811 0 0 0 0 -2268.2261020264305 -2432.6160810505462 0 -2432.6160810505462 -2013.5019782278068 0 0 0 0 -1433.3473433005038 -1624.6090675452178 0 -1624.6090675452178 -1896.4014324036398 0 0 0 0 -1642.8080860759546 -1068.3055825289484 0 -1068.3055825289484 -1224.5888187911041 0 0 0 0 -1413.9200319151387 -955.11950242290186 0 -955.11950242290186 -1217.2172961276665 0 0 0 0 -2746.6939662175901 -1305.7267638894773 0 -1305.7267638894773 -808.87506051009404 0 0 0 0 -2109.6181139540058 -1482.2199697485485 0 -1482.2199697485485 -1140.4008104608019 0 0 0 0 -19.019491201293931 -806.34725209270982 0 -806.34725209270982 -2163.0193538104868 0 0 0 0 -2395.5243519929936 -1319.3922285244334 0 -1319.3922285244334 -1127.4183018614713 0 0 0 0 -1299.9502211165855 -453.78394969427609 0 -453.78394969427609 -612.46100926162762 0 0 0 0 -2346.9685286834501 -922.29372493999836 0 -922.29372493999836 -796.01007560612925 0 0 0 0 -2127.4668703700991 195.23606562171335 0 195.23606562171335 -1287.8555357302539 0 0 0 0 -482.11420550686307 -420.06413992326998 0 -420.06413992326998 -1555.0392563828354 0 0 0 0 -543.7762177184959 -1222.7971593443799 0 -1222.7971593443799 -1305.5703112217598 0 0 0 0 -163.43284125126956 341.43771477947303 0 341.43771477947303 -671.9172358192227 0 0 0 0 -2153.780672770512 -1635.8700899717405 0 -1635.8700899717405 720.7553343562322 0 0 0 0 5.6732310750916355 -5.6080924250564266 0 -5.6080924250564266 -6.5668211780849788 0 0 0 0 -1447.9436853197221 1616.9235326815069 0 1616.9235326815069 1190.0666535588389 0 0 0 0 -1074.1875837980187 -1158.1567220870784 0 -1158.1567220870784 -468.73144674266223 0 0 0 0 0.14874006544414442 -1667.0807823351061 0 -1667.0807823351061 -540.02757612185087 0 0 0 0 -974.4610533163941 -1627.0679207011854 0 -1627.0679207011854 -136.44023834638938 0 0 0 0 -597.91427537449636 -1470.8544281013528 0 -1470.8544281013528 -595.35096521928062 0 0 0 0 -628.89266513587791 -1266.9155552121083 0 -1266.9155552121083 -572.05470517965296 0 0 0 0 -1091.3282011143892 -1312.239760812372 0 -1312.239760812372 -361.03242068102554 0 0 0 0 -1110.2959675119637 -453.42430829608929 0 -453.42430829608929 -915.47353946615476 0 0 0 0 -1107.2765953444032 -902.77923248781008 0 -902.77923248781008 -2209.6939003025655 0 0 0 0 -0.31447858932597228 -2.9529192157798434 0 -2.9529192157798434 -0.52370707335082045 0 0 0 0 -844.6305988036911 -713.71768936078297 0 -713.71768936078297 -188.55561645921227 0 0 0 0 -835.31806146656163 -709.92557145637693 0 -709.92557145637693 -188.55353381458553 0 0 0 0 -0.91447207368543104 0.60417139608777148 0 0.60417139608777148 0.79602586107128559 0 0 0 0 0.20669219317949228 -0.43496814349205692 0 -0.43496814349205692 0.89433979783424888 0 0 0 0 -1604.9589393559636 -1119.692395728247 0 -1119.692395728247 205.56691511026293 0 0 0 0 -1648.2804526792588 -766.36507576923532 0 -766.36507576923532 176.38071777606092 0 0 0 0 -2403.215793075171 -444.12077360032163 0 -444.12077360032163 601.53003322693985 0 0 0 0 -2094.2851962437235 -1257.5111534782791 0 -1257.5111534782791 859.38260436968994 0 0 0 0 -1872.2096109187987 -1403.0322070380644 0 -1403.0322070380644 449.57133878064633 0 0 0 0 -1674.4933790460636 -1887.9441864219116 0 -1887.9441864219116 -629.82136195890052 0 0 0 0 0.50613922912407361 -1.0166014344421583 0 -1.0166014344421583 2.0217876873753085 0 0 0 0 -2.0175036505388562 -2149.5980919288486 0 -2149.5980919288486 123.6444036069297 0 0 0 0 -5.0626490506867405 -2684.1539573720725 0 -2684.1539573720725 -250.09007067035418 0 0 0 0 -2385.4159829053824 -2538.5073611259795 0 -2538.5073611259795 123.09747057870845 0 0 0 0 9.364268143841457 -4.1384263656470637 0 -4.1384263656470637 -3.9546179060209568 0 0 0 0 3.8727495294733671 -3705.2724870492675 0 -3705.2724870492675 690.57948332438536 0 0 0 0 -3882.80184523762 -3781.8368604696079 0 -3781.8368604696079 -6.8250745742043364 0 0 0 0 -1500.538765279809 -1681.3894941070757 0 -1681.3894941070757 -3475.6032400042459 0 0 0 0 2.9544426185611314 -9.1823345335537567 0 -9.1823345335537567 -3.017169685208188 0 0 0 0 -3997.6946211539907 -3232.6728691500539 0 -3232.6728691500539 2070.8344485539128 0 0 0 0 0.89679954609360779 -2777.0680375130087 0 -2777.0680375130087 -2732.0011790713761 0 0 0 0 -5850.4807832463412 -425.40090087412682 0 -425.40090087412682 -2185.3389073942817 0 0 0 0 -8.8193204620445727 -5.2377410359656977 0 -5.2377410359656977 7.5955045395063507 0 0 0 0 -6357.7988399071255 154.14312743660412 0 154.14312743660412 -2834.4882201332803 0 0 0 0 -4889.6703754776099 -1580.1202404921423 0 -1580.1202404921423 -528.82704024556733 0 0 0 0 -5089.8503085771226 -1259.2046034056548 0 -1259.2046034056548 402.6430357106874 0 0 0 0 7.5733054837867826 -23.581942403501273 0 -23.581942403501273 -7.1327245533539951 0 0 0 0 -33.031348476902451 -19.034442345666491 0 -19.034442345666491 33.274248212161098 0 0 0 0 -4493.1801003463261 -1867.9313877270124 0 -1867.9313877270124 -1377.9997532257839 0 0 0 0 -4920.8871137697715 -1206.1203634791455 0 -1206.1203634791455 -686.51599342669579 0 0 0 0 9.8991140677435965 -8.7076712186489118 0 -8.7076712186489118 -9.8562788998854671 0 0 0 0 -2160.0976754306284 -2030.5136852640717 0 -2030.5136852640717 -384.2772696561442 0 0 0 0 -4321.7637515784008 -2328.4687239698833 0 -2328.4687239698833 678.52088464162625 0 0 0 0 -3268.3863612310379 -352.22607672539743 0 -352.22607672539743 2339.9729605600587 0 0 0 0 -1421.4748490865168 937.52666110966675 0 937.52666110966675 -422.97583030488022 0 0 0 0 1.3311005509254414 0.81194070310432664 0 0.81194070310432664 17.003209279802491 0 0 0 0 -1073.4115698263195 391.21936966884823 0 391.21936966884823 282.24529053359583 0 0 0 0 -1157.4764653230668 43.773331818243605 0 43.773331818243605 249.73739179970198 0 0 0 0 39.695555090118432 -181.03690754000127 0 -181.03690754000127 144.97390205602278 0 0 0 0 -80.28586687591914 -70.837670849224622 0 -70.837670849224622 99.278107187585704 0 0 0 0 55.101105838999501 -174.74902695006676 0 -174.74902695006676 147.52938615255698 0 0 0 0 14.593055389894857 -47.266193264655925 0 -47.266193264655925 9.5077653324983515 0 0 0 0 -79.625187445635675 -972.45913601211214 0 -972.45913601211214 -2245.9832635388229 0 0 0 0 -21.632540518126916 -70.17321226169588 0 -70.17321226169588 29.610771432286128 0 0 0 0 -3066.0338519214711 -498.05476948166324 0 -498.05476948166324 -1105.8538994056871 0 0 0 0 -9.135478338041878 -36.042512939034694 0 -36.042512939034694 39.29737964576384 0 0 0 0 43.923230286748833 -98.158422074099207 0 -98.158422074099207 42.634645408582259 0 0 0 0 -176.0882195796512 -525.93411071031005 0 -525.93411071031005 -785.39561169501394 0 0 0 0 -472.21321486143279 -760.59005142215756 0 -760.59005142215756 -233.40991100281826 0 0 0 0 -608.63590491490322 -1093.7171489300817 0 -1093.7171489300817 -945.76622915250482 0 0 0 0 -313.66200968222984 -1572.6114533419459 0 -1572.6114533419459 -703.36723307083594 0 0 0 0 -676.84160426878952 -1123.5865200492699 0 -1123.5865200492699 -5.5381985449017073 0 0 0 0 -370.72900723066414 -443.31421534519177 0 -443.31421534519177 -342.36183142152731 0 0 0 0 -212.30851818500378 -164.16071487460431 0 -164.16071487460431 -0.84591189431375824 0 0 0 0 3.1705593377789114 -1.7995745863395882 0 -1.7995745863395882 8.7402487891965848 0 0 0 0 -453.24836731443065 -494.55102762649767 0 -494.55102762649767 0.69245933788798197 0 0 0 0 -90.401001809514128 -437.20083863966283 0 -437.20083863966283 -342.68160570165492 0 0 0 0 -413.19838642940158 -401.96155492437538 0 -401.96155492437538 -735.23070066960645 0 0 0 0 8.3398852910046628 6.9627219558378499 0 6.9627219558378499 -3.6421882741443596 0 0 0 0 25.746937011666375 -82.435667388479544 0 -82.435667388479544 4.5608772105788091 0 0 0 0 -20.362255047293729 -93.695458721718751 0 -93.695458721718751 -154.10293821169762 0 0 0 0 39.080081290356304 -16.441732656857937 0 -16.441732656857937 -24.769261634469729 0 0 0 0 -232.13113736459491 -464.0781479782454 0 -464.0781479782454 -755.23634942964418 0 0 0 0 83.670254084048793 -106.91114749278495 0 -106.91114749278495 -306.12502815522021 0 0 0 0 24.633082101272763 -40.088570652402382 0 -40.088570652402382 17.129543755197346 0 0 0 0 155.4929534815019 -376.49196451570606 0 -376.49196451570606 -13.06251766837886 0 0 0 0 -408.22455600401736 -319.71004569428624 0 -319.71004569428624 -238.10990924251382 0 0 0 0 -102.7562932005967 -59.721588505519321 0 -59.721588505519321 -46.810454613092588 0 0 0 0 4.3721932673943229 0.94629279774380848 0 0.94629279774380848 -157.38375621306477 0 0 0 0 72.218119564087829 -11.140114794601686 0 -11.140114794601686 -384.77235382702202 0 0 0 0 -327.18966614138481 -562.76289789228395 0 -562.76289789228395 -486.15044958714861 0 0 0 0 30.538851589608385 -272.31729207848912 0 -272.31729207848912 -626.40141725004651 0 0 0 0 -261.3970345579437 -62.72369918939512 0 -62.72369918939512 290.42481815749488 0 0 0 0 -32.021893115121202 -114.20309408458888 0 -114.20309408458888 74.56037779203325 0 0 0 0 3.4641466766570232 -14.648459173405158 0 -14.648459173405158 38.136642927621665 0 0 0 0 36.502078950104874 -103.95476036614755 0 -103.95476036614755 -37.174305016094905 0 0 0 0 114.94846047449391 -129.41249679175962 0 -129.41249679175962 27.410020365492528 0 0 0 0 215.06137155561737 -217.28023916534949 0 -217.28023916534949 100.97453623043839 0 0 0 0 91.027814539360406 -215.64634350137931 0 -215.64634350137931 187.84262660719105 0 0 0 0 -462.69632590407855 28.782952193818346 0 28.782952193818346 152.94584446842532 0 0 0 0 633.06930779348477 -405.32851517678864 0 -405.32851517678864 -234.05435390588536 0 0 0 0 -0.33365711896263406 3.7933992753827397 0 3.7933992753827397 7.117719113974772 0 0 0 0 -927.81969640616444 -99.814845901251829 0 -99.814845901251829 150.11189460117021 0 0 0 0 -732.96674896817058 -265.98714377795477 0 -265.98714377795477 -337.74648197190254 0 0 0 0 -10.562824883658323 -338.53321891160158 0 -338.53321891160158 -161.90266557486757 0 0 0 0 -89.139039178506522 -66.619345516391405 0 -66.619345516391405 90.666341548978437 0 0 0 0 15.470127269785735 -138.01223499867774 0 -138.01223499867774 190.25476586211721 0 0 0 0 -538.57498255881364 -163.00719875755021 0 -163.00719875755021 55.625036879180698 0 0 0 0 -90.72964511522207 -63.730284950459136 0 -63.730284950459136 91.427762240200025 0 0 0 0 -1107.1020702483947 307.49748389932938 0 307.49748389932938 982.00972186478612 0 0 0 0 -1013.2603704184876 -383.13220892954268 0 -383.13220892954268 398.27683280567726 0 0 0 0 -1025.2757928681676 -315.02169294785563 0 -315.02169294785563 12.548276243142027 0 0 0 0 -484.007883754879 -256.21096389515878 0 -256.21096389515878 -57.527878903969395 0 0 0 0 -258.26843933442979 -305.79152511436041 0 -305.79152511436041 -361.91252347547561 0 0 0 0 -661.16100229884614 -575.06629147937929 0 -575.06629147937929 -214.74697594144925 0 0 0 0 -965.24672038946301 -558.02384979932685 0 -558.02384979932685 -214.57978297650698 0 0 0 0 -0.91788071649796166 -8.5009574120557261 0 -8.5009574120557261 2.8852819092234121 0 0 0 0 -502.10074988697306 -672.62899507213297 0 -672.62899507213297 -974.00543171908066 0 0 0 0 -296.90419091963849 -480.95120595533081 0 -480.95120595533081 -845.94971321102639 0 0 0 0 -68.756113104696851 -57.215615707624238 0 -57.215615707624238 -8.9020488828446105 0 0 0 0 -423.43010628622142 -369.33022409882687 0 -369.33022409882687 -219.09981223200157 0 0 0 0 8.2880199413480682 -39.618578431802121 0 -39.618578431802121 31.939711717701186 0 0 0 0 -4.3696558947972335 -40.357589542654068 0 -40.357589542654068 17.74513152024803 0 0 0 0 -1909.6330856609275 -414.6489533787244 0 -414.6489533787244 1347.4963938973742 0 0 0 0 -1061.7349293273874 -638.51588566077407 0 -638.51588566077407 -2228.226797092997 0 0 0 0 -3.6825042705951319 -34.0639944736281 0 -34.0639944736281 13.017545703882583 0 0 0 0 -1959.1107677300752 112.61039478000021 0 112.61039478000021 -118.4610570842342 0 0 0 0 -1177.0343347308517 -666.73857571030385 0 -666.73857571030385 23.793872803536942 0 0 0 0 -851.98601476362091 -285.09456769021926 0 -285.09456769021926 189.93991951111821 0 0 0 0 -1302.5571761172032 -675.88866905571194 0 -675.88866905571194 123.06558535096701 0 0 0 0 -44.257458390571941 -45.738787195838484 0 -45.738787195838484 57.878640448116982 0 0 0 0 -722.74192034751832 -596.62830284544725 0 -596.62830284544725 -243.71059243057971 0 0 0 0 285.2734342449985 121.62376310146647 0 121.62376310146647 205.56662603211589 0 0 0 0 -1472.0293816373451 -626.60777191854868 0 -626.60777191854868 96.693477081498713 0 0 0 0 -673.820700525539 -1354.1461896300098 0 -1354.1461896300098 -1016.1122477117751 0 0 0 0 -299.94837121747696 -52.674380414919142 0 -52.674380414919142 199.17343657754827 0 0 0 0 -370.37035081723661 -556.69224514064445 0 -556.69224514064445 -1011.9644967901695 0 0 0 0 -62.632200688926559 -22.308751986430678 0 -22.308751986430678 53.421386603013019 0 0 0 0 -155.23861758012208 -457.6808783205779 0 -457.6808783205779 -254.82923621591181 0 0 0 0 -145.58579735255626 -412.3775045412367 0 -412.3775045412367 -384.35482654705993 0 0 0 0 596.18484050445841 1047.9486464598303 0 1047.9486464598303 1478.2753182074521 0 0 0 0 -1723.3694252276327 -21.296827427497192 0 -21.296827427497192 1723.9118132791773 0 0 0 0 127.99100139034272 -227.43217295325303 0 -227.43217295325303 968.45151427199016 0 0 0 0 -3044.3283478770463 -3462.6610069804083 0 -3462.6610069804083 -2135.47433802454 0 0 0 0 -426.57641342005809 1739.4559806266043 0 1739.4559806266043 3777.8285886377707 0 0 0 0 -1255.5812598441844 -1585.0552627878205 0 -1585.0552627878205 -2418.1695779560778 0 0 0 0 -12.044475191907907 -5.1335479396087749 0 -5.1335479396087749 10.802939359567603 0 0 0 0 -2735.6378578562581 -1473.2996996581642 0 -1473.2996996581642 101.95366886012198 0 0 0 0 -1889.2364617778512 -109.61258626286872 0 -109.61258626286872 3725.1879055547761 0 0 0 0 -1631.8284543629852 -1233.2929676283529 0 -1233.2929676283529 1814.0500525704701 0 0 0 0 -1688.9214183702134 -808.24856712951441 0 -808.24856712951441 180.50725295925804 0 0 0 0 -1519.0367937906994 -1145.3882077973976 0 -1145.3882077973976 848.2556199747487 0 0 0 0 -1778.2763116450515 -6.4530782638175879 0 -6.4530782638175879 729.16746856803002 0 0 0 0 -1633.4408878861868 -234.01647726271767 0 -234.01647726271767 66.592785095708678 0 0 0 0 -1762.6766725316611 -252.89055710253479 0 -252.89055710253479 1935.470972707175 0 0 0 0 -1159.6482161860913 660.51417208796192 0 660.51417208796192 2104.9085998049541 0 0 0 0 -794.90818311725161 680.34361813591386 0 680.34361813591386 82.522914680448594 0 0 0 0 -903.63553839395172 183.81348143423384 0 183.81348143423384 2974.4535542289232 0 0 0 0 -2271.7302677924163 -2651.5518111018173 0 -2651.5518111018173 -6518.2990760914108 0 0 0 0 -0.4200355223354677 -6.7731354530725696 0 -6.7731354530725696 1.7792379183212859 0 0 0 0 -309.14214658230776 78.014595835207729 0 78.014595835207729 2135.8979362244754 0 0 0 0 -424.47035452420823 -116.41334508737782 0 -116.41334508737782 2308.5671919730084 0 0 0 0 -525.45886645541759 -238.05418237022968 0 -238.05418237022968 2230.7947814895015 0 0 0 0 -937.0066145149176 -610.83530961058568 0 -610.83530961058568 2916.8458724720549 0 0 0 0 -375.73148241877789 107.47864098389982 0 107.47864098389982 819.26421736707562 0 0 0 0 -1068.9918611979811 -1323.4282240260945 0 -1323.4282240260945 2118.9269798561145 0 0 0 0 -1139.3855059563793 -1955.3250730888467 0 -1955.3250730888467 -3433.3882642337121 0 0 0 0 -4134.8308078572154 -3650.812402170006 0 -3650.812402170006 379.62904574262211 0 0 0 0 -1316.1926693072746 -884.77306908812898 0 -884.77306908812898 -536.64484777823964 0 0 0 0 -1255.8681254790426 -999.02790795217152 0 -999.02790795217152 -322.96420436899643 0 0 0 0 -1156.5283608609607 -1052.5091593398829 0 -1052.5091593398829 -638.56411624632528 0 0 0 0 -1870.6992886228545 256.84409985964157 0 256.84409985964157 1210.4754243713542 0 0 0 0 -1169.6345967245288 -1016.6249311074935 0 -1016.6249311074935 -533.88990798682789 0 0 0 0 -1154.900122197927 -1063.1103175418903 0 -1063.1103175418903 -387.96553772799234 0 0 0 0 -1108.6821795292053 -1084.5461861273507 0 -1084.5461861273507 -563.49288503536081 0 0 0 0 -1143.6430584753398 -1098.1379258931702 0 -1098.1379258931702 -488.01136385329301 0 0 0 0 -1047.6497524268634 -1160.431158666157 0 -1160.431158666157 -471.53119576283643 0 0 0 0 -1207.7864135619748 -1037.8525270530445 0 -1037.8525270530445 -543.27140235673869 0 0 0 0 -1031.540109945825 -1058.9008339562824 0 -1058.9008339562824 -665.88419602578506 0 0 0 0 -1058.1412583203637 -1095.4806078166584 0 -1095.4806078166584 -565.73675224074395 0 0 0 0 -1065.4520126125717 -937.99307839875837 0 -937.99307839875837 -548.88631561327202 0 0 0 0 -892.86674115306232 -1015.0134638424133 0 -1015.0134638424133 -662.01807404347346 0 0 0 0 -1869.4359152656994 -1123.3595320689215 0 -1123.3595320689215 917.97644141275669 0 0 0 0 -485.24648583201633 -772.76360098367877 0 -772.76360098367877 -325.05369553298806 0 0 0 0 -1185.692117672239 -1117.2055791121093 0 -1117.2055791121093 -561.26763103507983 0 0 0 0 61.070193713534508 -63.305505863930193 0 -63.305505863930193 45.868543366717802 0 0 0 0 -1123.0138956830488 -564.75591856631218 0 -564.75591856631218 1095.2740430815029 0 0 0 0 -1409.7329906509549 -1863.2872826149833 0 -1863.2872826149833 -2325.1937421687035 0 0 0 0 -468.85654564210563 522.26175960715773 0 522.26175960715773 730.98282513007871 0 0 0 0 -30.047424331132731 -12.133925506852108 0 -12.133925506852108 27.311253870226949 0 0 0 0 211.54540801921394 348.21122994635516 0 348.21122994635516 -947.30324666842353 0 0 0 0 -1253.7790796410991 -730.57618255830312 0 -730.57618255830312 -1859.7684780580676 0 0 0 0 -609.2710250657401 -678.89776873151277 0 -678.89776873151277 -732.10283610761689 0 0 0 0 -920.83637793608068 -815.97370235615381 0 -815.97370235615381 -529.7123323221258 0 0 0 0 -604.94123935555035 -167.61812159956571 0 -167.61812159956571 165.39979348798079 0 0 0 0 57.891475597524902 -63.607915910305763 0 -63.607915910305763 32.713729080104343 0 0 0 0 -1257.108980610041 -1183.1802151138663 0 -1183.1802151138663 -981.21041825645079 0 0 0 0 -50.859377246853001 -19.925178158123856 0 -19.925178158123856 47.983205210516218 0 0 0 0 -876.93375646571803 -683.42998232328682 0 -683.42998232328682 -678.27852044817701 0 0 0 0 -1051.7334573629614 -1252.5793953091179 0 -1252.5793953091179 -960.36440099372703 0 0 0 0 -1331.958167963053 -1281.3408852341536 0 -1281.3408852341536 -994.47189489207813 0 0 0 0 -1271.1503695513529 -757.14303483096592 0 -757.14303483096592 -805.1915574609593 0 0 0 0 -1173.1362681872561 -1173.8150356047263 0 -1173.8150356047263 -319.05259139549162 0 0 0 0 -1293.8921556161076 -543.45015781865368 0 -543.45015781865368 -146.21334363648202 0 0 0 0 -1101.3334651577243 -681.96044380199237 0 -681.96044380199237 -1115.7897021246317 0 0 0 0 -1338.4467090049502 -747.50204409269202 0 -747.50204409269202 -1208.4175489342015 0 0 0 0 -1456.5265142051503 -1101.4881073597207 0 -1101.4881073597207 -582.83355147854309 0 0 0 0 -2069.5288553456485 -1615.4550293323919 0 -1615.4550293323919 -1472.3013175064116 0 0 0 0 -2114.9849645047243 -892.23472312544163 0 -892.23472312544163 -971.25714272321784 0 0 0 0 -1537.0287717423344 -580.51658608636353 0 -580.51658608636353 -1368.8888990628038 0 0 0 0 -1554.4015440843505 -1398.6847786206199 0 -1398.6847786206199 -464.98622987704584 0 0 0 0 -1319.1485276060994 -845.4751624953642 0 -845.4751624953642 -1081.8986405028991 0 0 0 0 -1208.3561034606682 -113.83197119455144 0 -113.83197119455144 105.97262080250948 0 0 0 0 -1410.2932731259571 -423.84369768922261 0 -423.84369768922261 -209.0775536740839 0 0 0 0 -860.30662013270194 -535.65786730952823 0 -535.65786730952823 -230.49220757976582 0 0 0 0 -796.48323511335184 -256.02568026371591 0 -256.02568026371591 50.957633243582677 0 0 0 0 -701.98488518396334 -429.343134138202 0 -429.343134138202 261.14715976467414 0 0 0 0 -938.23632075739442 -922.3641534400449 0 -922.3641534400449 112.58496936944721 0 0 0 0 -1186.534694589056 -693.67397051442094 0 -693.67397051442094 603.4179193705495 0 0 0 0 -357.13081344930106 -1127.8842625898105 0 -1127.8842625898105 528.47122611856867 0 0 0 0 34.28512825591099 -106.52967962873534 0 -106.52967962873534 -35.374299185421293 0 0 0 0 -1234.9178258935426 -1092.1126796567842 0 -1092.1126796567842 1573.4862011087971 0 0 0 0 -240.27581110267784 527.18153683407581 0 527.18153683407581 -2216.9823665069707 0 0 0 0 -896.24745127694041 -1059.8731286494949 0 -1059.8731286494949 -1623.3000264260627 0 0 0 0 -494.30978383656475 99.988443304027896 0 99.988443304027896 -235.38011684354569 0 0 0 0 3.7900624437714328 -8.028724526827645 0 -8.028724526827645 -4.2071488522775553 0 0 0 0 -819.25466673163464 27.559970210670144 0 27.559970210670144 -225.44999248556996 0 0 0 0 -1135.3791631685745 -133.80336226869258 0 -133.80336226869258 -145.62248492673098 0 0 0 0 -164.60154046458774 -74.362944883541786 0 -74.362944883541786 -416.25036304740206 0 0 0 0 -314.0294163984363 -578.58010973768251 0 -578.58010973768251 37.73738370402134 0 0 0 0 -3.5334470974227656 -4.2033907567112578 0 -4.2033907567112578 2.8236219513547383 0 0 0 0 -146.7966874538688 -450.6369515452534 0 -450.6369515452534 -1002.0479475812754 0 0 0 0 -662.48147859994788 158.57158101403911 0 158.57158101403911 455.43144079751073 0 0 0 0 -384.14129923889413 99.853255616675597 0 99.853255616675597 -902.92643535856769 0 0 0 0 -960.69796738367586 101.11743475115509 0 101.11743475115509 -479.20699222228723 0 0 0 0 -296.48304777831072 151.60184669913724 0 151.60184669913724 -293.85732703632675 0 0 0 0 -67.830446329840925 161.87353953797719 0 161.87353953797719 -418.21173290128354 0 0 0 0 -1160.363993566265 -400.82271320681321 0 -400.82271320681321 -652.18358393754897 0 0 0 0 -5.9198725297338797 -7.1037806945253692 0 -7.1037806945253692 4.4057916883127746 0 0 0 0 -236.61832329277968 16.647349288607074 0 16.647349288607074 -267.08516029262682 0 0 0 0 -537.85565703094471 -131.00071887450758 0 -131.00071887450758 -335.80730169609888 0 0 0 0 -889.5619420700823 -38.580794544133823 0 -38.580794544133823 -117.62332316490938 0 0 0 0 -618.09304075007094 -232.62553955373005 0 -232.62553955373005 13.405818813538644 0 0 0 0 -1153.1680154818459 -15.942301181552466 0 -15.942301181552466 117.7991839320166 0 0 0 0 -1075.3982913117216 -182.95470756720169 0 -182.95470756720169 55.462157560046762 0 0 0 0 -990.0649869373301 -180.40060281928163 0 -180.40060281928163 264.90470504399855 0 0 0 0 -54.299405539684813 -165.35125439753301 0 -165.35125439753301 -673.68177230667789 0 0 0 0 -1014.350290778355 -12.428693250898505 0 -12.428693250898505 -456.10185705102049 0 0 0 0 -892.17884338081058 -185.78051910086651 0 -185.78051910086651 -375.54240124940407 0 0 0 0 -901.35958725925593 -166.27782805669995 0 -166.27782805669995 -0.35375064554682467 0 0 0 0 -799.83107867445506 -253.66541529161623 0 -253.66541529161623 -340.35287129483186 0 0 0 0 -712.63840033271117 -131.05658644787036 0 -131.05658644787036 -415.17460888023197 0 0 0 0 -877.69889298439375 -113.52706262789434 0 -113.52706262789434 -511.77480508791632 0 0 0 0 -995.98651681131741 44.50331978900067 0 44.50331978900067 -187.81794191678637 0 0 0 0 -431.72656505837222 -166.2894758603361 0 -166.2894758603361 -387.20280949582229 0 0 0 0 -190.47658558510011 -339.8782247906347 0 -339.8782247906347 -466.43874988242169 0 0 0 0 -358.07902811316308 137.27862099243794 0 137.27862099243794 -135.11596043931786 0 0 0 0 -2.800059420014918 -2.99316262440027 0 -2.99316262440027 3.9113102282881016 0 0 0 0 -829.15978604333941 45.092000257005566 0 45.092000257005566 -493.34392564638983 0 0 0 0 -4.4900597656458672 -5.3527093690444758 0 -5.3527093690444758 3.529707105030468 0 0 0 0 -1065.2480411397992 142.04231733526103 0 142.04231733526103 120.40902072872268 0 0 0 0 -1188.3037716647959 -153.12865352755762 0 -153.12865352755762 -1047.1864945593989 0 0 0 0 -1180.0284832431935 -163.91517543155351 0 -163.91517543155351 -1081.1897933795844 0 0 0 0 -1101.0891534564034 269.04932679467674 0 269.04932679467674 0.17022353100765031 0 0 0 0 -1150.2524961954914 -28.070672029803973 0 -28.070672029803973 -730.25133569329046 0 0 0 0 -5.5210751616197058 -8.0656757568505668 0 -8.0656757568505668 3.7022280315308933 0 0 0 0 -1247.0955413149204 -84.248397940711584 0 -84.248397940711584 -1106.1270482977998 0 0 0 0 -1071.2128314637812 -24.838835374219343 0 -24.838835374219343 -732.04734248074237 0 0 0 0 -1181.1185809668386 -74.339146337239072 0 -74.339146337239072 -681.34540746186394 0 0 0 0 -1043.5851167504588 195.61187325164792 0 195.61187325164792 -512.04898599823355 0 0 0 0 -1109.542474348098 338.40770464835805 0 338.40770464835805 27.84842017351184 0 0 0 0 -816.36703505078913 250.06220032558485 0 250.06220032558485 -483.62966407800559 0 0 0 0 -891.04946684965398 355.16494153899839 0 355.16494153899839 -331.93026948079932 0 0 0 0 -3.714868248954474 -5.3667663629875619 0 -5.3667663629875619 2.8554900775889678 0 0 0 0 -915.05497118009953 59.603954894118942 0 59.603954894118942 -1230.321704724367 0 0 0 0 -1200.4250580135267 144.29378534050193 0 144.29378534050193 272.03846325384802 0 0 0 0 -1056.605642640905 201.02164698578417 0 201.02164698578417 -137.75999904685887 0 0 0 0 -1043.3713064818403 40.786001147540446 0 40.786001147540446 -477.99180459708441 0 0 0 0 -1241.6183968891855 -5.2848577038967051 0 -5.2848577038967051 88.650515650137095 0 0 0 0 -1179.823891658918 -58.641069333243649 0 -58.641069333243649 -1.1649915719463024 0 0 0 0 -1143.2417397407116 -48.370400456791685 0 -48.370400456791685 -20.102736892178655 0 0 0 0 -1144.9032951952249 62.910139769490343 0 62.910139769490343 -34.604008040827466 0 0 0 0 -1151.911955042211 -108.67080603784416 0 -108.67080603784416 -289.68213713151636 0 0 0 0 -1160.4625307911192 -190.3383974811295 0 -190.3383974811295 -237.46596196011524 0 0 0 0 -1099.7905517250765 -71.598285265325103 0 -71.598285265325103 -179.8056568116881 0 0 0 0 -1172.4426265511138 -114.65520945913158 0 -114.65520945913158 -472.86134553456213 0 0 0 0 -1104.3532661324716 -9.3132313741953112 0 -9.3132313741953112 -409.72840682213427 0 0 0 0 -1147.8233079385827 -24.808575146482326 0 -24.808575146482326 -309.91033999380306 0 0 0 0 -1145.4706673576729 -179.73456062667537 0 -179.73456062667537 -490.69526446679083 0 0 0 0 -1315.7232581371791 -141.43634861632017 0 -141.43634861632017 -527.00360155278031 0 0 0 0 -1183.4868122740882 -87.632831152703147 0 -87.632831152703147 -531.57793554394084 0 0 0 0 -1277.2914810692891 -181.72477000282379 0 -181.72477000282379 -556.0183327893028 0 0 0 0 -1209.5667100509163 -78.095835293352138 0 -78.095835293352138 -522.71878615306923 0 0 0 0 -1172.40798686567 -89.737773042113986 0 -89.737773042113986 -554.36160747392569 0 0 0 0 -1114.4177493234165 36.359262191865128 0 36.359262191865128 -397.68636328124558 0 0 0 0 -1149.2092002027566 -54.008999235775264 0 -54.008999235775264 -670.3148663805332 0 0 0 0 -1136.5458949121967 12.724543146308861 0 12.724543146308861 -514.32206883456092 0 0 0 0 -956.44057956733741 53.792605745431501 0 53.792605745431501 -710.45390119156218 0 0 0 0 -1193.1418448431505 -92.168780181018519 0 -92.168780181018519 -723.53914361569332 0 0 0 0 -1209.8829586015781 -71.487554001098033 0 -71.487554001098033 -657.76723127136938 0 0 0 0 -1183.0516368036624 -48.211573151114862 0 -48.211573151114862 -637.57769557950087 0 0 0 0 -1250.1148272855207 -168.24864301434718 0 -168.24864301434718 -651.08222293027211 0 0 0 0 -1267.5591083045292 -143.06904556188965 0 -143.06904556188965 -580.25189003083506 0 0 0 0 -1273.3387510225875 -201.5408661327383 0 -201.5408661327383 -697.63536169024883 0 0 0 0 -1312.8107806810294 -241.12809850103804 0 -241.12809850103804 -591.44887835500413 0 0 0 0 -1358.7253947204445 -277.36843095293443 0 -277.36843095293443 -619.30382221692707 0 0 0 0 -1338.2348171956546 -167.11644171207445 0 -167.11644171207445 -535.71071465639398 0 0 0 0 -1490.8675377821437 -347.12457248744886 0 -347.12457248744886 -609.65414877876174 0 0 0 0 -1351.3330869967758 -166.97301726444857 0 -166.97301726444857 -1807.7282954719121 0 0 0 0 -1363.3292363028741 -300.79127423881437 0 -300.79127423881437 -597.35245852550725 0 0 0 0 -1333.1706468053162 -82.584492080335622 0 -82.584492080335622 -667.41600174433552 0 0 0 0 -1296.4005541373044 -183.86029136329307 0 -183.86029136329307 -584.3881266809185 0 0 0 0 -1505.9134651649219 -176.78531839727657 0 -176.78531839727657 -582.17239612690901 0 0 0 0 -1097.230082080001 -150.04182573436992 0 -150.04182573436992 -798.62176213828207 0 0 0 0 -2065.898761856748 -217.46062202859321 0 -217.46062202859321 -1713.947785774908 0 0 0 0 34.000970317004317 -105.58337808968761 0 -105.58337808968761 -35.843021663652593 0 0 0 0 -1029.8056639060669 -321.71172043128172 0 -321.71172043128172 -723.26618680113461 0 0 0 0 -1230.241857989924 -302.09526506753173 0 -302.09526506753173 -229.63873598216014 0 0 0 0 -1151.0335245897004 -364.37789469517884 0 -364.37789469517884 -554.84597647213377 0 0 0 0 -1089.9420199363376 -148.8051130206004 0 -148.8051130206004 -585.53606528806267 0 0 0 0 -1145.2384205824346 -135.83633709847345 0 -135.83633709847345 -655.92141323344549 0 0 0 0 -1255.5935825954366 -336.17949396804033 0 -336.17949396804033 987.79326226918784 0 0 0 0 -889.83787998499611 -758.74400231977052 0 -758.74400231977052 60.490326797313173 0 0 0 0 -1409.0214764119883 -808.31254575189087 0 -808.31254575189087 100.20741940567677 0 0 0 0 -906.07638836704427 -74.508414137555519 0 -74.508414137555519 -1794.6494672330955 0 0 0 0 8.2272410238862221 -17.40299021915348 0 -17.40299021915348 -9.3577837980060679 0 0 0 0 -1304.5557226246601 -846.8029735383534 0 -846.8029735383534 337.32705572836858 0 0 0 0 -1018.0446779156337 -462.17352342307277 0 -462.17352342307277 119.37561238489434 0 0 0 0 2.3725646188447342 -3.190896438221074 0 -3.190896438221074 5.8352206238687074 0 0 0 0 -1189.5789636288973 -1079.4923225218736 0 -1079.4923225218736 -325.65127287054202 0 0 0 0 -2036.6157361618825 -154.34640065544227 0 -154.34640065544227 -1498.2553376126452 0 0 0 0 -1101.2934777171467 -1238.1245629414334 0 -1238.1245629414334 -657.96599264528049 0 0 0 0 -1568.1274623029458 86.641747413807025 0 86.641747413807025 -1790.5758684349203 0 0 0 0 -503.26079516814207 -461.82996919289872 0 -461.82996919289872 -479.65725497857693 0 0 0 0 -514.02064530845382 -1003.7060117085202 0 -1003.7060117085202 -847.03679061210278 0 0 0 0 17.755228911702432 -15.048982268577213 0 -15.048982268577213 5.8439811747408044 0 0 0 0 -2378.2517198634159 -17.413904436085431 0 -17.413904436085431 -2399.300661703659 0 0 0 0 45.478004817325541 -40.779487792629546 0 -40.779487792629546 21.575302156036457 0 0 0 0 -553.66970924474299 991.71901921363315 0 991.71901921363315 -1675.9647031951754 0 0 0 0 17.314336428154661 -13.313525589510363 0 -13.313525589510363 -25.965019141776054 0 0 0 0 14.509749688880646 -39.736491277235814 0 -39.736491277235814 -60.478196987961525 0 0 0 0 7.4274099093925088 -15.525848528396182 0 -15.525848528396182 -10.005133182414042 0 0 0 0 -846.17164637539099 110.06980579101946 0 110.06980579101946 -1338.202754944461 0 0 0 0 4.380813546220395 -8.7549187087440714 0 -8.7549187087440714 -9.4929927156583176 0 0 0 0 -1316.0051696188639 80.140859029765124 0 80.140859029765124 -1482.5862519690418 0 0 0 0 31.948370499878138 -99.713014065804941 0 -99.713014065804941 -27.264203709816044 0 0 0 0 -5.6376849713325896 -13.280624304481648 0 -13.280624304481648 -15.404081948646933 0 0 0 0 -1294.50670580715 -339.09806876003404 0 -339.09806876003404 -725.99235363514163 0 0 0 0 32.546335857857457 -100.62912231579622 0 -100.62912231579622 -39.879971937854663 0 0 0 0 -1386.0036028948962 -375.16441793020931 0 -375.16441793020931 -606.91019666909415 0 0 0 0 -1348.210235151404 -390.59735546208685 0 -390.59735546208685 -630.91612619464286 0 0 0 0 -1113.6191831373362 81.142146101283288 0 81.142146101283288 -1797.0590172170778 0 0 0 0 -1303.2093182760764 -390.60756638698331 0 -390.60756638698331 -672.18259498465341 0 0 0 0 -1349.900770952343 -359.42823157488601 0 -359.42823157488601 -675.98340027570885 0 0 0 0 -1387.6608611171541 -352.60144292283803 0 -352.60144292283803 -652.9466333949531 0 0 0 0 -1340.5550347068638 -330.64773306649295 0 -330.64773306649295 -644.38281783796265 0 0 0 0 -1328.9041257081481 -299.30661310557116 0 -299.30661310557116 -711.04016521724407 0 0 0 0 -1259.693036968878 -221.04785916118999 0 -221.04785916118999 -690.02156192781695 0 0 0 0 -1275.6080165306848 -268.71320739149087 0 -268.71320739149087 -786.23282041616039 0 0 0 0 -1161.1516542573809 -154.15691993705695 0 -154.15691993705695 -828.50613241348765 0 0 0 0 -1270.2929075827706 -282.380838281857 0 -282.380838281857 -856.67043219722109 0 0 0 0 -1266.5223095781403 -276.3052429407544 0 -276.3052429407544 -853.22419364072266 0 0 0 0 -1352.0315562875476 -362.22602128607105 0 -362.22602128607105 -735.45504725995124 0 0 0 0 -1341.6429221545404 -340.16460934721181 0 -340.16460934721181 -719.21628589375177 0 0 0 0 -1346.3396522820067 -295.50912189922383 0 -295.50912189922383 -758.00322353001684 0 0 0 0 -1309.2123208748635 -315.61957875682856 0 -315.61957875682856 -750.976220244047 0 0 0 0 -1353.6296440493898 -387.69209229800254 0 -387.69209229800254 -811.36207487335196 0 0 0 0 -4.5137407476118483 -6.6355341460181876 0 -6.6355341460181876 2.7564604995925777 0 0 0 0 -1350.1589709245891 -525.2208143360258 0 -525.2208143360258 -1119.1263736301044 0 0 0 0 -1107.1721949950297 -459.85885776494979 0 -459.85885776494979 -1505.6428676003416 0 0 0 0 -1044.8893910772167 81.469688305514865 0 81.469688305514865 -0.21514793688501413 0 0 0 0 -962.17551708442625 206.16339973799768 0 206.16339973799768 -21.512399125145748 0 0 0 0 -1135.8727348568791 -215.75119612689014 0 -215.75119612689014 -1033.2668632787245 0 0 0 0 -1144.1440099576721 10.486252653150586 0 10.486252653150586 -780.52035702002468 0 0 0 0 -1101.8015665519488 -28.979270521718718 0 -28.979270521718718 -1032.811576483713 0 0 0 0 -1201.2638226223935 -132.70137132154196 0 -132.70137132154196 -807.8528759724577 0 0 0 0 -1227.1438567677978 -260.42275598234846 0 -260.42275598234846 -984.2192589698243 0 0 0 0 -1096.9398403140367 -133.12941027892521 0 -133.12941027892521 -1361.5888121334137 0 0 0 0 -1270.8445822554058 -400.30820382393722 0 -400.30820382393722 -1165.9216171990265 0 0 0 0 -2591.0462916861579 -604.83947230206104 0 -604.83947230206104 -170.82169474041439 0 0 0 0 -2491.7595492853425 -479.89208246217368 0 -479.89208246217368 -24.693666671606479 0 0 0 0 -11.806936167257277 4.0897300931156906 0 4.0897300931156906 10.954601974245008 0 0 0 0 -2211.3674523479422 -561.13681040285155 0 -561.13681040285155 -2.6594122605166088 0 0 0 0 -1288.0464822403155 -198.75444511499518 0 -198.75444511499518 120.31775777312214 0 0 0 0 -2653.8031839370815 -904.7033904697455 0 -904.7033904697455 -770.44635613274295 0 0 0 0 -2403.7627655758479 -466.13551443417964 0 -466.13551443417964 -687.97411554714199 0 0 0 0 -2497.1216296364109 -70.988094191150594 0 -70.988094191150594 -853.11939419044938 0 0 0 0 -2290.3404993583536 -330.23761702045886 0 -330.23761702045886 -584.96855183383013 0 0 0 0 -1815.7117603838924 -21.955555169275613 0 -21.955555169275613 -684.37529913315666 0 0 0 0 -2191.4144325029702 -492.26889308396494 0 -492.26889308396494 -749.91328299244378 0 0 0 0 -1926.184754640286 -219.58650345730712 0 -219.58650345730712 -1060.0135233717119 0 0 0 0 -1967.828723171202 -29.991781817923766 0 -29.991781817923766 -1433.2946396237967 0 0 0 0 6.0777286792896348 -12.592887329578105 0 -12.592887329578105 -9.1856195916016787 0 0 0 0 32.270607173328528 -100.15360744952844 0 -100.15360744952844 -34.724377995158818 0 0 0 0 -3135.7770281528647 -440.79075213673059 0 -440.79075213673059 -785.73282068755361 0 0 0 0 -2860.7852485044295 -161.42647459757313 0 -161.42647459757313 -2305.5733153652109 0 0 0 0 -2820.9903447840261 -592.27732199474849 0 -592.27732199474849 -2532.0249151998796 0 0 0 0 70.239446385442506 -29.814120994372885 0 -29.814120994372885 -64.194440071390204 0 0 0 0 43.494587196157568 3.2550028002342799 0 3.2550028002342799 -55.994227783324305 0 0 0 0 -996.72612303448841 1227.3441762615839 0 1227.3441762615839 2033.1284042480693 0 0 0 0 -529.09249083924806 127.61642474079417 0 127.61642474079417 -478.2272733017453 0 0 0 0 64.979395113149423 -22.110990608405302 0 -22.110990608405302 -75.48252783475067 0 0 0 0 -2326.2500777069508 -1462.2475938455318 0 -1462.2475938455318 -1926.1106778466055 0 0 0 0 -1852.2990204570797 -987.39877968265864 0 -987.39877968265864 -881.04776254674653 0 0 0 0 -1780.0129085033259 -782.57682032957382 0 -782.57682032957382 -1095.0707269238765 0 0 0 0 -1439.8156021570176 -1187.2425757442979 0 -1187.2425757442979 -919.91181531886286 0 0 0 0 -1662.0441802936548 -1020.5570035849669 0 -1020.5570035849669 -1131.733807282093 0 0 0 0 -2279.0519393328577 -772.14362909786723 0 -772.14362909786723 -1852.6654412731768 0 0 0 0 -2163.6075840293925 447.76882902223588 0 447.76882902223588 -1531.5428160472111 0 0 0 0 -758.81759928115207 -859.23567887333047 0 -859.23567887333047 -1216.2279475129035 0 0 0 0 63.149668380998122 -25.348284170067153 0 -25.348284170067153 -62.003172739821679 0 0 0 0 -611.23656513523019 -924.39809084953595 0 -924.39809084953595 -928.35034686862491 0 0 0 0 -755.94217697393469 -548.11825638188748 0 -548.11825638188748 -350.0077598507487 0 0 0 0 7.0065197135622839 -30.849133955690917 0 -30.849133955690917 8.1243921948194213 0 0 0 0 -1135.0914233195945 -779.31606848227966 0 -779.31606848227966 -461.36526377040991 0 0 0 0 -51.575077228437294 -78.923241792319459 0 -78.923241792319459 -51.763670283311512 0 0 0 0 20.332864576504505 -51.334992774118973 0 -51.334992774118973 32.181825114065049 0 0 0 0 -887.71033974751481 -966.83992084559577 0 -966.83992084559577 -785.6878116749067 0 0 0 0 -739.68947214141372 -917.79497567834551 0 -917.79497567834551 -812.26729767615325 0 0 0 0 -1370.1099843618285 -1308.7976491275404 0 -1308.7976491275404 -1011.4896288486343 0 0 0 0 -833.4421497441981 -1014.4185273530256 0 -1014.4185273530256 -1009.6218366983521 0 0 0 0 -1150.6240624393395 -1221.6530494823382 0 -1221.6530494823382 -893.27191990247593 0 0 0 0 -1259.469953768421 -1228.7927956314161 0 -1228.7927956314161 -861.32690358349646 0 0 0 0 -1290.1610213452295 -1075.8281493154973 0 -1075.8281493154973 -882.02212138401228 0 0 0 0 -1088.9743207250431 -1242.4690108599898 0 -1242.4690108599898 -733.89006849973521 0 0 0 0 -1127.7453306201787 -1123.2832496526753 0 -1123.2832496526753 -810.9577062659373 0 0 0 0 -1389.7363664440636 -1309.342520884602 0 -1309.342520884602 -777.86774844434694 0 0 0 0 -1462.0917243474833 -1144.5818295139907 0 -1144.5818295139907 -765.13666718354216 0 0 0 0 -917.00348976650275 -1070.1352827469964 0 -1070.1352827469964 -767.55346901811208 0 0 0 0 -925.09264391093711 -1087.9379008493997 0 -1087.9379008493997 -725.04880081154988 0 0 0 0 -936.44093331990007 -1147.6240134780383 0 -1147.6240134780383 -896.91258135339012 0 0 0 0 -1023.1857449386225 -1160.282577091537 0 -1160.282577091537 -631.23057279833301 0 0 0 0 -971.0935988981073 -1162.1954592862603 0 -1162.1954592862603 -750.34448059172064 0 0 0 0 -975.8504084351589 -1120.2849185855885 0 -1120.2849185855885 -603.6116945315589 0 0 0 0 -1077.7356721449542 -1208.6001246515443 0 -1208.6001246515443 -408.97361993435334 0 0 0 0 -1042.8443546070339 -1183.0014898349109 0 -1183.0014898349109 -403.05637422714972 0 0 0 0 -1018.7038927412723 -1142.9098610380315 0 -1142.9098610380315 -609.27669887591037 0 0 0 0 -1046.7458695899695 -1293.0406457252102 0 -1293.0406457252102 -627.82568343415119 0 0 0 0 -1624.5711523586069 -1414.9724911696285 0 -1414.9724911696285 -157.97108860149456 0 0 0 0 -1345.9714908838214 -1214.1936571966944 0 -1214.1936571966944 -582.49799381339835 0 0 0 0 -1082.0222090119369 -1106.8289044997787 0 -1106.8289044997787 -540.15186934148369 0 0 0 0 -1663.0722608425131 -1581.9320346214627 0 -1581.9320346214627 -949.94472214951145 0 0 0 0 -1669.5773864276271 -1546.5819931330079 0 -1546.5819931330079 -501.54002349957227 0 0 0 0 -1433.6959457475459 -1195.945879621504 0 -1195.945879621504 -863.65938303515577 0 0 0 0 -2042.2809678392223 -1442.0828350477423 0 -1442.0828350477423 -494.32181248213601 0 0 0 0 -2754.7879137219552 -2070.8962372321275 0 -2070.8962372321275 -1009.6758286679833 0 0 0 0 -1208.728896363813 -1094.9348966574616 0 -1094.9348966574616 -1961.0170733458945 0 0 0 0 -1694.1538591336939 -1428.7779883042749 0 -1428.7779883042749 -1557.766837451607 0 0 0 0 -1581.8907732720982 -1165.3369958226758 0 -1165.3369958226758 -941.50884006624983 0 0 0 0 -1676.0436940909276 -1425.3582781821024 0 -1425.3582781821024 -1731.2845092102725 0 0 0 0 -2034.2961760908802 -331.86194397370855 0 -331.86194397370855 -224.27248653955758 0 0 0 0 -894.11829774631769 -703.13257771133794 0 -703.13257771133794 -1678.616682491298 0 0 0 0 -1903.1135680016414 -1020.7850557164211 0 -1020.7850557164211 -1026.1045174675819 0 0 0 0 -1669.5591019458661 -990.57178436066897 0 -990.57178436066897 -1053.3903501501336 0 0 0 0 -1675.6046878881025 -972.12554000809905 0 -972.12554000809905 -974.13702866806125 0 0 0 0 -1606.2729967608757 -1159.9395817930781 0 -1159.9395817930781 -901.23733201027062 0 0 0 0 -1458.6808186972266 -1146.8227167436344 0 -1146.8227167436344 -926.77103608095786 0 0 0 0 -1601.7563417073252 -1206.801077775759 0 -1206.801077775759 -809.12956404489523 0 0 0 0 -1588.9293520979409 -1152.4790352006094 0 -1152.4790352006094 -964.31280101026641 0 0 0 0 -2137.9404567726888 -1836.9929262393198 0 -1836.9929262393198 1105.2189117010764 0 0 0 0 -1660.6313393981327 -1111.3292454755792 0 -1111.3292454755792 1137.5094718428368 0 0 0 0 0.97329382897990513 -5.4608374091538252 0 -5.4608374091538252 0.072354521204346156 0 0 0 0 -2562.5375346097012 -872.3614797466696 0 -872.3614797466696 -925.25541786501708 0 0 0 0 -2284.7152039434477 -1288.8691905833111 0 -1288.8691905833111 1911.5760196756892 0 0 0 0 -1218.1251461245411 -1036.1972249783466 0 -1036.1972249783466 99.016730754228774 0 0 0 0 -1155.7957008586309 -1403.2034169133112 0 -1403.2034169133112 38.772263407110586 0 0 0 0 -1286.6343749666557 -1078.4353308692625 0 -1078.4353308692625 -51.821758591715479 0 0 0 0 -1327.8202772203877 -1175.700962652325 0 -1175.700962652325 698.30403599234705 0 0 0 0 -1316.5346968056256 -593.62333075670904 0 -593.62333075670904 728.73955778033451 0 0 0 0 -1198.955015214473 -222.86286189319071 0 -222.86286189319071 1834.8870631663303 0 0 0 0 -1126.6259654760433 -1537.9100699713854 0 -1537.9100699713854 473.87820272937824 0 0 0 0 -8.2106171102546455 -15.990566626402284 0 -15.990566626402284 6.1741322760556017 0 0 0 0 -2135.3720299462802 -820.92058703211296 0 -820.92058703211296 4866.8609111037586 0 0 0 0 -1738.6015198498935 -277.39820403700287 0 -277.39820403700287 1930.7104933224073 0 0 0 0 -1180.2925965550596 -715.34925088126943 0 -715.34925088126943 827.68570344506588 0 0 0 0 -17.466027173874352 -33.790481782767785 0 -33.790481782767785 14.973437180397227 0 0 0 0 -2355.4270456177546 -1391.7874678180324 0 -1391.7874678180324 -2623.0130340440155 0 0 0 0 -2260.302829069391 -1272.9724288095604 0 -1272.9724288095604 -3333.2147581529061 0 0 0 0 -1847.7565881503833 -2884.2369192711849 0 -2884.2369192711849 -5609.4519759949981 0 0 0 0 -2095.388615097072 -1118.8250598574268 0 -1118.8250598574268 -3551.1363820688784 0 0 0 0 -2262.18584982217 -2552.9322912532625 0 -2552.9322912532625 -2349.8612255472399 0 0 0 0 -1642.7717307536659 -1455.2390780643454 0 -1455.2390780643454 -452.49849733421433 0 0 0 0 -1863.6478145946458 -1621.2113011052024 0 -1621.2113011052024 -488.80970823041298 0 0 0 0 -1454.2099981249339 -1152.7615574095071 0 -1152.7615574095071 -1702.1740447366974 0 0 0 0 -2387.5766795413438 -1644.3545435554988 0 -1644.3545435554988 -2305.4220468355852 0 0 0 0 -1604.148239607639 -873.44265080865443 0 -873.44265080865443 -2131.2744642148059 0 0 0 0 -1424.5093255578104 -1165.8910633690575 0 -1165.8910633690575 -1866.9513675043127 0 0 0 0 -1649.1650942091292 -849.52952941798867 0 -849.52952941798867 -1360.7294744537649 0 0 0 0 -1279.9776474147948 -678.60458928757726 0 -678.60458928757726 -1702.4636280609357 0 0 0 0 -1114.8098077101167 -462.76627756625385 0 -462.76627756625385 -1240.3814055406838 0 0 0 0 -1432.9143563028447 -1014.4374991032892 0 -1014.4374991032892 -1161.8964553197002 0 0 0 0 -942.10461160671548 -510.34290392036201 0 -510.34290392036201 -971.54177085296033 0 0 0 0 -1206.8247427582064 -849.49894702080019 0 -849.49894702080019 -147.75919068946678 0 0 0 0 -908.05040260973328 -303.69414081394643 0 -303.69414081394643 -559.93395367045014 0 0 0 0 -1372.2957120809442 -625.07023678782116 0 -625.07023678782116 -738.24836437696649 0 0 0 0 -2264.3459835407921 -1888.8204849052163 0 -1888.8204849052163 -1389.8564129171209 0 0 0 0 -1739.9529207042215 -728.6819324805474 0 -728.6819324805474 -1246.9743471307447 0 0 0 0 -1694.4952243703228 -1156.483305928461 0 -1156.483305928461 -455.37457031058875 0 0 0 0 -1641.9084805328894 -715.53593984635154 0 -715.53593984635154 -1514.4312961034666 0 0 0 0 -1812.1976574623695 -1520.7065014990803 0 -1520.7065014990803 -1697.1198370884194 0 0 0 0 -2418.2990604849383 -1203.8119298125248 0 -1203.8119298125248 -1814.6036399105869 0 0 0 0 -2121.4358158143368 -952.60604582603992 0 -952.60604582603992 -1893.7896670950649 0 0 0 0 -2230.3717246101878 -1713.702033885962 0 -1713.702033885962 -2108.2507676938039 0 0 0 0 -2582.7895587290259 -1281.0451018251879 0 -1281.0451018251879 -2545.3332936123261 0 0 0 0 -2326.7259551091265 -857.99688072491699 0 -857.99688072491699 -2561.1563832205866 0 0 0 0 -2578.2597971485466 -1326.411026497311 0 -1326.411026497311 -2136.1572661817117 0 0 0 0 -2687.4984984393523 -580.22639072177481 0 -580.22639072177481 -1924.6389238644751 0 0 0 0 -12.872013381914897 -27.057320948502166 0 -27.057320948502166 10.906705680490433 0 0 0 0 -3168.2109356784076 -587.54587406789824 0 -587.54587406789824 -1838.0872723602952 0 0 0 0 -4726.834292862186 -1115.7245744779648 0 -1115.7245744779648 -1712.5972355101567 0 0 0 0 -3358.9808837620367 -1417.336859795374 0 -1417.336859795374 -1862.051418034891 0 0 0 0 -2637.9659494605439 -1698.1155487572123 0 -1698.1155487572123 -1933.2180775276138 0 0 0 0 -3871.7258649376599 -1247.9084495827883 0 -1247.9084495827883 -1375.5819559434931 0 0 0 0 -3750.47304387443 -632.99262149739661 0 -632.99262149739661 -2069.7827553117168 0 0 0 0 -5.7735807836030943 -9.2617437231781139 0 -9.2617437231781139 3.7843625426183962 0 0 0 0 -9031.8640392613597 -1704.1288057603397 0 -1704.1288057603397 -288.01585017888283 0 0 0 0 -1938.4844461235625 -1660.011051721056 0 -1660.011051721056 -528.45239439624856 0 0 0 0 -595.15631518047303 -714.48465206871333 0 -714.48465206871333 -2013.821095665895 0 0 0 0 -863.60223942971788 -3444.5488360497911 0 -3444.5488360497911 -157.22851502992853 0 0 0 0 4489.9895422862719 -2374.0738624571095 0 -2374.0738624571095 -1305.7294155745694 0 0 0 0 173.82040875946404 -2240.9943854158701 0 -2240.9943854158701 -854.27738522902655 0 0 0 0 -396.59314406242629 -1322.275673091026 0 -1322.275673091026 -658.57301664763509 0 0 0 0 -993.6783530616085 -995.9065505157123 0 -995.9065505157123 -229.61912105914234 0 0 0 0 -278.70375577062077 -1480.6151580363876 0 -1480.6151580363876 -581.54464081681363 0 0 0 0 512.02682935864141 -1095.3781346994183 0 -1095.3781346994183 -1100.996819872249 0 0 0 0 1827.550808423548 -1989.3589775965411 0 -1989.3589775965411 -1254.2926969014006 0 0 0 0 -24.159497096545294 -52.871371012528755 0 -52.871371012528755 21.274909343918182 0 0 0 0 50.629302606204874 -600.74976704753499 0 -600.74976704753499 -1079.045861425715 0 0 0 0 -27.540801184745533 -68.33112090014717 0 -68.33112090014717 34.206998649010515 0 0 0 0 -173.66329637971648 -525.33514890820152 0 -525.33514890820152 -378.54637948475283 0 0 0 0 -30.049198391498066 -620.41947536533371 0 -620.41947536533371 -835.32087136411064 0 0 0 0 -464.11379860380839 -499.86439162287206 0 -499.86439162287206 -258.58509487922129 0 0 0 0 -616.44179943589916 -336.99427022316013 0 -336.99427022316013 -9.7387868684309069 0 0 0 0 -922.08251912823471 -359.47610825350057 0 -359.47610825350057 -471.27525087549293 0 0 0 0 -1092.1374962249538 -206.87574606963608 0 -206.87574606963608 -146.01144878171181 0 0 0 0 -1268.0882877249169 -788.45779299746937 0 -788.45779299746937 -305.40340491048119 0 0 0 0 -1641.5169210912863 -306.56434083440399 0 -306.56434083440399 -65.900751388418939 0 0 0 0 -182.09929945763724 -280.33420473109436 0 -280.33420473109436 -294.73035045429424 0 0 0 0 -1993.0740501702439 363.23553126975094 0 363.23553126975094 -175.3740314241586 0 0 0 0 -26.066552330536652 -49.917778812694564 0 -49.917778812694564 34.307630898068282 0 0 0 0 -1791.2113375518384 95.336134865243366 0 95.336134865243366 155.24289366773883 0 0 0 0 -2501.20038310979 -365.31227199838395 0 -365.31227199838395 -1730.4736637546921 0 0 0 0 -28.282931568925079 -54.280079852513708 0 -54.280079852513708 27.814582163857139 0 0 0 0 -1814.8834527320141 189.86405514697617 0 189.86405514697617 531.54702757563791 0 0 0 0 -1623.1592936465504 -465.56006749539165 0 -465.56006749539165 181.21173350824392 0 0 0 0 -1612.5922865303191 -350.95561372077373 0 -350.95561372077373 -200.51426112817717 0 0 0 0 -1397.4010066029878 -865.83471260847 0 -865.83471260847 63.269965807314293 0 0 0 0 -1455.7881994187337 -563.30001235179952 0 -563.30001235179952 -198.01141657213157 0 0 0 0 -1504.8816335584124 -566.18995059609006 0 -566.18995059609006 -44.592096991487779 0 0 0 0 -1506.3512543897668 -695.27195707764622 0 -695.27195707764622 565.61309498771902 0 0 0 0 -1300.140184603064 -671.92234643015763 0 -671.92234643015763 215.89465172497148 0 0 0 0 -1346.8771942715539 -928.83699838002212 0 -928.83699838002212 425.59907230213867 0 0 0 0 -1336.1207104393834 -858.53985957643454 0 -858.53985957643454 -94.717475426907185 0 0 0 0 -1301.5785864024365 -1011.3660343860829 0 -1011.3660343860829 -37.514060831905226 0 0 0 0 -1158.2212630094728 -1179.4514790509165 0 -1179.4514790509165 -30.300539474366815 0 0 0 0 -1164.5527635540784 -1121.4135731333081 0 -1121.4135731333081 -339.50877629886963 0 0 0 0 -1358.5769871352313 -901.79677091859776 0 -901.79677091859776 -365.90842625504592 0 0 0 0 -1425.9283367491444 -672.79160046746256 0 -672.79160046746256 -200.17591064184671 0 0 0 0 -1373.3054193483476 -864.82974351242956 0 -864.82974351242956 -430.75872880124371 0 0 0 0 -1398.7625543379108 -637.97276032112131 0 -637.97276032112131 -478.72508304120856 0 0 0 0 -1364.225851160998 -942.10566101653967 0 -942.10566101653967 -191.05459746760562 0 0 0 0 -1463.9287807864675 -729.94905367925458 0 -729.94905367925458 -197.14999493982759 0 0 0 0 -1312.589866300943 -957.70331892447211 0 -957.70331892447211 -294.72897695333813 0 0 0 0 -1366.8845745871658 -901.67804223790881 0 -901.67804223790881 -259.19917219944182 0 0 0 0 -1304.7846893220558 -933.83305819297675 0 -933.83305819297675 -349.21405462129042 0 0 0 0 53.37634389683393 -60.190884537772206 0 -60.190884537772206 20.638079928636643 0 0 0 0 -1377.8255409568046 -826.43253876986455 0 -826.43253876986455 -513.11257208342431 0 0 0 0 -2861.4075480681495 -2489.8462333683274 0 -2489.8462333683274 -4189.7953438861296 0 0 0 0 -3659.6386607379536 -2921.0637020725699 0 -2921.0637020725699 71.861955488217063 0 0 0 0 -391.99012938479427 634.81774005848274 0 634.81774005848274 -29.596560893696733 0 0 0 0 10.165971445557972 -0.60783411634309914 0 -0.60783411634309914 4.8941043022394126 0 0 0 0 -1094.085821946559 -17.431852752313716 0 -17.431852752313716 -411.34133285455755 0 0 0 0 -1319.8525773266883 -3348.8147768056951 0 -3348.8147768056951 -2516.5896287092473 0 0 0 0 -1680.5040043955087 -2135.2383524304169 0 -2135.2383524304169 -5294.9954472080572 0 0 0 0 -1550.9791730582947 -1082.5142891419382 0 -1082.5142891419382 -6348.3578955746343 0 0 0 0 -2515.0449072100455 -1027.56592420573 0 -1027.56592420573 -5309.3309902773181 0 0 0 0 -1477.2846373028588 -268.35378134634084 0 -268.35378134634084 -478.55961339102214 0 0 0 0 -28.37252965665715 -20.966560011722123 0 -20.966560011722123 31.738941353842421 0 0 0 0 -2764.7327374811248 -2950.1252217527872 0 -2950.1252217527872 -2635.6026436901593 0 0 0 0 -1866.6152165114472 -3126.6822130303372 0 -3126.6822130303372 -4708.6920195281855 0 0 0 0 -2304.70795855287 330.3924603234118 0 330.3924603234118 103.18480281978918 0 0 0 0 -2652.7777804469224 -205.18186841231363 0 -205.18186841231363 -4464.0101168507099 0 0 0 0 -6241.3235245269025 720.65247226681095 0 720.65247226681095 -2004.7275369260569 0 0 0 0 -2183.4191977855517 -2156.7693181293143 0 -2156.7693181293143 -2483.0881322588539 0 0 0 0 -2539.0028115102323 -198.45813366444781 0 -198.45813366444781 -1987.9137348498916 0 0 0 0 -2356.6033672107151 -1225.9718462261953 0 -1225.9718462261953 -1854.1352930399789 0 0 0 0 -2308.4438871243619 -3503.6788398714561 0 -3503.6788398714561 1413.897606030514 0 0 0 0 -1928.5096732692618 -3655.7977435542998 0 -3655.7977435542998 -2197.1964999050833 0 0 0 0 -2451.9561460743425 -1552.0647106421529 0 -1552.0647106421529 -444.15970760595519 0 0 0 0 -2513.0328677907819 -1769.6310969892802 0 -1769.6310969892802 -1012.4635501909652 0 0 0 0 -2062.4073845359962 -1243.9294490675384 0 -1243.9294490675384 -1525.4499957135413 0 0 0 0 -1934.885229926731 -94.144622377993073 0 -94.144622377993073 -687.55257061769953 0 0 0 0 -1990.000950198737 -1001.0391406019044 0 -1001.0391406019044 -862.49313821113901 0 0 0 0 -2303.7331792103359 -854.35383163597726 0 -854.35383163597726 164.78719348611776 0 0 0 0 -1775.7290325765498 380.8159986801038 0 380.8159986801038 3004.1586545404571 0 0 0 0 -1044.2606261753244 396.34760005146381 0 396.34760005146381 -213.93435093906737 0 0 0 0 -1825.4302861330798 -229.3332292423147 0 -229.3332292423147 -626.62580248047016 0 0 0 0 -970.54647127661156 -60.275232794352632 0 -60.275232794352632 -889.58035020345415 0 0 0 0 -1737.4297887467383 -1165.0107132871381 0 -1165.0107132871381 -793.19503910513595 0 0 0 0 -2264.1730765958928 -875.28181858783501 0 -875.28181858783501 -939.04558146343334 0 0 0 0 -1806.0314262135944 -250.63233805179334 0 -250.63233805179334 -687.30574122789403 0 0 0 0 -2173.3223368675899 -853.97993373589998 0 -853.97993373589998 -1027.4426649362722 0 0 0 0 -1578.8995926779462 -488.4490845600958 0 -488.4490845600958 -467.28554185086978 0 0 0 0 -10.128855817377129 -41.448116265466723 0 -41.448116265466723 16.351407283074906 0 0 0 0 -1631.474456155931 -244.65331987222635 0 -244.65331987222635 -300.69151502357272 0 0 0 0 -860.20608181702846 -269.38013521402536 0 -269.38013521402536 -657.00556217486155 0 0 0 0 -1461.5381042230874 -454.48568603613239 0 -454.48568603613239 -701.42274833012925 0 0 0 0 -985.82511702176998 89.329895911738276 0 89.329895911738276 -846.68328158473014 0 0 0 0 -20.371255941869208 2.5273585161152425 0 2.5273585161152425 12.767018128699505 0 0 0 0 -546.18477090229862 -526.70612367160356 0 -526.70612367160356 152.62981473923719 0 0 0 0 -511.58377704571467 -993.98824960736238 0 -993.98824960736238 -1089.6059668244516 0 0 0 0 -1205.3772553702292 -1339.9949093063551 0 -1339.9949093063551 -1127.9994309946142 0 0 0 0 -1220.9128494922479 -753.72049780634916 0 -753.72049780634916 -488.25199364412401 0 0 0 0 38.073463328755622 -73.666520959727279 0 -73.666520959727279 54.121960868628932 0 0 0 0 -56.740135767278844 -278.72661707432053 0 -278.72661707432053 -592.48921392094053 0 0 0 0 -839.28055309399497 -2042.8513846095157 0 -2042.8513846095157 -1254.4180529384175 0 0 0 0 -9.9932571904150223 -18.567375461771093 0 -18.567375461771093 21.438536008631331 0 0 0 0 -42.061391041045852 -51.446037748130564 0 -51.446037748130564 63.109998406006667 0 0 0 0 -2237.7630282483296 714.84377396648051 0 714.84377396648051 -506.36125431527034 0 0 0 0 -345.54941464029253 -643.85436057657353 0 -643.85436057657353 -700.26278414338594 0 0 0 0 -388.58796856789377 -287.72688645098015 0 -287.72688645098015 -487.84761134277505 0 0 0 0 -202.20866842261967 224.92626743538131 0 224.92626743538131 316.15056326669583 0 0 0 0 -37.866757519514067 -429.2966056777077 0 -429.2966056777077 -431.35839082291932 0 0 0 0 185.01640964063699 -484.7942480656493 0 -484.7942480656493 -200.19243872033258 0 0 0 0 -537.36006037029438 -132.82596911866858 0 -132.82596911866858 94.505855372985025 0 0 0 0 18.556584339507594 -17.501666938155267 0 -17.501666938155267 7.8958397940469354 0 0 0 0 -244.78138465225129 700.91376684370516 0 700.91376684370516 668.74519270235032 0 0 0 0 -889.87448477937141 -278.59675229294953 0 -278.59675229294953 -106.1401881329366 0 0 0 0 -307.84129827521974 -1090.3850856496065 0 -1090.3850856496065 -1098.5041481510998 0 0 0 0 29.975696513644209 -58.257535836040518 0 -58.257535836040518 47.862295279183414 0 0 0 0 -995.14767027138441 -992.87620519774646 0 -992.87620519774646 -52.00474690712872 0 0 0 0 -98.498092974805331 -408.6335035669108 0 -408.6335035669108 -355.18381676338322 0 0 0 0 -668.36070936601755 502.71001867229643 0 502.71001867229643 961.60709744662745 0 0 0 0 17.442798042815525 -44.286063017896652 0 -44.286063017896652 37.297747945046439 0 0 0 0 137.82269441361132 -1324.6085132777407 0 -1324.6085132777407 -2096.2713825760875 0 0 0 0 -518.1854929462861 109.70539003431622 0 109.70539003431622 -1292.8642836884537 0 0 0 0 -345.508564340882 -653.74414277563847 0 -653.74414277563847 4.0045645101854461 0 0 0 0 -2660.1951014436927 146.34066315749078 0 146.34066315749078 -1806.0193861204825 0 0 0 0 -1792.6262245748949 -954.74877767849102 0 -954.74877767849102 -416.24832192057511 0 0 0 0 22.252731641914579 -1610.0202104301134 0 -1610.0202104301134 -541.94917788934981 0 0 0 0 0.2806181811752424 -11.667097605869401 0 -11.667097605869401 9.0534772386423583 0 0 0 0 -558.23512375545397 -1061.6940171578281 0 -1061.6940171578281 -391.57216282287845 0 0 0 0 -655.52908356126864 -1183.5828139211808 0 -1183.5828139211808 -217.72016072057522 0 0 0 0 -1137.6413711695932 -1190.1889992463184 0 -1190.1889992463184 -413.87944862566656 0 0 0 0 -670.04921515283058 -900.88206571487535 0 -900.88206571487535 -605.54316070903587 0 0 0 0 -1.411213123800735 -64.788126972034178 0 -64.788126972034178 33.96152090980803 0 0 0 0 -414.04652139049722 -242.22215955077263 0 -242.22215955077263 33.139422199305045 0 0 0 0 -165.67624583133147 -1232.3847938229446 0 -1232.3847938229446 -1197.2075475840102 0 0 0 0 -1696.1154970601783 145.93150404841435 0 145.93150404841435 485.67622999675223 0 0 0 0 -1503.6020456660772 177.4899315477378 0 177.4899315477378 434.86795762070687 0 0 0 0 -22.621967268974942 -19.064069706757266 0 -19.064069706757266 68.794038101344285 0 0 0 0 -691.30169099880004 -454.61714426668186 0 -454.61714426668186 574.60551555543498 0 0 0 0 -526.75576770224143 -352.57983110147688 0 -352.57983110147688 -53.836380461416411 0 0 0 0 3.6940852931455197 -17.321506293455144 0 -17.321506293455144 9.5770841644919393 0 0 0 0 -2810.4208720314346 -226.48776492741672 0 -226.48776492741672 -898.83533242912199 0 0 0 0 -12.087000754376248 -17.641752547368299 0 -17.641752547368299 15.591050018978621 0 0 0 0 7.1029423165551293 -32.545475037407513 0 -32.545475037407513 4.4087913323059382 0 0 0 0 -1260.2474332016864 -898.76920011754737 0 -898.76920011754737 674.36430551480589 0 0 0 0 -1583.8222756752511 -1768.409348504676 0 -1768.409348504676 -377.51641820973236 0 0 0 0 -173.94036333440454 -1114.1064087877185 0 -1114.1064087877185 -181.94395714934944 0 0 0 0 -60.590502316394122 -1339.5301412380722 0 -1339.5301412380722 954.85202644809033 0 0 0 0 -293.58165689842281 -1547.1346895948909 0 -1547.1346895948909 1211.4460082642181 0 0 0 0 -358.35672061653895 -1900.0399676614979 0 -1900.0399676614979 -339.90992608889064 0 0 0 0 -676.40877963876119 -441.41739104757289 0 -441.41739104757289 468.89635112858014 0 0 0 0 -694.63043459468463 -675.44300652748279 0 -675.44300652748279 2123.5814399487572 0 0 0 0 -363.12410642138275 -1030.3235977685254 0 -1030.3235977685254 2416.9112293509243 0 0 0 0 -21.982858251489233 62.465419957246922 0 62.465419957246922 1259.9428205712611 0 0 0 0 -491.7824699972407 -185.51526696405199 0 -185.51526696405199 1344.7647271646711 0 0 0 0 -1095.3788915376645 -92.278769378135621 0 -92.278769378135621 1518.9950795802288 0 0 0 0 5.2761786338592174 -23.825181522002126 0 -23.825181522002126 -2.9894401872021206 0 0 0 0 -7.3786832340809951 -18.626947090471276 0 -18.626947090471276 6.0689773143671459 0 0 0 0 -1098.363603894948 117.08819575695088 0 117.08819575695088 314.76247905212222 0 0 0 0 -1467.0446388151322 -2.8251184834880405 0 -2.8251184834880405 316.12748878609273 0 0 0 0 -1376.2808432115999 -752.54546064674651 0 -752.54546064674651 -3101.2889412767108 0 0 0 0 -17.244579297468078 -32.216214508798345 0 -32.216214508798345 24.144932402314723 0 0 0 0 -149.64815678662853 -907.8448331494219 0 -907.8448331494219 -3608.141442461012 0 0 0 0 -731.61275220679818 -1060.9374799370562 0 -1060.9374799370562 -1689.0123475186701 0 0 0 0 -1414.2808588971875 -105.77387905776823 0 -105.77387905776823 -2681.1523284839786 0 0 0 0 -883.53438619995723 -712.91468272758357 0 -712.91468272758357 -2401.4423330395912 0 0 0 0 -47.97557538622641 -176.31859149514639 0 -176.31859149514639 -2561.4953519372939 0 0 0 0 -164.87559127082932 -876.67608627041773 0 -876.67608627041773 -1048.4388648843014 0 0 0 0 -294.96508356949198 221.54086363754323 0 221.54086363754323 -1152.4867071306762 0 0 0 0 -315.57494279590901 -1157.530059629571 0 -1157.530059629571 -1882.4413250711659 0 0 0 0 237.20264404366026 -608.39934232888481 0 -608.39934232888481 -1514.2954068217659 0 0 0 0 1075.5866415804485 -2014.9117242600041 0 -2014.9117242600041 -1932.8222469218672 0 0 0 0 3.0086485476053895 -10.121294432675725 0 -10.121294432675725 1.4979001606079017 0 0 0 0 -348.03961120574968 -1849.4177185945809 0 -1849.4177185945809 5319.5863978337657 0 0 0 0 -714.33391655934975 -1019.068657631924 0 -1019.068657631924 -1218.1232200965169 0 0 0 0 -880.51623362104874 -1489.4620747152949 0 -1489.4620747152949 -1506.5158325334778 0 0 0 0 139.469531839306 -1653.0797107427607 0 -1653.0797107427607 -4016.87949420308 0 0 0 0 1045.7664248564397 75.066084277175833 0 75.066084277175833 1171.0978734420205 0 0 0 0 -1926.6593995604198 1322.5306821190461 0 1322.5306821190461 1281.4125223079755 0 0 0 0 -3.6074264440206889 -7.2499003991437405 0 -7.2499003991437405 1.6673149345105571 0 0 0 0 409.12298930421821 -836.74145995036451 0 -836.74145995036451 2004.0175999308995 0 0 0 0 255.81450271456561 -539.20307351070278 0 -539.20307351070278 3863.9215801290702 0 0 0 0 518.33750624778622 -1231.8555711946919 0 -1231.8555711946919 3143.0059549092257 0 0 0 0 630.07032544285175 -1555.5808873876667 0 -1555.5808873876667 2176.7353047552606 0 0 0 0 418.34038939327002 -1562.489624723923 0 -1562.489624723923 2177.6696134366553 0 0 0 0 576.40147612271539 -1351.2489991094153 0 -1351.2489991094153 1802.2358675669675 0 0 0 0 578.29753660573624 -1663.2215441497392 0 -1663.2215441497392 1169.5344937335467 0 0 0 0 -104.28932170721237 -1280.4751962295923 0 -1280.4751962295923 2243.1021263038601 0 0 0 0 -123.7954410455568 -820.14121529467229 0 -820.14121529467229 1650.6526975547094 0 0 0 0 -303.21835745303542 -1382.7844559598525 0 -1382.7844559598525 2243.827634839814 0 0 0 0 367.77028130016697 -1656.0106211766106 0 -1656.0106211766106 1425.2581341068071 0 0 0 0 299.89208669254549 -1183.8593336284689 0 -1183.8593336284689 2224.1960969784122 0 0 0 0 368.35634302534163 -1775.1297757454377 0 -1775.1297757454377 2427.2440600400805 0 0 0 0 646.17099428019719 -2588.3206056385607 0 -2588.3206056385607 3693.5990684930803 0 0 0 0 1096.7201495528279 -1918.6801202472925 0 -1918.6801202472925 2163.1857332840882 0 0 0 0 103.88115840093815 -1571.5616668516377 0 -1571.5616668516377 2804.7843801295021 0 0 0 0 -0.20575706547242589 -1262.3435804007822 0 -1262.3435804007822 2197.2978482684266 0 0 0 0 59.229347580792819 -1231.2574646258267 0 -1231.2574646258267 2198.0269039163832 0 0 0 0 199.53765474029933 -1231.0304320308642 0 -1231.0304320308642 1741.454844767446 0 0 0 0 0.19023007154464722 -997.02138259222556 0 -997.02138259222556 1578.5733252822683 0 0 0 0 296.08708862389904 -1585.9386161119037 0 -1585.9386161119037 2096.5129114836818 0 0 0 0 547.4241225628648 -1149.9092302348145 0 -1149.9092302348145 1295.8675180576683 0 0 0 0 257.17655213433318 -1320.7006127883651 0 -1320.7006127883651 -1981.6084414627985 0 0 0 0 399.93568057196535 -1283.2603846734673 0 -1283.2603846734673 1634.5672681191354 0 0 0 0 261.39160890324274 -1685.108084257954 0 -1685.108084257954 1503.2797154554064 0 0 0 0 548.07421795622213 -1161.5805736459297 0 -1161.5805736459297 878.80054697695596 0 0 0 0 203.29201722180005 -364.41452611482237 0 -364.41452611482237 -714.0401428326004 0 0 0 0 123.53962815066916 -2696.0596942230695 0 -2696.0596942230695 232.36218868521973 0 0 0 0 -2.1567168347223742 -2.2204352711758872 0 -2.2204352711758872 10.573544015561481 0 0 0 0 253.57923301000847 390.86138247066992 0 390.86138247066992 -518.83138555597634 0 0 0 0 247.8876547680411 -337.06397256480886 0 -337.06397256480886 -306.65859698485292 0 0 0 0 -50.111664941301569 -441.83825559971592 0 -441.83825559971592 -611.22230271660374 0 0 0 0 134.34947514120722 -510.28267255658284 0 -510.28267255658284 -607.67644854629179 0 0 0 0 289.06792137993034 -396.10389959097665 0 -396.10389959097665 -742.24073224549647 0 0 0 0 521.33855548079009 -934.54450987820019 0 -934.54450987820019 1164.3630515104887 0 0 0 0 420.45302899819217 -762.89887299733891 0 -762.89887299733891 1562.0521989204281 0 0 0 0 527.14681915010442 -905.55833862994041 0 -905.55833862994041 1225.3433190474589 0 0 0 0 2.1819361484945716 0.52766418302624629 0 0.52766418302624629 -0.18406071085885856 0 0 0 0 -456.07574391820526 -790.50635996870187 0 -790.50635996870187 -1427.3586185205641 0 0 0 0 -0.98503289629297797 -848.62026375483765 0 -848.62026375483765 -1708.5259747061136 0 0 0 0 -2.2091706344094177 -3.6061111859902439 0 -3.6061111859902439 4.0756417295228289 0 0 0 0 -422.14769422227982 -642.90672833120334 0 -642.90672833120334 -1372.449915257519 0 0 0 0 -331.49799237705884 -928.53565413496835 0 -928.53565413496835 -1074.1094142710281 0 0 0 0 -442.07160458875296 -561.26112097727309 0 -561.26112097727309 -1409.6066792945858 0 0 0 0 12.693426389159868 283.13949736483482 0 283.13949736483482 401.91987300168694 0 0 0 0 -332.82391480592196 -917.12060929825748 0 -917.12060929825748 -1873.0071526907122 0 0 0 0 3.2946101369871599 -12.924740300835879 0 -12.924740300835879 11.846043565292746 0 0 0 0 -139.83854418894043 791.77544704846514 0 791.77544704846514 728.99337313373326 0 0 0 0 211.19870217383323 -533.196838673103 0 -533.196838673103 -247.01631443157385 0 0 0 0 9.254332299007558 -26.715434256643846 0 -26.715434256643846 22.102823052275824 0 0 0 0 568.88164495196543 352.28258602443384 0 352.28258602443384 -878.886421119636 0 0 0 0 -44.167738381773233 -101.8398758855983 0 -101.8398758855983 -1257.3054930817452 0 0 0 0 -212.79854537607753 -1046.2877172866793 0 -1046.2877172866793 -2077.5016121229637 0 0 0 0 -634.58256626205412 -632.18013493441129 0 -632.18013493441129 -757.18782322584593 0 0 0 0 -641.02911197842332 -801.45962728653831 0 -801.45962728653831 284.0042977288831 0 0 0 0 -523.08337238311651 -1400.1252020018219 0 -1400.1252020018219 294.30596868456632 0 0 0 0 2.1147971487465611 -5.7903267392031239 0 -5.7903267392031239 7.8064635342219617 0 0 0 0 -446.07359618358896 -120.36695127970597 0 -120.36695127970597 -85.947232361868373 0 0 0 0 -384.37579551566159 -1216.757925685888 0 -1216.757925685888 -150.31504879298154 0 0 0 0 -914.01595266073127 -704.96341553353705 0 -704.96341553353705 1751.3369390988792 0 0 0 0 -351.19211764128886 -955.35529434162117 0 -955.35529434162117 103.75446415650367 0 0 0 0 -687.85583585474524 -1431.1137203133694 0 -1431.1137203133694 634.16896926716436 0 0 0 0 -687.55198278289708 -1422.4120950102731 0 -1422.4120950102731 -431.2022249949805 0 0 0 0 -0.12713744795473758 -1360.79658326153 0 -1360.79658326153 -664.9643708457661 0 0 0 0 -569.46369627045351 -1038.6891349732396 0 -1038.6891349732396 -847.19776326019928 0 0 0 0 -1.6086939790079438 -1081.9585444059696 0 -1081.9585444059696 -979.92826460253855 0 0 0 0 -582.49493570771301 -1102.9601711104697 0 -1102.9601711104697 -144.75522758310399 0 0 0 0 -388.16845885854855 -1755.6389404445981 0 -1755.6389404445981 -2284.657260313259 0 0 0 0 -250.79881678096717 -1184.6317563693774 0 -1184.6317563693774 -2177.9847837890484 0 0 0 0 -376.42853693827055 -1489.7671667075265 0 -1489.7671667075265 -2382.5223703805113 0 0 0 0 0.056904628494521603 -1162.202177905343 0 -1162.202177905343 -2305.1821157312224 0 0 0 0 -1484.4763285222289 -2659.6591883362307 0 -2659.6591883362307 -2914.9268146498134 0 0 0 0 -923.90987690427573 -1274.8488081284959 0 -1274.8488081284959 -1987.2847739494391 0 0 0 0 7.1006427748794749 -3.771778073134243 0 -3.771778073134243 -8.8671931065868534 0 0 0 0 2107.0500462545606 -654.08096874934563 0 -654.08096874934563 -2034.2137563284923 0 0 0 0 947.09720933798235 -1476.7072795543609 0 -1476.7072795543609 -2431.4974558253525 0 0 0 0 -2357.2589355672826 -2580.2134714724743 0 -2580.2134714724743 -3002.6538635170291 0 0 0 0 8.1352936625485768 -3.5243540241298206 0 -3.5243540241298206 -11.076200523905527 0 0 0 0 -452.06867645581951 -2267.8084162636078 0 -2267.8084162636078 -3160.8036633861248 0 0 0 0 397.08495161955943 -1743.1187941153257 0 -1743.1187941153257 -2838.0736869261746 0 0 0 0 984.14270000360148 -495.97612693069487 0 -495.97612693069487 -2208.9129488804319 0 0 0 0 -109.31616565793956 -614.55200454050691 0 -614.55200454050691 -2174.4216040551401 0 0 0 0 198.7337458616239 -1721.6594263409279 0 -1721.6594263409279 -2584.2451135431984 0 0 0 0 430.57034665212268 -1339.0968128054083 0 -1339.0968128054083 -2270.55155946382 0 0 0 0 144.11199943150859 -1480.1025189614375 0 -1480.1025189614375 -2339.8772616956703 0 0 0 0 -52.668946849527856 -1342.6224174866945 0 -1342.6224174866945 -1890.6876610512045 0 0 0 0 -53.356887659436325 -1322.508738802484 0 -1322.508738802484 -2455.0249345766752 0 0 0 0 -224.18434627039824 -1194.406406094311 0 -1194.406406094311 -1824.1417401112485 0 0 0 0 -1478.9389236817951 -1226.9488467106385 0 -1226.9488467106385 -2262.5505544803455 0 0 0 0 -305.87944528996741 -929.77683979147878 0 -929.77683979147878 -2620.273167654901 0 0 0 0 -745.85210191103397 -689.41113984763797 0 -689.41113984763797 -1613.2256956143574 0 0 0 0 -239.94752160452481 -1448.6644356028046 0 -1448.6644356028046 -1556.2468784317025 0 0 0 0 0.030640354903880507 -1506.1943230984325 0 -1506.1943230984325 -1917.9250654172956 0 0 0 0 -179.89830791628629 -1196.8781398174106 0 -1196.8781398174106 -1233.7565404506495 0 0 0 0 -0.84242991456994787 -1633.4223372119304 0 -1633.4223372119304 -797.50778274013282 0 0 0 0 -448.482751355652 -1005.7904648468466 0 -1005.7904648468466 -886.3705626387964 0 0 0 0 -627.21894869668176 -1178.1546200750381 0 -1178.1546200750381 -383.7514310987026 0 0 0 0 -630.76233198908449 -870.61110592555997 0 -870.61110592555997 105.36592477765953 0 0 0 0 -788.30452529285685 -730.30553900491577 0 -730.30553900491577 475.10156329838992 0 0 0 0 -605.77394274249309 -1380.2904007843347 0 -1380.2904007843347 513.86213008850609 0 0 0 0 -0.70852686931903008 -1053.6191752398299 0 -1053.6191752398299 -987.83073953299754 0 0 0 0 5.5081665871229575 -5.1554828475616716 0 -5.1554828475616716 0.66053111598694159 0 0 0 0 -834.44294377520237 -484.25411171125552 0 -484.25411171125552 -168.97617800875742 0 0 0 0 4.8327574302073231 -5.0217286415899309 0 -5.0217286415899309 1.9158458230323561 0 0 0 0 -737.88062387252285 -1336.1092971947301 0 -1336.1092971947301 1551.8462933788614 0 0 0 0 -0.32244832480500918 -1184.2175390919328 0 -1184.2175390919328 1208.1704852881412 0 0 0 0 -220.97621161228381 -167.44980616036173 0 -167.44980616036173 -404.47311121461098 0 0 0 0 -140.93462610454299 -1580.9048059839552 0 -1580.9048059839552 1321.7339969778841 0 0 0 0 70.872570828942116 -1050.7825948847349 0 -1050.7825948847349 -947.24256777005212 0 0 0 0 260.69059458460652 -2053.5632868263128 0 -2053.5632868263128 616.07976142627012 0 0 0 0 -416.34485972784751 -1188.6587892255775 0 -1188.6587892255775 -196.36502161091994 0 0 0 0 -603.44937795502483 -1141.6436177850337 0 -1141.6436177850337 -82.522228925939999 0 0 0 0 -415.89009216190607 -897.2559704221967 0 -897.2559704221967 -499.96665943352127 0 0 0 0 -534.74560958757502 -1076.1711554363119 0 -1076.1711554363119 -581.42770640284289 0 0 0 0 -455.73464310804411 -1118.1308405942218 0 -1118.1308405942218 -1197.7176368454529 0 0 0 0 -751.40989201207412 -770.86135645549803 0 -770.86135645549803 -465.14332519541495 0 0 0 0 -663.70229539775028 -1188.2717538093302 0 -1188.2717538093302 -688.57141001727723 0 0 0 0 -992.93644242631854 -670.62028796778759 0 -670.62028796778759 -1101.504748545176 0 0 0 0 -1582.1033427079965 -1588.497653215396 0 -1588.497653215396 -945.51993884871627 0 0 0 0 -551.77102274028584 -1047.2356038191101 0 -1047.2356038191101 -700.55916445067123 0 0 0 0 266.55228573947534 -3040.5005192205417 0 -3040.5005192205417 1406.0820797498818 0 0 0 0 -1114.7951999927027 -1453.0894344155495 0 -1453.0894344155495 1585.1437620790093 0 0 0 0 -1109.8499320639094 -833.9908143331013 0 -833.9908143331013 302.46488872114423 0 0 0 0 -296.63086639105677 -1914.440253862635 0 -1914.440253862635 575.38751060791401 0 0 0 0 -215.71844147476077 -1733.0914519826656 0 -1733.0914519826656 900.71461821642879 0 0 0 0 -424.12503376602399 -2415.3862472756809 0 -2415.3862472756809 -3864.2620576917398 0 0 0 0 -958.88975380045304 -2502.004145124225 0 -2502.004145124225 471.0313668257113 0 0 0 0 -126.07811087119626 -2123.1533858382609 0 -2123.1533858382609 660.82685993057385 0 0 0 0 -586.8663083029096 -2006.6378220324914 0 -2006.6378220324914 943.4599525476151 0 0 0 0 1497.3077894808375 -2838.3149471142224 0 -2838.3149471142224 -2566.3756005607866 0 0 0 0 -3.6126726800629285 -1.2639061387821471 0 -1.2639061387821471 1.533425427718953 0 0 0 0 -527.15294893582177 -30.363774049757922 0 -30.363774049757922 -2453.0492060425677 0 0 0 0 303.27899894712027 -266.00110835545638 0 -266.00110835545638 -6474.6952676007859 0 0 0 0 -1397.9998451818974 -2225.4960619219128 0 -2225.4960619219128 7810.4437032668066 0 0 0 0 7.2424771095938354 -23.110671266976659 0 -23.110671266976659 -5.4126602375528101 0 0 0 0 18.448451767704626 -58.757114383908274 0 -58.757114383908274 -15.233728208898306 0 0 0 0 -2080.4551648663328 -3081.2925466793185 0 -3081.2925466793185 5044.739480632441 0 0 0 0 -2098.5227209072909 -1536.1077175960745 0 -1536.1077175960745 1777.4423349081226 0 0 0 0 -64.864442027021141 -2272.7564404930436 0 -2272.7564404930436 1945.6739811493389 0 0 0 0 -660.40432646633417 -2131.5745832073189 0 -2131.5745832073189 140.44586917414563 0 0 0 0 -203.42691407246457 -794.83722413547002 0 -794.83722413547002 -1266.8330889933059 0 0 0 0 -4190.1819740736191 -3867.9366274153367 0 -3867.9366274153367 -50.666358715025126 0 0 0 0 -3577.2919335968363 -546.26285956605625 0 -546.26285956605625 -633.00324423002894 0 0 0 0 -2881.0964041354746 -1386.2105850473909 0 -1386.2105850473909 -3667.9285651567625 0 0 0 0 -3056.8959369626609 -1150.5820170833795 0 -1150.5820170833795 -2348.0361583574704 0 0 0 0 -4433.064232664241 -1790.5019243895877 0 -1790.5019243895877 -2927.7954281534621 0 0 0 0 -1608.5416633035638 -2527.6213246394036 0 -2527.6213246394036 -3282.9888323477389 0 0 0 0 -108.00572259117689 392.78663502777636 0 392.78663502777636 -1941.9463318991038 0 0 0 0 5.8826780120394346 -7.9078640197042773 0 -7.9078640197042773 -2.1728169236757253 0 0 0 0 345.00709319979069 -1835.2323843639933 0 -1835.2323843639933 -3187.8095342952292 0 0 0 0 -1469.1249046598095 -1689.5623878757906 0 -1689.5623878757906 -858.65943770840386 0 0 0 0 -1231.5499818716344 -2875.0241518127223 0 -2875.0241518127223 -2306.6272327846582 0 0 0 0 2.9479577143021629 -0.94227307369447999 0 -0.94227307369447999 0.23365338205741182 0 0 0 0 -600.37899428850869 -1161.217256524501 0 -1161.217256524501 -1605.3802029626313 0 0 0 0 -1693.6387971978693 -856.8478461513223 0 -856.8478461513223 -1690.074656628527 0 0 0 0 -2197.568499451867 -46.003494526150462 0 -46.003494526150462 -2984.9941208875607 0 0 0 0 6.9587282001924109 -4.1878046736777605 0 -4.1878046736777605 -15.226331319965539 0 0 0 0 -1496.2071786122397 -1595.1287206505876 0 -1595.1287206505876 -3092.0428847668099 0 0 0 0 -98.826027355229598 -1990.6432768408195 0 -1990.6432768408195 -2042.2617262019112 0 0 0 0 -2042.1173156239493 -847.2986916440077 0 -847.2986916440077 -3077.9052428404248 0 0 0 0 -14.739357675491135 -14.63471312122465 0 -14.63471312122465 17.055020157758804 0 0 0 0 -1950.2629801497569 -1145.0468266551597 0 -1145.0468266551597 -2800.9753986932919 0 0 0 0 -1755.5729156718007 -1337.7964179147748 0 -1337.7964179147748 -2930.568424203615 0 0 0 0 -1429.8683710407058 -1304.4987047601535 0 -1304.4987047601535 -2739.3965262873935 0 0 0 0 -1861.4238350750238 -1791.2313210207194 0 -1791.2313210207194 -2306.6441929162538 0 0 0 0 -1716.2628347361169 -1434.1442005005192 0 -1434.1442005005192 -2781.9538642085899 0 0 0 0 -1449.0656282607961 -1216.0507577452245 0 -1216.0507577452245 -3198.6739781584911 0 0 0 0 -1949.0920423941861 -2307.7336198753765 0 -2307.7336198753765 -2730.2673950891331 0 0 0 0 -2042.0289958034846 -1872.9859808485198 0 -1872.9859808485198 -2913.9061618540691 0 0 0 0 -25.495980407860429 -18.207673086968612 0 -18.207673086968612 22.804966625378768 0 0 0 0 -1532.9429529302579 -1367.8211222289319 0 -1367.8211222289319 -2681.1199043034976 0 0 0 0 -869.89830703672487 -118.98498409606691 0 -118.98498409606691 -593.11835741674213 0 0 0 0 -13.687060268048981 -28.249065530943199 0 -28.249065530943199 26.335549814609664 0 0 0 0 -1432.9933049712563 192.32529203532249 0 192.32529203532249 -625.6701091760915 0 0 0 0 -3535.581310549198 -2322.5927757454101 0 -2322.5927757454101 -107.63580112339696 0 0 0 0 -3476.1626221516344 -2205.9232522305392 0 -2205.9232522305392 -2508.1244842573142 0 0 0 0 -2274.5904963807552 -2165.5695773233529 0 -2165.5695773233529 -2746.472720994454 0 0 0 0 -3268.7622699324274 -3059.1860255553183 0 -3059.1860255553183 -3533.7063744059269 0 0 0 0 -3348.4472186316852 -2621.5046011397935 0 -2621.5046011397935 -5897.7722998469617 0 0 0 0 -2.7429823747335149 -5.4478354193155099 0 -5.4478354193155099 1.2934290099058501 0 0 0 0 -3289.6322493244661 -2419.7914791326766 0 -2419.7914791326766 -4384.2693303732522 0 0 0 0 -4272.1263580685345 -2192.7069706863281 0 -2192.7069706863281 -3780.7366886931413 0 0 0 0 -2927.3877875924081 -1466.3630466053201 0 -1466.3630466053201 -3400.5283287084894 0 0 0 0 -484.59965916931105 -1186.5561191251509 0 -1186.5561191251509 -3470.5867781293491 0 0 0 0 -2345.3069262775316 -1864.233710124246 0 -1864.233710124246 -2303.2838719226711 0 0 0 0 896.31886854415643 -909.8764803995291 0 -909.8764803995291 -2996.3264515529409 0 0 0 0 -323.58396371628623 -303.38952555826836 0 -303.38952555826836 -2848.4988489943353 0 0 0 0 -214.97124220736441 -205.1340860767159 0 -205.1340860767159 -220.88294050661079 0 0 0 0 -1.1061949591564826 -79.432847333954697 0 -79.432847333954697 30.841132624616336 0 0 0 0 187.60863459706161 0.53820143795746844 0 0.53820143795746844 -756.32840472073804 0 0 0 0 -1.3331865084868468 -12.437039141816612 0 -12.437039141816612 -21.604019202817511 0 0 0 0 10.596862444249101 -65.738860216178125 0 -65.738860216178125 1.6438602711857584 0 0 0 0 -3.7330708001435369 -23.085193577480482 0 -23.085193577480482 -34.444007867976779 0 0 0 0 -4263.6285990664965 -2508.4059163658562 0 -2508.4059163658562 -4514.0387086947012 0 0 0 0 -40.952569958399238 -78.273293680007555 0 -78.273293680007555 44.17745808533995 0 0 0 0 -2261.0725514354417 -109.83674895259173 0 -109.83674895259173 -2251.6355535089751 0 0 0 0 -2189.8390507700533 50.157056321670098 0 50.157056321670098 -299.97476141140214 0 0 0 0 -11.036210230949147 -63.962520992919366 0 -63.962520992919366 1.6002775220317176 0 0 0 0 -119.87081907023094 43.756454744623625 0 43.756454744623625 20.227652013672923 0 0 0 0 -47.135871053484152 -255.17449054288409 0 -255.17449054288409 -481.99802436145546 0 0 0 0 -1530.2554725649243 -362.67468737275703 0 -362.67468737275703 -384.8945157174403 0 0 0 0 -248.35534639679827 -181.71280051832946 0 -181.71280051832946 -309.71225303283063 0 0 0 0 -202.60803893319098 -267.91918397604604 0 -267.91918397604604 -231.88381311255944 0 0 0 0 -110.38826638259343 -277.38956878388854 0 -277.38956878388854 -284.45867718594673 0 0 0 0 -162.51553075292031 -172.1426795548814 0 -172.1426795548814 -496.36522929243802 0 0 0 0 -247.08683766941249 -235.16873540139204 0 -235.16873540139204 -284.89560797839385 0 0 0 0 -197.56991747340362 -254.93815875302062 0 -254.93815875302062 -321.64277943722846 0 0 0 0 -19.68086112575503 -28.457610247946604 0 -28.457610247946604 15.491490805263986 0 0 0 0 -5.3541472075239085 -9.2952564593000488 0 -9.2952564593000488 -1.1255983939348084 0 0 0 0 -1126.6503136193787 -1881.6602884563763 0 -1881.6602884563763 -3039.3353749978123 0 0 0 0 -1084.3195196668967 -1481.9508336838117 0 -1481.9508336838117 124.55984716008243 0 0 0 0 -261.92448121268899 -127.01123653939885 0 -127.01123653939885 310.81973569631373 0 0 0 0 -5.7768319601810276 -9.4350963617259538 0 -9.4350963617259538 -2.2875105556625854 0 0 0 0 -195.34631535658264 -239.58138370438246 0 -239.58138370438246 -291.02244791640987 0 0 0 0 -19.45143772324036 -58.617037550119292 0 -58.617037550119292 31.958082899671268 0 0 0 0 -24.010621767418343 -458.67701440076416 0 -458.67701440076416 -682.59858265453295 0 0 0 0 -307.42317182844272 -959.99344282062521 0 -959.99344282062521 -1.3175645707124204 0 0 0 0 -161.77242810581811 -489.25156163997235 0 -489.25156163997235 -364.73168511628319 0 0 0 0 -162.89701696732664 -215.63821747518887 0 -215.63821747518887 -280.69465863694222 0 0 0 0 -166.65417929571413 -262.39897127582663 0 -262.39897127582663 -274.94658650564088 0 0 0 0 -312.23382590686379 -1461.470738015596 0 -1461.470738015596 -1545.4489101393629 0 0 0 0 -982.03082769709727 -926.22963626109049 0 -926.22963626109049 -1696.6547698322538 0 0 0 0 8.7172738062278086 -31.531376352581447 0 -31.531376352581447 -12.882411668906556 0 0 0 0 38.787419366883114 -162.49531476132688 0 -162.49531476132688 -461.77271920863132 0 0 0 0 -448.06978053139028 -1579.9560228394421 0 -1579.9560228394421 -1798.9539019250078 0 0 0 0 -702.69147003068065 -1010.3138911250207 0 -1010.3138911250207 -1325.5647171247292 0 0 0 0 -1369.7333628559281 -1639.1485397558208 0 -1639.1485397558208 103.82743967287388 0 0 0 0 -775.92009874676296 -1841.8815107798255 0 -1841.8815107798255 -82.930728666811774 0 0 0 0 -1261.0488963082062 -1261.03021760096 0 -1261.03021760096 733.53288256526866 0 0 0 0 1191.6300917067565 -2659.4668527600879 0 -2659.4668527600879 -650.39564945491657 0 0 0 0 302.59674236297724 -2127.7569412817902 0 -2127.7569412817902 -878.51507159627727 0 0 0 0 1263.1191438529058 -1498.2687667150531 0 -1498.2687667150531 -1132.7763426808697 0 0 0 0 710.41457590252685 -1736.4376758368708 0 -1736.4376758368708 -1081.9820458926115 0 0 0 0 2848.2130388922233 -1041.7933971069797 0 -1041.7933971069797 -2773.5102938894488 0 0 0 0 658.11234213522403 -1165.8014406644652 0 -1165.8014406644652 -2754.1452805348817 0 0 0 0 170.07803232048173 -2905.6611642413664 0 -2905.6611642413664 -3405.4996320610517 0 0 0 0 -4.0880282216983295 -32.354426887287701 0 -32.354426887287701 0.80872018450807559 0 0 0 0 -7468.2776747605531 -1240.8772462117668 0 -1240.8772462117668 -2304.644494690554 0 0 0 0 -4756.3468543716299 -887.49900575441279 0 -887.49900575441279 -5023.0462103333557 0 0 0 0 -27.846008269874488 -6.1880813704710533 0 -6.1880813704710533 7.8401626382746485 0 0 0 0 5942.9362418708715 -4479.268279661138 0 -4479.268279661138 -332.68487061277847 0 0 0 0 -5223.5629561653477 -2735.2771072880205 0 -2735.2771072880205 -1948.3314789956057 0 0 0 0 -3.4880559384072383 -11.537415363065065 0 -11.537415363065065 2.7386354323216437 0 0 0 0 -9689.6628724884067 -269.36101362778936 0 -269.36101362778936 -1190.1672979734049 0 0 0 0 -1334.2825639236617 -2997.0661475734569 0 -2997.0661475734569 75.298130359064089 0 0 0 0 -606.19562314941732 -1959.8667376267065 0 -1959.8667376267065 148.40168193080899 0 0 0 0 -647.4599939280015 -3170.3413511928338 0 -3170.3413511928338 585.13946266340827 0 0 0 0 -1686.038831251848 -1857.9720422777245 0 -1857.9720422777245 1361.1579416491359 0 0 0 0 -1861.1220706130844 -2826.3103230390079 0 -2826.3103230390079 1186.3435756539693 0 0 0 0 -1890.6483633303724 -2605.1546606866395 0 -2605.1546606866395 2041.7551807980635 0 0 0 0 -1746.0890118635725 -1664.6602662325204 0 -1664.6602662325204 2211.7540260615333 0 0 0 0 -1063.8154153876239 -68.870067151030526 0 -68.870067151030526 -2324.2334242199504 0 0 0 0 -3042.096873102797 -718.84541924159566 0 -718.84541924159566 -2535.6961072793274 0 0 0 0 -1919.685485125985 -1354.1483236945278 0 -1354.1483236945278 -550.45317223196616 0 0 0 0 -3072.0131454140937 -731.90153460105648 0 -731.90153460105648 -881.08575733456382 0 0 0 0 -1446.8432263012073 -1803.3751892337332 0 -1803.3751892337332 977.12872858344781 0 0 0 0 22.79455040317697 -72.410074848024522 0 -72.410074848024522 -21.271184841431506 0 0 0 0 -1844.1393832454341 -1935.896061226551 0 -1935.896061226551 -505.13742148725396 0 0 0 0 -1160.1270392812876 -1827.6399373594031 0 -1827.6399373594031 -1372.0277855411841 0 0 0 0 -3718.2958511647594 189.30858321791311 0 189.30858321791311 -1533.915082928128 0 0 0 0 -5336.8214832514495 -111.26641422314788 0 -111.26641422314788 -851.0809958105674 0 0 0 0 -2153.6101368737873 -680.65661534848186 0 -680.65661534848186 -650.51893478018246 0 0 0 0 -3104.9799304909757 -1559.0240378420422 0 -1559.0240378420422 448.74016172414122 0 0 0 0 -1900.8806316745759 -1623.3379390144546 0 -1623.3379390144546 403.88199955472373 0 0 0 0 -2365.5066187911652 -1076.8860077099816 0 -1076.8860077099816 1383.7513162688265 0 0 0 0 -2177.5015269271971 -2439.9836364145012 0 -2439.9836364145012 -792.18021890826276 0 0 0 0 -1908.7284762034978 -1999.8701286478135 0 -1999.8701286478135 -155.82867310248548 0 0 0 0 -1691.1515216147818 -1122.6207173178336 0 -1122.6207173178336 -319.73373676561641 0 0 0 0 -2110.7098970288862 -796.01836538171665 0 -796.01836538171665 1514.1537425231509 0 0 0 0 21.250943630021482 -67.451340630283809 0 -67.451340630283809 -20.560601571263014 0 0 0 0 -2238.6666231998097 -1390.7447912515418 0 -1390.7447912515418 2105.2225657128147 0 0 0 0 -1222.3534684816041 -988.16132228848073 0 -988.16132228848073 -1772.7378095335298 0 0 0 0 -1741.3732692980557 -1567.4053314025623 0 -1567.4053314025623 788.11200630405074 0 0 0 0 -1800.8422543692432 -690.7998362009821 0 -690.7998362009821 -610.97790162183082 0 0 0 0 -1137.9790140730456 -1761.4467075809703 0 -1761.4467075809703 166.18079706566641 0 0 0 0 -1181.1676329866168 -2259.4673385247988 0 -2259.4673385247988 878.28349546451864 0 0 0 0 -1637.0981289764895 -1948.9618601392322 0 -1948.9618601392322 137.06791708616947 0 0 0 0 -1596.7471238280896 -1409.6489423950889 0 -1409.6489423950889 55.95675430962001 0 0 0 0 -1493.0709880680806 -1729.0303478990099 0 -1729.0303478990099 369.48881688230904 0 0 0 0 -1147.3583152462234 -2144.4912576359638 0 -2144.4912576359638 333.17883368867479 0 0 0 0 -1257.2786739845178 -1273.7393053691776 0 -1273.7393053691776 890.94226111692478 0 0 0 0 -279.43851286469726 -1927.5129371536314 0 -1927.5129371536314 925.44479684663747 0 0 0 0 -729.7685091749081 -1635.4974306045497 0 -1635.4974306045497 788.4147298573007 0 0 0 0 -598.25601826130878 -885.4542128276662 0 -885.4542128276662 1704.1324650781753 0 0 0 0 14.857912052852782 -47.003220586117095 0 -47.003220586117095 -16.415932020327002 0 0 0 0 -1447.8816773551516 -348.78104721385898 0 -348.78104721385898 -5380.450662200943 0 0 0 0 10.393650863109912 -10.643823871540093 0 -10.643823871540093 -12.329710590271475 0 0 0 0 -1053.7536501538416 -1934.1006357774968 0 -1934.1006357774968 -1325.8082251692831 0 0 0 0 -991.27254964415624 46.932343390752067 0 46.932343390752067 -5583.9087974926297 0 0 0 0 -2372.393370836915 -523.38861559891666 0 -523.38861559891666 -1620.1605957204429 0 0 0 0 -1065.5359790755901 -1048.9218086099936 0 -1048.9218086099936 1360.6110153349437 0 0 0 0 -1542.5667585465344 -220.37589639038197 0 -220.37589639038197 2258.0224242143886 0 0 0 0 -1696.1737045735208 -1203.2158991813922 0 -1203.2158991813922 3410.4854370221801 0 0 0 0 -540.18928402259189 -1246.8352443039403 0 -1246.8352443039403 1859.5115674215303 0 0 0 0 -1333.2421295487238 -559.1287807461058 0 -559.1287807461058 1484.3216508458136 0 0 0 0 -1148.6862153669645 -1296.9751898242394 0 -1296.9751898242394 1335.7973444730014 0 0 0 0 -1073.8005358059891 -1222.4032334222939 0 -1222.4032334222939 731.8796901434398 0 0 0 0 -920.78779148306785 -694.33153132400184 0 -694.33153132400184 -397.20490697816422 0 0 0 0 -1591.1076781729935 -1414.102013609554 0 -1414.102013609554 118.19612286998745 0 0 0 0 -1854.0383587926044 -708.16436776822593 0 -708.16436776822593 916.94373689792701 0 0 0 0 -1350.0451676897428 -660.78391335939523 0 -660.78391335939523 201.7017984201666 0 0 0 0 -913.54091307565977 -388.08293854761723 0 -388.08293854761723 206.69601634185528 0 0 0 0 -666.94788613326091 -1298.8762892580853 0 -1298.8762892580853 1273.9168934621048 0 0 0 0 -874.02079319125914 -344.85337857798004 0 -344.85337857798004 2205.1562931097178 0 0 0 0 -941.96663919404818 -313.3720510030189 0 -313.3720510030189 493.97015089423803 0 0 0 0 -663.33800949637225 -2011.1531526695253 0 -2011.1531526695253 1569.8755507847527 0 0 0 0 -1573.5962845319518 -1705.6273374017073 0 -1705.6273374017073 4513.8424801954461 0 0 0 0 5.3875923262941114 -16.992518990248712 0 -16.992518990248712 -6.6152906925265356 0 0 0 0 -447.19958537824277 1546.0453911010845 0 1546.0453911010845 -5968.8329911599903 0 0 0 0 -502.45289559880985 120.7210409882673 0 120.7210409882673 2603.6968227568286 0 0 0 0 -1594.5932781972224 -1643.2852916912379 0 -1643.2852916912379 2702.1288743056066 0 0 0 0 18.176124521434531 -17.631327993399026 0 -17.631327993399026 -17.611164398866563 0 0 0 0 -1625.2663376024648 -1316.4504186241065 0 -1316.4504186241065 -2783.7375771933512 0 0 0 0 -1139.8151818290498 -877.68394037120743 0 -877.68394037120743 2896.7313316817454 0 0 0 0 -2526.0645796361132 -1183.7959603552736 0 -1183.7959603552736 5237.6708550740586 0 0 0 0 -9.8835304484653648 -19.611160881383029 0 -19.611160881383029 4.824288143174698 0 0 0 0 -332.23722875583917 -550.77421962695371 0 -550.77421962695371 2576.3756953712627 0 0 0 0 -1864.3149432829523 -1682.7058799125625 0 -1682.7058799125625 -5614.5662401748759 0 0 0 0 -1515.8990403972421 -3808.7295806558977 0 -3808.7295806558977 -6852.5801022651995 0 0 0 0 -2448.7338694004866 -1333.1362360768326 0 -1333.1362360768326 -2875.6619311075774 0 0 0 0 5.8280131317256973 -2.7658571339074172 0 -2.7658571339074172 -0.52188098807860683 0 0 0 0 -2613.4748878326354 -1419.7367545809357 0 -1419.7367545809357 -2679.7458802728506 0 0 0 0 -1721.5877308091076 -2201.2773364579589 0 -2201.2773364579589 -3401.9094243096042 0 0 0 0 -94.922717941029987 -129.78297441050017 0 -129.78297441050017 -227.55131679000624 0 0 0 0 -24.918170762809552 -48.07756239887604 0 -48.07756239887604 23.27122459487105 0 0 0 0 -2731.5542144006467 -1797.0776673339642 0 -1797.0776673339642 -2732.501585273877 0 0 0 0 1.3300494197326884 0.46932769375503369 0 0.46932769375503369 4.4531002493861251 0 0 0 0 -835.85827459071879 -155.64034138584248 0 -155.64034138584248 -223.6745327446115 0 0 0 0 -4.0058108985496119 -10.126387908049828 0 -10.126387908049828 25.277599815225841 0 0 0 0 0.58330208680743567 -3.8115037506397584 0 -3.8115037506397584 5.5578656713321237 0 0 0 0 -860.27196674633888 165.25104138665483 0 165.25104138665483 5991.0264270255866 0 0 0 0 582.96007599934819 45.124597568981699 0 45.124597568981699 2908.2476504141578 0 0 0 0 -406.39723058458185 361.185358732022 0 361.185358732022 6067.9218742121739 0 0 0 0 205.46333104645601 -307.06397538121382 0 -307.06397538121382 5622.470423859806 0 0 0 0 -699.58189404808218 -343.80580369730887 0 -343.80580369730887 5767.2526468126453 0 0 0 0 459.65762480468402 651.57706930307177 0 651.57706930307177 968.0870086377472 0 0 0 0 -680.95535612161621 -35.062899923053919 0 -35.062899923053919 2512.400082005197 0 0 0 0 -9.242931628649842 -19.111423237232003 0 -19.111423237232003 18.299371930963346 0 0 0 0 -507.26615368767671 -1229.0869471346159 0 -1229.0869471346159 2125.5510539568495 0 0 0 0 -848.94433167351235 -935.01535167944894 0 -935.01535167944894 -27.193470589067147 0 0 0 0 -831.24994853537646 -1442.6886881980408 0 -1442.6886881980408 882.86633473350958 0 0 0 0 -477.6540962413128 -244.8103608294623 0 -244.8103608294623 1255.2227693937548 0 0 0 0 46.350478146167006 -116.92372530954162 0 -116.92372530954162 -352.16221616811526 0 0 0 0 -167.11132032708701 -136.15521915234422 0 -136.15521915234422 -219.04338870207721 0 0 0 0 -24.138815920055322 -55.549870737694576 0 -55.549870737694576 25.481454378122898 0 0 0 0 -2.9397808883686594 -23.901379787481545 0 -23.901379787481545 22.517436699459495 0 0 0 0 -685.75973925737162 -841.66573711074489 0 -841.66573711074489 14.36482573003741 0 0 0 0 -618.53532322421961 -774.58486167778028 0 -774.58486167778028 -1580.9806493198412 0 0 0 0 -179.06458473094972 -119.94148312218022 0 -119.94148312218022 -147.92669544991804 0 0 0 0 -1039.9919991438219 -1822.9661835701627 0 -1822.9661835701627 -3208.7229820694592 0 0 0 0 -404.3744119121402 -874.27792692278672 0 -874.27792692278672 -2030.7982908405174 0 0 0 0 -1245.4133082679764 -1843.7547836092999 0 -1843.7547836092999 -2170.3522083148227 0 0 0 0 -927.35370269883424 -1509.0750703169324 0 -1509.0750703169324 -1818.9306812270224 0 0 0 0 -1532.4174202973627 -1785.463949744043 0 -1785.463949744043 -1853.1713878443261 0 0 0 0 -188.76813668058458 -357.22194709938049 0 -357.22194709938049 -886.05770526900596 0 0 0 0 -239.48905237897998 -534.8673108563089 0 -534.8673108563089 -1430.3286556277162 0 0 0 0 -895.22229015492485 -1210.2868921891204 0 -1210.2868921891204 -1188.2902268986218 0 0 0 0 -801.28024560847552 -1231.5273782510194 0 -1231.5273782510194 -1260.9525539998067 0 0 0 0 -288.64872804022161 -853.39965618266433 0 -853.39965618266433 -1030.8641651278158 0 0 0 0 -200.74159750994295 -1132.1824203616197 0 -1132.1824203616197 -629.64256522593132 0 0 0 0 -1107.5487036168342 -1462.4890929076209 0 -1462.4890929076209 -585.19542691559036 0 0 0 0 -975.39999438395171 -1721.8328065553033 0 -1721.8328065553033 -1196.6490360713797 0 0 0 0 -1043.097029527853 -1628.5030826486109 0 -1628.5030826486109 -1283.4717669964302 0 0 0 0 -1144.7795850962866 -1929.6928614872668 0 -1929.6928614872668 -1403.0281341010959 0 0 0 0 -1071.7907765787677 -1850.7853992570199 0 -1850.7853992570199 -1693.8534800482885 0 0 0 0 -931.13788370172551 -1495.538236404318 0 -1495.538236404318 -1293.2238962021656 0 0 0 0 -1082.609085571894 -1726.2914394567706 0 -1726.2914394567706 -1537.2221776946535 0 0 0 0 -1207.2706349553337 -2026.5336213997434 0 -2026.5336213997434 -1723.2772384435084 0 0 0 0 -1066.8990327763895 -2002.5785814200754 0 -2002.5785814200754 -2013.7427236518124 0 0 0 0 -1241.3256763483514 -1987.9630896680465 0 -1987.9630896680465 -1705.3949298793304 0 0 0 0 -1199.5042658614257 -2022.4896810395767 0 -2022.4896810395767 -1910.4991781037388 0 0 0 0 -1276.379773867724 -1967.9437255599478 0 -1967.9437255599478 -1552.6605316837376 0 0 0 0 -1273.1591790476668 -2038.9191478617904 0 -2038.9191478617904 -2178.405667841289 0 0 0 0 -1468.926136068636 -1919.6627660788472 0 -1919.6627660788472 -1778.325483051769 0 0 0 0 -1547.2858397437958 -2045.318696371949 0 -2045.318696371949 -1963.5606938911478 0 0 0 0 -1307.1121723331744 -2008.3170786589471 0 -2008.3170786589471 -1805.6355887293716 0 0 0 0 -1030.4447979554243 -1726.3985320323045 0 -1726.3985320323045 -1599.352903132909 0 0 0 0 -1325.5573419880529 -1979.976958991494 0 -1979.976958991494 -1729.3612577022359 0 0 0 0 -1318.4701516214991 -2045.1092543095874 0 -2045.1092543095874 -1899.7892354752839 0 0 0 0 -1459.3733726239007 -2024.3940535027868 0 -2024.3940535027868 -1851.9842006378822 0 0 0 0 -1547.1097815051326 -2093.2197820354195 0 -2093.2197820354195 -1830.1554579699077 0 0 0 0 -1559.7253647034231 -2046.3392996293187 0 -2046.3392996293187 -1918.6222354234342 0 0 0 0 -1411.334163588268 -2096.7930481121148 0 -2096.7930481121148 -1872.0616554726439 0 0 0 0 -1669.3194692168036 -2122.3550697684113 0 -2122.3550697684113 -1938.2155988904306 0 0 0 0 -1805.7183843700623 -2093.1079957818038 0 -2093.1079957818038 -1838.5993175543699 0 0 0 0 -1813.244752893952 -2132.1566167681594 0 -2132.1566167681594 -1985.5780216254907 0 0 0 0 -1815.9435487181181 -2090.7376503429841 0 -2090.7376503429841 -1959.6707898235327 0 0 0 0 -1871.8036398656841 -1924.6580759594726 0 -1924.6580759594726 -1997.9528727100205 0 0 0 0 -1649.7769658850884 -1957.6109189854251 0 -1957.6109189854251 -1915.7844474464364 0 0 0 0 -1955.7695559068961 -2053.2978205062318 0 -2053.2978205062318 -2192.841301014385 0 0 0 0 -2118.9322713788279 -1923.8354927887631 0 -1923.8354927887631 -2010.9598390343454 0 0 0 0 -1973.0809004322728 -2018.3252039078088 0 -2018.3252039078088 -1870.1173914848332 0 0 0 0 -2003.7527713033633 -2092.5242367428218 0 -2092.5242367428218 -2049.6101271001389 0 0 0 0 -2194.2706186316937 -2004.1456242468375 0 -2004.1456242468375 -1864.2623653264745 0 0 0 0 -2179.0629579408269 -2045.0450738238214 0 -2045.0450738238214 -2074.5036219782351 0 0 0 0 -2392.9997444048568 -1814.2324160971839 0 -1814.2324160971839 -1908.1614649277981 0 0 0 0 -2464.1984880211421 -1706.4895736431363 0 -1706.4895736431363 -2275.9195973397291 0 0 0 0 -2761.7291054969246 -1740.3814355743016 0 -1740.3814355743016 -2273.1538217361667 0 0 0 0 -2369.0886123800301 -2001.3243826139096 0 -2001.3243826139096 -2323.9485898585408 0 0 0 0 -2419.4809131415095 -1819.2421532919543 0 -1819.2421532919543 -2318.1077123954569 0 0 0 0 -2308.0674327399465 -1868.2738823033142 0 -1868.2738823033142 -2098.2139127225382 0 0 0 0 -2134.625765110075 -2014.1912598391355 0 -2014.1912598391355 -2273.4953379326325 0 0 0 0 -2253.8573533128656 -1838.4193660297533 0 -1838.4193660297533 -2238.2905387105875 0 0 0 0 -2245.3339255203464 -1912.8443010549163 0 -1912.8443010549163 -2511.0042564867472 0 0 0 0 -2321.3336338624649 -1670.2539997265849 0 -1670.2539997265849 -2486.5462960618233 0 0 0 0 -2212.1743125780486 -1744.9433300803648 0 -1744.9433300803648 -2555.0333581065497 0 0 0 0 -2548.1547741828981 -1961.7889523265112 0 -1961.7889523265112 -3046.1581177567859 0 0 0 0 -2451.462479177877 -1933.4891521333047 0 -1933.4891521333047 -2637.1808520437335 0 0 0 0 -2447.0346658506314 -1743.3474414108205 0 -1743.3474414108205 -2588.302680636134 0 0 0 0 -2313.5111568810244 -1783.3389214190029 0 -1783.3389214190029 -2849.4772113454674 0 0 0 0 -2322.265405911472 -1585.551571736989 0 -1585.551571736989 -3133.4593411079404 0 0 0 0 -2343.4782077090349 -1460.9352815378734 0 -1460.9352815378734 -2740.8032668381711 0 0 0 0 -2355.1163800864597 -1438.7364335437305 0 -1438.7364335437305 -2680.9496122665732 0 0 0 0 -2367.2390772629296 -1516.1422666454819 0 -1516.1422666454819 -2500.6836943216331 0 0 0 0 -2317.5611791221017 -1527.3020041150776 0 -1527.3020041150776 -2700.8417118834914 0 0 0 0 -2299.7515855375677 -1422.9859188644186 0 -1422.9859188644186 -2789.5713861575205 0 0 0 0 -2344.2747561104097 -1652.1024404205309 0 -1652.1024404205309 -2393.1013231144316 0 0 0 0 -1917.8998618235346 -1704.3421557813272 0 -1704.3421557813272 -2739.0479772824278 0 0 0 0 -1866.3502945351065 -1538.5564558863152 0 -1538.5564558863152 -2232.4029140380298 0 0 0 0 -1548.863633287634 -1875.4896789649174 0 -1875.4896789649174 -2170.6670646890125 0 0 0 0 -1859.0128444154689 -1948.9525329305834 0 -1948.9525329305834 -2061.0619689563282 0 0 0 0 -2038.5431577808922 -1858.0237787031219 0 -1858.0237787031219 -2430.2390057030989 0 0 0 0 -2127.0595180894597 -1914.7825588951237 0 -1914.7825588951237 -2074.3398053483252 0 0 0 0 -1919.033180448394 -1730.4812073955491 0 -1730.4812073955491 -2294.9506972196978 0 0 0 0 -2075.9588692102407 -1908.9313981372179 0 -1908.9313981372179 -2368.470977064484 0 0 0 0 -2255.3206413308508 -1726.4676519809509 0 -1726.4676519809509 -2312.3381376786565 0 0 0 0 -1959.7180343460204 -1947.6950566014239 0 -1947.6950566014239 -1517.1631899779095 0 0 0 0 -1723.0683615505695 -1945.7885479704491 0 -1945.7885479704491 -1606.2249271513174 0 0 0 0 -1999.1294335281709 -2097.2912375508895 0 -2097.2912375508895 -1454.6043302829421 0 0 0 0 -1975.2976094871992 -1848.6589414277514 0 -1848.6589414277514 -1079.1796459054895 0 0 0 0 -2012.30104451839 -1924.8438631920071 0 -1924.8438631920071 -1589.0024750653611 0 0 0 0 -2087.2737499881332 -1933.4754349216018 0 -1933.4754349216018 -1899.2397203778746 0 0 0 0 -2205.8479112533678 -2068.5597711949067 0 -2068.5597711949067 -1677.4768823759659 0 0 0 0 -1991.0081633405352 -2005.8034245048111 0 -2005.8034245048111 -1875.7330414551216 0 0 0 0 -2025.0667530525316 -2124.0051210812308 0 -2124.0051210812308 -1782.5570680389355 0 0 0 0 -1836.7438979264916 -2087.5895053022541 0 -2087.5895053022541 -1784.3155278907798 0 0 0 0 -1835.3445936089265 -2069.827095642213 0 -2069.827095642213 -1690.8058126743927 0 0 0 0 -1719.9500020074192 -2049.3172551962489 0 -2049.3172551962489 -1844.4172302666702 0 0 0 0 -1606.2542201767501 -2085.5164570931956 0 -2085.5164570931956 -1864.5496959299635 0 0 0 0 -1596.9528380575939 -2045.32739250538 0 -2045.32739250538 -1848.6273998381948 0 0 0 0 -1483.4307575172934 -1915.4575725799186 0 -1915.4575725799186 -1966.635215289687 0 0 0 0 -1397.6428544039081 -2065.8751739006402 0 -2065.8751739006402 -1891.1817127606337 0 0 0 0 -1374.4659416287323 -1989.311328742544 0 -1989.311328742544 -1916.7786728310093 0 0 0 0 -1556.5211771297327 -1922.8943342692 0 -1922.8943342692 -1821.1516024892408 0 0 0 0 -1462.4189614988863 -1970.4552521087116 0 -1970.4552521087116 -1827.2077824442677 0 0 0 0 -1262.9377312007418 -1628.9279436023808 0 -1628.9279436023808 -2354.6117777139152 0 0 0 0 -1200.2714670540736 -1796.641746898038 0 -1796.641746898038 -2026.7552883327298 0 0 0 0 -1240.2280832554679 -1967.4874014697416 0 -1967.4874014697416 -1955.5057858452637 0 0 0 0 -1290.4247054659063 -1843.6704058454343 0 -1843.6704058454343 -2027.3146371479761 0 0 0 0 -1392.7376362980576 -1830.2686529975108 0 -1830.2686529975108 -1891.133980579114 0 0 0 0 -1447.7684161210491 -1704.1779614497063 0 -1704.1779614497063 -2032.5819370648487 0 0 0 0 -1430.1192867909849 -1655.0124773642892 0 -1655.0124773642892 -1914.366667044771 0 0 0 0 -1599.8546460102152 -1622.0966375684329 0 -1622.0966375684329 -1869.5754608046991 0 0 0 0 -1508.1883613771352 -1625.6146509578175 0 -1625.6146509578175 -1889.7020853241556 0 0 0 0 -1559.9662372435851 -1805.245492480688 0 -1805.245492480688 -1861.8456451652964 0 0 0 0 -1588.4410115210085 -1717.5100194512352 0 -1717.5100194512352 -1770.6890423357981 0 0 0 0 -1721.4854270460928 -1651.8582735455202 0 -1651.8582735455202 -1796.2105399790089 0 0 0 0 -1636.8755611744127 -1593.5480854911657 0 -1593.5480854911657 -1817.3799857349804 0 0 0 0 -1719.6649258285615 -1903.6017013037817 0 -1903.6017013037817 -1715.8209956696883 0 0 0 0 -1699.9056678370689 -1745.3210323711355 0 -1745.3210323711355 -1571.5133245682009 0 0 0 0 -1822.1951429642359 -1673.656624356041 0 -1673.656624356041 -1612.2652467820953 0 0 0 0 -1803.325141564841 -1546.144852860205 0 -1546.144852860205 -1392.2591053361684 0 0 0 0 -1725.264058306755 -1519.1647581514844 0 -1519.1647581514844 -1845.7847207445302 0 0 0 0 -1686.2114460302982 -1590.754163090427 0 -1590.754163090427 -1720.7667204764002 0 0 0 0 -1864.3284296242637 -1380.450811992996 0 -1380.450811992996 -1823.8872307705496 0 0 0 0 -1846.481289400399 -1265.7016328098216 0 -1265.7016328098216 -1650.83160487024 0 0 0 0 -1892.9787027750135 -1195.9201796924845 0 -1195.9201796924845 -1750.7175489415822 0 0 0 0 -2074.4009670633532 -784.5832804800084 0 -784.5832804800084 -1623.0333031215087 0 0 0 0 -1950.9308409889345 -1241.7993123668275 0 -1241.7993123668275 -1479.0688287784888 0 0 0 0 -1969.076510361192 -1319.3940573496548 0 -1319.3940573496548 -1278.8173611119855 0 0 0 0 -1958.4804065663584 -1242.351406492171 0 -1242.351406492171 -769.86477916914737 0 0 0 0 -2304.2100392074353 -1338.3939153144311 0 -1338.3939153144311 -629.20964834274127 0 0 0 0 -1977.7557421910824 -1716.8331523728702 0 -1716.8331523728702 -1081.7808832059964 0 0 0 0 -1826.5601594072814 -1671.7937273862753 0 -1671.7937273862753 -1229.7453178862124 0 0 0 0 -1964.9559916736616 -1709.918780599095 0 -1709.918780599095 -1133.1981222353734 0 0 0 0 -2017.6384127063429 -1812.63120667578 0 -1812.63120667578 -509.9920205875751 0 0 0 0 -1711.1680576791987 -1387.6727678071657 0 -1387.6727678071657 -530.33912680683807 0 0 0 0 -2287.7841513827784 -1600.9341980239901 0 -1600.9341980239901 -465.79294781996578 0 0 0 0 -1294.66845679775 -1097.1881923980764 0 -1097.1881923980764 -1150.3617979592236 0 0 0 0 -2067.1788797457848 215.9600900174446 0 215.9600900174446 22.938833031839749 0 0 0 0 -2119.509402435564 -664.70971816140809 0 -664.70971816140809 137.08736189031333 0 0 0 0 2.271056789669899 -18.385415658197843 0 -18.385415658197843 -49.151521349509913 0 0 0 0 73.072311433478291 -140.54552414673765 0 -140.54552414673765 -73.933417060441101 0 0 0 0 -2804.6933890616465 -2010.0693969995975 0 -2010.0693969995975 -3398.7975896346106 0 0 0 0 -2835.078453937881 -1425.3196607759419 0 -1425.3196607759419 -1108.4421679908701 0 0 0 0 -899.87467878019379 -282.34203159145545 0 -282.34203159145545 -733.39894954980264 0 0 0 0 -14.161650844132282 -23.678351362978873 0 -23.678351362978873 -38.568151202684874 0 0 0 0 -1769.2022708503209 -273.62702314411945 0 -273.62702314411945 -708.00645134707156 0 0 0 0 73.063012161382829 -141.89332846238884 0 -141.89332846238884 -62.735281940275733 0 0 0 0 -1007.1259838879778 -51.833945348786074 0 -51.833945348786074 -1207.0527334585131 0 0 0 0 -1306.891511171023 -347.57424165521661 0 -347.57424165521661 -1485.7778416782676 0 0 0 0 -2019.3334737588011 -472.31041363156328 0 -472.31041363156328 -859.87520493291231 0 0 0 0 11.167840616921637 -10.656445777022878 0 -10.656445777022878 -83.432964742830023 0 0 0 0 -2590.0734852800379 357.27077901482153 0 357.27077901482153 1779.6865051383575 0 0 0 0 -1763.0521949297945 85.220620928554126 0 85.220620928554126 -639.58820399043179 0 0 0 0 -3534.5867117240123 -1923.4931986745796 0 -1923.4931986745796 -3658.010961952772 0 0 0 0 -3081.2661125408922 -773.91085477403612 0 -773.91085477403612 47.630497686121089 0 0 0 0 -2551.2522287790416 -847.63934734828399 0 -847.63934734828399 -197.09722138832512 0 0 0 0 -2870.9133660791849 -999.22384210168093 0 -999.22384210168093 67.369727014503951 0 0 0 0 -2836.5605184591695 -1100.8909762467629 0 -1100.8909762467629 -169.83563747219887 0 0 0 0 -2.3879510017472114 0.28642610045851313 0 0.28642610045851313 1.631688823009398 0 0 0 0 -2074.7077278711513 -1661.9131948664062 0 -1661.9131948664062 -2206.7522655393768 0 0 0 0 -2147.5602299951133 -381.00283055910404 0 -381.00283055910404 459.4931845740166 0 0 0 0 -2634.6023168705724 -994.45914321067903 0 -994.45914321067903 355.13471454984028 0 0 0 0 -2551.1891303491866 -1533.1112357281781 0 -1533.1112357281781 -139.3726773165763 0 0 0 0 -12.109921383715943 -9.5098370914331802 0 -9.5098370914331802 11.731623303465462 0 0 0 0 -748.97222618208616 -919.99371719323244 0 -919.99371719323244 -1954.1658752687799 0 0 0 0 -952.55203464299848 -732.96381584414848 0 -732.96381584414848 -684.86018398422311 0 0 0 0 -2862.9642353333838 -1193.3669886959451 0 -1193.3669886959451 -269.71570436473849 0 0 0 0 -2443.5524229704461 -696.29998234265804 0 -696.29998234265804 274.48709637195816 0 0 0 0 -2955.325295839124 -641.63319909975326 0 -641.63319909975326 -868.58114745939019 0 0 0 0 -2565.9648330511118 -1241.1940239007854 0 -1241.1940239007854 -844.34282832829194 0 0 0 0 -4.7374634236612678 -20.369855673916565 0 -20.369855673916565 -43.272286606828622 0 0 0 0 74.383161444704854 -143.19780534685106 0 -143.19780534685106 -74.196107049249051 0 0 0 0 -1938.9896249715675 -139.67196219095786 0 -139.67196219095786 -1994.9261651597644 0 0 0 0 -1711.1970827894584 -777.07081378198518 0 -777.07081378198518 -1030.732253496768 0 0 0 0 -2009.0247394928883 154.70723256227848 0 154.70723256227848 -893.69405106143677 0 0 0 0 -2076.1727279620536 -851.88965086286771 0 -851.88965086286771 -1205.287038510507 0 0 0 0 -2136.014542554105 -858.14339127435824 0 -858.14339127435824 -1157.022301828918 0 0 0 0 -2053.9611866507621 -248.1715454035475 0 -248.1715454035475 -1724.5624129234675 0 0 0 0 -1943.3787806428154 -825.97834204630999 0 -825.97834204630999 -1885.5911487421836 0 0 0 0 -1989.3001893467153 -400.29076819035981 0 -400.29076819035981 -2498.7446105899435 0 0 0 0 -2315.706263840475 -523.71077480797976 0 -523.71077480797976 -2289.7243714482793 0 0 0 0 -2397.7423825544101 -80.681943864841742 0 -80.681943864841742 -2749.5678653819486 0 0 0 0 -2157.2568526411051 -955.57292120901366 0 -955.57292120901366 -176.34494790422468 0 0 0 0 -2066.2510017077584 -789.2819866107402 0 -789.2819866107402 -338.26845103390224 0 0 0 0 73.053058562957574 -140.13769733695318 0 -140.13769733695318 -76.951544429493239 0 0 0 0 -1979.2247436752805 -787.83224157908899 0 -787.83224157908899 -383.83501782264648 0 0 0 0 -1716.1820627381676 -875.47500731382843 0 -875.47500731382843 -1686.7109952298997 0 0 0 0 -2027.6478851168358 -1029.0156901399969 0 -1029.0156901399969 -197.64521075633093 0 0 0 0 -1894.4880937412811 -1391.896663210458 0 -1391.896663210458 359.64560739610897 0 0 0 0 -1893.6804513549723 -1152.8505290491012 0 -1152.8505290491012 -971.98231558581392 0 0 0 0 -1337.7677127381612 -2021.4959871899173 0 -2021.4959871899173 109.92893303650635 0 0 0 0 -2074.070517225744 -1616.4875260632598 0 -1616.4875260632598 814.26872887182981 0 0 0 0 -2189.5335476464388 -2446.5089489869315 0 -2446.5089489869315 -1462.5182987511757 0 0 0 0 -16.48370212034996 -2.7225567668889354 0 -2.7225567668889354 18.64786666902647 0 0 0 0 -1188.9200947512654 360.64532269392726 0 360.64532269392726 1254.9062177399355 0 0 0 0 -2493.428617745245 -2198.9777317257904 0 -2198.9777317257904 6.1523422326354194 0 0 0 0 2647.5349527433864 -2287.1948347391699 0 -2287.1948347391699 -562.41747449786692 0 0 0 0 1613.5707458279612 35.915856103923943 0 35.915856103923943 -413.22890905060922 0 0 0 0 -722.02530980721349 -173.20958429843449 0 -173.20958429843449 -407.13670962784818 0 0 0 0 -393.5248633028823 -1854.6942733295946 0 -1854.6942733295946 -575.83419932428512 0 0 0 0 -454.30785698727414 -3618.211913757792 0 -3618.211913757792 1439.1462923763647 0 0 0 0 -1563.8907468503603 -3054.5919780121167 0 -3054.5919780121167 155.15423421546984 0 0 0 0 -1745.9789358108828 -2407.6088421205859 0 -2407.6088421205859 386.01237907012001 0 0 0 0 -5036.0788921077619 -587.80804258321223 0 -587.80804258321223 829.60519336455764 0 0 0 0 -2682.8310299877667 -2160.8622405365472 0 -2160.8622405365472 1876.3394763070064 0 0 0 0 10138.148072898106 -1957.0369119241932 0 -1957.0369119241932 -1565.5330015914078 0 0 0 0 -465.46030782566231 -2141.7159076224289 0 -2141.7159076224289 3414.4980785339212 0 0 0 0 3.4222124265194278 -12.145880279117392 0 -12.145880279117392 33.656722042491737 0 0 0 0 -6.8769118268813809 -71.694137312326035 0 -71.694137312326035 121.56902149866964 0 0 0 0 8945.5129109839472 -31.721162664036456 0 -31.721162664036456 -4175.9335130174259 0 0 0 0 733.79119154556247 -3716.8672448326556 0 -3716.8672448326556 2896.1562987839243 0 0 0 0 -2807.6680331769021 -895.10083831982774 0 -895.10083831982774 81.85886877093435 0 0 0 0 -2284.0929017226081 -872.81282878009188 0 -872.81282878009188 -48.297087487604585 0 0 0 0 -2166.4878442496702 -93.917457491486857 0 -93.917457491486857 -3178.8684991516711 0 0 0 0 68.20867639720251 -132.17863778476891 0 -132.17863778476891 -60.920368377031977 0 0 0 0 -2444.2364085757872 -249.79163516213157 0 -249.79163516213157 -2991.8189792127305 0 0 0 0 -2191.0647666806472 -4.0914971136735403 0 -4.0914971136735403 -3036.2836396571802 0 0 0 0 -2202.455812791246 -268.97404899650428 0 -268.97404899650428 -2884.5474068076874 0 0 0 0 1.8710489073491772 -5217.8379797771049 0 -5217.8379797771049 -3903.767950323032 0 0 0 0 3719.4636390598607 1564.7955817500624 0 1564.7955817500624 -474.14934937597354 0 0 0 0 3418.7132360777814 -1045.5910022782818 0 -1045.5910022782818 -6145.1551072757466 0 0 0 0 -2588.0799383412814 -45.880937289188296 0 -45.880937289188296 -2816.5559321391629 0 0 0 0 -942.57857365437667 -3848.0457087958021 0 -3848.0457087958021 -2187.1375243336997 0 0 0 0 38.191973960427632 -43.048350651816293 0 -43.048350651816293 1.7660441799734485 0 0 0 0 94.391807225531096 -78.652056778167179 0 -78.652056778167179 -52.362815192974949 0 0 0 0 -676.89030577495578 -342.1539127675187 0 -342.1539127675187 -1511.4966529275589 0 0 0 0 -2439.2305414170755 184.57046588662485 0 184.57046588662485 -2926.9441949139873 0 0 0 0 -2084.294806744263 262.97720747886342 0 262.97720747886342 -3294.0324337245547 0 0 0 0 -1353.7709008104866 -204.0909036887424 0 -204.0909036887424 -1374.952429574867 0 0 0 0 -1086.0910817808181 -305.39664876115421 0 -305.39664876115421 -1712.6329117793839 0 0 0 0 -1471.6637151130126 -505.09075888997177 0 -505.09075888997177 -1527.145875590315 0 0 0 0 -1374.9847653624747 -1130.9623404869981 0 -1130.9623404869981 -2858.6466788645412 0 0 0 0 6.9807605535218222 -73.43487982685707 0 -73.43487982685707 0.73030022093480795 0 0 0 0 -1205.6672204836068 -621.05825673456275 0 -621.05825673456275 -2689.2234292384601 0 0 0 0 -1659.9286326371803 -945.51097378912891 0 -945.51097378912891 -2260.2150619440836 0 0 0 0 -1585.2221182290523 -753.9274965885852 0 -753.9274965885852 -1785.1339718755917 0 0 0 0 -1463.7391496961063 -214.20645027979845 0 -214.20645027979845 -3276.66841981982 0 0 0 0 -1519.8083033132716 -700.83562368077037 0 -700.83562368077037 -2590.5269367534493 0 0 0 0 -1550.0375987471998 -989.37969093588413 0 -989.37969093588413 -2378.7717782108666 0 0 0 0 -1440.0752764891658 -855.2700618050294 0 -855.2700618050294 -2372.8858132550376 0 0 0 0 -1406.4375837951084 -646.48068617663375 0 -646.48068617663375 -2625.1391642288036 0 0 0 0 -1510.7354476817418 -596.59526695253589 0 -596.59526695253589 -2777.7195085647254 0 0 0 0 -1550.8140361677179 -754.6662044892937 0 -754.6662044892937 -2657.4790098241356 0 0 0 0 -1586.4528752542683 -572.17968547370401 0 -572.17968547370401 -2607.8894529799109 0 0 0 0 -1731.3918946650228 -601.90358364544227 0 -601.90358364544227 -2644.3901892370441 0 0 0 0 -1625.0491454994772 -352.86048325224692 0 -352.86048325224692 -3171.5475539239269 0 0 0 0 -1789.5994996034715 -433.21169966972138 0 -433.21169966972138 -2911.4972769299929 0 0 0 0 -1849.0722661397249 -749.8317863702714 0 -749.8317863702714 -2472.8715788863046 0 0 0 0 -1892.4425608541351 -433.63389196877688 0 -433.63389196877688 -2829.0777961046988 0 0 0 0 -1891.3576479837648 -113.11475209306082 0 -113.11475209306082 -3051.892650742142 0 0 0 0 -1940.2758780424483 -152.37080536570284 0 -152.37080536570284 -3012.3457674430101 0 0 0 0 -2008.759231488104 -133.06739203851612 0 -133.06739203851612 -3015.1586243311394 0 0 0 0 -2370.6840860330267 -23.531764629544341 0 -23.531764629544341 -2898.4148312908364 0 0 0 0 -1956.4189468740951 -89.920743346461677 0 -89.920743346461677 -3055.4649516383506 0 0 0 0 -2441.5509846278237 -87.591084842842974 0 -87.591084842842974 -2847.0093467917759 0 0 0 0 -2206.1963466838351 -43.890882980645983 0 -43.890882980645983 -2932.8647978398803 0 0 0 0 -2121.6855390926503 -208.48866271952284 0 -208.48866271952284 -2902.1054669437581 0 0 0 0 -2268.7167598125234 -130.12246578303893 0 -130.12246578303893 -2897.0979836585757 0 0 0 0 -2248.4771124331746 -117.91914485907182 0 -117.91914485907182 -2911.7068519520399 0 0 0 0 -2317.6327695969958 -190.37447497503308 0 -190.37447497503308 -2921.5198066955782 0 0 0 0 -2157.1955883561168 -212.88638364009967 0 -212.88638364009967 -2816.1970185973623 0 0 0 0 -2065.9596741994101 -238.92004291517515 0 -238.92004291517515 -2910.7212729128078 0 0 0 0 -2130.1032790089521 -471.77127292451223 0 -471.77127292451223 -2539.0830212823057 0 0 0 0 -1970.8823693125159 -836.85210435073986 0 -836.85210435073986 -2301.3708304119355 0 0 0 0 -1834.6204471259261 -847.16477492955164 0 -847.16477492955164 -2400.7798361346941 0 0 0 0 -1943.6471446368378 -535.43396422732985 0 -535.43396422732985 -2698.9349899373483 0 0 0 0 -1822.6009392621399 -1131.9879300145581 0 -1131.9879300145581 -2073.6060609292617 0 0 0 0 -1802.8987587783777 -1113.8690737200668 0 -1113.8690737200668 -2057.0819525505085 0 0 0 0 -1865.8945298357576 -693.23642318872589 0 -693.23642318872589 -2521.8837847241048 0 0 0 0 -2051.2533737121557 -718.28933632002372 0 -718.28933632002372 -1990.5624630333914 0 0 0 0 -1896.8735715382791 -1003.2861880040036 0 -1003.2861880040036 -2178.0105468176189 0 0 0 0 -1757.6501632066502 -1242.1297903208542 0 -1242.1297903208542 -1933.4944495636009 0 0 0 0 -1731.888626077769 -1150.5135639139153 0 -1150.5135639139153 -2173.6205936550832 0 0 0 0 -1750.5061792055785 -1169.8930018105239 0 -1169.8930018105239 -2103.1942692090961 0 0 0 0 -1622.8720674215583 -1334.1186638480212 0 -1334.1186638480212 -2034.4560325797356 0 0 0 0 -1672.485116950771 -1277.7813179649402 0 -1277.7813179649402 -2096.4824907274306 0 0 0 0 -1702.9384911871166 -1418.7483828310287 0 -1418.7483828310287 -1930.3131727772561 0 0 0 0 -1650.3290313121106 -1400.4654641536908 0 -1400.4654641536908 -1937.9298033333325 0 0 0 0 -1618.7369886087545 -814.82645458353363 0 -814.82645458353363 -2585.6063400225721 0 0 0 0 -1750.0366582474671 -1039.3314804619476 0 -1039.3314804619476 -2244.0425798805518 0 0 0 0 -1707.8608207076904 -1031.5122285491598 0 -1031.5122285491598 -2336.9040953543699 0 0 0 0 -1532.0978447834786 -1130.6803627714107 0 -1130.6803627714107 -2290.3058039134048 0 0 0 0 -1516.5025104886881 -1199.4335511827749 0 -1199.4335511827749 -2170.8814540811873 0 0 0 0 -1450.0526486147428 -958.49671871513419 0 -958.49671871513419 -2373.4550022293042 0 0 0 0 -1246.4630630878673 -1243.094821532708 0 -1243.094821532708 -2200.5478258857511 0 0 0 0 -1368.3651189092343 -1147.7983258968234 0 -1147.7983258968234 -2211.3462558496103 0 0 0 0 -1461.8011457842222 -1453.6694310246548 0 -1453.6694310246548 -1949.1919213020592 0 0 0 0 -710.57269209311926 -1312.8005124199335 0 -1312.8005124199335 -2172.6275746424362 0 0 0 0 -1603.2693376215466 -1492.8693080075172 0 -1492.8693080075172 -1912.5790968662641 0 0 0 0 -1606.495628572462 -1484.4563693042746 0 -1484.4563693042746 -1929.3006619703738 0 0 0 0 -1505.3475227376039 -1380.9772578289412 0 -1380.9772578289412 -2050.9292928505001 0 0 0 0 -1440.1838343067502 -1510.1630431371705 0 -1510.1630431371705 -1926.6234473694176 0 0 0 0 -1470.7001276903902 -1399.9817752083763 0 -1399.9817752083763 -1924.2308233405165 0 0 0 0 -1531.6039340630923 -1565.5405992737533 0 -1565.5405992737533 -1917.6077389672137 0 0 0 0 -1474.8999831825931 -1595.2122618708581 0 -1595.2122618708581 -1941.2799657072173 0 0 0 0 -1295.5004088474452 -1437.7519327987156 0 -1437.7519327987156 -2440.3299574920093 0 0 0 0 -1430.4928152031789 -1465.1814098899486 0 -1465.1814098899486 -2029.3160476341764 0 0 0 0 -1287.701248153433 -1535.2406853064003 0 -1535.2406853064003 -1824.2629471435466 0 0 0 0 13.512124637400689 2.3971922407780255 0 2.3971922407780255 -22.27929169244301 0 0 0 0 -1208.5483520220332 -1156.2984722203228 0 -1156.2984722203228 -1741.8576693381765 0 0 0 0 -166.59793133568019 -108.48698917849106 0 -108.48698917849106 -349.69469677588131 0 0 0 0 -120.79665516226669 -136.34231797152097 0 -136.34231797152097 -227.80758708549024 0 0 0 0 -167.02183864240055 -124.68057955453429 0 -124.68057955453429 -226.82935786698727 0 0 0 0 -31.301925356290496 -46.0646052835624 0 -46.0646052835624 19.565921996421039 0 0 0 0 -5.3053306690080717 -19.851022666890742 0 -19.851022666890742 -5.5046488427554294 0 0 0 0 -61.745362996356562 -212.65743975457372 0 -212.65743975457372 -578.35565435768876 0 0 0 0 -2412.8443935361147 469.27512215206713 0 469.27512215206713 68.887698647758953 0 0 0 0 -29.624584220860356 -42.721605122387004 0 -42.721605122387004 24.055391046503608 0 0 0 0 -1500.173469025307 312.52212301116924 0 312.52212301116924 -785.30991723911575 0 0 0 0 -8.4719995573398457 -65.099637403653759 0 -65.099637403653759 1.6258290693496633 0 0 0 0 -12.156277094572204 -10.643814613271701 0 -10.643814613271701 -4.9726189435244095 0 0 0 0 -1341.1246334227617 -793.70632079507777 0 -793.70632079507777 -2308.7718398373108 0 0 0 0 -1388.6063262513489 -749.92253831544804 0 -749.92253831544804 -2178.549463601732 0 0 0 0 -969.60284544734168 -728.96546392986056 0 -728.96546392986056 -2178.0614256233312 0 0 0 0 -1205.0090166158916 -1124.8165632976998 0 -1124.8165632976998 -2261.3128977865927 0 0 0 0 -1224.5757711708429 -770.56421875367596 0 -770.56421875367596 -2339.7636098885559 0 0 0 0 -1037.0814024025458 -114.63158660707995 0 -114.63158660707995 1011.8659405144153 0 0 0 0 213.70735441456782 131.22128216597048 0 131.22128216597048 -442.6296587894085 0 0 0 0 -5.9046774581189538 -24.464536200960623 0 -24.464536200960623 16.81804784930852 0 0 0 0 558.87941432005027 1114.0859238183148 0 1114.0859238183148 1035.7454714397536 0 0 0 0 -1163.578207810031 763.9438067267638 0 763.9438067267638 -1076.9820073309493 0 0 0 0 -1365.9819931167876 -876.35220821843541 0 -876.35220821843541 -851.08188846669691 0 0 0 0 -1550.9664788961236 1070.7923128785824 0 1070.7923128785824 -319.61393970440258 0 0 0 0 -1390.0051985257887 39.855366098548984 0 39.855366098548984 -875.97233847245298 0 0 0 0 -766.6051956214942 621.48958398956893 0 621.48958398956893 -856.11092873756752 0 0 0 0 -780.84089774981294 659.59522173585265 0 659.59522173585265 -868.61697549668315 0 0 0 0 -24.405162054850905 2.4940334838956062 0 2.4940334838956062 19.498291462622205 0 0 0 0 -55.274398504203418 -72.701997136064165 0 -72.701997136064165 -206.26866180595971 0 0 0 0 -1170.038647735928 -1349.09607023239 0 -1349.09607023239 -2524.6374650142538 0 0 0 0 -4.3162289463233776 -0.67040675428563645 0 -0.67040675428563645 4.4192911194760427 0 0 0 0 -4.1141159167812589 -7.4660312816304213 0 -7.4660312816304213 -9.2941632582374183 0 0 0 0 -1492.0827813164797 -1237.8240777945684 0 -1237.8240777945684 -2536.1817480072059 0 0 0 0 -1606.7162907660459 -1488.0202694109857 0 -1488.0202694109857 -2329.4689333325005 0 0 0 0 -1496.8661709784647 -1538.4330801920732 0 -1538.4330801920732 -2368.7969572056172 0 0 0 0 -1365.9762955333863 -1612.9392763457472 0 -1612.9392763457472 -2330.7916264652231 0 0 0 0 -782.38424197889981 -1741.4082228558182 0 -1741.4082228558182 -2319.7216684272207 0 0 0 0 -1408.026192738078 -1749.2163269924586 0 -1749.2163269924586 -2015.2368470465735 0 0 0 0 -1536.8818738411064 -1434.5478173724186 0 -1434.5478173724186 -1948.448454326819 0 0 0 0 -1476.1794410357252 -1841.3977943103528 0 -1841.3977943103528 -2120.5004041673383 0 0 0 0 -687.83003217651276 -1617.4186415238291 0 -1617.4186415238291 -2004.435226492853 0 0 0 0 -701.72549472576247 -1880.7577886803015 0 -1880.7577886803015 -1864.0558757245162 0 0 0 0 -2529.4686772589339 -2227.9471690625141 0 -2227.9471690625141 3585.5092238954962 0 0 0 0 -1365.5174936832627 -2143.5585060217581 0 -2143.5585060217581 152.12624449393479 0 0 0 0 -1467.0384498088388 -2591.2974993894204 0 -2591.2974993894204 -1543.6291749400621 0 0 0 0 -1351.0545718329668 -1550.647386082197 0 -1550.647386082197 -1461.7998909909293 0 0 0 0 -1.9651076664242737 -4.4649155172044459 0 -4.4649155172044459 -1.7384092972184533 0 0 0 0 -1414.0562074274494 -1743.4559909612453 0 -1743.4559909612453 -2489.0228276619237 0 0 0 0 -1276.9105207792454 -2366.2431352219228 0 -2366.2431352219228 -2716.012272789063 0 0 0 0 32.029199125361629 -668.74693054618547 0 -668.74693054618547 3578.8408159234532 0 0 0 0 13.343663560110144 718.94029061823676 0 718.94029061823676 2203.3966262008616 0 0 0 0 4.7916297039916458 -8.293005093565597 0 -8.293005093565597 -12.750284177222866 0 0 0 0 -1071.5064376595838 -589.69913440986966 0 -589.69913440986966 -960.38896886826478 0 0 0 0 380.73481189396261 -1200.4500146176015 0 -1200.4500146176015 -712.99550907706725 0 0 0 0 -475.97789734709659 -127.80363118122477 0 -127.80363118122477 2344.6109742003955 0 0 0 0 -707.11271186589147 -1236.2095827673256 0 -1236.2095827673256 -1324.7849863722658 0 0 0 0 -0.16641813954896634 -3.687277071235556 0 -3.687277071235556 0.41057407228309728 0 0 0 0 -126.09007223589288 -1177.3047685429437 0 -1177.3047685429437 -2966.7154234625668 0 0 0 0 -505.04916440051602 -708.47146570727045 0 -708.47146570727045 -1225.5047788558331 0 0 0 0 -290.98949552269187 -519.49149690087324 0 -519.49149690087324 -1673.6165504422161 0 0 0 0 92.539470492207329 -920.20824672701383 0 -920.20824672701383 -1939.0308245159922 0 0 0 0 -785.99045277210575 -1342.8692924953252 0 -1342.8692924953252 -1660.1318442180218 0 0 0 0 22.623686856829522 -11.739899131145251 0 -11.739899131145251 -1.8253446487911731 0 0 0 0 -783.80528368522937 -880.86337301415733 0 -880.86337301415733 -1152.3897930967796 0 0 0 0 -590.79872851810069 -1272.6662832639358 0 -1272.6662832639358 -2029.6126328828541 0 0 0 0 27.905640781682678 -10.87622290407046 0 -10.87622290407046 -5.2628776306204017 0 0 0 0 -165.48693930385343 -1848.136892384593 0 -1848.136892384593 -1823.4739427065142 0 0 0 0 -1544.0619128432882 -1598.8149097767746 0 -1598.8149097767746 -2072.8364948779454 0 0 0 0 -1287.0030581387691 -636.22320170236344 0 -636.22320170236344 -2599.3074008134026 0 0 0 0 -1730.7680888192263 -626.01528818786574 0 -626.01528818786574 -1894.5939818800252 0 0 0 0 -1082.0854820789245 -988.40156444656532 0 -988.40156444656532 -1692.9777741512153 0 0 0 0 -1382.6332095716207 -805.16680943553729 0 -805.16680943553729 -1370.40601764233 0 0 0 0 -362.98392857858562 -1275.3851326169079 0 -1275.3851326169079 -1176.3798958605703 0 0 0 0 -1183.2156234272552 -1057.3315592699737 0 -1057.3315592699737 -175.19888828017611 0 0 0 0 -820.92235764971701 -613.59775177132678 0 -613.59775177132678 -57.017442671158278 0 0 0 0 -503.23956483295478 -370.38770736370316 0 -370.38770736370316 -412.02616126547923 0 0 0 0 -3101.2539711838181 1212.0325259273177 0 1212.0325259273177 540.31052987021758 0 0 0 0 -4285.3499368339617 -6560.7218461947423 0 -6560.7218461947423 -254.70279358643529 0 0 0 0 115.69330947406701 -121.70857987471503 0 -121.70857987471503 66.035802642586546 0 0 0 0 -4855.7799425339181 690.86083659698306 0 690.86083659698306 -567.75395764973132 0 0 0 0 -511.46661138672789 -1579.0540285329207 0 -1579.0540285329207 -931.95172372881279 0 0 0 0 99.763426076451395 -127.14272331041293 0 -127.14272331041293 116.81369288612788 0 0 0 0 -628.30947637881036 -526.92322602671356 0 -526.92322602671356 -70.3897940287643 0 0 0 0 -5339.3709881396726 -3171.9257049964517 0 -3171.9257049964517 -543.99158909689868 0 0 0 0 -3066.2174648972868 -1540.6380789694995 0 -1540.6380789694995 -2303.7128349983432 0 0 0 0 -3486.4636177628854 0.44825589604079141 0 0.44825589604079141 -342.15804000583648 0 0 0 0 -59.874626964854542 -331.51539254294494 0 -331.51539254294494 396.78623522654379 0 0 0 0 1937.0413179112511 -1662.0830502867539 0 -1662.0830502867539 -2.484620979666488 0 0 0 0 37.89695806781998 -30.382208822579429 0 -30.382208822579429 11.341053401160281 0 0 0 0 53.926136775698978 230.00670008712359 0 230.00670008712359 -579.11865143996511 0 0 0 0 -647.32726229040418 -591.36953250984084 0 -591.36953250984084 239.95977283630964 0 0 0 0 -197.24574329901952 -921.01072935127399 0 -921.01072935127399 -676.13448920860174 0 0 0 0 15.16359585270726 -3.5536208461402339 0 -3.5536208461402339 -15.065387559100962 0 0 0 0 -264.63847381589585 -398.75942316767487 0 -398.75942316767487 -209.4314384202462 0 0 0 0 -568.07428572767822 -832.37069828094627 0 -832.37069828094627 -697.26091870111486 0 0 0 0 -730.41661267817835 -665.51715584991871 0 -665.51715584991871 -825.30113429538596 0 0 0 0 -630.97245649291108 -1410.7879612046513 0 -1410.7879612046513 -1248.2053836491032 0 0 0 0 10.373188062708437 -4.1102845072372816 0 -4.1102845072372816 -3.2605318391060791 0 0 0 0 336.38666369477869 -408.97057702204984 0 -408.97057702204984 -1124.0570162410932 0 0 0 0 321.81103339954279 -1330.9690097604034 0 -1330.9690097604034 -998.37628068157028 0 0 0 0 632.79965406423435 -2158.4927365324988 0 -2158.4927365324988 -515.06029726888301 0 0 0 0 392.71322110830806 -1600.4101053887352 0 -1600.4101053887352 -1394.2769678259037 0 0 0 0 1723.8979527633637 -3570.7117468588244 0 -3570.7117468588244 2402.0002325525206 0 0 0 0 7.923447363863545 -3.6713734617195826 0 -3.6713734617195826 -5.0708845654192629 0 0 0 0 165.91858983665588 -815.64594435091567 0 -815.64594435091567 -834.46612696778448 0 0 0 0 120.64459960363456 256.69934833585103 0 256.69934833585103 -2535.7723310208894 0 0 0 0 2056.6469471752353 -2567.2183753188056 0 -2567.2183753188056 722.51091896879052 0 0 0 0 1982.2661023427208 -1412.343963944375 0 -1412.343963944375 -156.2107190966567 0 0 0 0 1851.1511216637373 -3628.9873327969972 0 -3628.9873327969972 727.47138094924776 0 0 0 0 2190.3726284971635 -2768.9048037970992 0 -2768.9048037970992 547.39817743604453 0 0 0 0 2281.1637324497642 -2899.9740365888647 0 -2899.9740365888647 -107.07967307387025 0 0 0 0 4467.1867408586259 -3605.8969955030011 0 -3605.8969955030011 111.72921690524549 0 0 0 0 3436.1698781835221 -2408.8926976801358 0 -2408.8926976801358 -295.00743628295368 0 0 0 0 3919.0792022687965 -1422.0422457663817 0 -1422.0422457663817 -548.67465395464114 0 0 0 0 7.0838335401466566 -0.81520159753522137 0 -0.81520159753522137 2.0246140412752607 0 0 0 0 -640.37563051329926 -1170.1930439643218 0 -1170.1930439643218 -398.08940791219476 0 0 0 0 -1509.8651724130905 -1892.2007055345123 0 -1892.2007055345123 1055.8984993673278 0 0 0 0 -270.83939144712349 -3909.3048546856871 0 -3909.3048546856871 1573.6606680105456 0 0 0 0 -46.944583516640705 -2931.7324736432665 0 -2931.7324736432665 1407.9163960263618 0 0 0 0 -329.55393010422995 -2138.3670378745323 0 -2138.3670378745323 637.2262379778449 0 0 0 0 0.3185054652176954 -2003.0292035889174 0 -2003.0292035889174 600.76214685012201 0 0 0 0 -0.40807405815576203 -2240.7191390527873 0 -2240.7191390527873 659.85790980072125 0 0 0 0 1116.360173933128 -2500.2076621262781 0 -2500.2076621262781 284.85122993204277 0 0 0 0 246.56487076425401 -2126.4584535174354 0 -2126.4584535174354 140.4603434132182 0 0 0 0 325.31859940341019 -2299.4427624082564 0 -2299.4427624082564 249.36167210083113 0 0 0 0 0.59068509773351252 -2028.7839854610447 0 -2028.7839854610447 110.97933354654288 0 0 0 0 -9.8610446035745554 -2316.7088896825899 0 -2316.7088896825899 -3745.3599267381505 0 0 0 0 -631.43280035977659 -1778.9098525770987 0 -1778.9098525770987 -4169.084014025877 0 0 0 0 0.5273971368200705 -6.9001083495113846 0 -6.9001083495113846 -1.4923298579612698 0 0 0 0 -352.97324453486362 -1115.3674674949252 0 -1115.3674674949252 -3246.5644771546322 0 0 0 0 -244.97069545384511 -879.94061715944372 0 -879.94061715944372 -1081.7802397036867 0 0 0 0 -112.3222097963444 -1466.0235851267335 0 -1466.0235851267335 1025.3235687606757 0 0 0 0 -45.179989227035549 -1468.7443988599844 0 -1468.7443988599844 -353.16767362773771 0 0 0 0 72.196787770459196 -982.80181248350164 0 -982.80181248350164 -1370.3309568371151 0 0 0 0 -305.84120581587194 -984.76659055157506 0 -984.76659055157506 -1348.0344453660518 0 0 0 0 -170.08370101868059 -409.29869753947605 0 -409.29869753947605 -2027.4828820925904 0 0 0 0 93.34327535481134 -1113.0354232981617 0 -1113.0354232981617 -1753.4827096391145 0 0 0 0 -329.25511332720635 -1328.8182616172253 0 -1328.8182616172253 -2128.1524603161797 0 0 0 0 -0.78121914508142254 -12.573430439197509 0 -12.573430439197509 1.5080936660302804 0 0 0 0 -17.280121893360047 -1908.2273320435816 0 -1908.2273320435816 -1982.9533076512653 0 0 0 0 212.03843732198584 -1172.8674500639645 0 -1172.8674500639645 -2163.1435054725516 0 0 0 0 -791.33231722121127 -253.5957486627085 0 -253.5957486627085 1938.9517667352593 0 0 0 0 376.29358367595705 -668.95039186152462 0 -668.95039186152462 -820.89477673165675 0 0 0 0 -113.68380534421885 -1932.5379969596324 0 -1932.5379969596324 -1558.8409851186152 0 0 0 0 103.06731491908431 -1352.3046054399747 0 -1352.3046054399747 -1517.3725099466028 0 0 0 0 105.93037928896956 -1783.8216118438831 0 -1783.8216118438831 -2074.2561434215968 0 0 0 0 65.246276608828339 -1828.9289948027326 0 -1828.9289948027326 -2100.5706084992271 0 0 0 0 530.31655487575335 -1477.4712276912833 0 -1477.4712276912833 -2484.3803515568434 0 0 0 0 -151.52355745133536 -2158.4759244090819 0 -2158.4759244090819 -2534.6343419273908 0 0 0 0 -708.22892308112932 -1598.3614084186265 0 -1598.3614084186265 -2046.0066731574952 0 0 0 0 -618.72909554513171 -1601.2393717363775 0 -1601.2393717363775 -1739.7059699748497 0 0 0 0 61.615797420286981 -1192.8494249036685 0 -1192.8494249036685 -1513.4301279417414 0 0 0 0 -632.48750707152431 -1672.0668280211198 0 -1672.0668280211198 -2099.5949515820466 0 0 0 0 -695.36614859533438 -1397.1443685594604 0 -1397.1443685594604 -2133.1084601347957 0 0 0 0 11.873653233617802 -6.0802482352137304 0 -6.0802482352137304 -14.046567233992761 0 0 0 0 -692.61338669003453 -1311.8711882657426 0 -1311.8711882657426 -1925.2357090455826 0 0 0 0 -1727.2352609882946 -2689.8166530443959 0 -2689.8166530443959 -3765.2047690387899 0 0 0 0 -1.574811928776265 -624.06911856387592 0 -624.06911856387592 -1240.7125342095242 0 0 0 0 6.3271143386352264 -4.9122844013215854 0 -4.9122844013215854 -11.134927754425348 0 0 0 0 -1660.6645115072315 -1802.3465005224825 0 -1802.3465005224825 -2079.5397656678797 0 0 0 0 -287.89523708290835 -378.41177715405684 0 -378.41177715405684 48.664017693008645 0 0 0 0 -544.46640549657968 -355.3166846768072 0 -355.3166846768072 139.49775771838176 0 0 0 0 -1187.0447722764438 -692.76857778674457 0 -692.76857778674457 321.78656996771679 0 0 0 0 -470.18883806027588 -809.89270419281092 0 -809.89270419281092 336.29307206041449 0 0 0 0 -1031.7613970706334 -1156.6321610809646 0 -1156.6321610809646 154.49024092236505 0 0 0 0 3.2776091694940988 -1054.8806126420677 0 -1054.8806126420677 -108.41173140114915 0 0 0 0 -538.3981150464133 -673.87925255258597 0 -673.87925255258597 97.006315883874777 0 0 0 0 -29.602277547608537 -508.41909165100515 0 -508.41909165100515 142.37928981418372 0 0 0 0 -1246.2243701221669 -717.89596631668974 0 -717.89596631668974 -454.42915206399994 0 0 0 0 -1040.837760551578 -1110.0742631872854 0 -1110.0742631872854 -931.66797400375617 0 0 0 0 -509.61889605813485 -868.9033081918169 0 -868.9033081918169 -856.85022912227942 0 0 0 0 -603.08137512188114 -916.08443407590312 0 -916.08443407590312 -576.0055031949305 0 0 0 0 -806.74030145941651 -1165.8018889150298 0 -1165.8018889150298 -785.40528285622713 0 0 0 0 -434.04711389621662 -566.87868104879453 0 -566.87868104879453 -97.885570613783784 0 0 0 0 -399.59202779281713 -819.94003832406815 0 -819.94003832406815 -755.34928834403399 0 0 0 0 -245.74812168096105 -933.5551491403603 0 -933.5551491403603 -695.3349319804438 0 0 0 0 9.1328009760723958 -15.94780821414804 0 -15.94780821414804 -1.6160314694539011 0 0 0 0 -648.25411671308029 -563.44820500917194 0 -563.44820500917194 -626.10963188715141 0 0 0 0 -580.97473376182711 -400.94265664888712 0 -400.94265664888712 -236.12782706547296 0 0 0 0 4.730735596963541 -13.990469664158013 0 -13.990469664158013 5.263383938048122 0 0 0 0 -689.35132351805078 -120.72243169143258 0 -120.72243169143258 93.044270504116867 0 0 0 0 12.95888949376705 -23.856200131097033 0 -23.856200131097033 9.903883782416159 0 0 0 0 -470.01293546268425 -290.83689643482649 0 -290.83689643482649 -419.08805899869185 0 0 0 0 0.58070660812786201 -51.10738678059613 0 -51.10738678059613 47.755283677306181 0 0 0 0 -275.95563507161569 164.54311714535288 0 164.54311714535288 -39.986751287084189 0 0 0 0 -17.418859795664915 -6.6776646371112776 0 -6.6776646371112776 21.743638468347626 0 0 0 0 -22.131809081998654 -50.932795495958999 0 -50.932795495958999 87.196902426956512 0 0 0 0 -11.00793813639757 -35.157017521316448 0 -35.157017521316448 0.020329341889009811 0 0 0 0 -29.922050080003828 -301.27888648651606 0 -301.27888648651606 -562.01302244025283 0 0 0 0 9.6156598231683432 -30.115499282667116 0 -30.115499282667116 28.744368526193469 0 0 0 0 -164.54240398444745 -200.6613799266197 0 -200.6613799266197 -67.401339879033912 0 0 0 0 -107.1859303060919 -130.24655442243966 0 -130.24655442243966 -371.24479369127585 0 0 0 0 15.56996501784802 -19.48340855695001 0 -19.48340855695001 9.0247312271887807 0 0 0 0 12.917973371579137 -47.757352162039751 0 -47.757352162039751 -3.1734138501524285 0 0 0 0 -1210.0184269849342 -457.05532162793679 0 -457.05532162793679 58.526020408200566 0 0 0 0 5.4101130070596355 -5.8301109032337806 0 -5.8301109032337806 -1.0971420544283319 0 0 0 0 -1422.8627753010733 -1492.0212024858592 0 -1492.0212024858592 -116.14537132073019 0 0 0 0 -1131.3893220678633 -968.75955502575266 0 -968.75955502575266 -825.70499178479076 0 0 0 0 -693.40098704624688 -196.1577199309686 0 -196.1577199309686 -326.08902779376513 0 0 0 0 -1013.6085543782774 -580.20266050039027 0 -580.20266050039027 -392.94347185638617 0 0 0 0 -1321.9838315453671 -477.57771725773637 0 -477.57771725773637 -405.29776282344392 0 0 0 0 9.8876222497653572 -32.650252328492996 0 -32.650252328492996 -1.1580432215814724 0 0 0 0 -1332.0912838501336 -947.10956138938673 0 -947.10956138938673 1235.2124477853358 0 0 0 0 -1312.9237727245941 -484.71298244147556 0 -484.71298244147556 -1626.3883039327629 0 0 0 0 7.2226836594573882 -23.253359616371199 0 -23.253359616371199 -8.682721211902706 0 0 0 0 -1520.9242604209394 -948.19826398378427 0 -948.19826398378427 -2374.4598546945635 0 0 0 0 -2018.7832947846982 -1218.3141328787679 0 -1218.3141328787679 -1164.9956655579554 0 0 0 0 -1450.5901430498479 -1296.7189726879756 0 -1296.7189726879756 -1491.6786236161788 0 0 0 0 -2045.380287943346 -1340.2511877486977 0 -1340.2511877486977 -1650.9882006796943 0 0 0 0 -2348.018994454209 -865.80502698922646 0 -865.80502698922646 -1864.5870793368158 0 0 0 0 -1910.8503567115513 -1035.4336155588971 0 -1035.4336155588971 -4451.1804544116676 0 0 0 0 -2758.0560478253647 -2315.8421859671289 0 -2315.8421859671289 3354.7897485014364 0 0 0 0 2.7429232476514329 -8.8641607713541788 0 -8.8641607713541788 -2.8349301543397267 0 0 0 0 7.3295992615634802 -21.511113031542237 0 -21.511113031542237 -13.983448012924157 0 0 0 0 -2520.1485477272081 -893.82036999005322 0 -893.82036999005322 -1024.9901284542138 0 0 0 0 -2834.9589110765955 -1519.179442771394 0 -1519.179442771394 -1542.1419283460527 0 0 0 0 -3007.7442673090336 -1474.4350313375835 0 -1474.4350313375835 -784.40013405258287 0 0 0 0 -3296.9814542477834 -1239.7896843503913 0 -1239.7896843503913 -878.88462891248491 0 0 0 0 -2443.2162214084565 -2343.1368777158386 0 -2343.1368777158386 456.81214028158865 0 0 0 0 -3753.4051325923356 -1447.7278839602368 0 -1447.7278839602368 -590.19573912152555 0 0 0 0 -4449.2347691590458 -1704.1941866317811 0 -1704.1941866317811 236.139789363413 0 0 0 0 3.1171054972815426 -18.309153685285992 0 -18.309153685285992 -6.3550191905781332 0 0 0 0 -3141.2928862086665 -990.77224856567045 0 -990.77224856567045 174.13210279780469 0 0 0 0 -2118.6518061234892 -1248.8708466997923 0 -1248.8708466997923 -393.80565794448194 0 0 0 0 -3737.8140051760129 -1550.9071107680284 0 -1550.9071107680284 -51.650651445263065 0 0 0 0 -3082.0526379339281 -1326.9408669855311 0 -1326.9408669855311 -174.26231625057699 0 0 0 0 -2464.8258083883629 -886.50541637097194 0 -886.50541637097194 -566.48995948303491 0 0 0 0 -3080.2589981894816 -1129.7055223878961 0 -1129.7055223878961 -636.3999442292552 0 0 0 0 -3124.7512228853666 -1242.3293761887617 0 -1242.3293761887617 -868.54573738152976 0 0 0 0 -3198.1825196420177 -1073.6194773134775 0 -1073.6194773134775 -507.71627732765046 0 0 0 0 -5002.7328640031456 -1531.6650071918541 0 -1531.6650071918541 -447.54110976215452 0 0 0 0 -3672.3591797601293 -1454.3327380305273 0 -1454.3327380305273 -620.85252716783725 0 0 0 0 -3523.749453954355 -1091.0771373142779 0 -1091.0771373142779 -668.7366672389835 0 0 0 0 -4789.8230373040424 -1202.4932172827903 0 -1202.4932172827903 -421.58182278800814 0 0 0 0 -4092.6771796276371 -977.19139066162461 0 -977.19139066162461 -612.61904159104006 0 0 0 0 -1642.0799833595702 -1271.7809177413801 0 -1271.7809177413801 650.27765016307876 0 0 0 0 -1475.4040299138251 -1250.5980203538566 0 -1250.5980203538566 652.55349667325936 0 0 0 0 -1782.0524574485953 -902.63578842590141 0 -902.63578842590141 1297.7229172362422 0 0 0 0 -2163.5800516023082 -1557.5908409791846 0 -1557.5908409791846 799.94441942528283 0 0 0 0 -2059.5714012367607 -998.75164876497001 0 -998.75164876497001 -94.410040966209635 0 0 0 0 -1578.3179758650731 -1279.5097864786949 0 -1279.5097864786949 -196.73535174452991 0 0 0 0 -2134.5190054361701 -1212.0429928039921 0 -1212.0429928039921 -618.95851497081458 0 0 0 0 -1489.5423943709529 -979.82866529549756 0 -979.82866529549756 -562.66500367264962 0 0 0 0 -1031.7124723222817 -1158.5832145856346 0 -1158.5832145856346 30.637750680180034 0 0 0 0 -1555.3958252201373 -1047.9057059323895 0 -1047.9057059323895 116.49148857086402 0 0 0 0 -1048.8198697600201 -889.9993312494662 0 -889.9993312494662 -463.89826985332184 0 0 0 0 -1584.1365990018903 -907.23485110173806 0 -907.23485110173806 -348.09199202845048 0 0 0 0 -1487.452583960534 -670.9056420624911 0 -670.9056420624911 -898.7470957331825 0 0 0 0 -1883.5438474205803 -872.64714002566325 0 -872.64714002566325 -448.04836454617907 0 0 0 0 -2246.7176170615858 -836.13704688323924 0 -836.13704688323924 -588.99216889012314 0 0 0 0 -1854.7716673124305 -824.75776753284299 0 -824.75776753284299 -871.47197543601214 0 0 0 0 -2136.8337248770331 -936.43688416943769 0 -936.43688416943769 -884.02085571209318 0 0 0 0 -1738.1620056534339 -728.91619068762884 0 -728.91619068762884 -902.86109595092421 0 0 0 0 -1733.4135151471855 -742.60421631969803 0 -742.60421631969803 -1153.1480499646132 0 0 0 0 -1966.6356048027701 -680.13731083555467 0 -680.13731083555467 -942.93574793387961 0 0 0 0 -1918.6334324679374 -788.33429690185585 0 -788.33429690185585 -1137.961874246248 0 0 0 0 -1435.032797586915 -560.99128808107344 0 -560.99128808107344 -1227.1414926474681 0 0 0 0 -1504.8085038686486 -767.82749217041237 0 -767.82749217041237 -1267.273541054732 0 0 0 0 -1434.8763530523684 -474.46116210820037 0 -474.46116210820037 -930.18728758781072 0 0 0 0 -4019.3283239550474 -1252.7022611652865 0 -1252.7022611652865 -1145.5652342519024 0 0 0 0 -4035.5154597594592 -1158.4485670182767 0 -1158.4485670182767 -1686.6653194285609 0 0 0 0 -3709.6107154039782 -1299.0607203525215 0 -1299.0607203525215 -1304.5033471065253 0 0 0 0 -3937.3342203296379 -1128.9313367164068 0 -1128.9313367164068 -1015.8480311423191 0 0 0 0 -4268.7214269489677 -1365.0762159439109 0 -1365.0762159439109 -744.66029221145436 0 0 0 0 -4248.688152845516 -1486.494745239761 0 -1486.494745239761 -1072.7127389974194 0 0 0 0 -3948.2755928751212 -1335.8983771108033 0 -1335.8983771108033 -892.23960401324439 0 0 0 0 -3949.9807958315678 -1298.8577128222641 0 -1298.8577128222641 -696.32695191621315 0 0 0 0 -3624.0153930118104 -1044.2816847078211 0 -1044.2816847078211 -828.69417881270783 0 0 0 0 -3415.5442032063511 -1249.0520441672124 0 -1249.0520441672124 -984.67573554092087 0 0 0 0 -3119.4358565855546 -1254.0864216518603 0 -1254.0864216518603 -1242.7773756188108 0 0 0 0 -2707.5324213505337 -1064.5554022529395 0 -1064.5554022529395 -1015.9480114590115 0 0 0 0 -2956.1596953463086 -885.99131288707576 0 -885.99131288707576 -875.59507731116901 0 0 0 0 -2931.0133717494318 -1131.0904466404172 0 -1131.0904466404172 -1001.9322294125814 0 0 0 0 -3369.7420419414448 -1131.3545289178219 0 -1131.3545289178219 -775.85475662481622 0 0 0 0 -2669.6570348526438 -837.06784751074883 0 -837.06784751074883 -781.29401243207394 0 0 0 0 -2424.1591238125984 -1039.6723999255773 0 -1039.6723999255773 -822.42103723643959 0 0 0 0 -2260.4252099364385 -783.78017733356683 0 -783.78017733356683 -905.86810764885013 0 0 0 0 -2279.8378852332098 -895.7747474364005 0 -895.7747474364005 -1068.6813930650096 0 0 0 0 -2298.0620063599872 -852.92681378806083 0 -852.92681378806083 -1168.8415124521125 0 0 0 0 -1929.395613932631 -773.1612100507009 0 -773.1612100507009 -1142.5479063447128 0 0 0 0 -2374.596428394987 -990.83111969306628 0 -990.83111969306628 -1095.2407266155351 0 0 0 0 -2654.5027473948103 -816.96739889078162 0 -816.96739889078162 -1014.4827286851432 0 0 0 0 -4447.1128598200248 -749.23743997134807 0 -749.23743997134807 -709.22325290981098 0 0 0 0 -3973.6837443847089 -1378.2433493912849 0 -1378.2433493912849 -595.66783582782955 0 0 0 0 -3580.6026499625405 -1147.4748746863552 0 -1147.4748746863552 -945.67218403905281 0 0 0 0 -2720.6608554689701 -1100.4735510514583 0 -1100.4735510514583 -1157.7609422792229 0 0 0 0 -3627.4122561176409 -979.86223136015178 0 -979.86223136015178 -1247.9581430860271 0 0 0 0 -3710.6901750287034 -1100.41529915516 0 -1100.41529915516 -1370.3930741462682 0 0 0 0 -1360.9259114275965 -1850.0153422608419 0 -1850.0153422608419 -1168.6699637456531 0 0 0 0 -2497.5303221073609 -1688.534172768057 0 -1688.534172768057 -540.19910280589829 0 0 0 0 -1821.7819169362319 -978.36870315793567 0 -978.36870315793567 -1181.7688019266643 0 0 0 0 -1922.1104669381566 -958.45041920260701 0 -958.45041920260701 -1137.2901345256505 0 0 0 0 -1701.6364311446341 -1465.3844313415029 0 -1465.3844313415029 -1176.6625928178014 0 0 0 0 -1387.8144054039785 -1811.859152826335 0 -1811.859152826335 -940.78941713729 0 0 0 0 -1567.5113051968183 -983.128972586499 0 -983.128972586499 -1613.4391527314292 0 0 0 0 -1608.372527534073 -644.34322791177692 0 -644.34322791177692 -1344.2179218342935 0 0 0 0 -1469.9886243565488 -720.45248689930486 0 -720.45248689930486 -1643.1661196670175 0 0 0 0 -1555.5462528689932 -702.72278950746841 0 -702.72278950746841 -1306.6473600202407 0 0 0 0 -1626.6201586415591 -787.35088558943971 0 -787.35088558943971 -1370.4933846136992 0 0 0 0 -1719.958004777076 -720.66208612034097 0 -720.66208612034097 -1197.1743103568442 0 0 0 0 -1513.4413054149773 -944.61757845465763 0 -944.61757845465763 -1363.6440746415128 0 0 0 0 -1485.6103356860276 -1214.6005354795216 0 -1214.6005354795216 -1282.9635840976625 0 0 0 0 -1701.1793931856737 -1046.7587415328089 0 -1046.7587415328089 -1147.1899353547851 0 0 0 0 -1541.5304750516443 -1124.6907497054272 0 -1124.6907497054272 -1410.2889809827029 0 0 0 0 -1520.177447605769 -907.84169422920604 0 -907.84169422920604 -1498.4774198819941 0 0 0 0 -1654.6207409642411 -896.44007631262502 0 -896.44007631262502 -1563.2924120998541 0 0 0 0 -1517.8377773170814 -1055.1606079700687 0 -1055.1606079700687 -1680.7220819814393 0 0 0 0 -1660.2433795587131 -1004.0315744314539 0 -1004.0315744314539 -2015.946957209926 0 0 0 0 -1945.596214336254 -1032.5969346554325 0 -1032.5969346554325 -2108.3036019519786 0 0 0 0 -1961.7044765551618 -832.30254650204006 0 -832.30254650204006 -1641.9075754893556 0 0 0 0 -1650.9082653735804 -971.69203354698766 0 -971.69203354698766 -1670.6173709921495 0 0 0 0 -1856.8739122366096 -438.31242715305052 0 -438.31242715305052 -2530.3110345791029 0 0 0 0 -2092.3156704462526 -650.46425596842892 0 -650.46425596842892 -1651.4058192778539 0 0 0 0 -1607.6812762640875 -789.36804634532746 0 -789.36804634532746 -1802.2051255345141 0 0 0 0 -1838.7449878564221 -474.71993807531544 0 -474.71993807531544 -1343.7543574844458 0 0 0 0 -1491.3936495461894 -952.16837738414324 0 -952.16837738414324 -696.8900010871439 0 0 0 0 -2574.8829468385084 -1265.9055847612326 0 -1265.9055847612326 -622.35937744489638 0 0 0 0 -805.12575613841182 -1624.4907274939906 0 -1624.4907274939906 -549.78279912810831 0 0 0 0 -5.2370450433506619 -2.947554195431568 0 -2.947554195431568 6.0804726710696855 0 0 0 0 -3035.8228893520791 86.603855590532476 0 86.603855590532476 -1616.2567442455329 0 0 0 0 583.85010118287755 -3302.0427227773107 0 -3302.0427227773107 249.4192217781092 0 0 0 0 -2532.920041345722 -1755.1746160713283 0 -1755.1746160713283 -668.98749439805397 0 0 0 0 -70.498392036497535 -2255.1133493423913 0 -2255.1133493423913 752.47491640758381 0 0 0 0 2378.0573007645817 -837.3730231996451 0 -837.3730231996451 -609.18823589838576 0 0 0 0 1.3409454434279056 -4.8392661498160834 0 -4.8392661498160834 -0.52903137397723299 0 0 0 0 -1105.3838095617793 -1243.2946767429166 0 -1243.2946767429166 281.89243415685632 0 0 0 0 -1438.18782148842 -778.17682031606091 0 -778.17682031606091 -306.84870331850834 0 0 0 0 88.887005945874989 -1307.5735417493524 0 -1307.5735417493524 -707.20462973922258 0 0 0 0 -518.56375920130813 -836.03189011504583 0 -836.03189011504583 -355.24375234005856 0 0 0 0 -909.25356611781535 -1087.3721229905805 0 -1087.3721229905805 -1323.5096000824997 0 0 0 0 -691.7995603751624 -1286.299396720915 0 -1286.299396720915 -1378.7917141048647 0 0 0 0 1236.2762693525128 -2509.2975576120934 0 -2509.2975576120934 -1178.6037519205493 0 0 0 0 -949.53923589686383 -2271.3652301055481 0 -2271.3652301055481 -728.46160230390524 0 0 0 0 -1363.1816260216692 -1092.5936707804794 0 -1092.5936707804794 -1000.5331771512538 0 0 0 0 83.7669024783645 -1359.0408602286116 0 -1359.0408602286116 -1730.8331788647847 0 0 0 0 465.51620019349866 -1975.6056728557433 0 -1975.6056728557433 -1488.2608211346815 0 0 0 0 -167.58309430584632 -1884.5155868238871 0 -1884.5155868238871 -828.21033390200319 0 0 0 0 -19.43753155682063 -8.4510694930135664 0 -8.4510694930135664 19.300226556987695 0 0 0 0 -2013.5750235696141 -619.60769863606765 0 -619.60769863606765 -1732.1567414837955 0 0 0 0 -1558.9762840265466 -621.54645964266092 0 -621.54645964266092 -1788.7327845361356 0 0 0 0 791.74854543400579 -2096.2736904148624 0 -2096.2736904148624 -299.02867923374288 0 0 0 0 499.3263716538786 -2534.1653203449205 0 -2534.1653203449205 -938.11994586703167 0 0 0 0 919.77488481669388 -2825.2242358978101 0 -2825.2242358978101 -941.31957598911686 0 0 0 0 -1844.9362883818358 -1729.3216183416407 0 -1729.3216183416407 -668.75440323523344 0 0 0 0 2.7592348500062371 -8.3730015375079176 0 -8.3730015375079176 5.1085355596740953 0 0 0 0 -1773.6817683945046 -1465.1068067105334 0 -1465.1068067105334 -1001.8295827724905 0 0 0 0 -1914.1229918409954 -1378.7910672630096 0 -1378.7910672630096 -1054.7948012979468 0 0 0 0 -1729.7817894255859 -1421.5694112761739 0 -1421.5694112761739 -1342.8487504205186 0 0 0 0 -1276.3832091932891 -1343.541948352733 0 -1343.541948352733 -1245.1430126785417 0 0 0 0 -1754.4038635495986 -1345.8978553693009 0 -1345.8978553693009 -991.69119913574832 0 0 0 0 -1709.6340622008393 -1523.3181997887659 0 -1523.3181997887659 -1007.4646402967919 0 0 0 0 11.393870103410336 -15.670001529630952 0 -15.670001529630952 10.881416184237622 0 0 0 0 -1727.1189468399825 -1418.7587422631623 0 -1418.7587422631623 -1120.1176551793233 0 0 0 0 -1923.6493393213877 -1805.0157955698824 0 -1805.0157955698824 -641.35225758303568 0 0 0 0 -1400.4421618154083 -936.17575850509093 0 -936.17575850509093 -134.02564094193804 0 0 0 0 0.66502977331680313 -6.12350191896968 0 -6.12350191896968 4.0959718913949246 0 0 0 0 -1398.7158590777617 -1658.9050739504019 0 -1658.9050739504019 -1204.3225717355963 0 0 0 0 -1429.0471098506168 -1724.8158413861856 0 -1724.8158413861856 -1052.9132218316226 0 0 0 0 -1346.0536686953092 -1288.4565257381851 0 -1288.4565257381851 -1037.1418941357842 0 0 0 0 -2085.8340605183839 -1026.5307030915355 0 -1026.5307030915355 -646.80129897231564 0 0 0 0 -2127.7590137231891 -1506.4866422339546 0 -1506.4866422339546 -1078.4277186803301 0 0 0 0 -1769.3165798554837 -1563.4372200898763 0 -1563.4372200898763 -1125.1373673078051 0 0 0 0 -2195.0635661218985 -1531.2585908192705 0 -1531.2585908192705 -1063.5542294174011 0 0 0 0 -1438.9933311741843 -2056.9858519239388 0 -2056.9858519239388 -1113.8735697752345 0 0 0 0 -1418.0871861761843 -1917.7528134427557 0 -1917.7528134427557 -1434.8279950065007 0 0 0 0 -1795.2651141878832 -1815.8434993005026 0 -1815.8434993005026 -1265.4848350543762 0 0 0 0 -1993.5751783186533 -2433.3394589992404 0 -2433.3394589992404 -1154.9015836493054 0 0 0 0 0.58057373651432442 -8.8645205759769965 0 -8.8645205759769965 5.8035607420960389 0 0 0 0 -2272.9142564159156 -1967.4112394187378 0 -1967.4112394187378 -809.00642364691885 0 0 0 0 -1369.4738148160541 -1171.921808626088 0 -1171.921808626088 -1365.5716356333651 0 0 0 0 -872.2968084930344 -1410.8206485212431 0 -1410.8206485212431 -1272.670765693154 0 0 0 0 6.3420910719843278 -15.821768373739118 0 -15.821768373739118 11.140194655066097 0 0 0 0 -1661.2980426542772 -1884.8688763581122 0 -1884.8688763581122 -1727.7953530771556 0 0 0 0 -2035.8008208698448 -1833.206535612866 0 -1833.206535612866 -1280.9973158812527 0 0 0 0 -1380.1290146472047 -1714.1742669782293 0 -1714.1742669782293 -1558.7712999543655 0 0 0 0 -1957.2017474720706 -1366.1441635277843 0 -1366.1441635277843 -955.01678558001367 0 0 0 0 -1080.9239511877167 -952.80057287878117 0 -952.80057287878117 -631.17089412423957 0 0 0 0 -1825.320388862674 -1002.7100655612085 0 -1002.7100655612085 575.39016295708279 0 0 0 0 -1374.5435849862452 -419.31522785235416 0 -419.31522785235416 -284.41084871032217 0 0 0 0 -1839.7301187501289 -829.40056982550232 0 -829.40056982550232 -417.9999947013348 0 0 0 0 -1928.329590514455 -1043.948663123756 0 -1043.948663123756 -599.5483526665339 0 0 0 0 -2045.6723595314506 -1019.3121607782105 0 -1019.3121607782105 -321.79713945190451 0 0 0 0 -1849.404739100195 -718.95572311216529 0 -718.95572311216529 -259.19954680687079 0 0 0 0 12.968810245229093 -27.54539211083619 0 -27.54539211083619 34.13383574850414 0 0 0 0 -2061.7505427122233 -1101.3307031507211 0 -1101.3307031507211 -492.09360485115394 0 0 0 0 -1851.3753434016617 -953.37806085009652 0 -953.37806085009652 -573.02967478347273 0 0 0 0 -2434.6127110771195 -1437.1406724758399 0 -1437.1406724758399 -769.03019532803592 0 0 0 0 14.450158986415289 -32.381913866899282 0 -32.381913866899282 45.470898720619033 0 0 0 0 -2335.7929068594167 -1567.7723227973402 0 -1567.7723227973402 -996.56022271535767 0 0 0 0 -2123.8285347527981 -1350.9174735438032 0 -1350.9174735438032 -891.42218387204775 0 0 0 0 -2314.7997163647306 -1605.4619236272265 0 -1605.4619236272265 -1163.4676050971029 0 0 0 0 16.579190637316557 -39.40529685290204 0 -39.40529685290204 44.499333404651537 0 0 0 0 -2415.424301493098 -1378.0642153881927 0 -1378.0642153881927 -513.30085430980398 0 0 0 0 -2079.708699788127 -1242.1040260029949 0 -1242.1040260029949 -220.32229199181893 0 0 0 0 -2113.337828466214 -1073.2604413220761 0 -1073.2604413220761 -682.12179180896783 0 0 0 0 -2943.1489796570313 -1606.8689240532694 0 -1606.8689240532694 -634.34103045156417 0 0 0 0 -2351.2023290414363 -755.57923485544961 0 -755.57923485544961 -511.91907678801363 0 0 0 0 -1506.8616535215679 -793.64775605938303 0 -793.64775605938303 -781.01547530297103 0 0 0 0 -1713.1708492620819 -750.79250812198734 0 -750.79250812198734 -693.62512510298257 0 0 0 0 -1662.8518351772509 -2918.7380527863861 0 -2918.7380527863861 -4984.5439171288526 0 0 0 0 -1643.8780076683615 -874.22825965305674 0 -874.22825965305674 -2699.8026804569163 0 0 0 0 -1419.9140348717337 -1569.6032635478768 0 -1569.6032635478768 -4240.1255583435122 0 0 0 0 -2519.9949343432163 -1987.4136555974237 0 -1987.4136555974237 -1180.9786046021181 0 0 0 0 -1691.8248302726588 -287.73431770668503 0 -287.73431770668503 -1437.8102691753593 0 0 0 0 -3195.4809049208307 -3452.5661279124688 0 -3452.5661279124688 -2359.070618606449 0 0 0 0 -2633.9147620996519 -4456.1933428088087 0 -4456.1933428088087 -4233.8379554975872 0 0 0 0 23.136355214648148 -26.087045684644458 0 -26.087045684644458 -15.392586809533441 0 0 0 0 -1329.918810455536 -3072.8466572184916 0 -3072.8466572184916 418.73300567911065 0 0 0 0 -2785.9181833026814 -2399.4730066052543 0 -2399.4730066052543 330.96988290649188 0 0 0 0 -2572.2719504309644 -2298.8784511325211 0 -2298.8784511325211 -747.89671755432209 0 0 0 0 7.908203497705216 -10.201285228629871 0 -10.201285228629871 1.2159137666148467 0 0 0 0 -2806.3692525964143 -1795.2892766272926 0 -1795.2892766272926 -1753.6313041732283 0 0 0 0 -3061.9014891006918 -2311.0480446382153 0 -2311.0480446382153 -1928.1830410058319 0 0 0 0 11.841505367763205 -12.892272558622921 0 -12.892272558622921 -17.252185365339614 0 0 0 0 -2599.7969798426639 -2059.6984799008715 0 -2059.6984799008715 -2242.7040749408698 0 0 0 0 -2699.5502041638101 -1901.5921384780886 0 -1901.5921384780886 -2120.1310772853176 0 0 0 0 -2596.9047912136907 -1990.7713554976642 0 -1990.7713554976642 -1953.8891355117958 0 0 0 0 -2162.1486798634869 -1989.7842882492478 0 -1989.7842882492478 -2194.8979173386542 0 0 0 0 -2070.8264040437498 -1823.5840546232503 0 -1823.5840546232503 -2055.5259730327125 0 0 0 0 -2020.7650143544161 -1852.9623922346509 0 -1852.9623922346509 -2104.976963025023 0 0 0 0 -2083.5491855677392 -1892.1494391693705 0 -1892.1494391693705 -2084.3639377565414 0 0 0 0 -2034.6024107049889 -1794.7948518423873 0 -1794.7948518423873 -1896.4874076791166 0 0 0 0 -2193.9841888973315 -1888.6426534250058 0 -1888.6426534250058 -1819.3580082394255 0 0 0 0 -2183.7559531959414 -1853.8059189323103 0 -1853.8059189323103 -1770.5604603860702 0 0 0 0 -2309.4217084229749 -1967.7015804377879 0 -1967.7015804377879 -1851.8306223478285 0 0 0 0 -2298.9530162324372 -1948.7762335182924 0 -1948.7762335182924 -2025.6782527994073 0 0 0 0 -2624.8764146087415 -2147.7064750031241 0 -2147.7064750031241 -1743.759860982158 0 0 0 0 -2336.4447703782644 -1534.2066322238752 0 -1534.2066322238752 -1050.4892085929896 0 0 0 0 -2455.1863255455537 -1848.2103770596441 0 -1848.2103770596441 -1235.1380946668796 0 0 0 0 -2370.3274454402272 -1963.9355869381434 0 -1963.9355869381434 -1659.3899175865517 0 0 0 0 -2458.7052618061134 -1647.7716716793075 0 -1647.7716716793075 -878.93571681119283 0 0 0 0 -2265.2840442290762 -1577.2399880826197 0 -1577.2399880826197 -1188.6349117864302 0 0 0 0 -2354.7429525897023 -1727.4089774374715 0 -1727.4089774374715 -1378.6050550444925 0 0 0 0 -2327.205857023655 -1842.7415834195563 0 -1842.7415834195563 -1388.9465981691492 0 0 0 0 -2142.6068342879589 -1761.7789092250505 0 -1761.7789092250505 -1699.0514592654945 0 0 0 0 -2141.0042129308022 -1755.5593474091293 0 -1755.5593474091293 -1719.0532227078511 0 0 0 0 -2098.2846851884096 -1600.180343669439 0 -1600.180343669439 -1510.9009163688606 0 0 0 0 -2209.9792720576952 -1621.232711338238 0 -1621.232711338238 -1502.1146957457095 0 0 0 0 -2139.0409724096971 -1422.8018158443811 0 -1422.8018158443811 -1205.476953135978 0 0 0 0 -2073.6438144743006 -1525.3671461706708 0 -1525.3671461706708 -1425.8141372606624 0 0 0 0 -1998.912340256662 -1548.0170708006544 0 -1548.0170708006544 -1809.8262065488234 0 0 0 0 -1999.8761699384631 -1551.9008406854409 0 -1551.9008406854409 -1796.3552651184873 0 0 0 0 -1914.6178995364025 -1605.8483048287453 0 -1605.8483048287453 -2072.2089725015539 0 0 0 0 -1939.0828674641962 -1663.2615054713388 0 -1663.2615054713388 -1845.9246932754868 0 0 0 0 -1947.677723809742 -1689.1217933933731 0 -1689.1217933933731 -1886.2966066968656 0 0 0 0 -2005.3624314737099 -1804.4257933233421 0 -1804.4257933233421 -2003.5585504704941 0 0 0 0 -1882.988130234502 -1758.5446702704212 0 -1758.5446702704212 -2040.3139289064056 0 0 0 0 -1860.3751406204974 -1760.1851148617643 0 -1760.1851148617643 -2117.5931207997783 0 0 0 0 -1833.0923859373142 -1718.0804535922725 0 -1718.0804535922725 -2146.1580347173149 0 0 0 0 -1787.4663606612303 -1733.2460257899074 0 -1733.2460257899074 -2141.7566108584469 0 0 0 0 -1817.3790276992077 -1643.8445390065754 0 -1643.8445390065754 -2061.3297650304885 0 0 0 0 -1786.8852048081026 -1724.0790573964987 0 -1724.0790573964987 -2171.9119266452326 0 0 0 0 -1876.6410506353859 -1742.4182874027756 0 -1742.4182874027756 -2049.7990531764663 0 0 0 0 -1812.5440319360641 -1777.2784997685376 0 -1777.2784997685376 -2111.8292409814385 0 0 0 0 -1834.0370503681916 -1778.5139756844073 0 -1778.5139756844073 -2020.0092215539044 0 0 0 0 -1849.142859126121 -1740.2548128953404 0 -1740.2548128953404 -1887.7936736288248 0 0 0 0 -1863.8715676814609 -1578.3127253124549 0 -1578.3127253124549 -1572.3869227262949 0 0 0 0 -1928.3878685052769 -1670.7559695506534 0 -1670.7559695506534 -1605.8612045509653 0 0 0 0 -1926.7407822917739 -1605.9661989591004 0 -1605.9661989591004 -1732.1845086862013 0 0 0 0 -1911.4278897358854 -1665.3621999638717 0 -1665.3621999638717 -1998.244136368201 0 0 0 0 -2020.6354377588577 -1606.4814395802605 0 -1606.4814395802605 -1751.2653473833416 0 0 0 0 -1942.410522422173 -1873.4128120042396 0 -1873.4128120042396 -2402.1629090081042 0 0 0 0 -2019.3019238051493 -1695.1889268958475 0 -1695.1889268958475 -1948.5938444045023 0 0 0 0 -1864.5761220638924 -1752.7234324490637 0 -1752.7234324490637 -2182.2887332860846 0 0 0 0 -1902.0144330106259 -2504.9428255771372 0 -2504.9428255771372 -2398.358816449072 0 0 0 0 -3866.9088675856474 -3126.6429368744994 0 -3126.6429368744994 -2371.4542595958919 0 0 0 0 -2544.6636819933483 -2068.3958521286186 0 -2068.3958521286186 -2172.5307013048659 0 0 0 0 -1840.4705792135719 -1574.6069724218032 0 -1574.6069724218032 -2059.4256604574548 0 0 0 0 -2418.8674512714788 -1260.9672882034647 0 -1260.9672882034647 -2403.4594929090381 0 0 0 0 -2945.9064383804798 -1229.2445671510541 0 -1229.2445671510541 -2306.5453024881645 0 0 0 0 5.4252705239181864 0.9514309317087779 0 0.9514309317087779 -7.7916607048587991 0 0 0 0 -2409.0163100116915 -1927.6957280535207 0 -1927.6957280535207 -2108.122766867622 0 0 0 0 -2851.3216520691058 -2717.3288235079381 0 -2717.3288235079381 -1570.1091578703199 0 0 0 0 -2979.7457718255173 -1961.4678990037719 0 -1961.4678990037719 -2486.7229297778831 0 0 0 0 -550.34425608492165 12.229971669781662 0 12.229971669781662 -2149.4018501547835 0 0 0 0 -1.4089138973483273 -3.423887374331656 0 -3.423887374331656 -3.6605515251819725 0 0 0 0 -915.63127109059496 -1997.0587250911503 0 -1997.0587250911503 -1406.195955949137 0 0 0 0 -7532.0903335533731 -57.604604467280296 0 -57.604604467280296 -2036.6253862754384 0 0 0 0 -6630.2481607803638 -1808.5685460181558 0 -1808.5685460181558 -1181.028056064446 0 0 0 0 2332.1735503426899 -1944.1058612500601 0 -1944.1058612500601 -2307.7656417467297 0 0 0 0 3.561330297201859 -14.396626830659102 0 -14.396626830659102 0.33609010372879311 0 0 0 0 -4611.5485653662909 -260.12111511783587 0 -260.12111511783587 -3137.4478687496448 0 0 0 0 950.42438110041076 -728.73492771072051 0 -728.73492771072051 -3090.1727164965996 0 0 0 0 790.0341044383531 -1424.9945307632443 0 -1424.9945307632443 -1550.73253014074 0 0 0 0 8.3729141899675597 -1452.4324385401924 0 -1452.4324385401924 -1074.7962885316665 0 0 0 0 -303.51923727194662 -1116.0650115402059 0 -1116.0650115402059 -1253.2477908222354 0 0 0 0 -287.22125592215161 -1533.4747037825582 0 -1533.4747037825582 -997.05139955329651 0 0 0 0 -509.00238110051941 -1498.0847033949685 0 -1498.0847033949685 -833.1371716621361 0 0 0 0 -1320.7720593779377 -1269.2114262692412 0 -1269.2114262692412 -897.66531558246425 0 0 0 0 -707.28210042488718 -2399.8177584434488 0 -2399.8177584434488 -928.36960289935814 0 0 0 0 460.29161022881817 -2609.3560117976467 0 -2609.3560117976467 -953.71825567456835 0 0 0 0 -2218.3313435211603 -1873.9447248968791 0 -1873.9447248968791 -609.39948227195418 0 0 0 0 -2063.6148883397254 -1331.3818479227411 0 -1331.3818479227411 -2182.4394068426482 0 0 0 0 -2835.9026001623388 -956.36079423180308 0 -956.36079423180308 -1213.49031863657 0 0 0 0 -1959.4235609071184 -2889.6523203379693 0 -2889.6523203379693 -1730.4019986697967 0 0 0 0 -2183.7822214423504 -1319.8534153809596 0 -1319.8534153809596 -1383.4015729176099 0 0 0 0 -2078.8111010287248 -1450.3022906163096 0 -1450.3022906163096 -1541.231372373506 0 0 0 0 -2106.1466391054419 -1151.2779576993416 0 -1151.2779576993416 -1832.7740725361364 0 0 0 0 -2090.9744660607539 -1361.5974212857254 0 -1361.5974212857254 -1540.6360012579826 0 0 0 0 -1906.6096321747464 -1496.9551021318621 0 -1496.9551021318621 -1842.8918084935212 0 0 0 0 -1890.2355284220685 -1430.8922691056723 0 -1430.8922691056723 -2149.1035371479811 0 0 0 0 -1835.3560072834371 -1572.5654689091753 0 -1572.5654689091753 -2138.4950324556494 0 0 0 0 -1923.7721659386298 -1472.2413513169849 0 -1472.2413513169849 -2119.7030368002015 0 0 0 0 -1982.9197482209711 -1393.4723179070861 0 -1393.4723179070861 -2189.2248655214353 0 0 0 0 -1985.0550303451746 -1348.8458559850042 0 -1348.8458559850042 -2602.0099811254477 0 0 0 0 -1919.46385600348 -1530.3053744368517 0 -1530.3053744368517 -2627.641667130898 0 0 0 0 -1846.7285531770904 -1511.2617512809666 0 -1511.2617512809666 -2436.1872826160252 0 0 0 0 -1865.5645408145938 -1666.7589889313203 0 -1666.7589889313203 -2340.6255565241154 0 0 0 0 -1790.0102442152274 -1662.7155772645419 0 -1662.7155772645419 -2385.4100110776926 0 0 0 0 -1767.6314931143133 -1732.7012465095031 0 -1732.7012465095031 -2215.3679770092822 0 0 0 0 -1819.6261384614045 -1618.7978522451958 0 -1618.7978522451958 -2257.7428526027652 0 0 0 0 -5267.6085767799523 -2526.5724390725809 0 -2526.5724390725809 -1642.0444362593189 0 0 0 0 -2690.1389721572777 -1636.0270671071266 0 -1636.0270671071266 -2745.3517346490116 0 0 0 0 -2618.3801971367939 -1065.9162360698028 0 -1065.9162360698028 -2553.5843277339009 0 0 0 0 -2380.0413474130619 -1376.1840836829797 0 -1376.1840836829797 -2150.8488744934366 0 0 0 0 -2991.9702935068053 -1089.2839890863688 0 -1089.2839890863688 -2935.4074977356004 0 0 0 0 -2179.2029942420995 -1586.3960019058345 0 -1586.3960019058345 -2781.7163701242825 0 0 0 0 -2178.5070005262096 -1533.9700707419979 0 -1533.9700707419979 -2448.2798890776612 0 0 0 0 -4416.8432092220464 -372.73009216187347 0 -372.73009216187347 -3280.59958875968 0 0 0 0 -3777.6185541467712 -1738.7883385871683 0 -1738.7883385871683 -2417.181032284454 0 0 0 0 -3887.2143388713012 -1184.2927318400616 0 -1184.2927318400616 -2695.202884100494 0 0 0 0 -2292.7918178949421 -1518.45884261935 0 -1518.45884261935 -3015.88839378173 0 0 0 0 -2689.6909487240482 -1061.0865527281712 0 -1061.0865527281712 -3674.6709320093214 0 0 0 0 -3220.3910637764493 -670.04006135973759 0 -670.04006135973759 -3525.3653417051246 0 0 0 0 -2376.8240479938686 -2343.5582681340748 0 -2343.5582681340748 -2300.0568705127807 0 0 0 0 -2816.7452456722822 -1540.116886265243 0 -1540.116886265243 -2566.9488647677063 0 0 0 0 -2213.1382077029411 -1727.417600992092 0 -1727.417600992092 -2209.8585309717746 0 0 0 0 -2199.299181548151 -1850.0454631360844 0 -1850.0454631360844 -2915.1594871307211 0 0 0 0 -2449.4005533956952 -1786.8195668337867 0 -1786.8195668337867 -1298.0750423315621 0 0 0 0 -1834.9382628037129 -1807.4696698707994 0 -1807.4696698707994 -2207.9108549739703 0 0 0 0 -1783.7264231473382 -1744.512922991802 0 -1744.512922991802 -2149.3931126728203 0 0 0 0 -1769.6610267596407 -1858.5017938136225 0 -1858.5017938136225 -2120.9102037478478 0 0 0 0 -1892.9084200793877 -1840.9253389199439 0 -1840.9253389199439 -2219.1619900276928 0 0 0 0 -1868.5075040539959 -1850.0414540959173 0 -1850.0414540959173 -2548.7985534921718 0 0 0 0 -1899.3632639755197 -2006.1126172967688 0 -2006.1126172967688 -1854.9512258318864 0 0 0 0 -1862.1996126660961 -1693.2554695069412 0 -1693.2554695069412 -1584.808930957719 0 0 0 0 -1868.4339835894498 -1871.0185721972448 0 -1871.0185721972448 -1739.8785200038983 0 0 0 0 -1873.8047191765218 -1768.63049256472 0 -1768.63049256472 -1513.8538706241816 0 0 0 0 -1967.1105343379459 -1576.5188632643913 0 -1576.5188632643913 -965.52895342776901 0 0 0 0 -2348.740485756538 -772.51757684798031 0 -772.51757684798031 295.88004284555791 0 0 0 0 -1824.1241960037005 -1685.4914147871968 0 -1685.4914147871968 -1385.5036574979076 0 0 0 0 -2007.6289280772216 -1420.5805510084592 0 -1420.5805510084592 -594.15735872680671 0 0 0 0 -12.641223690254265 -42.2181864134036 0 -42.2181864134036 -12.146374153300712 0 0 0 0 1.3862657089261958 -45.186231334039846 0 -45.186231334039846 1.0558715266853085 0 0 0 0 -192.70972875355801 -351.93595234766326 0 -351.93595234766326 -648.3477397006609 0 0 0 0 -22.549646199389827 -100.52311459671546 0 -100.52311459671546 -62.106271468961495 0 0 0 0 -4.4978854467016554 -38.296757625327729 0 -38.296757625327729 21.628540040358558 0 0 0 0 -2350.5157380104138 -1643.6138351086811 0 -1643.6138351086811 -1355.4235450577762 0 0 0 0 32.214412764570511 -72.322541592730715 0 -72.322541592730715 8.0263977647628053 0 0 0 0 734.42582529359788 194.54037130352663 0 194.54037130352663 -3567.1766636699613 0 0 0 0 29.259346203227324 -24.438033065715643 0 -24.438033065715643 -20.478977963366916 0 0 0 0 -2707.4413718687138 -2089.5149167903146 0 -2089.5149167903146 -276.9877443407895 0 0 0 0 -3259.4472891222686 1399.0548049811914 0 1399.0548049811914 -9109.6802668389864 0 0 0 0 11.917920544906394 -12.291501978065256 0 -12.291501978065256 -4.8996499242862939 0 0 0 0 -94.250868565630299 -438.76312975791734 0 -438.76312975791734 -692.38613099430222 0 0 0 0 48.619491262928932 -392.48562976257381 0 -392.48562976257381 -899.50153716943532 0 0 0 0 10.959761363992584 -142.61616177010728 0 -142.61616177010728 -2494.1700967236975 0 0 0 0 23.880884441824719 -24.068193960529186 0 -24.068193960529186 -12.334057253869901 0 0 0 0 29.028565645119244 -18.234095494260885 0 -18.234095494260885 5.2385927124475273 0 0 0 0 -13.886134959662741 -95.697865598955104 0 -95.697865598955104 -51.379690675217716 0 0 0 0 12.525018519132573 -46.786532721827825 0 -46.786532721827825 30.623878042155411 0 0 0 0 2.7424258413184361 -37.02956964715213 0 -37.02956964715213 72.328328678078833 0 0 0 0 -10.861832893632709 -89.225170548190817 0 -89.225170548190817 0.51405290171533125 0 0 0 0 -15.426136550780939 -567.25864364096924 0 -567.25864364096924 -714.60591007237599 0 0 0 0 -330.4192721676809 -58.848956659305259 0 -58.848956659305259 227.80189150106344 0 0 0 0 5.147550768179185 -82.682240200936562 0 -82.682240200936562 20.901403452647273 0 0 0 0 164.15612089686692 -11.732686447507149 0 -11.732686447507149 37.371920411904284 0 0 0 0 17.121583262224433 -47.738006679700476 0 -47.738006679700476 25.795954618518849 0 0 0 0 -31.932508625580084 -19.454656312480779 0 -19.454656312480779 20.42934062626 0 0 0 0 -1064.8991290722188 -658.52931316514878 0 -658.52931316514878 -865.28283183508302 0 0 0 0 -1250.3317287422178 -439.72995267996339 0 -439.72995267996339 -101.44949731263841 0 0 0 0 -1356.0519708340435 -1197.6132055194012 0 -1197.6132055194012 -1230.6456466776435 0 0 0 0 -1728.8085771067854 -1311.8237533686588 0 -1311.8237533686588 -1143.8547857330632 0 0 0 0 -13.472861164198719 -6.379867179472086 0 -6.379867179472086 12.624535202856549 0 0 0 0 -309.19232438354084 80.016202461312787 0 80.016202461312787 266.60262831384898 0 0 0 0 -1533.0523019787797 -882.04749651623206 0 -882.04749651623206 -1076.6259196178225 0 0 0 0 -190.56162676189945 56.226451210864298 0 56.226451210864298 -158.02389761748782 0 0 0 0 -382.81909035765057 68.583617842187778 0 68.583617842187778 553.11685504399065 0 0 0 0 -239.48724185620085 185.01229976878312 0 185.01229976878312 -28.844709492521361 0 0 0 0 -392.68751703351154 -182.47618260648596 0 -182.47618260648596 308.74073356504596 0 0 0 0 -27.467595220559815 -609.20463290733142 0 -609.20463290733142 848.39978524509206 0 0 0 0 -154.20001118034634 -88.203937212778328 0 -88.203937212778328 52.092467926049721 0 0 0 0 -1390.8877950909809 -345.64416805395922 0 -345.64416805395922 1367.3658048845682 0 0 0 0 -342.12867163748888 60.410717750612093 0 60.410717750612093 255.22166727489821 0 0 0 0 -4.3053582597634374 -1.5523922370491903 0 -1.5523922370491903 1.3561660954654258 0 0 0 0 -1627.6495862349984 203.90307285336985 0 203.90307285336985 601.94702897673415 0 0 0 0 782.97328014957748 -744.90001276939802 0 -744.90001276939802 114.53703863926785 0 0 0 0 524.31576051322918 -200.49440160384802 0 -200.49440160384802 -72.246776357853378 0 0 0 0 -71.226180454861606 -414.80004418689714 0 -414.80004418689714 448.0649331079112 0 0 0 0 -144.68707778839598 -161.41249581872216 0 -161.41249581872216 416.81852937856092 0 0 0 0 -291.7085918398443 -271.34953196841525 0 -271.34953196841525 247.7337142254255 0 0 0 0 15.419986723681362 -88.437273275459745 0 -88.437273275459745 66.268331422501262 0 0 0 0 -71.976851216087141 -186.49130887946285 0 -186.49130887946285 -203.03240829844435 0 0 0 0 -21.775823188015075 -2.7010774344910189 0 -2.7010774344910189 10.457675852472818 0 0 0 0 -2492.9962903232718 -2363.3297637749984 0 -2363.3297637749984 -1682.8248744617376 0 0 0 0 -2434.5851298598791 -1896.3896298771524 0 -1896.3896298771524 181.25359828727778 0 0 0 0 -2337.785727531962 -1007.9480475718865 0 -1007.9480475718865 -824.78004777443857 0 0 0 0 -1608.3581638834985 -2133.0909087919081 0 -2133.0909087919081 -3012.0581918359385 0 0 0 0 -508.26814736011875 -332.50073237102697 0 -332.50073237102697 -1166.8244069952507 0 0 0 0 -1697.8331910454253 -1430.9147389565778 0 -1430.9147389565778 -651.88261975201749 0 0 0 0 -3.5585834027007408 -77.145506277483932 0 -77.145506277483932 42.779168930072458 0 0 0 0 395.21404257242222 -209.02982335618475 0 -209.02982335618475 -696.50486532178911 0 0 0 0 -603.40045400149393 -4.0135449214831169 0 -4.0135449214831169 340.27425616536493 0 0 0 0 -552.02361948174075 -440.62521586108596 0 -440.62521586108596 226.20577372671323 0 0 0 0 -2009.2881308890064 -1982.762425868088 0 -1982.762425868088 -999.33908213389986 0 0 0 0 -1974.6250430973901 -1758.116661855905 0 -1758.116661855905 -1503.458745547905 0 0 0 0 -1900.3281479864672 -1664.6364450281962 0 -1664.6364450281962 -2267.4179557056559 0 0 0 0 -2378.4699092618248 -1912.7084356243795 0 -1912.7084356243795 -1545.1288931610598 0 0 0 0 -2093.3506064612593 -1784.3586935301028 0 -1784.3586935301028 -1664.2746492755032 0 0 0 0 -1580.1491853888874 -1835.2286150975924 0 -1835.2286150975924 -1069.0276809663083 0 0 0 0 -1898.3466853864793 -1444.6906761315986 0 -1444.6906761315986 -1384.2783377241067 0 0 0 0 -1971.0999106645468 -1752.1930666475964 0 -1752.1930666475964 -1431.8194851496019 0 0 0 0 -2036.2502746699174 -1329.4893237196811 0 -1329.4893237196811 -1313.9441401724644 0 0 0 0 -1967.2348036662424 -1242.5186191327321 0 -1242.5186191327321 -1492.6041479738342 0 0 0 0 -1949.5696283587604 -1472.3531356367421 0 -1472.3531356367421 -1789.4763878501462 0 0 0 0 -1721.770515047785 -1331.5285732163102 0 -1331.5285732163102 -1433.5020537270502 0 0 0 0 -1962.183382459647 -1353.5810662729302 0 -1353.5810662729302 -1337.2460193716397 0 0 0 0 -2038.4001466445466 -1356.6468556384432 0 -1356.6468556384432 -1396.8507653757406 0 0 0 0 -1592.7004650350427 -1182.1579804623871 0 -1182.1579804623871 -1820.1913330679818 0 0 0 0 -8.0754409370684925 -4.1532953786884264 0 -4.1532953786884264 6.5460518724760135 0 0 0 0 -1881.7132822287385 -1892.3318665500447 0 -1892.3318665500447 -2222.8282616616943 0 0 0 0 -734.18574030238597 751.4765753345564 0 751.4765753345564 2050.8379190128398 0 0 0 0 -812.80801928028814 -437.71554635911525 0 -437.71554635911525 1662.7930773808694 0 0 0 0 -817.46591945620457 -162.18198477272381 0 -162.18198477272381 175.46829029965011 0 0 0 0 -736.59706296640798 868.6425638101573 0 868.6425638101573 2524.3618887001994 0 0 0 0 -1484.928355542419 -947.62768330199106 0 -947.62768330199106 1793.8618842371616 0 0 0 0 -617.19648284379218 -761.7596644780715 0 -761.7596644780715 -142.49425932133454 0 0 0 0 -1860.8245303091462 -1247.1552623713505 0 -1247.1552623713505 -238.91115005716711 0 0 0 0 -1562.4019041399042 -1636.7340000442873 0 -1636.7340000442873 73.051564509121818 0 0 0 0 -1077.3934208712453 -678.03192593144195 0 -678.03192593144195 355.03090576697286 0 0 0 0 -1684.4756368362432 -1482.0624235350042 0 -1482.0624235350042 -296.13396912597818 0 0 0 0 -1813.8195017898033 -1374.7855365046526 0 -1374.7855365046526 -170.67358120583231 0 0 0 0 -1653.2490688874313 -1670.9703712453775 0 -1670.9703712453775 -1006.3015593305722 0 0 0 0 -684.82605053400039 -389.33788548811208 0 -389.33788548811208 -990.42256274107058 0 0 0 0 -783.43445834438171 -448.44208087123479 0 -448.44208087123479 -625.88950316667615 0 0 0 0 -925.33026596539275 -415.5462616958539 0 -415.5462616958539 -133.44844485738577 0 0 0 0 -181.52454375851084 -773.80922710300001 0 -773.80922710300001 95.17722593920189 0 0 0 0 -1096.200406379663 -397.09451619438187 0 -397.09451619438187 468.18123162849952 0 0 0 0 -22.476899928373825 -15.216601232586697 0 -15.216601232586697 25.601510934135106 0 0 0 0 -789.2982020691561 -1191.0419224634679 0 -1191.0419224634679 -1376.8095881132613 0 0 0 0 -988.14029359573033 -348.02585886462475 0 -348.02585886462475 -101.82541822841085 0 0 0 0 -1096.82320594263 -996.85301993829489 0 -996.85301993829489 -414.26962234351959 0 0 0 0 17.721537641104078 -223.91906197495882 0 -223.91906197495882 -1477.8874709808733 0 0 0 0 -6.9320077496456634 -6.0384876099669356 0 -6.0384876099669356 5.9345065390249232 0 0 0 0 -596.25396619684761 -2033.7979825302027 0 -2033.7979825302027 -2330.866622073685 0 0 0 0 -1519.4024626005303 -1278.5780733547044 0 -1278.5780733547044 101.6064085660837 0 0 0 0 -707.37488131978171 -481.08002713932365 0 -481.08002713932365 303.41444614730881 0 0 0 0 -8.8728384442030688 -5.4815133505529445 0 -5.4815133505529445 13.650412703300105 0 0 0 0 -940.62696707818031 509.1431130289302 0 509.1431130289302 949.27044778902928 0 0 0 0 -209.69786379890866 -1282.869187569675 0 -1282.869187569675 -1918.9400559829392 0 0 0 0 -862.6365644618636 -1131.3487938850085 0 -1131.3487938850085 -820.29156169616181 0 0 0 0 -567.09296512690344 -369.8036977523243 0 -369.8036977523243 697.73801458334128 0 0 0 0 -581.44330094502948 64.361571464009103 0 64.361571464009103 219.56042960893683 0 0 0 0 -319.84013379448152 185.97326413275005 0 185.97326413275005 -337.59992286037777 0 0 0 0 66.079141383997637 -129.32659526183667 0 -129.32659526183667 -48.484959984150848 0 0 0 0 -420.4016943737588 208.5669811082862 0 208.5669811082862 -1157.5303930100272 0 0 0 0 -592.12476433150732 -197.51171117611193 0 -197.51171117611193 -283.23806041405624 0 0 0 0 -648.08951206945858 -962.17075066859161 0 -962.17075066859161 -387.01706493888196 0 0 0 0 68.107407043204091 -131.25844367454857 0 -131.25844367454857 -66.686631341929058 0 0 0 0 -38.160307801474119 -118.31326586962678 0 -118.31326586962678 -1232.6363390610059 0 0 0 0 -669.78136887901928 -600.29600443888194 0 -600.29600443888194 -778.98516611462401 0 0 0 0 -3.0393565867616701 -17.002188946066866 0 -17.002188946066866 -43.548360483320529 0 0 0 0 -1294.4138877161095 -518.55122133513942 0 -518.55122133513942 -566.95007609756431 0 0 0 0 -981.83801582934393 245.64055544327493 0 245.64055544327493 -476.89339643337735 0 0 0 0 -385.34154437101097 117.03878550165246 0 117.03878550165246 -528.08044022724425 0 0 0 0 -645.62651535737677 58.774930890360338 0 58.774930890360338 -180.55819609345053 0 0 0 0 -408.70627858751686 -246.23713868439154 0 -246.23713868439154 -297.90904359007072 0 0 0 0 -583.27065945739741 -85.773557908898511 0 -85.773557908898511 -348.30287017873343 0 0 0 0 677.59533084671421 178.5770303751865 0 178.5770303751865 -264.09067311875697 0 0 0 0 -503.20865542082174 -909.74992321347622 0 -909.74992321347622 -723.29267607725342 0 0 0 0 442.58571596645925 -473.91044189974127 0 -473.91044189974127 -623.09259074352303 0 0 0 0 66.848451918747742 -138.32236099065631 0 -138.32236099065631 -1280.4658821268899 0 0 0 0 -820.44075484135828 -608.73509209628901 0 -608.73509209628901 -450.83920562730054 0 0 0 0 -577.34600019420031 -931.21689292413066 0 -931.21689292413066 -1293.6299298679514 0 0 0 0 2.2025921644734012 -14.643891001351772 0 -14.643891001351772 -67.497767957689106 0 0 0 0 -934.09026201875531 -662.7069489698988 0 -662.7069489698988 -1837.8624908318052 0 0 0 0 71.740979668866117 -138.03957216329198 0 -138.03957216329198 -72.12894299077027 0 0 0 0 -1934.9810346523711 -2721.1710232258101 0 -2721.1710232258101 272.99586830021872 0 0 0 0 -3937.3865901521785 -1337.6469200132201 0 -1337.6469200132201 -673.55168859621881 0 0 0 0 -3870.5241097433391 -2127.017561030887 0 -2127.017561030887 1793.090845132544 0 0 0 0 -2336.4750482503459 -4249.7675706922846 0 -4249.7675706922846 4895.197656996399 0 0 0 0 -2820.2115675632012 -2686.7288127534548 0 -2686.7288127534548 156.7100800013759 0 0 0 0 -1276.3660222487524 -1361.8789624755218 0 -1361.8789624755218 1673.3418079297442 0 0 0 0 -3017.6953496382594 -3377.8248898767288 0 -3377.8248898767288 -1951.2325625964222 0 0 0 0 -2513.7881851732564 -2643.7335418889188 0 -2643.7335418889188 -1412.7862672999145 0 0 0 0 -5324.1987407091874 -1550.7019157907871 0 -1550.7019157907871 -333.36605820541808 0 0 0 0 14.278313280873789 -22.781068022704041 0 -22.781068022704041 0.53096572815404386 0 0 0 0 136.46037463789253 -182.493797886018 0 -182.493797886018 19.613302850993932 0 0 0 0 25.481131113054289 -142.92661050823881 0 -142.92661050823881 40.129620968720701 0 0 0 0 -724.02676648693159 -279.49876668187972 0 -279.49876668187972 -191.99427370340345 0 0 0 0 -239.33753149677068 -358.2350398594217 0 -358.2350398594217 -502.05044222921424 0 0 0 0 -819.38949146867526 -110.23638761937764 0 -110.23638761937764 42.015424906156113 0 0 0 0 -655.21599369597971 -301.46861570212786 0 -301.46861570212786 247.86291768950105 0 0 0 0 -153.67174716061345 -571.82971906987314 0 -571.82971906987314 -175.05913151664572 0 0 0 0 34.424813278074765 -89.670834693774012 0 -89.670834693774012 103.09969482867177 0 0 0 0 7.365942481400154 -16.241493892238026 0 -16.241493892238026 9.3695141331855325 0 0 0 0 -3.1452167905008537 -89.156544228127814 0 -89.156544228127814 -18.619797196869513 0 0 0 0 -6449.5927393428938 732.85072903299886 0 732.85072903299886 1199.402888747969 0 0 0 0 -2.3554854580396594 -72.725484601097577 0 -72.725484601097577 48.630397207970155 0 0 0 0 27.806671554212784 -77.621261676368547 0 -77.621261676368547 82.501954103970888 0 0 0 0 399.91022810807772 42.679382591028116 0 42.679382591028116 -40.421306252274007 0 0 0 0 -21.387360097724013 -10.582152282702737 0 -10.582152282702737 -469.50349692272721 0 0 0 0 -37.195637851556626 -48.450712394393001 0 -48.450712394393001 8.4692836758636219 0 0 0 0 25.13996218420607 -51.810164254154998 0 -51.810164254154998 -40.937286953104604 0 0 0 0 -2389.4224419508246 -1225.4512595669803 0 -1225.4512595669803 62.748123467958067 0 0 0 0 83.302286707189779 -53.257396674094913 0 -53.257396674094913 -378.76708840743743 0 0 0 0 53.867406972000595 -107.74268441236131 0 -107.74268441236131 -20.668151178489502 0 0 0 0 -4741.169085055968 -2648.3201622925772 0 -2648.3201622925772 489.92105703552193 0 0 0 0 -2088.8783022766147 -945.92236002323625 0 -945.92236002323625 -1837.6947124580111 0 0 0 0 -687.80589608702576 -2968.3080379599946 0 -2968.3080379599946 426.2574704571532 0 0 0 0 2.7116352947142559 -25.790783645974283 0 -25.790783645974283 -11.301077180106924 0 0 0 0 -2100.1079978195921 -3235.1923030843986 0 -3235.1923030843986 -1937.1583005721241 0 0 0 0 -3674.1715853476744 1601.1087360866015 0 1601.1087360866015 -1603.0200051157333 0 0 0 0 -4733.1018342053794 -2080.9736382048195 0 -2080.9736382048195 -1791.2229883953248 0 0 0 0 -12482.667626785198 1666.9741729877314 0 1666.9741729877314 -4249.5388829658477 0 0 0 0 -4351.0441030904767 -2233.6759335135075 0 -2233.6759335135075 -8547.1333048918277 0 0 0 0 1.3372621044332078 -7.3903141822754606 0 -7.3903141822754606 4.4009978706492863 0 0 0 0 -14.085147880014731 -17.285042201634674 0 -17.285042201634674 8.9274923530471089 0 0 0 0 -5426.5204064183563 -893.63610010756292 0 -893.63610010756292 3512.7138890572132 0 0 0 0 -4365.883725454667 -771.72571342938113 0 -771.72571342938113 901.69521958777841 0 0 0 0 -2152.4016061504772 -1168.3529581796504 0 -1168.3529581796504 321.93428531110612 0 0 0 0 -2726.079181926747 -1168.3879619512109 0 -1168.3879619512109 1819.3861197212227 0 0 0 0 -3021.8479685068123 -1897.3433243754648 0 -1897.3433243754648 172.94376673160195 0 0 0 0 -2569.1404353580801 -364.9194300106185 0 -364.9194300106185 -450.65203397672633 0 0 0 0 -1829.7607131615878 -30.35497156039969 0 -30.35497156039969 -551.82082267909448 0 0 0 0 -2712.24295562318 -182.84591805377397 0 -182.84591805377397 266.49477672917806 0 0 0 0 -1339.2318561883549 -1099.8184951504063 0 -1099.8184951504063 62.702902857147819 0 0 0 0 -1499.7285319956572 -754.5870521489669 0 -754.5870521489669 325.74606980214298 0 0 0 0 -1332.0782808867498 -599.37209236406909 0 -599.37209236406909 868.16061856280544 0 0 0 0 -699.41948617820162 -1229.8758861373117 0 -1229.8758861373117 455.25185363045568 0 0 0 0 -392.29738862629893 -1674.0853516375873 0 -1674.0853516375873 1219.0788324852278 0 0 0 0 -1301.8807722346319 -1589.517416331506 0 -1589.517416331506 3129.1913094886681 0 0 0 0 -1341.3134952982473 -1041.8467595078348 0 -1041.8467595078348 2324.6636295969447 0 0 0 0 -976.20088152422977 -1083.6201762704159 0 -1083.6201762704159 242.70759266414143 0 0 0 0 -5473.5675007733589 -151.83733219578858 0 -151.83733219578858 1909.2742741231277 0 0 0 0 -0.89189246583570725 -4.4785379858433032 0 -4.4785379858433032 23.213157518852174 0 0 0 0 4754.2392713361951 -4540.4240083309523 0 -4540.4240083309523 1936.8262117421982 0 0 0 0 -1337.1680864894879 -2759.070593643668 0 -2759.070593643668 3410.3181440776079 0 0 0 0 -849.88016772235278 -2609.0363922751239 0 -2609.0363922751239 2453.7763599685636 0 0 0 0 -2206.1025153623195 -1107.1168829338646 0 -1107.1168829338646 2098.6541519377047 0 0 0 0 -313.62295803197048 -2244.7644296278586 0 -2244.7644296278586 2364.8153237204801 0 0 0 0 -458.00043728463424 -2601.6870250407273 0 -2601.6870250407273 4310.1969990367907 0 0 0 0 233.03951878907901 -3282.6087477664842 0 -3282.6087477664842 2637.1274076881168 0 0 0 0 1050.4851377541472 -2073.5603018287738 0 -2073.5603018287738 1657.2151017863416 0 0 0 0 253.09679490195413 -1967.6066028467621 0 -1967.6066028467621 1119.0840328166551 0 0 0 0 -1178.6902356755909 -1949.7201889442726 0 -1949.7201889442726 1893.6121755394006 0 0 0 0 -288.28130991194121 -2404.5206499078904 0 -2404.5206499078904 1583.3328935775917 0 0 0 0 27.774178733447386 -61.884991360553002 0 -61.884991360553002 -25.933209662742204 0 0 0 0 -136.4069218327586 -2002.4643305457996 0 -2002.4643305457996 2614.7454690201685 0 0 0 0 -335.08038511809718 -589.84912019912986 0 -589.84912019912986 4681.9069142265816 0 0 0 0 475.53085718565126 -1482.8421490534292 0 -1482.8421490534292 1908.7827916612951 0 0 0 0 -909.53811341580877 -34.551048905166681 0 -34.551048905166681 -4343.3346027396401 0 0 0 0 4.6278702896752293 -3.0274721826214659 0 -3.0274721826214659 -7.3650844954519883 0 0 0 0 -329.60796633577411 -937.01998609665952 0 -937.01998609665952 405.26555053993798 0 0 0 0 -873.25203467247775 318.35823976705615 0 318.35823976705615 -2821.5237493605528 0 0 0 0 -1539.9850102628625 133.04128440679779 0 133.04128440679779 -1347.4012935519786 0 0 0 0 13.897146395575803 -11.697368952352377 0 -11.697368952352377 7.3775166021523901 0 0 0 0 -683.56024172651814 -486.21814000614177 0 -486.21814000614177 -158.62746497319404 0 0 0 0 -1188.8347852283914 47.290343809174374 0 47.290343809174374 -1326.5230538997475 0 0 0 0 -3440.7360510909493 -2485.7494878757775 0 -2485.7494878757775 9525.5626869729385 0 0 0 0 -698.84078605219111 -658.24976462533994 0 -658.24976462533994 5350.2338010681488 0 0 0 0 -1120.2672974213033 -2801.7256380619124 0 -2801.7256380619124 3390.1277974091386 0 0 0 0 -903.69306191303622 -2008.6917521791049 0 -2008.6917521791049 4610.9261270382967 0 0 0 0 -199.82051117124502 -1322.1818921703043 0 -1322.1818921703043 3139.1685529941451 0 0 0 0 -1180.0585185581585 -1364.419615074245 0 -1364.419615074245 5771.2351718560103 0 0 0 0 10.477312533633736 -55.782065331063222 0 -55.782065331063222 -3.4296287156858534 0 0 0 0 -480.53915376109944 -2539.2545164393814 0 -2539.2545164393814 -3232.5242311778325 0 0 0 0 -1222.7771653076124 -2519.7216816664113 0 -2519.7216816664113 -8754.4616542079093 0 0 0 0 -2376.14036485205 -1363.9213054081474 0 -1363.9213054081474 -2674.7125636114179 0 0 0 0 2.7190380976522306 -19.539144548567798 0 -19.539144548567798 -1.5521659990376984 0 0 0 0 -2065.9607495469791 -2429.9119815016093 0 -2429.9119815016093 -2341.3869419690018 0 0 0 0 -1634.2699415930365 -2108.6237247740737 0 -2108.6237247740737 -2969.1728367794803 0 0 0 0 -2123.7754146490115 -1971.3153043843104 0 -1971.3153043843104 -1369.4389716882979 0 0 0 0 -1938.3599974733952 -1867.3922650865479 0 -1867.3922650865479 -2397.3515713082888 0 0 0 0 -1935.9560201524328 -1777.7409137197446 0 -1777.7409137197446 -1866.0920514026875 0 0 0 0 -1632.7634207352075 -2012.2386930735111 0 -2012.2386930735111 -3104.4949325393245 0 0 0 0 -1717.6972747395848 -1961.6128613141045 0 -1961.6128613141045 -2393.2850426429195 0 0 0 0 -1082.7017845012015 -1043.5979763053838 0 -1043.5979763053838 -4319.6400828309061 0 0 0 0 -1090.9331623965145 -1055.8257970091936 0 -1055.8257970091936 -2546.3884062597499 0 0 0 0 -1248.2281859302966 -1089.4126859888529 0 -1089.4126859888529 -2512.5419581723872 0 0 0 0 -1581.1068257803418 -1450.810395477667 0 -1450.810395477667 -2645.6876808058587 0 0 0 0 -1317.7978265755737 -318.37880981615308 0 -318.37880981615308 -1863.6709436334386 0 0 0 0 -1255.0849019372301 -885.70141358210481 0 -885.70141358210481 -1451.2758060327396 0 0 0 0 -1334.1596746946561 -1218.0661814969517 0 -1218.0661814969517 -1824.1903595404401 0 0 0 0 -1481.5673517819278 -1333.4400233146225 0 -1333.4400233146225 -1470.4881087209069 0 0 0 0 -1784.1871465444165 -1690.5331933392627 0 -1690.5331933392627 -1600.7303764203753 0 0 0 0 -1796.9106454012144 -1570.0212047460118 0 -1570.0212047460118 -1692.9044868458768 0 0 0 0 -1598.3444991406504 -1433.0070305274494 0 -1433.0070305274494 -1912.8421134938799 0 0 0 0 -1512.2409043289772 -1488.7587159048062 0 -1488.7587159048062 -1987.3080356430073 0 0 0 0 -1622.2504938768288 -1651.8046347992895 0 -1651.8046347992895 -1461.095887612867 0 0 0 0 -1764.3894245148549 -1565.4115905093786 0 -1565.4115905093786 -1392.5065517514086 0 0 0 0 -1537.9701445445589 -1482.1917248565987 0 -1482.1917248565987 -1419.5969060969437 0 0 0 0 -1622.4473947545266 -1601.5626545840787 0 -1601.5626545840787 -1555.0330348488733 0 0 0 0 -1659.3158536171941 -1572.7338421640707 0 -1572.7338421640707 -1490.5054295795562 0 0 0 0 -1657.8381767779247 -1667.083177155122 0 -1667.083177155122 -1379.6856752503663 0 0 0 0 -1793.7711682837398 -1643.304163934652 0 -1643.304163934652 -1325.7615004398504 0 0 0 0 -1535.9107116620035 -864.10860538758061 0 -864.10860538758061 -1696.4575489938907 0 0 0 0 -1788.4949023381614 -1480.7161804644884 0 -1480.7161804644884 -1205.3314627224245 0 0 0 0 -0.07958633063032039 0.052795766192396343 0 0.052795766192396343 0.16462639887267017 0 0 0 0 -1233.4437041897199 -721.95963546645908 0 -721.95963546645908 -869.21354626357061 0 0 0 0 -1569.8753932147883 -1017.6139410143915 0 -1017.6139410143915 -607.19859036980051 0 0 0 0 7.2706105939600398 -14.289974213645792 0 -14.289974213645792 -6.0802154472089285 0 0 0 0 37.919681846600724 -93.664685559753707 0 -93.664685559753707 -95.173103158136655 0 0 0 0 65.198109774079057 -48.72288223893338 0 -48.72288223893338 -21.159853524739447 0 0 0 0 381.83463404587383 -50.646851490129848 0 -50.646851490129848 -109.52021623087421 0 0 0 0 -2706.2061069186384 -1875.7221686755183 0 -1875.7221686755183 -1384.5006296353513 0 0 0 0 1.998921502923352 -7.0118223944130307 0 -7.0118223944130307 -4.3328864297730405 0 0 0 0 -1982.1122971910045 -1695.9762277668979 0 -1695.9762277668979 -1443.6110481473406 0 0 0 0 -2147.6247681009609 -1207.6457067631995 0 -1207.6457067631995 -637.6218129591216 0 0 0 0 -3098.7561996636996 -976.91647751969867 0 -976.91647751969867 -800.56174842696237 0 0 0 0 -2877.6965997685456 -897.60503981807426 0 -897.60503981807426 -964.74773744148115 0 0 0 0 -2882.4252087216883 -715.15090056417466 0 -715.15090056417466 -808.43834238740237 0 0 0 0 -1824.0303255592789 -873.95327891679062 0 -873.95327891679062 -1212.3706369902866 0 0 0 0 7.6907540146973972 -20.452512220590854 0 -20.452512220590854 -13.362905936108774 0 0 0 0 -2109.7801116097507 -654.5241000228707 0 -654.5241000228707 -1380.585414015587 0 0 0 0 -2437.3694713980694 -1351.7097204333604 0 -1351.7097204333604 -1203.3788229082202 0 0 0 0 -1860.2388157043933 -1538.6659808175755 0 -1538.6659808175755 -1787.897591583373 0 0 0 0 -1904.2501187554371 -1556.3629321476528 0 -1556.3629321476528 -1326.0632576047428 0 0 0 0 -1682.4335069009139 -1395.5753944501266 0 -1395.5753944501266 -1262.19296721707 0 0 0 0 -1924.5482332676365 -598.06592743196597 0 -598.06592743196597 -745.11266377956053 0 0 0 0 -1415.6100585180538 -1100.5677902680163 0 -1100.5677902680163 -1237.8853796435906 0 0 0 0 -866.9949061097177 -536.66941324405525 0 -536.66941324405525 -1071.9817723445976 0 0 0 0 -1254.94924236734 -868.72391712936042 0 -868.72391712936042 -1127.553353506667 0 0 0 0 -941.93301941132449 -941.73817674766724 0 -941.73817674766724 -1303.0726271579479 0 0 0 0 -1042.9476412418371 -303.23472840172508 0 -303.23472840172508 -418.59881368228525 0 0 0 0 -2518.8594464233101 -598.14180064664833 0 -598.14180064664833 -1103.3351711346841 0 0 0 0 -3221.4749255833485 -864.02038822074064 0 -864.02038822074064 -813.66872083328781 0 0 0 0 5.2824130656969821 -15.501128861970912 0 -15.501128861970912 -10.073405262746434 0 0 0 0 -2740.1936791680328 -580.11442330510909 0 -580.11442330510909 -624.98803008934919 0 0 0 0 -2723.2565562764503 -608.8031065341529 0 -608.8031065341529 -1011.02882270181 0 0 0 0 -2552.9650439170255 -475.25852478985144 0 -475.25852478985144 -803.19268445528724 0 0 0 0 -2198.8431173340141 -352.97506998932295 0 -352.97506998932295 -945.77053299555337 0 0 0 0 -2049.2260936360872 -392.83091166247232 0 -392.83091166247232 -1058.0910708510055 0 0 0 0 -3383.3497738721944 -1579.6277375412419 0 -1579.6277375412419 -668.41611117812135 0 0 0 0 -2179.7416625631013 -616.41021373520562 0 -616.41021373520562 -1134.9403436993525 0 0 0 0 -2782.4395665750562 -558.47429784485576 0 -558.47429784485576 -900.93390640936195 0 0 0 0 -2050.4726770966599 -572.24078908019646 0 -572.24078908019646 -1149.4188858999405 0 0 0 0 -1688.9107686060743 -817.40615269754926 0 -817.40615269754926 -1634.3291776399751 0 0 0 0 -2128.5680604193622 -1077.9847337804676 0 -1077.9847337804676 -1344.8511278626611 0 0 0 0 -1063.6511143620082 -2026.8515832143166 0 -2026.8515832143166 -582.33974589987338 0 0 0 0 -1597.6526320349876 -382.25485111301168 0 -382.25485111301168 -1300.9182183262237 0 0 0 0 -1934.6773032426208 -228.51280603526357 0 -228.51280603526357 -997.66121904527972 0 0 0 0 -2020.7877890153968 -307.34707668749297 0 -307.34707668749297 -1061.7033350550846 0 0 0 0 -822.54373357031727 -270.26036283309804 0 -270.26036283309804 -970.00437720501941 0 0 0 0 -1208.1018383670162 -321.76484423849797 0 -321.76484423849797 -614.78573312712251 0 0 0 0 -1655.740709763355 29.005298960662913 0 29.005298960662913 -839.77856094831805 0 0 0 0 -1276.6845995169679 -544.96194177209327 0 -544.96194177209327 -1164.000781453833 0 0 0 0 -1226.6314746110293 -369.55871292492884 0 -369.55871292492884 -579.54006648490758 0 0 0 0 1.0452297614161878 -6.6584191149110126 0 -6.6584191149110126 -4.2104739479571123 0 0 0 0 435.45299626208362 -200.83715878397379 0 -200.83715878397379 -1140.9669412860785 0 0 0 0 -845.61157489868469 -1016.2222839417382 0 -1016.2222839417382 266.95701069828647 0 0 0 0 -1099.2991816343856 418.90214548061704 0 418.90214548061704 -3684.1731266274874 0 0 0 0 -2086.2907448105943 -1167.6226698298906 0 -1167.6226698298906 -1600.2598811569915 0 0 0 0 2.0097368604791512 -5.2970773070026027 0 -5.2970773070026027 -3.0192973743746645 0 0 0 0 -2107.888688596373 -865.41147611098131 0 -865.41147611098131 262.27293870978974 0 0 0 0 -605.94222814373279 -1067.2750273123575 0 -1067.2750273123575 -446.50577888341013 0 0 0 0 61.076623249676928 -52.719087545441838 0 -52.719087545441838 -44.253065058354409 0 0 0 0 0.5219425965935045 -2.9067715055613661 0 -2.9067715055613661 -24.793348344320851 0 0 0 0 -1733.2358877858933 -267.57735867729207 0 -267.57735867729207 -3211.7326922603397 0 0 0 0 -724.48334327014209 -573.63012177280416 0 -573.63012177280416 844.11996894100412 0 0 0 0 -208.32520793991716 -2064.1134465413843 0 -2064.1134465413843 1633.0532991748182 0 0 0 0 -1448.5189206358373 -2111.1539744469374 0 -2111.1539744469374 1825.5699780551217 0 0 0 0 -1074.6254088050046 -1323.6082470371821 0 -1323.6082470371821 349.83252066322348 0 0 0 0 61.221834096359252 -48.216560150041936 0 -48.216560150041936 -63.589156578714125 0 0 0 0 -1459.9364486274735 -616.66155300081482 0 -616.66155300081482 361.57295390460968 0 0 0 0 -1671.0324558536304 -1439.8476356770689 0 -1439.8476356770689 1488.7137431716828 0 0 0 0 -899.42211295446577 -1366.7758972445849 0 -1366.7758972445849 1074.0121612760631 0 0 0 0 -2201.1531097707411 -1419.1645334997143 0 -1419.1645334997143 1219.8959362385149 0 0 0 0 -1328.784567781373 -1605.2141289601368 0 -1605.2141289601368 1291.3026161023863 0 0 0 0 -199.2222494573216 -2479.7581822926604 0 -2479.7581822926604 1192.1913013311223 0 0 0 0 -717.48224433264841 -1843.6742747701464 0 -1843.6742747701464 1198.7802914923914 0 0 0 0 339.96552722504202 -3470.0047398644942 0 -3470.0047398644942 2019.0036625483822 0 0 0 0 796.40972103354716 -2177.3024661484019 0 -2177.3024661484019 733.98447368840607 0 0 0 0 -1082.7590592476199 -2230.0594705119788 0 -2230.0594705119788 2568.7857067291861 0 0 0 0 -2118.8357054932567 -254.41477792556907 0 -254.41477792556907 -969.92431305481841 0 0 0 0 63.3361007623012 -50.532669875883215 0 -50.532669875883215 -63.08398916696796 0 0 0 0 -1310.8721473419337 -1300.3028549804217 0 -1300.3028549804217 230.51621929112025 0 0 0 0 -1184.6273687057692 -1651.1945644061962 0 -1651.1945644061962 899.28123941386366 0 0 0 0 -1524.3146083453175 -1827.5896729153246 0 -1827.5896729153246 610.51894591260861 0 0 0 0 -1616.7544431042916 -1147.3474768281158 0 -1147.3474768281158 -776.49741090157841 0 0 0 0 -1239.6001916283694 -2605.8024037749346 0 -2605.8024037749346 -2655.3194592279669 0 0 0 0 -198.99328997315024 -426.11867359185271 0 -426.11867359185271 3998.7380191864459 0 0 0 0 -7.9386278654760574 -12.053955134337212 0 -12.053955134337212 2.1082482339866182 0 0 0 0 -701.72816071535635 -1787.6478362709349 0 -1787.6478362709349 3704.4459965229262 0 0 0 0 -1586.0776735345462 -3078.6142385923704 0 -3078.6142385923704 -244.56558648146711 0 0 0 0 -1383.4748875633177 -2561.7906471190504 0 -2561.7906471190504 934.85293970200291 0 0 0 0 -884.33156167991183 -2233.6026790365104 0 -2233.6026790365104 -17.534376190944386 0 0 0 0 -788.92774059662042 -2984.7729724753335 0 -2984.7729724753335 949.08932380897079 0 0 0 0 -240.56539010300366 -3137.414312645978 0 -3137.414312645978 -47.035534278955311 0 0 0 0 57.724379221053823 -2376.0239021621328 0 -2376.0239021621328 -1297.2648221291493 0 0 0 0 436.20308798105907 -1226.2153211741079 0 -1226.2153211741079 741.18946310947649 0 0 0 0 20.858067306130579 -2148.890508563778 0 -2148.890508563778 19.463759248625138 0 0 0 0 -129.62252802533112 -1708.3378010018332 0 -1708.3378010018332 508.16259992308915 0 0 0 0 -941.51301428817897 -2741.2345962658928 0 -2741.2345962658928 575.38043162121903 0 0 0 0 -608.67060128460071 -2550.3615378200593 0 -2550.3615378200593 1604.6912271162869 0 0 0 0 -282.1184900975195 -2011.1979467610461 0 -2011.1979467610461 1084.9749497978646 0 0 0 0 -873.84786141973859 -2499.332216194291 0 -2499.332216194291 1774.2886199168825 0 0 0 0 24.224869168786427 -3928.9963744969718 0 -3928.9963744969718 1172.2842103667099 0 0 0 0 -285.04137657814135 -2903.5557370969536 0 -2903.5557370969536 1521.6967641891752 0 0 0 0 -1641.2683292303809 -271.10316602948296 0 -271.10316602948296 -6302.9859981177988 0 0 0 0 -798.46803937036384 -3500.127723326912 0 -3500.127723326912 5035.6007093899098 0 0 0 0 5.0757304944866348 -9.7013817778648885 0 -9.7013817778648885 -5.6282147406849248 0 0 0 0 17.351648304340813 -34.116521107941573 0 -34.116521107941573 -11.434172833312129 0 0 0 0 -2015.1369319844043 -743.88159332910209 0 -743.88159332910209 -2787.6863076772715 0 0 0 0 -742.72533387725889 -2059.9134477282942 0 -2059.9134477282942 -3603.0864320638866 0 0 0 0 -2531.4050240470297 -1515.4479196750635 0 -1515.4479196750635 -1900.1335083322447 0 0 0 0 -2775.2056997508898 -1052.197062925211 0 -1052.197062925211 -2776.6476402241387 0 0 0 0 11.028816820232578 -2157.1632046813111 0 -2157.1632046813111 -1395.4396849196564 0 0 0 0 -742.84440349237082 -2083.8494578683089 0 -2083.8494578683089 -1630.1055512700914 0 0 0 0 -103.46479761824958 -1486.2584568203183 0 -1486.2584568203183 -1085.533300243786 0 0 0 0 -92.594871878569393 -1296.3812800968772 0 -1296.3812800968772 -2402.3446492859039 0 0 0 0 -15.775802377059335 -1669.3563317065671 0 -1669.3563317065671 -1691.0144882019558 0 0 0 0 -542.087454230003 -1404.341021235161 0 -1404.341021235161 -934.13334224955543 0 0 0 0 -878.52932083365886 -1283.8397757410348 0 -1283.8397757410348 -1286.1118762014976 0 0 0 0 -611.71956469309907 -1578.0115956878258 0 -1578.0115956878258 -970.3766752672891 0 0 0 0 -1212.0503604684291 -1455.9970906873359 0 -1455.9970906873359 -1243.1407580153682 0 0 0 0 -1205.5971863444238 -1232.0010346292393 0 -1232.0010346292393 -2154.8761352580368 0 0 0 0 -2932.9252073904208 -1488.2845835485177 0 -1488.2845835485177 -1028.4537875041569 0 0 0 0 -2942.9562918271022 -1598.6507865921149 0 -1598.6507865921149 -919.82555239456997 0 0 0 0 -0.39572059821355765 -5.6832653305592782 0 -5.6832653305592782 0.17574852881904235 0 0 0 0 -1062.921329107241 -1276.8692939824041 0 -1276.8692939824041 -853.14604112046072 0 0 0 0 -1120.7494636957017 -1279.2354154284476 0 -1279.2354154284476 -843.76355277544462 0 0 0 0 0.64341524517107018 -10.310092340537761 0 -10.310092340537761 3.5872937046800644 0 0 0 0 -2199.5951140723982 -1646.0511513114743 0 -1646.0511513114743 -672.26849931622928 0 0 0 0 -1901.5443153527167 -1204.7648782859087 0 -1204.7648782859087 -617.79310930828797 0 0 0 0 -755.04350248828814 -1500.8092349078852 0 -1500.8092349078852 -799.91791768626717 0 0 0 0 -683.52671176834519 -1741.4506069760951 0 -1741.4506069760951 -498.23343412078975 0 0 0 0 -1112.5003041031814 -1416.0126050036852 0 -1416.0126050036852 -783.37293108272934 0 0 0 0 -1305.9761444647597 -1126.3028025346212 0 -1126.3028025346212 -1018.24651079666 0 0 0 0 -1886.5736203399574 -1485.3202039213138 0 -1485.3202039213138 -463.22294971767769 0 0 0 0 -2939.2476773517228 -1280.2047801475237 0 -1280.2047801475237 -735.99719502566404 0 0 0 0 -2987.8390793886119 -1517.7480646683925 0 -1517.7480646683925 -798.72261799681473 0 0 0 0 -2094.3718368219415 -818.97629554776722 0 -818.97629554776722 -879.71172152413783 0 0 0 0 -1840.7011968595834 -1257.8698488810278 0 -1257.8698488810278 -1142.5774927740167 0 0 0 0 -2359.294688569254 -1514.1794127803057 0 -1514.1794127803057 -1265.2529802126992 0 0 0 0 -2422.0302410096992 -1768.1937900326593 0 -1768.1937900326593 -1738.4112692460913 0 0 0 0 -1198.582394710993 -1564.6572912002193 0 -1564.6572912002193 -1268.9830330106097 0 0 0 0 -1517.2953260605209 -1418.0174376693358 0 -1418.0174376693358 -1227.8640599971259 0 0 0 0 -2176.736143780312 -1216.3308854540483 0 -1216.3308854540483 -1253.6688389780938 0 0 0 0 -1869.5824876437073 -1272.3100875691343 0 -1272.3100875691343 -1054.5108364462831 0 0 0 0 -1870.6907997717053 -1510.8961452206377 0 -1510.8961452206377 -1839.664690720012 0 0 0 0 -1718.4630932135797 -1123.2292969548926 0 -1123.2292969548926 -1311.6000675299365 0 0 0 0 -1244.9037989117169 -1150.6212899731308 0 -1150.6212899731308 -2005.4515276169368 0 0 0 0 -1510.1333040437239 -1296.8487005856696 0 -1296.8487005856696 -1592.5838861673328 0 0 0 0 5.837510433406834 -8.5328012968582243 0 -8.5328012968582243 -7.0535322010387489 0 0 0 0 -1879.1936953350014 -56.070046326996817 0 -56.070046326996817 -3633.6554767858579 0 0 0 0 -2061.6211335874923 -1673.0242941972811 0 -1673.0242941972811 1153.1634317687167 0 0 0 0 -4.5190260089009788 -5.0318191132520838 0 -5.0318191132520838 -0.39079024300369269 0 0 0 0 -4945.6898237768037 -1521.472634583919 0 -1521.472634583919 -1394.0572012409721 0 0 0 0 208.63330849461818 -1165.2900039031028 0 -1165.2900039031028 -1857.8166990417194 0 0 0 0 -1523.8573993877071 -460.77928085745043 0 -460.77928085745043 -1968.2280135631991 0 0 0 0 2.8701612063380058 -26.183557633145973 0 -26.183557633145973 -2.0723798560369033 0 0 0 0 -2644.8818525592278 10.698252739508462 0 10.698252739508462 -3667.1128929176593 0 0 0 0 -1583.5462996960723 -435.38337523571499 0 -435.38337523571499 -3590.3059710748275 0 0 0 0 -2468.7663243327538 -972.26056454515776 0 -972.26056454515776 -2170.667904284237 0 0 0 0 -1338.7475506192677 -787.04575114478575 0 -787.04575114478575 -141.50379264696835 0 0 0 0 -3298.5636369736767 -840.69530869968662 0 -840.69530869968662 204.27773000041361 0 0 0 0 39.024080353987443 -76.108802428473794 0 -76.108802428473794 -30.871587997815102 0 0 0 0 3.1086827107871513 -42.522105812545064 0 -42.522105812545064 55.006803271737475 0 0 0 0 -900.50016453921489 -1832.0430737638389 0 -1832.0430737638389 1120.6038459884821 0 0 0 0 -1786.5153598867728 -317.93391750258525 0 -317.93391750258525 -1566.3077354606994 0 0 0 0 -1001.9539689068552 -447.27568359795168 0 -447.27568359795168 -800.23095839755433 0 0 0 0 -1535.1222704233915 182.4718507039197 0 182.4718507039197 -2452.6787462170469 0 0 0 0 45.88066306019013 -76.684910210566329 0 -76.684910210566329 -44.261726389519751 0 0 0 0 -2468.034591536667 181.09928886112175 0 181.09928886112175 -2199.5532127273091 0 0 0 0 -2340.6995367632662 -764.83834201566788 0 -764.83834201566788 -1013.2527143012521 0 0 0 0 43.280386015686759 -82.607844172747818 0 -82.607844172747818 -48.99392036012425 0 0 0 0 -1619.1441547693648 -353.21798252955705 0 -353.21798252955705 -847.13053349309303 0 0 0 0 -2228.049520226079 -673.67415104233805 0 -673.67415104233805 -570.84248807009863 0 0 0 0 -2684.1464007916002 -1526.8701739675962 0 -1526.8701739675962 616.92633051379744 0 0 0 0 -3454.8998820699981 -1380.168989419074 0 -1380.168989419074 -915.61162201810657 0 0 0 0 -2211.7657486815733 -1363.5801586014641 0 -1363.5801586014641 -1177.5653280010774 0 0 0 0 -2257.0517238416651 -1464.2696426887342 0 -1464.2696426887342 -1696.4238960124931 0 0 0 0 -189.13668209271418 26.71090662898132 0 26.71090662898132 -705.03430308259703 0 0 0 0 -2155.4280081795587 -1127.5069931432045 0 -1127.5069931432045 -1090.6192953159843 0 0 0 0 -1878.225871014205 -1002.2784043867086 0 -1002.2784043867086 -1279.6831776764739 0 0 0 0 15.137508948960118 -13.538756088426929 0 -13.538756088426929 -17.822473213281796 0 0 0 0 -2188.9721860669815 -933.30708050242902 0 -933.30708050242902 -1577.2846750070021 0 0 0 0 21.331310600394829 -32.014242652186425 0 -32.014242652186425 -20.309364836522334 0 0 0 0 -2451.0603931590813 -1310.3962795200205 0 -1310.3962795200205 -751.05642125288432 0 0 0 0 -1905.7359338377137 -1290.2608432429788 0 -1290.2608432429788 -1229.9287013528956 0 0 0 0 1374.0953201742523 -621.52869549879688 0 -621.52869549879688 7.2294716936212353 0 0 0 0 -2280.6578846852572 -1518.1026945653175 0 -1518.1026945653175 -544.40447075547127 0 0 0 0 -1777.4843784607365 -843.96544134683063 0 -843.96544134683063 59.964953423768748 0 0 0 0 -1589.8934157734184 -1283.4172001196712 0 -1283.4172001196712 -228.25645404841453 0 0 0 0 -2457.3462396665182 -593.60735049067443 0 -593.60735049067443 -375.47904968658986 0 0 0 0 -2807.1762516662129 -396.84053177714668 0 -396.84053177714668 -659.86195677279102 0 0 0 0 -1705.8387647720519 -468.22708410456653 0 -468.22708410456653 -2489.133697811958 0 0 0 0 13.770214022175111 -20.350444085638728 0 -20.350444085638728 -15.176908413288764 0 0 0 0 -386.04400622024696 -241.78876837383723 0 -241.78876837383723 -394.99475479661487 0 0 0 0 -95.726906150201103 -372.25589448418759 0 -372.25589448418759 -370.73351671046839 0 0 0 0 -20.727959034238665 -72.898689357856256 0 -72.898689357856256 12.522859147393319 0 0 0 0 -256.40317326801596 -59.425135979630795 0 -59.425135979630795 -100.29141374189203 0 0 0 0 -4.4896895360498092 -237.33862657479085 0 -237.33862657479085 -113.63178046699613 0 0 0 0 -37.162461598029267 -44.628588891496889 0 -44.628588891496889 36.889849007107522 0 0 0 0 -306.86850825587317 -71.355450465756803 0 -71.355450465756803 6.2972511737716559 0 0 0 0 -471.53075045922014 -171.98543712677565 0 -171.98543712677565 -53.802078782782701 0 0 0 0 -327.5105998525105 -37.949648455061833 0 -37.949648455061833 -364.68475970023792 0 0 0 0 -479.3016334848071 -354.19000163860619 0 -354.19000163860619 -297.61684436385985 0 0 0 0 -522.94126056438836 -377.0093600681721 0 -377.0093600681721 -109.22764411813841 0 0 0 0 -566.21645593232097 -313.70657705766189 0 -313.70657705766189 -254.09711651157704 0 0 0 0 -519.35267336397374 -342.81820782455907 0 -342.81820782455907 -245.52558859253804 0 0 0 0 -195.88892250819717 -275.48180256903942 0 -275.48180256903942 112.35463048001111 0 0 0 0 -195.41407131410961 -375.12282411029082 0 -375.12282411029082 -390.9471912071167 0 0 0 0 -585.04678713114481 236.53152496330858 0 236.53152496330858 -0.8256006745104969 0 0 0 0 -509.52192179618942 -71.424053183714932 0 -71.424053183714932 -664.56495623441879 0 0 0 0 -36.517350784312328 -41.953298967521029 0 -41.953298967521029 38.50113601419141 0 0 0 0 -238.42171560834686 -258.73459685773923 0 -258.73459685773923 -900.01876547619759 0 0 0 0 -400.00628068111837 -62.366270828872075 0 -62.366270828872075 -1135.6915646508787 0 0 0 0 -271.11672435632499 211.05242200053908 0 211.05242200053908 -562.07877097296659 0 0 0 0 278.62514564319281 -61.465689037526317 0 -61.465689037526317 -153.60312239602354 0 0 0 0 10.545330230017498 -22.528528144861944 0 -22.528528144861944 12.002464494283942 0 0 0 0 7.6168345465426341 -11.542768135176516 0 -11.542768135176516 -6.550726874903404 0 0 0 0 -2854.4269110617206 -1505.1288344730601 0 -1505.1288344730601 -1063.2784490876293 0 0 0 0 -1941.5130107364748 -1494.0213543285354 0 -1494.0213543285354 -1063.3095610699238 0 0 0 0 -3457.9802896427318 -2112.9791121391772 0 -2112.9791121391772 -1010.2300043787909 0 0 0 0 -3348.0810060139193 -1798.5653509048134 0 -1798.5653509048134 -768.56237712975417 0 0 0 0 -1105.9985749246043 -2162.711095827879 0 -2162.711095827879 -1011.7620372001693 0 0 0 0 -6454.5897492084041 -1673.0113351935652 0 -1673.0113351935652 -388.84299059646582 0 0 0 0 -4457.288929306058 -2589.6818645527019 0 -2589.6818645527019 -24.087515458115377 0 0 0 0 -3425.8156091307683 -1337.8193315255539 0 -1337.8193315255539 -1684.1723525862035 0 0 0 0 -3321.1657614205906 -1545.5491943073794 0 -1545.5491943073794 -1290.3113801990221 0 0 0 0 258.06419274104701 394.48846342957768 0 394.48846342957768 -564.33994198145956 0 0 0 0 -1.9445263564188053 -3.7851848486792505 0 -3.7851848486792505 8.837051302384765 0 0 0 0 -677.07394406863023 -1806.7490687146346 0 -1806.7490687146346 -2006.5237545364507 0 0 0 0 -2471.009600279358 -491.68519531429047 0 -491.68519531429047 423.70521243012627 0 0 0 0 -304.41150608497264 -255.40259092155975 0 -255.40259092155975 -1.8082606193202082 0 0 0 0 -427.23196895059664 -77.158252917342907 0 -77.158252917342907 -244.31192678820844 0 0 0 0 -387.59488569253881 -131.57373288710369 0 -131.57373288710369 -792.13842010260851 0 0 0 0 10.822275001697108 -16.193103232440734 0 -16.193103232440734 -6.7777740694588431 0 0 0 0 -335.81172152257932 496.90353112434786 0 496.90353112434786 -1781.7577756151732 0 0 0 0 -279.54044621391222 -46.241636472204846 0 -46.241636472204846 -753.29251305824073 0 0 0 0 -204.42139199108169 211.03604598241782 0 211.03604598241782 -1767.8644708508 0 0 0 0 2.8992870383534068 -7.8630978309654722 0 -7.8630978309654722 -2.4732923410086336 0 0 0 0 -63.523079951271939 -384.16217573565518 0 -384.16217573565518 -1118.8078148040404 0 0 0 0 -515.21646852648701 -161.69656692415083 0 -161.69656692415083 -404.50238850272581 0 0 0 0 -337.21141878944763 -992.38635003110903 0 -992.38635003110903 938.72181298585565 0 0 0 0 -347.66727124789759 -740.50324280145014 0 -740.50324280145014 1269.5517069093985 0 0 0 0 -25.604748194105923 -859.34639865169811 0 -859.34639865169811 1312.2161625097142 0 0 0 0 -146.68228550020831 -340.65419744295059 0 -340.65419744295059 2438.6801683456433 0 0 0 0 -1003.2662515709962 -1324.4137916270774 0 -1324.4137916270774 1388.7679053465254 0 0 0 0 130.79695946502397 -958.49593251458373 0 -958.49593251458373 807.73465986222436 0 0 0 0 -844.89730411121855 -1094.1339506620352 0 -1094.1339506620352 964.22774893309179 0 0 0 0 -859.09275210579153 -1344.516595288236 0 -1344.516595288236 346.9219305425504 0 0 0 0 -632.81168883257487 -1502.5481577265818 0 -1502.5481577265818 528.80940569937957 0 0 0 0 -968.91183911952976 -1231.2242072319114 0 -1231.2242072319114 406.88771357032965 0 0 0 0 -1645.7870369554366 -1387.6338348423269 0 -1387.6338348423269 -56.553654883988202 0 0 0 0 -1679.2651884378283 -1442.2593631288291 0 -1442.2593631288291 617.63059460948716 0 0 0 0 -1921.3265327803383 -791.6466882638415 0 -791.6466882638415 1080.5856463572127 0 0 0 0 -1949.3604696705188 -581.52900028750264 0 -581.52900028750264 -66.8336202706123 0 0 0 0 -2501.188836391113 -940.25773237831891 0 -940.25773237831891 595.14469874407223 0 0 0 0 -3366.3864931104472 -982.9513421693191 0 -982.9513421693191 -2194.5234028811028 0 0 0 0 -2448.820415619557 -926.6142208656056 0 -926.6142208656056 -274.82046133843687 0 0 0 0 -4027.0078496272108 -1147.130880932993 0 -1147.130880932993 521.65158032284671 0 0 0 0 -3367.3335971558336 -1359.3622155340599 0 -1359.3622155340599 -57.186272223632841 0 0 0 0 10.425133121102363 -28.486669984187699 0 -28.486669984187699 -6.5354813077206124 0 0 0 0 -2483.8775802233122 -833.22961693959678 0 -833.22961693959678 122.15025720759877 0 0 0 0 -5018.1794467432774 -824.55418557242956 0 -824.55418557242956 -1501.3856157657028 0 0 0 0 0.96724470104903659 -13.141276348756733 0 -13.141276348756733 0.27440621097562712 0 0 0 0 -2.3298865800994442 -17.027511221702795 0 -17.027511221702795 7.0575837280181872 0 0 0 0 -2482.5960393514397 -575.33051030216848 0 -575.33051030216848 -111.70239609675627 0 0 0 0 -3777.5165976048302 -866.78441614878466 0 -866.78441614878466 427.08625722579018 0 0 0 0 -2485.0412096214814 -1359.3501994370711 0 -1359.3501994370711 -409.50001602681732 0 0 0 0 -1.9298599768248046 -15.45432567013259 0 -15.45432567013259 0.58612446342792168 0 0 0 0 -1194.394428836822 -1345.9492794936796 0 -1345.9492794936796 -0.93298915520017545 0 0 0 0 -5766.8630439488115 -1872.4753016314244 0 -1872.4753016314244 -338.43076089091664 0 0 0 0 -2.3210452797546708 -6.4455920200269929 0 -6.4455920200269929 -0.94591823698689836 0 0 0 0 -769.634493284364 -1447.0097686944573 0 -1447.0097686944573 194.76649689156693 0 0 0 0 -1445.1712183398631 -1434.613586019399 0 -1434.613586019399 206.05446319486509 0 0 0 0 -1155.8599921779823 -1840.2905669899774 0 -1840.2905669899774 425.94007396193456 0 0 0 0 -875.15555565791874 -1685.9234055286797 0 -1685.9234055286797 341.11832010308717 0 0 0 0 -881.54696910604252 -1908.0083417262686 0 -1908.0083417262686 -194.94687070523651 0 0 0 0 -1271.5307203943812 -1942.3413926853827 0 -1942.3413926853827 289.2719915872658 0 0 0 0 -979.48061012729886 -1672.9854806572876 0 -1672.9854806572876 39.880365854103729 0 0 0 0 -1250.5243203408972 -1680.8784640227605 0 -1680.8784640227605 545.86608556202555 0 0 0 0 -662.13475401628239 -1730.8096922921868 0 -1730.8096922921868 548.9915533556773 0 0 0 0 -1034.545391864187 -1435.676375411249 0 -1435.676375411249 1139.5966007971656 0 0 0 0 -2827.3874431150271 -1092.1063901365349 0 -1092.1063901365349 -1055.8218342605614 0 0 0 0 -1794.0993756715216 -1601.6989891032899 0 -1601.6989891032899 -3976.0343234550055 0 0 0 0 -2297.7775137044628 -1736.3279448002486 0 -1736.3279448002486 -1019.225657183546 0 0 0 0 -1635.4456007916015 -2123.2999979103952 0 -2123.2999979103952 -943.82956636965173 0 0 0 0 4.7457448574033378 -12.801691577156177 0 -12.801691577156177 -4.8496015059277511 0 0 0 0 -2740.3693676608382 -1647.4854494449082 0 -1647.4854494449082 2673.2689861106264 0 0 0 0 -2021.0437866196298 -1032.8676984643898 0 -1032.8676984643898 1291.9558769058785 0 0 0 0 -1388.3182069889808 -1228.4446191968345 0 -1228.4446191968345 -1347.9155542334574 0 0 0 0 10.903031516419702 -29.465002497351705 0 -29.465002497351705 -10.555259522250005 0 0 0 0 -200.17569302002448 -335.55101315870843 0 -335.55101315870843 -952.98256447368476 0 0 0 0 -2300.1992365161132 -1574.7399843525309 0 -1574.7399843525309 -816.52322990718676 0 0 0 0 -2319.6742926999577 -935.97454449031648 0 -935.97454449031648 142.50977455808243 0 0 0 0 -2752.5031708925308 -1455.006698147612 0 -1455.006698147612 -447.1808335560745 0 0 0 0 -2971.9074280517452 -2035.341666245844 0 -2035.341666245844 -601.92388072604808 0 0 0 0 -2533.9953102265299 -1781.305267129369 0 -1781.305267129369 -469.69237462082674 0 0 0 0 -2904.2127935600656 -1274.7093894481295 0 -1274.7093894481295 -299.87183212199307 0 0 0 0 -2603.6379575496467 -1975.254329854266 0 -1975.254329854266 -860.23919234883215 0 0 0 0 -2004.8785608025864 -1731.3321440291438 0 -1731.3321440291438 -466.23454742938338 0 0 0 0 -2574.0879503562123 -1750.9842345838226 0 -1750.9842345838226 -266.01722289462487 0 0 0 0 -2470.6993435641243 -1738.1606605760435 0 -1738.1606605760435 -1362.8725076787305 0 0 0 0 -2230.290754231035 -2258.2152681346815 0 -2258.2152681346815 -844.25753038807306 0 0 0 0 -1145.36344101845 -1908.3894127150313 0 -1908.3894127150313 -995.76865510712742 0 0 0 0 -2029.5085200703325 -922.64040157030468 0 -922.64040157030468 719.39106392175927 0 0 0 0 -2386.5901943576828 -1804.7734117251784 0 -1804.7734117251784 447.95062109250193 0 0 0 0 -560.65363111329498 -263.32135807128725 0 -263.32135807128725 75.522354573280609 0 0 0 0 -1686.0832216588824 -3345.4136712980799 0 -3345.4136712980799 -1660.3673370827091 0 0 0 0 -9.4037182388762091 -4.2195003267904561 0 -4.2195003267904561 16.918783275509668 0 0 0 0 -2223.978579445411 -343.76933843279221 0 -343.76933843279221 356.71738500263018 0 0 0 0 -14.01483947555144 -20.716539230800439 0 -20.716539230800439 5.6220960178760748 0 0 0 0 -2671.5670777418018 -1442.1974573636844 0 -1442.1974573636844 127.76717571381232 0 0 0 0 -2689.4156866093545 -1071.2076168867388 0 -1071.2076168867388 -586.7459639712747 0 0 0 0 -2081.1956620954807 -1307.7396760909796 0 -1307.7396760909796 -400.86431135132443 0 0 0 0 -1854.8830759936391 -1497.4575066617399 0 -1497.4575066617399 -716.98182462942896 0 0 0 0 -2455.9369913967967 -1431.1328076234422 0 -1431.1328076234422 -229.38610741455341 0 0 0 0 -3004.7304929470483 -1573.8173174110307 0 -1573.8173174110307 -629.98465486147688 0 0 0 0 -2475.3638645082424 -1710.4371192354104 0 -1710.4371192354104 -832.77934154296236 0 0 0 0 -2268.0542260577058 -1091.937405034827 0 -1091.937405034827 -1008.9822498356498 0 0 0 0 -2435.6985909472714 -1167.8502008116666 0 -1167.8502008116666 -263.45992859187754 0 0 0 0 -2627.6128622782562 -2179.2212720998759 0 -2179.2212720998759 -1378.7825091258694 0 0 0 0 -3353.2683525768171 -2361.9537429711859 0 -2361.9537429711859 -1388.139528684278 0 0 0 0 -2494.1374288944517 -1579.2655639189165 0 -1579.2655639189165 -2260.0369387301689 0 0 0 0 -2010.8854335065334 -1095.7600124203855 0 -1095.7600124203855 -2721.3681736937069 0 0 0 0 -2153.7446796881704 -1262.4219484782479 0 -1262.4219484782479 -2181.8070088639652 0 0 0 0 -2275.6031973176432 -1575.0302187133238 0 -1575.0302187133238 -1718.2788326613081 0 0 0 0 -1832.8712091916459 -357.334156940291 0 -357.334156940291 -926.91599274851797 0 0 0 0 -8.4254357463942853 -7.9471767387343029 0 -7.9471767387343029 -7.3446818529554605 0 0 0 0 -2570.9918777639305 -1296.2100323382733 0 -1296.2100323382733 -1140.9958712704392 0 0 0 0 -1740.4909267177864 -684.69250450727486 0 -684.69250450727486 -2125.472240822688 0 0 0 0 -2810.7487281863559 -1705.0592473756697 0 -1705.0592473756697 -2022.6048965788941 0 0 0 0 3.3598053488418884 -84.337227393243822 0 -84.337227393243822 31.550192519756202 0 0 0 0 -2036.1004098833728 -505.34068951297377 0 -505.34068951297377 -1828.8884472412519 0 0 0 0 -2727.2163833431987 -1386.8682400364996 0 -1386.8682400364996 -2427.0450703673414 0 0 0 0 -2995.731498141613 -921.31905821897089 0 -921.31905821897089 -3008.3352046372602 0 0 0 0 2.7487676135513084 -2.1677124564207304 0 -2.1677124564207304 0.37877042102900305 0 0 0 0 -10.185833390103355 -18.202263875023618 0 -18.202263875023618 -24.618371429433523 0 0 0 0 1.1564584570094496 -29.042274029056045 0 -29.042274029056045 11.893339987090815 0 0 0 0 -332.34836919579539 -1588.665021495799 0 -1588.665021495799 -1286.6811610397999 0 0 0 0 -1932.4303897287318 -1216.7693131295127 0 -1216.7693131295127 381.33601391200921 0 0 0 0 -18.669489421526748 -50.498738492719568 0 -50.498738492719568 82.966464461104508 0 0 0 0 -1532.5821189737544 -489.92476014242493 0 -489.92476014242493 991.5495437799691 0 0 0 0 -1993.436535524379 -1567.2379298690721 0 -1567.2379298690721 -110.55696371638624 0 0 0 0 -1237.0723775514198 -1587.4923730784685 0 -1587.4923730784685 -1285.2600863459033 0 0 0 0 -2140.9495710091433 -2304.1025388611015 0 -2304.1025388611015 -1802.4896955996373 0 0 0 0 -18.419553794344097 -36.56472760993033 0 -36.56472760993033 91.312378991553274 0 0 0 0 -2231.1148857835069 -2108.724415993951 0 -2108.724415993951 492.85966240898415 0 0 0 0 -2186.0279638231004 -2002.839540805071 0 -2002.839540805071 848.06644091615453 0 0 0 0 -2134.7140685170598 -2280.7248399161472 0 -2280.7248399161472 -1923.9134850146947 0 0 0 0 -11.760669511736324 -2.0119579835094044 0 -2.0119579835094044 10.825688254415468 0 0 0 0 -2181.2030123605555 -1717.237859899368 0 -1717.237859899368 957.21570754074492 0 0 0 0 -1958.8914954130305 -1877.6269577127532 0 -1877.6269577127532 860.08532821045446 0 0 0 0 -2068.3746508003096 -1330.8626692129037 0 -1330.8626692129037 1653.7511497860833 0 0 0 0 -1754.1641876737776 -1451.3624001063909 0 -1451.3624001063909 1119.051679849159 0 0 0 0 -1765.1312382747128 -1240.0902118497106 0 -1240.0902118497106 1256.9015782306378 0 0 0 0 -1424.5138290336618 -1620.057316284132 0 -1620.057316284132 26.694261354539776 0 0 0 0 9.9268413960798227 -3.2676634415828687 0 -3.2676634415828687 -12.166889646533036 0 0 0 0 -2215.2105215513002 -1239.387967051036 0 -1239.387967051036 -1998.6067677874871 0 0 0 0 -2296.8221177816449 -973.66082301334245 0 -973.66082301334245 -2168.6157405883423 0 0 0 0 -2290.9522098418383 -894.12442166658002 0 -894.12442166658002 -2623.6330936290578 0 0 0 0 -2175.4040018552478 -1307.6107504617685 0 -1307.6107504617685 -2375.2219265779677 0 0 0 0 -2626.3558325777412 -1163.0509367215527 0 -1163.0509367215527 -1623.8102714104098 0 0 0 0 -2174.5798058309156 -1245.492136372508 0 -1245.492136372508 -2544.3524762976776 0 0 0 0 -2417.4317508524691 -1810.9117373707268 0 -1810.9117373707268 -2837.3605563389719 0 0 0 0 -2398.4996997919116 -978.20106211924849 0 -978.20106211924849 -2686.6556567614025 0 0 0 0 -2507.0873898547607 -420.83443386911586 0 -420.83443386911586 -3596.2081319114368 0 0 0 0 2.9412839201291661 -73.647544133639997 0 -73.647544133639997 1.31094623820481 0 0 0 0 -2083.348488992473 -894.98437557680882 0 -894.98437557680882 -3037.3507033632982 0 0 0 0 -2081.5313224529091 -716.14101925233626 0 -716.14101925233626 -2769.6232474981807 0 0 0 0 -2425.9129613505211 -525.04669663483401 0 -525.04669663483401 -1907.7200807227346 0 0 0 0 -1850.1126804528321 -1771.8428554266866 0 -1771.8428554266866 29.307160421181834 0 0 0 0 -1665.5852044046478 -1397.733620614139 0 -1397.733620614139 -945.13834610304184 0 0 0 0 -1165.5013393399204 -1104.239626955723 0 -1104.239626955723 -802.99693266372924 0 0 0 0 -1265.2217833095565 -2227.7758932967154 0 -2227.7758932967154 -434.84832327349432 0 0 0 0 -1504.207197364638 -1794.0381405244807 0 -1794.0381405244807 -698.69359047957187 0 0 0 0 -5.4710808956664536 -7.9692444985267912 0 -7.9692444985267912 2.7839650652899195 0 0 0 0 -3638.7253680603899 -2923.0805793578293 0 -2923.0805793578293 -1276.4166929043095 0 0 0 0 -7810.4267892305506 -421.36655965023056 0 -421.36655965023056 -1724.7573211479321 0 0 0 0 2825.7921538040391 -4051.9935822170246 0 -4051.9935822170246 -1459.0492096673106 0 0 0 0 440.55932842142647 -1979.4129119363206 0 -1979.4129119363206 -1960.4368680993466 0 0 0 0 -653.08904248134786 -2384.5193244714956 0 -2384.5193244714956 -1171.2840311349064 0 0 0 0 -629.69776797066152 -2490.1334375354381 0 -2490.1334375354381 -1688.0446322486823 0 0 0 0 1901.018926299701 -1784.2434630794669 0 -1784.2434630794669 -1037.124490938113 0 0 0 0 -1209.7933505549081 -1473.6810465416656 0 -1473.6810465416656 -6533.5780603411113 0 0 0 0 -1615.8021540390037 -1493.6553877009283 0 -1493.6553877009283 -1979.1884751488906 0 0 0 0 -1198.4438578503759 -3511.493448263016 0 -3511.493448263016 -2424.9523959221142 0 0 0 0 -1968.983766472782 -1455.6467235625823 0 -1455.6467235625823 4155.9722307263564 0 0 0 0 0.57191766605336625 -14.283171011383779 0 -14.283171011383779 -1.8895552794327544 0 0 0 0 -67.968865594142699 -2397.2772213078861 0 -2397.2772213078861 -1712.070501012342 0 0 0 0 -727.88142522543785 -2549.2656224666498 0 -2549.2656224666498 2027.8370482046084 0 0 0 0 16.45211261512415 -38.048203634598977 0 -38.048203634598977 2.9897277045960351 0 0 0 0 -658.08237753310823 -481.29598064618403 0 -481.29598064618403 -1493.6345354089858 0 0 0 0 47.237383873994986 -1223.7937849375667 0 -1223.7937849375667 -3587.8398614076686 0 0 0 0 -3.6511992230072963 -30.673600642511104 0 -30.673600642511104 10.240268281998652 0 0 0 0 -143.27086503905593 -1931.6050122855158 0 -1931.6050122855158 -1839.4632340026801 0 0 0 0 -412.55379526778415 -2019.801403982714 0 -2019.801403982714 -1845.9119635841198 0 0 0 0 -3028.828551274135 -951.96205835376713 0 -951.96205835376713 -4234.4738094568347 0 0 0 0 8.2220272610082361 -18.552026065555253 0 -18.552026065555253 -2.7565783723763744 0 0 0 0 -1939.807862188929 -2362.7109408386968 0 -2362.7109408386968 1186.4594640892228 0 0 0 0 -4118.0557742882647 552.76917020434848 0 552.76917020434848 -5759.6943999751675 0 0 0 0 -2148.4408101016452 -2404.7321911842082 0 -2404.7321911842082 -3154.946877510758 0 0 0 0 -1151.366701803141 -1678.1048652726895 0 -1678.1048652726895 341.40530083023623 0 0 0 0 -960.65630997662083 -2394.1457332858299 0 -2394.1457332858299 -70.504577236013574 0 0 0 0 -1099.3882528956165 -2161.9824986911117 0 -2161.9824986911117 -421.51615395572298 0 0 0 0 -1299.9138962752731 -2974.9441455260549 0 -2974.9441455260549 -742.79205707199435 0 0 0 0 -1251.7111824522426 -2487.8153537741382 0 -2487.8153537741382 -78.988525004620897 0 0 0 0 -827.58552696260449 -2415.7965452157223 0 -2415.7965452157223 -324.10679672247352 0 0 0 0 -454.43996546132257 -1195.0870492846834 0 -1195.0870492846834 -556.60790168690437 0 0 0 0 -844.86816476571403 -1981.4539643603266 0 -1981.4539643603266 159.52249310023035 0 0 0 0 -160.36022827398847 -2372.8219000812387 0 -2372.8219000812387 380.43823529466317 0 0 0 0 636.44282317734906 -1602.2450557070333 0 -1602.2450557070333 -418.96361789267394 0 0 0 0 -206.43278548764647 -2301.8731126924722 0 -2301.8731126924722 1239.4700460387394 0 0 0 0 -291.19158406846691 -562.04379885862727 0 -562.04379885862727 -449.81240596213502 0 0 0 0 -1802.8168837301928 -604.39915476597525 0 -604.39915476597525 -686.1796917765605 0 0 0 0 -1036.7379323450568 -215.29922117762908 0 -215.29922117762908 -448.6619220678258 0 0 0 0 -19.822167032415585 -46.832278408396718 0 -46.832278408396718 16.025584058847897 0 0 0 0 1466.9061985061853 -2905.5088520199715 0 -2905.5088520199715 1610.2862927899114 0 0 0 0 3720.801615206874 -1367.705435963253 0 -1367.705435963253 -1144.5630257246376 0 0 0 0 -19.172811986666147 -4.1406712157836552 0 -4.1406712157836552 13.191644673750517 0 0 0 0 -48.520849981293537 6.4175120738655735 0 6.4175120738655735 42.028271876046233 0 0 0 0 354.50422357521893 -1678.7153420703289 0 -1678.7153420703289 -374.53620962777495 0 0 0 0 -16.962219373703789 -49.758135083398912 0 -49.758135083398912 28.839436523185924 0 0 0 0 -3509.0092987771495 -1037.9466020659347 0 -1037.9466020659347 159.73855083245871 0 0 0 0 -550.12840671047707 -199.49252300026546 0 -199.49252300026546 -464.90694934912608 0 0 0 0 -1903.2401797842977 -726.2901228844421 0 -726.2901228844421 -1075.6426624647429 0 0 0 0 -772.87147829918831 -158.09517656413664 0 -158.09517656413664 -51.486229685375292 0 0 0 0 -24.064458199910121 -17.421086383593362 0 -17.421086383593362 39.796594531247763 0 0 0 0 -2159.6919741353995 -1335.8171039391018 0 -1335.8171039391018 -1156.0053239031986 0 0 0 0 -1763.5758396597485 -873.23144698102669 0 -873.23144698102669 -652.28793087558006 0 0 0 0 -2740.4499904785625 -1270.611679452355 0 -1270.611679452355 216.37628025298181 0 0 0 0 -2564.0907373817317 -1260.6314773719914 0 -1260.6314773719914 1814.9281277542614 0 0 0 0 -2385.0087354365824 -1211.4619255342695 0 -1211.4619255342695 -593.49076070062165 0 0 0 0 -2724.5127622490982 -2223.7541557873265 0 -2223.7541557873265 466.86743232197841 0 0 0 0 -2541.3481956026244 -2541.6279890791848 0 -2541.6279890791848 -857.0256187623163 0 0 0 0 -1099.2686767335981 -2479.5432031059681 0 -2479.5432031059681 -856.86655905838415 0 0 0 0 -2277.0058182635985 -2555.549400087737 0 -2555.549400087737 -813.78008073437377 0 0 0 0 -2130.5232700413762 -2029.2070640046586 0 -2029.2070640046586 10.68982121325098 0 0 0 0 -2534.7772969504695 -2460.5368230739568 0 -2460.5368230739568 69.591146495644352 0 0 0 0 -1186.9670234823243 -2399.5242575899283 0 -2399.5242575899283 -100.91028745831863 0 0 0 0 -225.61064185970463 -1207.1564713884873 0 -1207.1564713884873 -505.77126308667357 0 0 0 0 -130.23714978285716 -2178.6940036924934 0 -2178.6940036924934 -1033.5937063198362 0 0 0 0 720.80872001633725 -1125.3840206464674 0 -1125.3840206464674 829.46329443654395 0 0 0 0 965.45826418919023 -3028.6723190556586 0 -3028.6723190556586 3066.0810813910794 0 0 0 0 -1363.0596020128505 -3219.3333356657204 0 -3219.3333356657204 1366.1077110123588 0 0 0 0 958.09558152471436 -1943.6718348137729 0 -1943.6718348137729 -41.171994949727377 0 0 0 0 -14.304409606071005 -4.5673073302476723 0 -4.5673073302476723 16.844279588228972 0 0 0 0 -3020.634556140707 -252.83755009271408 0 -252.83755009271408 -177.26902609524404 0 0 0 0 697.25253368300037 -2238.728243221718 0 -2238.728243221718 2062.0511032200811 0 0 0 0 4155.4913209732622 -3228.5961054498293 0 -3228.5961054498293 1149.8978794865543 0 0 0 0 3526.8718716889853 -2142.9406411733216 0 -2142.9406411733216 2309.5640576119476 0 0 0 0 3577.9573760318526 -2022.6433014827326 0 -2022.6433014827326 1569.7878102396498 0 0 0 0 955.02040781371761 -1744.5766518752062 0 -1744.5766518752062 2548.1356845363189 0 0 0 0 -102.49285735894227 -1259.3775873591949 0 -1259.3775873591949 2072.0257645489182 0 0 0 0 789.98379748669686 -2372.5655977182978 0 -2372.5655977182978 1021.9511189401383 0 0 0 0 -217.89883766972343 -1649.0537452265489 0 -1649.0537452265489 763.48971519937913 0 0 0 0 -859.35331599303754 -1488.9269345889261 0 -1488.9269345889261 1188.1402959025509 0 0 0 0 -787.11443995017908 -1290.506115227392 0 -1290.506115227392 658.1250825675088 0 0 0 0 -687.37626538978657 -1090.7739372513533 0 -1090.7739372513533 1009.6171124085522 0 0 0 0 -229.10002908174647 -859.31828032084741 0 -859.31828032084741 594.87845155890682 0 0 0 0 341.48881297803018 -1606.1375666200838 0 -1606.1375666200838 262.61292922025314 0 0 0 0 -504.82553701021243 -1352.2877185412799 0 -1352.2877185412799 226.36205344650443 0 0 0 0 -725.64569222056889 -1166.4020412153623 0 -1166.4020412153623 -474.88529325970376 0 0 0 0 -271.13807969987101 -1191.7626221144528 0 -1191.7626221144528 -474.28918982796313 0 0 0 0 -704.47025714519259 -1004.0878442635003 0 -1004.0878442635003 -290.96730489537003 0 0 0 0 -740.70634766638977 -1025.0048299302071 0 -1025.0048299302071 96.726663634297438 0 0 0 0 -382.97734180465341 -1145.1039775107347 0 -1145.1039775107347 89.120756879303372 0 0 0 0 -900.37492812721757 -906.54272506351117 0 -906.54272506351117 0.72366354799305554 0 0 0 0 -1036.0558800637955 -1178.1761188386299 0 -1178.1761188386299 221.92378962035582 0 0 0 0 -1069.8804837429707 -1089.368807706931 0 -1089.368807706931 -159.72230643685907 0 0 0 0 -834.41636627569096 -1157.1468089447008 0 -1157.1468089447008 -423.32599027393735 0 0 0 0 -1164.576485892263 -1088.1817552724897 0 -1088.1817552724897 -359.07574504991499 0 0 0 0 -1051.4711243033216 -980.4072410738936 0 -980.4072410738936 -289.74269046794507 0 0 0 0 -1047.6057295970968 -1066.4043419621448 0 -1066.4043419621448 -66.016589392194874 0 0 0 0 -1175.5779624678544 -1101.3934584914678 0 -1101.3934584914678 -73.599158650686149 0 0 0 0 -1221.5020881411274 -1229.8687833153067 0 -1229.8687833153067 179.87281415102188 0 0 0 0 -1126.6482143862813 -1419.1838364181021 0 -1419.1838364181021 17.903170374585898 0 0 0 0 -1127.5436096199555 -1339.9253584181133 0 -1339.9253584181133 639.55771355084289 0 0 0 0 -810.20621422242402 -1116.2891800034477 0 -1116.2891800034477 215.17505913903005 0 0 0 0 -939.5900522183947 -1763.2935194547354 0 -1763.2935194547354 304.730534020302 0 0 0 0 -1204.9936129747221 -1345.6943274330843 0 -1345.6943274330843 -50.069516400180873 0 0 0 0 -1225.9126761801381 -1841.868361167828 0 -1841.868361167828 -9.0954145082650939 0 0 0 0 -2130.479159308321 -2367.5266937597044 0 -2367.5266937597044 -1426.1964829613134 0 0 0 0 -1567.7718117016993 -2321.6502120886289 0 -2321.6502120886289 -1516.3414472356344 0 0 0 0 -1291.3753367208865 -1749.8830616627802 0 -1749.8830616627802 -1567.4661268952332 0 0 0 0 -1936.6412789219994 -1794.9428877942282 0 -1794.9428877942282 -1560.3543018971977 0 0 0 0 -2350.5145901678843 -2000.4117542030508 0 -2000.4117542030508 -1421.0127385423912 0 0 0 0 12.195914733183855 -5.0891448034947189 0 -5.0891448034947189 -11.76697158907902 0 0 0 0 -2323.1671395500962 -2312.3845816804205 0 -2312.3845816804205 -1275.1171258325339 0 0 0 0 -2159.561634858841 -2587.5441254518055 0 -2587.5441254518055 -2891.3059783144417 0 0 0 0 -1173.2370527372404 -3146.666249387672 0 -3146.666249387672 -673.5110844089395 0 0 0 0 -1241.3511768207391 -3188.384239768202 0 -3188.384239768202 423.64032638289791 0 0 0 0 -1743.0175470407921 -2755.6163864679111 0 -2755.6163864679111 2549.770810789596 0 0 0 0 -1853.4751793033647 -1068.9872093396116 0 -1068.9872093396116 -5005.600566621164 0 0 0 0 -2481.1741341498564 -2230.6328012034937 0 -2230.6328012034937 3567.3727997857932 0 0 0 0 7.1907346048020315 -15.600595046470403 0 -15.600595046470403 -8.1295419449648705 0 0 0 0 -2700.3698374154774 -696.08902413683245 0 -696.08902413683245 -2571.2668475563405 0 0 0 0 -2207.3523616312159 -1155.3676339122176 0 -1155.3676339122176 -1463.1497406966082 0 0 0 0 9.0239570256880199 -22.364584414257337 0 -22.364584414257337 15.367978557589105 0 0 0 0 -2652.6384026488813 -974.63569449797797 0 -974.63569449797797 -1457.2122505053849 0 0 0 0 -2252.4417010239049 -1241.2404192921458 0 -1241.2404192921458 -1052.4540377054655 0 0 0 0 -2568.5461311539984 -1692.8528842106462 0 -1692.8528842106462 -1683.5750122114841 0 0 0 0 -2728.7880337374881 -1708.3373107797197 0 -1708.3373107797197 -1116.9388353292743 0 0 0 0 -2979.55818490198 -1987.9168908255378 0 -1987.9168908255378 -1153.0532955867202 0 0 0 0 -2940.9362186886283 -1710.2168333745212 0 -1710.2168333745212 -590.95832733897987 0 0 0 0 -2368.7917955934026 -1941.2780483202041 0 -1941.2780483202041 -1394.2245482649669 0 0 0 0 -2923.9130854700634 -1763.4056852484136 0 -1763.4056852484136 -1435.6775463998638 0 0 0 0 -2645.0064177657623 -2018.8790370013303 0 -2018.8790370013303 -2273.7225631777437 0 0 0 0 -2850.7592244255939 -2272.5037525026273 0 -2272.5037525026273 -693.16715256306634 0 0 0 0 -3438.6416261509876 -2533.5546872780469 0 -2533.5546872780469 -799.3237227198988 0 0 0 0 -3637.2666167087154 -1978.7107572080677 0 -1978.7107572080677 -72.950540067340626 0 0 0 0 -2802.266911554776 -1585.5636291315323 0 -1585.5636291315323 -500.84932613839919 0 0 0 0 -3015.2919605554198 -1701.0389285182355 0 -1701.0389285182355 -446.93552721460583 0 0 0 0 -3226.7476803307072 -2533.1431370774299 0 -2533.1431370774299 -2021.8370351804479 0 0 0 0 -3135.4641309294675 -2280.3644723494399 0 -2280.3644723494399 -1595.2762731196417 0 0 0 0 -3051.8111849449779 -2569.7743619002213 0 -2569.7743619002213 -709.96372614224674 0 0 0 0 -4907.9965749839175 -2343.6574123322098 0 -2343.6574123322098 -562.75002426839637 0 0 0 0 -5615.2588673412465 -1352.6065604280702 0 -1352.6065604280702 -1537.111364561526 0 0 0 0 -5541.1217607337603 -58.187257823465188 0 -58.187257823465188 -2618.2554538584081 0 0 0 0 2585.5501208285568 -2962.3257793604062 0 -2962.3257793604062 -1106.3355265643331 0 0 0 0 -8.1826562637801601 -3.810761525246761 0 -3.810761525246761 4.940969122648454 0 0 0 0 -2425.6549782607817 -2012.2546536952632 0 -2012.2546536952632 -718.09188359227846 0 0 0 0 -384.8961722381282 -3116.3160002586046 0 -3116.3160002586046 -302.58377114602263 0 0 0 0 -918.65879430791392 -2001.2594421554495 0 -2001.2594421554495 -286.53412362527416 0 0 0 0 -1387.3575778022478 -1295.9965304058169 0 -1295.9965304058169 -289.27821372305334 0 0 0 0 -1418.6055797927402 -1149.7641791815913 0 -1149.7641791815913 -323.17401640876778 0 0 0 0 -1200.5583675309572 -1435.8875786850094 0 -1435.8875786850094 -487.44002330898365 0 0 0 0 -559.19443914292788 -696.80939753029816 0 -696.80939753029816 195.74902858657151 0 0 0 0 -3.2764531323774975 -5.3615824943479851 0 -5.3615824943479851 5.4423929181554058 0 0 0 0 -1605.5915508578837 -1580.7158714568577 0 -1580.7158714568577 -1805.9346588895132 0 0 0 0 -1358.7390688935702 -1794.6725073737471 0 -1794.6725073737471 -1713.532070127425 0 0 0 0 -1971.8604558723382 -1468.8074746228958 0 -1468.8074746228958 -140.50342938717586 0 0 0 0 -1512.5092998176478 -1635.8082177060896 0 -1635.8082177060896 -1076.3111432796723 0 0 0 0 -2193.7457960581087 -1426.7884641583223 0 -1426.7884641583223 -999.14642932924835 0 0 0 0 6.4119885720125041 -2.512722998627595 0 -2.512722998627595 -6.6672191075244598 0 0 0 0 -1316.0538636959245 -2124.2934049801624 0 -2124.2934049801624 -638.14738927125291 0 0 0 0 -1799.1776358543866 -684.89665394022086 0 -684.89665394022086 -2159.6735006528997 0 0 0 0 -771.96162787560024 -1712.0767804456991 0 -1712.0767804456991 -1317.4588620133582 0 0 0 0 -1181.975487564443 -1520.9307079461578 0 -1520.9307079461578 -1071.086139396808 0 0 0 0 -1522.7613089799852 -1138.8814406873244 0 -1138.8814406873244 -1398.0286311961681 0 0 0 0 -1983.125376768272 -1644.6035365123607 0 -1644.6035365123607 -529.73832597533328 0 0 0 0 -1456.4608545349765 -1246.9469237360317 0 -1246.9469237360317 -1258.8086209355679 0 0 0 0 -1195.4414015172515 -1335.3178630508046 0 -1335.3178630508046 -1456.5165169715037 0 0 0 0 -1326.3729529567936 -1202.2147819912861 0 -1202.2147819912861 -1590.9952557715587 0 0 0 0 -1500.2243534365844 -1237.3049503670627 0 -1237.3049503670627 -1591.5879720636333 0 0 0 0 -2018.1313944961075 -1106.285071168757 0 -1106.285071168757 -1380.123365577303 0 0 0 0 -0.31934949442522509 0.62665664063581517 0 0.62665664063581517 -0.95901176432582247 0 0 0 0 -1218.4385646406954 -1427.8622210765388 0 -1427.8622210765388 -1292.6399133695113 0 0 0 0 -1091.5643877622788 -1209.7417332495661 0 -1209.7417332495661 -1339.5271656099067 0 0 0 0 -5.5769598391267579 -4.6361719671417134 0 -4.6361719671417134 2.1082621451173793 0 0 0 0 -1056.0466862909252 -1507.7564164154919 0 -1507.7564164154919 -1595.013206710777 0 0 0 0 -841.21020730028977 -1330.0925128562376 0 -1330.0925128562376 -1659.8550482631654 0 0 0 0 -1226.5650828401522 -954.9106056145356 0 -954.9106056145356 -2010.8859718338208 0 0 0 0 -1085.0582757926313 -1285.8185444981209 0 -1285.8185444981209 -1481.8840899365678 0 0 0 0 -1160.6885316174448 -1173.7958572152911 0 -1173.7958572152911 -1557.7042994687508 0 0 0 0 -1083.1567666980973 -1337.1388821668133 0 -1337.1388821668133 -1507.0983217511093 0 0 0 0 -1096.0419033975522 -1272.2308909930689 0 -1272.2308909930689 -1497.3896873647609 0 0 0 0 -2.9650486353653633 -8.4982790064624467 0 -8.4982790064624467 6.814211502444806 0 0 0 0 -1023.822480269504 -1401.1384668199898 0 -1401.1384668199898 -1469.771706390733 0 0 0 0 -1158.3784803528833 -1266.6773022529524 0 -1266.6773022529524 -1409.2373075063224 0 0 0 0 -860.32709583182805 -1468.6948979352674 0 -1468.6948979352674 -1493.7124813692353 0 0 0 0 -1067.0126174909528 -1409.1826328691532 0 -1409.1826328691532 -1300.7877683340921 0 0 0 0 -1444.5839775579643 -1070.1162034406734 0 -1070.1162034406734 -1368.9116686378329 0 0 0 0 -989.25839102289683 -2023.228004806273 0 -2023.228004806273 -796.89300941329566 0 0 0 0 -1867.722839371756 -1218.4899046514292 0 -1218.4899046514292 1643.4095076762314 0 0 0 0 -968.93687702256284 -2145.27300125291 0 -2145.27300125291 -832.07095051946817 0 0 0 0 -835.69711293822911 -917.13581884534506 0 -917.13581884534506 302.04343977895041 0 0 0 0 -1050.995419550658 -1271.6980943481321 0 -1271.6980943481321 -1695.394577018189 0 0 0 0 -880.98624668084813 24.086856460438867 0 24.086856460438867 -1059.6981373504386 0 0 0 0 -738.5394381750375 573.26517437946313 0 573.26517437946313 1315.0961143367522 0 0 0 0 -2170.6020898496936 -3120.6794365330861 0 -3120.6794365330861 -3060.995648555654 0 0 0 0 -1.2664269663521139 -12.746452476557394 0 -12.746452476557394 11.530210075245208 0 0 0 0 -2153.7398279109912 -2561.7152821541713 0 -2561.7152821541713 -1698.2496216322688 0 0 0 0 -2889.4112546719116 -2269.7444414637139 0 -2269.7444414637139 -1915.5741458161272 0 0 0 0 -3054.8121527740259 -1386.7134995011511 0 -1386.7134995011511 -1886.9572935141887 0 0 0 0 -2625.2767108213648 -2009.3247537849002 0 -2009.3247537849002 -1469.542893110498 0 0 0 0 -1981.287174036559 -1309.4152096447942 0 -1309.4152096447942 -922.45411367835186 0 0 0 0 -6519.3892322475767 -445.09268543143844 0 -445.09268543143844 -1468.2446089573714 0 0 0 0 -2829.930838293636 -773.55882684318203 0 -773.55882684318203 -2264.8691390366148 0 0 0 0 -3388.7528294007607 -1167.2873425076741 0 -1167.2873425076741 -1548.0682912220509 0 0 0 0 -3908.9216479257211 -2257.5703486310449 0 -2257.5703486310449 -1748.8694493909934 0 0 0 0 -1745.983322037031 -2154.9438956405756 0 -2154.9438956405756 -1199.4054149550357 0 0 0 0 -7.4877016622470478 -12.804593632963233 0 -12.804593632963233 6.1772727583948495 0 0 0 0 2608.938494932594 -2598.76460861332 0 -2598.76460861332 -2102.5220441864585 0 0 0 0 -2519.7031741250594 -1434.5822600073207 0 -1434.5822600073207 -1853.3658124863141 0 0 0 0 -3113.1882241925341 -1400.1601943728056 0 -1400.1601943728056 -1795.6046735864948 0 0 0 0 -2764.8331733847172 -1724.4588695010934 0 -1724.4588695010934 -1523.6253345044388 0 0 0 0 -2952.431531514083 -1736.2897442638259 0 -1736.2897442638259 -2171.6789320733224 0 0 0 0 -3146.240041819201 -1113.914900160129 0 -1113.914900160129 -2971.9616309209523 0 0 0 0 -2701.4276550145896 -1160.6813792756939 0 -1160.6813792756939 -2454.6969916602466 0 0 0 0 -1961.5908871028187 -1738.7966633713622 0 -1738.7966633713622 -2019.8984500571532 0 0 0 0 -1669.9606044571519 -1432.5451410430687 0 -1432.5451410430687 -1618.427948194636 0 0 0 0 -1642.7981164427147 -1628.137980177089 0 -1628.137980177089 -1900.4091406632033 0 0 0 0 -1.9464606979458665 0.5700663650019635 0 0.5700663650019635 0.95999678621205931 0 0 0 0 -3471.1009858462385 -1539.960365845458 0 -1539.960365845458 -1890.9349924698281 0 0 0 0 -4.3556280244857533 -3.5731208249258657 0 -3.5731208249258657 -2.2640262788027457 0 0 0 0 -3057.4126243472942 -1849.9753277862355 0 -1849.9753277862355 -1933.2292864536503 0 0 0 0 -1356.1443877824058 -1290.3146272919794 0 -1290.3146272919794 -1819.2429811618931 0 0 0 0 -1285.7096601749074 -448.31840894446805 0 -448.31840894446805 -2428.4194902887175 0 0 0 0 -2376.8506563555165 -464.26775129502494 0 -464.26775129502494 -2280.85022163744 0 0 0 0 -2202.1770397447303 -107.38896084224962 0 -107.38896084224962 -3655.639556628259 0 0 0 0 13.368807588964629 -32.668424867662964 0 -32.668424867662964 -15.731707408478687 0 0 0 0 -1697.5654073318401 -319.75019265299125 0 -319.75019265299125 -2900.6002189873689 0 0 0 0 -1476.5773526141129 -2457.9202774674068 0 -2457.9202774674068 -2563.2022895613991 0 0 0 0 -1957.4953840423477 -1726.5106540626439 0 -1726.5106540626439 -2766.0659147336701 0 0 0 0 -1783.3978323915289 -1459.1711212016598 0 -1459.1711212016598 -2776.2431806634631 0 0 0 0 -1530.2891981423309 -2314.7512069813019 0 -2314.7512069813019 -3778.3228304007825 0 0 0 0 3.2133014809870843 -3.522263447101146 0 -3.522263447101146 -13.222227863895654 0 0 0 0 -3772.7718860362147 -2064.8059906853741 0 -2064.8059906853741 -3671.7737842234092 0 0 0 0 -2967.91741608546 -1993.5454724074953 0 -1993.5454724074953 -3765.9496510292665 0 0 0 0 -3111.9141585170364 -981.46632826357381 0 -981.46632826357381 -3228.1113773529287 0 0 0 0 10.168202872858515 -25.09648664827084 0 -25.09648664827084 -9.4352898426448064 0 0 0 0 -2243.2862514573862 -1081.9121718332426 0 -1081.9121718332426 1283.857254649025 0 0 0 0 -3109.396386656219 -1353.8193472841667 0 -1353.8193472841667 3343.2538209081104 0 0 0 0 7.5584050385357671 -8.0221421898169893 0 -8.0221421898169893 -6.3786926570723068 0 0 0 0 -165.04730980086606 -3598.217500292667 0 -3598.217500292667 -543.46149615582544 0 0 0 0 1.60504326222825 -3.733471602887704 0 -3.733471602887704 -3.7996387848350963 0 0 0 0 -3847.0478918428998 583.27540881058292 0 583.27540881058292 -7385.6706814349745 0 0 0 0 -1618.6076822920604 -2175.2789650174382 0 -2175.2789650174382 -2804.2765108179083 0 0 0 0 -326.34443065796268 -5153.4694224450259 0 -5153.4694224450259 286.27438244866789 0 0 0 0 -1048.8140813143946 -830.54314832350792 0 -830.54314832350792 519.20186726025918 0 0 0 0 -2270.5408479663929 -1883.2876778660793 0 -1883.2876778660793 376.69859904160694 0 0 0 0 -1535.3378768864204 -1419.5593533396568 0 -1419.5593533396568 240.66661022099288 0 0 0 0 -835.59236958432939 -2386.384412456825 0 -2386.384412456825 910.8281065170595 0 0 0 0 -1058.9710812800731 -1561.9736389511927 0 -1561.9736389511927 -226.23091789211685 0 0 0 0 -1235.0583566730752 -1389.8849980021557 0 -1389.8849980021557 -359.17132109529484 0 0 0 0 -891.02919405845023 -1694.3762980053689 0 -1694.3762980053689 -508.89374174701152 0 0 0 0 -1049.503322643719 -1627.499196662433 0 -1627.499196662433 -104.60761791272307 0 0 0 0 -2189.9393501293816 -666.24332084972411 0 -666.24332084972411 37.598755802042433 0 0 0 0 -2156.4241009218349 -943.98970247213947 0 -943.98970247213947 549.06643977744352 0 0 0 0 -1531.792079881985 -1400.3944240225535 0 -1400.3944240225535 173.00072246471245 0 0 0 0 -2134.3000442291595 -856.93226695524208 0 -856.93226695524208 891.26608544028932 0 0 0 0 -1763.0086854043657 -1085.4660699468805 0 -1085.4660699468805 -70.684880947523197 0 0 0 0 -1233.1455817035894 -1363.0009730304737 0 -1363.0009730304737 -680.9956593855386 0 0 0 0 -1771.7430517665287 -1196.2772061077505 0 -1196.2772061077505 -884.93820823950955 0 0 0 0 -3816.5397518324971 -2324.104227543321 0 -2324.104227543321 -31.724204523226945 0 0 0 0 -2479.9637997306418 -1359.8000065968163 0 -1359.8000065968163 -332.06821538816439 0 0 0 0 4.7225452234015037 -10.53314529033301 0 -10.53314529033301 -12.282457577972252 0 0 0 0 -3369.5124812692593 -231.46359271837719 0 -231.46359271837719 -2133.8874748183134 0 0 0 0 2.8401291945098848 -7.2193956740062504 0 -7.2193956740062504 -0.46264937932866701 0 0 0 0 -1721.5759391679203 -2595.90116795209 0 -2595.90116795209 210.80018374005158 0 0 0 0 -2526.7684318900901 -1796.5549270376141 0 -1796.5549270376141 -1198.7747831106899 0 0 0 0 -1444.9725496243555 -740.54082935113183 0 -740.54082935113183 -340.23391133154655 0 0 0 0 -886.44473627210391 -1687.8542991427821 0 -1687.8542991427821 -607.99362390956958 0 0 0 0 -1211.7175453868913 -1841.6381089337774 0 -1841.6381089337774 -126.358465017649 0 0 0 0 -1738.9943121210636 -1870.3378826552125 0 -1870.3378826552125 190.52704891200119 0 0 0 0 -183.87361807410343 -374.47783946440904 0 -374.47783946440904 1910.027112032818 0 0 0 0 -1946.7960894576281 -1602.2019421186069 0 -1602.2019421186069 2781.4884464777788 0 0 0 0 -689.34928067548026 -2557.7578088401606 0 -2557.7578088401606 638.79395776214733 0 0 0 0 -1630.4170107923092 -1841.8216991045556 0 -1841.8216991045556 3492.3641698163847 0 0 0 0 -58.904868580379116 -1405.5933250773742 0 -1405.5933250773742 32.615815322882554 0 0 0 0 843.02827183390036 -6087.686576403561 0 -6087.686576403561 562.33590254613955 0 0 0 0 2576.4730144166388 -5520.2943893315969 0 -5520.2943893315969 -12087.440018850735 0 0 0 0 982.47580388226197 -2103.9282513210856 0 -2103.9282513210856 -11673.536707190709 0 0 0 0 -2516.7749441369815 -2243.6865529286588 0 -2243.6865529286588 8417.8624092376849 0 0 0 0 0.91007209954273094 -22.739107178003891 0 -22.739107178003891 -3.2298323554980808 0 0 0 0 853.73051895863318 -4718.0413218327885 0 -4718.0413218327885 -6120.8627567788899 0 0 0 0 463.97117696676287 -6388.9026553319418 0 -6388.9026553319418 -5732.0373194199638 0 0 0 0 2.3690097084900401 -59.20804577607008 0 -59.20804577607008 -5.5096505578132646 0 0 0 0 -3307.6427578987532 -59.565872090624907 0 -59.565872090624907 -5045.6279538418821 0 0 0 0 -1803.4704390796905 -982.19785262825462 0 -982.19785262825462 -5262.26018611773 0 0 0 0 -1812.3396584995207 -1644.6527127893132 0 -1644.6527127893132 -4466.9319645096148 0 0 0 0 -2318.6989507415383 -1751.8534432762553 0 -1751.8534432762553 -1953.5858394452953 0 0 0 0 -2641.896450156557 -1064.3601802835037 0 -1064.3601802835037 -2444.9516268061416 0 0 0 0 -1565.0139866090994 -574.28278008851703 0 -574.28278008851703 -2667.9431039866031 0 0 0 0 -2260.4158557180999 -1884.2218053785327 0 -1884.2218053785327 -2565.7035653888015 0 0 0 0 -1671.058747809675 -895.10579810092531 0 -895.10579810092531 -2190.9499867851846 0 0 0 0 -392.82364949017938 -1618.4103780093501 0 -1618.4103780093501 -2306.3094397368241 0 0 0 0 0.89155310383054598 -2.2783127005865111 0 -2.2783127005865111 3.8196548484205266 0 0 0 0 -1862.82241813773 -2171.8252984329301 0 -2171.8252984329301 -1142.8844192949618 0 0 0 0 -696.21473251023599 -2045.9288824846153 0 -2045.9288824846153 -1248.9995985307614 0 0 0 0 -1761.2841416825031 -761.93566712295433 0 -761.93566712295433 -2163.7552518191114 0 0 0 0 -1966.027227519091 -479.11880566551554 0 -479.11880566551554 -1839.3845546079829 0 0 0 0 16.409988495397215 -40.919956898813481 0 -40.919956898813481 -10.916119901465052 0 0 0 0 -2127.839342823303 -665.18243053380866 0 -665.18243053380866 -1549.0040834251049 0 0 0 0 -1850.8636877975987 -1070.9772924834206 0 -1070.9772924834206 -1590.8972347558883 0 0 0 0 -2765.3071927005258 -1062.2926761784765 0 -1062.2926761784765 -1583.6159709763888 0 0 0 0 10.275389920660423 -36.164832910111869 0 -36.164832910111869 15.95618917226642 0 0 0 0 -4026.4354890584073 -2666.7085939358949 0 -2666.7085939358949 -450.6613147634489 0 0 0 0 1060.4336411267868 -4744.8480230421992 0 -4744.8480230421992 284.86912551319983 0 0 0 0 -6298.1328129709436 -7246.5395698813081 0 -7246.5395698813081 -9668.0424800119654 0 0 0 0 1.718997593076196 -4.0157780942096508 0 -4.0157780942096508 6.5550689434782896 0 0 0 0 3110.4669031121157 -2414.5332468556735 0 -2414.5332468556735 -3783.5898374616518 0 0 0 0 -1368.5536213062078 -5681.2464960388024 0 -5681.2464960388024 -2393.3466852644924 0 0 0 0 0.75011130913354407 -5.1747859300415762 0 -5.1747859300415762 4.4951675393944868 0 0 0 0 17.932595624310139 -34.492829953470903 0 -34.492829953470903 29.594317923503311 0 0 0 0 139.70356193327461 147.65561614920807 0 147.65561614920807 -35.428051689549193 0 0 0 0 -1.1193581845291192 -55.36084549361658 0 -55.36084549361658 -317.87214675786163 0 0 0 0 292.89286047343194 -36.329888500909874 0 -36.329888500909874 -75.343024295318173 0 0 0 0 3.6556579706470416 -10.752570095641119 0 -10.752570095641119 -2.5149270176121945 0 0 0 0 -80.958739836001769 -55.626603001437616 0 -55.626603001437616 -30.963451596559025 0 0 0 0 302.91728588027036 33.458638676272585 0 33.458638676272585 -55.605926962060039 0 0 0 0 0.21140758064029797 -4.8893205963453852 0 -4.8893205963453852 3.0775789904480604 0 0 0 0 95.751275944669032 -269.80654227987907 0 -269.80654227987907 -18.496432111269428 0 0 0 0 -0.56382295930961845 -48.820993563027514 0 -48.820993563027514 14.263456419801514 0 0 0 0 8.1243969657197113 -18.283700703824252 0 -18.283700703824252 9.7859062933002292 0 0 0 0 -186.71338831447065 -84.294886650583067 0 -84.294886650583067 35.656008799051051 0 0 0 0 22.425267390430989 -34.361830489777049 0 -34.361830489777049 10.130694694908527 0 0 0 0 49.190859120717505 -15.582506731014291 0 -15.582506731014291 -32.266326091747032 0 0 0 0 112.67875380563783 -100.72287626226534 0 -100.72287626226534 42.702009115959868 0 0 0 0 25.842954762047157 -45.71819105558825 0 -45.71819105558825 44.853869377236151 0 0 0 0 116.54759871732676 4.8847472772886249 0 4.8847472772886249 -61.278741141864884 0 0 0 0 475.012644597693 -131.6347622627336 0 -131.6347622627336 -174.37794448225395 0 0 0 0 28.79823004047023 5.164720486766555 0 5.164720486766555 -24.188089670840327 0 0 0 0 48.224755711460602 -24.724196160637803 0 -24.724196160637803 22.643577791637654 0 0 0 0 53.871398141127429 -78.302909143212673 0 -78.302909143212673 46.771982665070027 0 0 0 0 92.547929268926964 199.56380593454196 0 199.56380593454196 -332.01376766613248 0 0 0 0 32.621397243998786 -3.0085348374074101 0 -3.0085348374074101 -24.414045838831207 0 0 0 0 91.804702568025164 -21.751172393898958 0 -21.751172393898958 52.049980769130343 0 0 0 0 434.65689056988049 118.06343125639705 0 118.06343125639705 -247.05869873181837 0 0 0 0 850.50727800770255 -365.42585369144035 0 -365.42585369144035 -196.564153267238 0 0 0 0 -34.624964818952336 -63.544767965224565 0 -63.544767965224565 44.409289470630256 0 0 0 0 -988.11550208819972 -699.07795303158491 0 -699.07795303158491 -566.15026610417044 0 0 0 0 10.5166835293453 -11.472207960808788 0 -11.472207960808788 -7.1083827258401868 0 0 0 0 -60.729837106919149 -122.77616028801094 0 -122.77616028801094 -31.565320812982463 0 0 0 0 -979.99140141156386 -678.48035066195644 0 -678.48035066195644 -517.04049973259316 0 0 0 0 -0.54564430873244874 -4.228133096104159 0 -4.228133096104159 8.6415027908831092 0 0 0 0 -1105.1889736691373 -361.05566312399242 0 -361.05566312399242 -514.6177860965272 0 0 0 0 -531.45749237267592 -629.67903247033701 0 -629.67903247033701 -271.51363965296332 0 0 0 0 14.198299135663547 -256.40955276714158 0 -256.40955276714158 -656.94951196073453 0 0 0 0 -339.74883325272822 -919.18151259734077 0 -919.18151259734077 -338.59045750866062 0 0 0 0 -768.12953188009851 -870.98319868482395 0 -870.98319868482395 -712.07456537765029 0 0 0 0 1227.9836678029096 -211.26245909260615 0 -211.26245909260615 -734.17099672289623 0 0 0 0 3.4150406192206759 -6.5966576313483927 0 -6.5966576313483927 -3.2980879465888222 0 0 0 0 189.5179952524486 -945.40559676010889 0 -945.40559676010889 -1007.0520612137516 0 0 0 0 0.12564274654141627 -895.43583597643283 0 -895.43583597643283 -554.43239070739583 0 0 0 0 521.91328379765037 -1125.7845359187922 0 -1125.7845359187922 -552.83232198245059 0 0 0 0 -143.73601517654606 -1007.8220812164491 0 -1007.8220812164491 -341.98903269097354 0 0 0 0 -2.2502254554611625 -4.4366001179963916 0 -4.4366001179963916 3.6367326635939605 0 0 0 0 219.29605016553978 -674.88426772667299 0 -674.88426772667299 -398.97784961486832 0 0 0 0 30.444222307385644 -998.50284683228074 0 -998.50284683228074 -761.77321324965851 0 0 0 0 -0.29616185498889536 -595.35547612742175 0 -595.35547612742175 -1745.0135939020547 0 0 0 0 -1.1966382000421163 -0.91945364084119774 0 -0.91945364084119774 2.8724243656746893 0 0 0 0 -586.16105258453172 -279.9705002044193 0 -279.9705002044193 -1779.2763468045341 0 0 0 0 -7.3293257943005301 -7.9199972009375017 0 -7.9199972009375017 6.9582998988278177 0 0 0 0 81.38927596481517 -914.64226954720652 0 -914.64226954720652 -504.33010486726198 0 0 0 0 -966.45478743981221 -611.45151989701844 0 -611.45151989701844 -561.7811825253392 0 0 0 0 -962.59299164204276 -592.07141345395848 0 -592.07141345395848 -485.31280840545605 0 0 0 0 -1174.305412759335 -1800.1386502764531 0 -1800.1386502764531 -235.94423871113031 0 0 0 0 -1186.2694484375052 -1307.1836050541563 0 -1307.1836050541563 105.32209577167305 0 0 0 0 120.28182590845972 -1303.224811526723 0 -1303.224811526723 -855.85809145396252 0 0 0 0 1573.1156420445477 -2657.1245747866024 0 -2657.1245747866024 -887.09666128055323 0 0 0 0 -15.962507209434989 -681.05377528774716 0 -681.05377528774716 -1820.0712882996177 0 0 0 0 -2.1316048210661052 -6.0712215613803266 0 -6.0712215613803266 4.844126695319467 0 0 0 0 4.559774977795314 -2732.8146843981904 0 -2732.8146843981904 -539.32502298619511 0 0 0 0 -258.41021385634667 -2603.8874504145601 0 -2603.8874504145601 -596.50047909899149 0 0 0 0 -389.33114703040883 -1794.9928059278293 0 -1794.9928059278293 -313.06399358346061 0 0 0 0 -1836.1977370907662 -1387.9135043171862 0 -1387.9135043171862 -334.65391803370949 0 0 0 0 -1671.1587323104322 -2134.8056285277639 0 -2134.8056285277639 -26.998705011734273 0 0 0 0 -1945.7003053840017 -1465.9760757548484 0 -1465.9760757548484 -421.63689495401047 0 0 0 0 -1950.2812330613815 -1568.6082983369838 0 -1568.6082983369838 -914.78742925222105 0 0 0 0 -0.23997752685681917 -3393.6407751489969 0 -3393.6407751489969 914.01585918957312 0 0 0 0 -1235.3838253012946 -2454.1373455442426 0 -2454.1373455442426 325.97478657358033 0 0 0 0 7155.5486164189642 -5522.2691364975326 0 -5522.2691364975326 3882.3988219437088 0 0 0 0 7851.7272223085165 -4559.2343338578321 0 -4559.2343338578321 2060.3164562170814 0 0 0 0 7965.0877625251887 -3454.0791159496093 0 -3454.0791159496093 5031.2969712409158 0 0 0 0 7058.0574750938104 -5442.3658744531222 0 -5442.3658744531222 5281.3800988050825 0 0 0 0 6471.2051034662582 -3890.2600657616031 0 -3890.2600657616031 2215.1232524327934 0 0 0 0 6907.285802807688 -3750.9632900060951 0 -3750.9632900060951 1165.0872962911144 0 0 0 0 4710.5467830602283 -868.81988977651076 0 -868.81988977651076 -17.450208027480585 0 0 0 0 3032.3162804971798 -1577.576634630741 0 -1577.576634630741 43.398104051751943 0 0 0 0 6291.8863707331911 -3135.7611817502498 0 -3135.7611817502498 -133.41512870884708 0 0 0 0 6236.5481419672142 -2349.4959854947292 0 -2349.4959854947292 1883.2762395620045 0 0 0 0 3.4348258817665283 -5.4553967081684362 0 -5.4553967081684362 4.5040425810424027 0 0 0 0 1393.826053045108 -4335.3070165927793 0 -4335.3070165927793 1490.6215770190679 0 0 0 0 6273.9729490035779 -9039.0238433232917 0 -9039.0238433232917 2592.2809523463438 0 0 0 0 1431.8567207622109 -4219.1554174383818 0 -4219.1554174383818 1467.4207052193078 0 0 0 0 27363.115767960437 -13196.64830498099 0 -13196.64830498099 2661.336137109256 0 0 0 0 13.006518002033943 -2.1725170947664338 0 -2.1725170947664338 -3.215751327389075 0 0 0 0 11460.512385448004 -2265.6356057694702 0 -2265.6356057694702 438.86428323640303 0 0 0 0 -2912.7035466111265 -1973.0919692560651 0 -1973.0919692560651 -475.0834630001068 0 0 0 0 -4124.802489062793 -745.45998952019318 0 -745.45998952019318 345.18323862352736 0 0 0 0 -14.162133693659001 -36.830321702169954 0 -36.830321702169954 28.287060219152508 0 0 0 0 -2368.4730114629492 -1690.1972668446952 0 -1690.1972668446952 14.680264529923988 0 0 0 0 9803.0959453664545 -6430.4948964355963 0 -6430.4948964355963 1624.2535603531687 0 0 0 0 9572.7593490738218 -5418.6463272363662 0 -5418.6463272363662 762.3750811945647 0 0 0 0 -27.590321278524002 -52.57559419453554 0 -52.57559419453554 48.363242325221485 0 0 0 0 5755.9543006217427 -696.18128029357194 0 -696.18128029357194 4001.1108294457663 0 0 0 0 38.616505569487344 -740.7025035248771 0 -740.7025035248771 43.691856413692221 0 0 0 0 9556.0553313300916 -5463.0642437262641 0 -5463.0642437262641 919.64381983387648 0 0 0 0 -1523.176358256489 -1102.211499197475 0 -1102.211499197475 61.264362497191541 0 0 0 0 -2208.1631502962555 -264.80524889608569 0 -264.80524889608569 130.77317062897782 0 0 0 0 -474.54107904279954 -234.45094755669015 0 -234.45094755669015 104.85125947389088 0 0 0 0 -1887.7287233407114 -948.71680084782838 0 -948.71680084782838 32.932203354206649 0 0 0 0 618.21952541815699 -423.86379747093133 0 -423.86379747093133 149.72659152566121 0 0 0 0 1.7280393884992122 -5.6955958159116449 0 -5.6955958159116449 -1.6516169977843589 0 0 0 0 1612.4562095772126 -4120.4258754568582 0 -4120.4258754568582 1958.5235042390614 0 0 0 0 3631.0422846828005 -2346.5253521630366 0 -2346.5253521630366 137.77778806884999 0 0 0 0 7951.0359807721106 -3121.2479135664962 0 -3121.2479135664962 -69.360326500436713 0 0 0 0 815.77926108524844 -2390.3335863888715 0 -2390.3335863888715 1587.842310462147 0 0 0 0 -612.45567939066677 -3296.5676941322181 0 -3296.5676941322181 2630.0071597630213 0 0 0 0 -480.12783124881116 -1884.89139415823 0 -1884.89139415823 1483.5680336710138 0 0 0 0 -1306.6961133199802 -1846.6712722962948 0 -1846.6712722962948 1699.7678131748544 0 0 0 0 2934.4050023863965 -6018.5974173099567 0 -6018.5974173099567 3359.4081239061634 0 0 0 0 -3560.920010573609 -3293.8821270974531 0 -3293.8821270974531 2859.2393896448352 0 0 0 0 10819.813180190744 -2310.2045914909991 0 -2310.2045914909991 -255.7548093222249 0 0 0 0 34.330931268098936 -38.94404689993479 0 -38.94404689993479 35.252935527665926 0 0 0 0 -1823.5738547395777 -759.68308250443806 0 -759.68308250443806 -1785.0419455054434 0 0 0 0 -2210.6081687167753 -1083.6018394313487 0 -1083.6018394313487 1192.179126567331 0 0 0 0 -3358.8040848196106 -3029.3820575653626 0 -3029.3820575653626 -1336.4338479883518 0 0 0 0 -760.88194019408547 -1418.5444748856771 0 -1418.5444748856771 81.588572064812752 0 0 0 0 72.818105061456833 -89.159214910242667 0 -89.159214910242667 81.264581173798788 0 0 0 0 4599.7669127773552 539.98729322374083 0 539.98729322374083 -1078.0101521295423 0 0 0 0 -391.32427093704609 -164.50227389010769 0 -164.50227389010769 1259.5738066987224 0 0 0 0 2991.1113345024933 -469.09458113357869 0 -469.09458113357869 -160.48443088999807 0 0 0 0 -746.2952620168362 -394.54905984784818 0 -394.54905984784818 -1671.8898924910609 0 0 0 0 -1720.7225780835142 626.62552631604194 0 626.62552631604194 -1709.1114085332229 0 0 0 0 -5.0423310410848785 2.2395144016255983 0 2.2395144016255983 3.4976495089001673 0 0 0 0 -3018.0233887168833 -1346.1569973924034 0 -1346.1569973924034 -284.1499896351379 0 0 0 0 24.227277333372854 -29.410691100645167 0 -29.410691100645167 34.972948846342391 0 0 0 0 -1751.2091867813724 -844.41363593542701 0 -844.41363593542701 414.16137104924564 0 0 0 0 -1512.358476479465 -1068.883548210124 0 -1068.883548210124 -1648.791041403565 0 0 0 0 -1242.3783061427603 -471.18758513617877 0 -471.18758513617877 -511.85015271463999 0 0 0 0 -1046.5783191266673 -928.53738713740677 0 -928.53738713740677 240.29081670056985 0 0 0 0 -1668.6299365109007 -710.36869848356582 0 -710.36869848356582 560.36727031162627 0 0 0 0 -870.39727822472923 -1685.6397009409302 0 -1685.6397009409302 1271.6672388220104 0 0 0 0 -1200.9717330312851 -1873.6084729114809 0 -1873.6084729114809 1996.0942359975124 0 0 0 0 -1225.1988288256252 -1096.2923907164813 0 -1096.2923907164813 653.28875147548388 0 0 0 0 -767.45762393144832 -1837.7595787902046 0 -1837.7595787902046 1399.0470794898465 0 0 0 0 -617.55103166420486 -1909.5988807218368 0 -1909.5988807218368 1334.8494901681806 0 0 0 0 -920.16284004951012 -1917.5677847021434 0 -1917.5677847021434 1384.6265711492924 0 0 0 0 -819.5397892992296 -2230.6023663556848 0 -2230.6023663556848 692.71505409059318 0 0 0 0 -741.97004976481912 -1974.2697509166887 0 -1974.2697509166887 756.48860698905628 0 0 0 0 -407.17195059169899 -2209.5622993379038 0 -2209.5622993379038 920.97778501917855 0 0 0 0 -405.56164434055972 -1875.2364794075365 0 -1875.2364794075365 1054.2635156183314 0 0 0 0 -557.48202179440523 -2133.1861681614437 0 -2133.1861681614437 1577.4133979036706 0 0 0 0 4018.2036610162322 -2087.4383188701431 0 -2087.4383188701431 294.79410138342973 0 0 0 0 1907.8792518052942 -1719.6409492362327 0 -1719.6409492362327 481.00634095834903 0 0 0 0 1452.5169871141989 -1357.157591306579 0 -1357.157591306579 780.69971088334205 0 0 0 0 966.64899553045689 -2430.4283214827974 0 -2430.4283214827974 1175.5913857443229 0 0 0 0 158.58853267638187 -2290.8060846679628 0 -2290.8060846679628 775.09890047761291 0 0 0 0 763.39670647003732 -982.95914976829044 0 -982.95914976829044 395.72634041478159 0 0 0 0 -41.574795077504234 -70.61078717174405 0 -70.61078717174405 44.601981008761143 0 0 0 0 310.43553378345678 -139.93555272805133 0 -139.93555272805133 21.729546686427057 0 0 0 0 -44.105308781850184 -71.007181294669124 0 -71.007181294669124 53.715312564303971 0 0 0 0 53.710201932292193 -5.1346438671793919 0 -5.1346438671793919 -16.683181702463472 0 0 0 0 -706.20644704716688 -2385.7628663954138 0 -2385.7628663954138 129.19344710382575 0 0 0 0 -402.74631865747506 -1129.6915863206341 0 -1129.6915863206341 458.59104499949171 0 0 0 0 -1253.8305556436098 -1611.1613809951341 0 -1611.1613809951341 193.86987465098355 0 0 0 0 -718.58345130385715 -2053.3683499593208 0 -2053.3683499593208 -200.93274460445173 0 0 0 0 -741.63932244590251 -2539.8913296372448 0 -2539.8913296372448 -320.45264260499971 0 0 0 0 -696.01707463320054 -2115.314024864525 0 -2115.314024864525 33.671942903914896 0 0 0 0 -730.99294870679933 -2368.7264458442546 0 -2368.7264458442546 24.940832237698487 0 0 0 0 -660.22646690435067 -2410.0993765202693 0 -2410.0993765202693 426.10173960185057 0 0 0 0 -559.38212656031828 -1886.1521706021013 0 -1886.1521706021013 550.78168649178406 0 0 0 0 -849.17913710720313 -2118.4381656437363 0 -2118.4381656437363 -5.2401182828543824 0 0 0 0 -829.97574287501629 -2012.0998562635141 0 -2012.0998562635141 355.23322057336736 0 0 0 0 -778.79388881271007 -2108.4468529013466 0 -2108.4468529013466 -286.28570994176334 0 0 0 0 -778.96225187652453 -2084.4857173088421 0 -2084.4857173088421 -22.880411231784819 0 0 0 0 -1073.9167284749128 -2124.9175231572735 0 -2124.9175231572735 48.645021041373184 0 0 0 0 -1173.6387932304442 -2724.6376502223748 0 -2724.6376502223748 -2149.3688858427122 0 0 0 0 -5.7678923102546946 -7.807354738979102 0 -7.807354738979102 4.5368819775564759 0 0 0 0 -1435.1057807705583 -839.0674668918964 0 -839.0674668918964 270.5790737329371 0 0 0 0 -1583.9265658821532 -1246.0057657315319 0 -1246.0057657315319 -355.50488296234107 0 0 0 0 -1481.2605036953755 -2100.8987446110368 0 -2100.8987446110368 717.9275425230262 0 0 0 0 -1985.178091908434 -1419.430831814363 0 -1419.430831814363 138.73955484924954 0 0 0 0 -3071.7806631180792 -2027.2085254157009 0 -2027.2085254157009 945.17705109089002 0 0 0 0 -1.069601185153978 -8.7406338624574857 0 -8.7406338624574857 5.6035181890471648 0 0 0 0 803.14991662818647 -1994.9793962172971 0 -1994.9793962172971 740.94733427557367 0 0 0 0 -4310.1906610183505 -1602.8490777023417 0 -1602.8490777023417 852.73040328367824 0 0 0 0 -1185.1988248866255 -1622.3567042303075 0 -1622.3567042303075 525.8043495671227 0 0 0 0 -904.58970185552607 -1786.8159924269912 0 -1786.8159924269912 890.13028044545081 0 0 0 0 -1050.8901200395339 -1971.5474361608849 0 -1971.5474361608849 1008.1716048225753 0 0 0 0 -811.89535180090752 -1063.2188103280168 0 -1063.2188103280168 222.42786232476283 0 0 0 0 0.94048794086964449 -17.616051457067044 0 -17.616051457067044 9.3573033526202067 0 0 0 0 -1250.3976659377076 -973.01449110413159 0 -973.01449110413159 -484.42712981082514 0 0 0 0 -1317.9349110469921 -776.5127609021074 0 -776.5127609021074 297.53358563984102 0 0 0 0 -940.83612524640193 -1238.2466809333528 0 -1238.2466809333528 247.58264188507928 0 0 0 0 -2007.8478005838915 -527.92455019230511 0 -527.92455019230511 -498.07267521385074 0 0 0 0 -4151.95021555126 -2007.9866437393066 0 -2007.9866437393066 405.79437885415246 0 0 0 0 -589.90280157986854 -1258.3645858612472 0 -1258.3645858612472 -949.02914034967398 0 0 0 0 -1224.5561800182804 -1189.8678983429713 0 -1189.8678983429713 -794.84388920377387 0 0 0 0 -703.236867246771 -508.69004394549484 0 -508.69004394549484 -618.8146538156725 0 0 0 0 608.46589731323184 -813.63985509174927 0 -813.63985509174927 -1178.6493734448522 0 0 0 0 -749.77801117659692 -716.58661316725784 0 -716.58661316725784 -1184.587659233468 0 0 0 0 -1276.7775577052234 -1542.176119860429 0 -1542.176119860429 1109.8121394107056 0 0 0 0 -1067.5441129290484 -1177.6917257301229 0 -1177.6917257301229 519.67132750989549 0 0 0 0 27.482783728264621 -2488.8840845357518 0 -2488.8840845357518 894.51394922718328 0 0 0 0 1505.9719762649038 -1575.8690279863895 0 -1575.8690279863895 -464.71298145454784 0 0 0 0 -0.36525958022659211 -8.9946479279232108 0 -8.9946479279232108 3.7714950948691097 0 0 0 0 569.88217116612941 -1040.577569768262 0 -1040.577569768262 -327.93493715360819 0 0 0 0 -983.91871210548561 -1126.7710353647617 0 -1126.7710353647617 -213.98752659305319 0 0 0 0 -1171.8278629584165 -2028.9114713973941 0 -2028.9114713973941 -522.53252221827279 0 0 0 0 -1869.5909502301092 -1502.4440528987441 0 -1502.4440528987441 -341.8178307195667 0 0 0 0 -3179.0943549400545 -1029.7590374333249 0 -1029.7590374333249 62.144905922501493 0 0 0 0 -1578.8328111575393 -1504.8595400585218 0 -1504.8595400585218 -387.9101188436216 0 0 0 0 -1584.8980472487467 -1802.4510580767001 0 -1802.4510580767001 -194.68779634294333 0 0 0 0 -1501.1590157064347 -1469.5069137432261 0 -1469.5069137432261 -925.94507647340652 0 0 0 0 -1068.8363291410642 -2149.1524137682682 0 -2149.1524137682682 -636.32641611567033 0 0 0 0 -1363.6062037832016 -1859.2545874230382 0 -1859.2545874230382 -487.53397035047601 0 0 0 0 -1907.5127936001518 -1672.6832618084081 0 -1672.6832618084081 -499.37413860255992 0 0 0 0 -2032.7266458071826 -1461.5464842868605 0 -1461.5464842868605 91.001116157118304 0 0 0 0 -1906.1787623634737 -1381.4058728021773 0 -1381.4058728021773 -1025.0969863792634 0 0 0 0 -2792.0568385358129 -2332.3496849019084 0 -2332.3496849019084 -629.69361196635873 0 0 0 0 -2194.5411133353009 -2579.5553980194327 0 -2579.5553980194327 -2786.4874671005782 0 0 0 0 -2558.9456309318048 -973.90008691265211 0 -973.90008691265211 -477.88856807050615 0 0 0 0 -2701.090312160457 -1617.3507695294993 0 -1617.3507695294993 -456.96621026489447 0 0 0 0 -1367.3148089899114 -1055.3791542059134 0 -1055.3791542059134 -314.01926509162149 0 0 0 0 -2285.8268877647788 -1484.8417202936762 0 -1484.8417202936762 321.92222046226266 0 0 0 0 -2898.4221608727385 -1135.7852426211466 0 -1135.7852426211466 -851.61650760572957 0 0 0 0 -2288.3417597823864 -1275.6988295315932 0 -1275.6988295315932 -833.79349129146431 0 0 0 0 -2383.8101774300667 -1051.0645729040752 0 -1051.0645729040752 -2024.5793209110489 0 0 0 0 82.187949029714218 -129.00460480442598 0 -129.00460480442598 -153.50554583126177 0 0 0 0 -36.592701402272297 -46.191792483718572 0 -46.191792483718572 42.563362876655447 0 0 0 0 0.80074780344330065 -14.410729843527989 0 -14.410729843527989 -16.21515724345042 0 0 0 0 -166.42079342766101 -6.3191853250368695 0 -6.3191853250368695 -251.46751144496375 0 0 0 0 -145.24271869543009 -315.14381091581163 0 -315.14381091581163 -476.79821426774288 0 0 0 0 -96.822177245412604 -480.25884835187753 0 -480.25884835187753 -294.18255192721335 0 0 0 0 -5.3193564267511704 -23.447324290031503 0 -23.447324290031503 42.647067148872111 0 0 0 0 -9.0459257393258667 -10.476227622137902 0 -10.476227622137902 9.0867749401585272 0 0 0 0 -206.28897259460427 -504.9328834816979 0 -504.9328834816979 -142.96771223346877 0 0 0 0 -2684.1935545284941 -604.13556593791509 0 -604.13556593791509 1868.3969589967564 0 0 0 0 -32.025295930638094 -232.16874062646093 0 -232.16874062646093 -352.56713314526678 0 0 0 0 -130.70044912586309 -104.16521440638462 0 -104.16521440638462 395.29882184880626 0 0 0 0 132.55367298824422 -476.81633597939071 0 -476.81633597939071 1273.3924565009074 0 0 0 0 23.941908960438013 -622.48045263577751 0 -622.48045263577751 1165.7965421102781 0 0 0 0 -404.45532699780597 -674.53395431275931 0 -674.53395431275931 1606.7866104281202 0 0 0 0 92.511809466479463 -393.09027552712359 0 -393.09027552712359 1692.2620517688265 0 0 0 0 926.81541650829604 -1689.6017082668404 0 -1689.6017082668404 2011.7062355297894 0 0 0 0 -476.62979833707504 -1068.5573376689381 0 -1068.5573376689381 1795.5150046645213 0 0 0 0 -626.40474086167524 -60.931455289520272 0 -60.931455289520272 1986.2203742208403 0 0 0 0 -0.58017505881440457 -7.0295961176590254 0 -7.0295961176590254 24.594443192542329 0 0 0 0 -1974.7593342284381 -1608.0703245858103 0 -1608.0703245858103 1752.0746012061427 0 0 0 0 -1257.9677899137168 -2500.4437533466698 0 -2500.4437533466698 12.705560848597088 0 0 0 0 -360.8782941670695 -918.56877519950581 0 -918.56877519950581 550.55069663561881 0 0 0 0 -1241.3654639736633 -385.66869435767876 0 -385.66869435767876 894.53171680834384 0 0 0 0 -344.09336037458638 -1694.6071834961115 0 -1694.6071834961115 1619.0235119488498 0 0 0 0 -482.04664745104674 -1333.9468210038249 0 -1333.9468210038249 2614.2495051112837 0 0 0 0 -1005.3525073969504 -559.95168005458981 0 -559.95168005458981 1122.7646485687201 0 0 0 0 -726.38883521474781 -475.88211130115815 0 -475.88211130115815 35.562240545623354 0 0 0 0 -18.684451394183384 -24.537315514712574 0 -24.537315514712574 19.170340927555749 0 0 0 0 -755.62361918576789 101.71150010128667 0 101.71150010128667 -147.17258865720214 0 0 0 0 -913.25731404850376 -1008.9139099284766 0 -1008.9139099284766 -1230.1840163731194 0 0 0 0 -12.573914472074136 -17.581107999605496 0 -17.581107999605496 12.109641907315293 0 0 0 0 -889.29881346068578 -112.85511669949483 0 -112.85511669949483 970.54282664307902 0 0 0 0 -27.670413353276672 -705.18225466502918 0 -705.18225466502918 336.97117714857086 0 0 0 0 9.9865904750831334 -19.951441745034444 0 -19.951441745034444 -11.426686188677223 0 0 0 0 -659.99150533047941 -402.63618752634829 0 -402.63618752634829 -367.62925856447328 0 0 0 0 -1310.52993080944 -619.10343015773833 0 -619.10343015773833 58.35716831611353 0 0 0 0 -1133.0870402532673 232.10185581558289 0 232.10185581558289 489.64300014571927 0 0 0 0 -331.0017867682036 -147.78555641142884 0 -147.78555641142884 -359.55500575466431 0 0 0 0 -120.97582322516246 -1121.4205372233628 0 -1121.4205372233628 -93.895285892227548 0 0 0 0 -911.32099342581932 -1604.8339781291033 0 -1604.8339781291033 -42.772076454137277 0 0 0 0 -499.62466853346268 -693.32189693704277 0 -693.32189693704277 -454.46201995289812 0 0 0 0 -838.98292623715679 -1246.2371050852053 0 -1246.2371050852053 315.69181834320625 0 0 0 0 -386.67993131630647 -1339.2626701644258 0 -1339.2626701644258 330.36562909958957 0 0 0 0 -382.53485970016482 -1681.9817008932441 0 -1681.9817008932441 2058.9378331760381 0 0 0 0 -712.84256798746651 -1031.9737526094127 0 -1031.9737526094127 3210.6530613831346 0 0 0 0 7.5590029945060451 -12.885027506666662 0 -12.885027506666662 -3.2919494981669999 0 0 0 0 506.89150282522314 -451.52502319237828 0 -451.52502319237828 -692.29840811429312 0 0 0 0 1109.6030962351506 -1391.4020798398269 0 -1391.4020798398269 -433.70559590619814 0 0 0 0 -894.22029807835497 -1132.0953403101885 0 -1132.0953403101885 -1281.3778969983323 0 0 0 0 -934.60659868713992 -1238.1321435597783 0 -1238.1321435597783 -1557.6344102302392 0 0 0 0 -1046.4167144679814 -703.56367731385762 0 -703.56367731385762 -1724.5899977717418 0 0 0 0 -841.91734506077773 -1208.9494131701831 0 -1208.9494131701831 -2204.8385147388908 0 0 0 0 -1134.0643398456086 -717.00720169150918 0 -717.00720169150918 -1086.9268496941368 0 0 0 0 -705.15402680971602 -1064.3463166577749 0 -1064.3463166577749 -848.78919825355479 0 0 0 0 -771.33895449108286 -377.12393852060472 0 -377.12393852060472 -361.11627470680833 0 0 0 0 -545.0241606739728 -891.0173884194046 0 -891.0173884194046 28.412924728325379 0 0 0 0 -246.8494237565028 -214.68771867927717 0 -214.68771867927717 -613.14936894649145 0 0 0 0 -86.034561435328214 -468.64569230462803 0 -468.64569230462803 -52.450657776818844 0 0 0 0 -1599.9218410012836 -1132.6364986215285 0 -1132.6364986215285 -991.84227454530992 0 0 0 0 9.4566853001983873 -23.959897934823047 0 -23.959897934823047 4.0877732722867393 0 0 0 0 -4051.371046322929 -2198.0362469625015 0 -2198.0362469625015 1671.5803230922756 0 0 0 0 -1142.8247234239097 -1303.1050284342455 0 -1303.1050284342455 -1326.011598095618 0 0 0 0 1654.6466458435461 -594.81081270379946 0 -594.81081270379946 -217.85850542208937 0 0 0 0 3781.841575210834 -1606.09420759969 0 -1606.09420759969 70.437529138573154 0 0 0 0 4.1845199388773011 -11.790101927870467 0 -11.790101927870467 4.8938247485425563 0 0 0 0 -1710.064455525775 -2889.8508116807789 0 -2889.8508116807789 5558.6434434631483 0 0 0 0 299.24617957543524 -2797.1627528617282 0 -2797.1627528617282 4702.6870657642139 0 0 0 0 -1954.7112413107243 717.93950588217558 0 717.93950588217558 -3339.3977522555215 0 0 0 0 -1761.7407237110092 233.20627008370866 0 233.20627008370866 -2175.3176081313723 0 0 0 0 -1368.0178512051643 -302.77334647662792 0 -302.77334647662792 -2516.8523373802454 0 0 0 0 11.902769693732125 -15.07182871082415 0 -15.07182871082415 -11.288033250449971 0 0 0 0 -1122.7902585127886 -5108.6560710958074 0 -5108.6560710958074 3565.0570234362531 0 0 0 0 -461.73651213824633 -2639.6763732561085 0 -2639.6763732561085 -1072.4968767769715 0 0 0 0 -1141.4208593312214 -1979.7102704574208 0 -1979.7102704574208 -310.14924152086678 0 0 0 0 -1825.8265656144977 -1643.9470203776673 0 -1643.9470203776673 -1638.0481346923189 0 0 0 0 -1117.8485309993994 -1722.015742424217 0 -1722.015742424217 -2024.4702070950407 0 0 0 0 -1003.4427728627779 -2822.5820819050714 0 -2822.5820819050714 -1643.8606843567759 0 0 0 0 -1138.9140371113099 -2651.8581823249206 0 -2651.8581823249206 -975.35494125700643 0 0 0 0 -1252.0223230220363 -2463.0296508886222 0 -2463.0296508886222 -1028.3495286724356 0 0 0 0 -1560.1821588607563 -2867.823285497856 0 -2867.823285497856 -1523.975404960187 0 0 0 0 -1173.1597139814621 -1973.7702802936037 0 -1973.7702802936037 -2187.0959906623029 0 0 0 0 -1186.9081659879012 -2206.3432529256916 0 -2206.3432529256916 -925.87322371672781 0 0 0 0 -1264.9468718067073 -1552.186498073992 0 -1552.186498073992 -1124.4766783050982 0 0 0 0 -1153.9450981835253 -2280.1468127081025 0 -2280.1468127081025 -1159.5099573272746 0 0 0 0 -1256.068124176767 -2374.5155053982453 0 -2374.5155053982453 -461.39075726448209 0 0 0 0 -1220.6918382922886 -1683.500928223868 0 -1683.500928223868 -504.88197947212939 0 0 0 0 -1221.7679329782186 -1241.4143600810103 0 -1241.4143600810103 -192.16761743827374 0 0 0 0 -1289.7485683133418 -1352.6859650575061 0 -1352.6859650575061 4.814631906861905 0 0 0 0 -1254.9493744075007 -1293.8913181092721 0 -1293.8913181092721 -591.22589110891931 0 0 0 0 -1292.5726614181749 -1379.3398759685815 0 -1379.3398759685815 -234.72542610870732 0 0 0 0 -1303.7953742160607 -1726.1822437174851 0 -1726.1822437174851 -392.52775320303044 0 0 0 0 -1407.5466015338461 -1644.2839858414955 0 -1644.2839858414955 -873.480689222808 0 0 0 0 -1334.4174646449028 -1371.441415606077 0 -1371.441415606077 -594.76913830341073 0 0 0 0 -1352.0953664648405 -1317.4869200003959 0 -1317.4869200003959 -678.88899038139789 0 0 0 0 -1344.3689095851714 -1252.6703622224718 0 -1252.6703622224718 -349.12131458034855 0 0 0 0 -1261.1095385710069 -1179.7592032682733 0 -1179.7592032682733 -430.72161013365258 0 0 0 0 -1281.4088040078932 -1225.4257666171907 0 -1225.4257666171907 -426.43751320816227 0 0 0 0 -1311.8881138361539 -1400.898718211145 0 -1400.898718211145 -528.58725880712154 0 0 0 0 -1192.0801857605984 -1236.3556506458335 0 -1236.3556506458335 -434.57647242522216 0 0 0 0 -1224.7041287960019 -1233.5206006303415 0 -1233.5206006303415 -359.17462633154355 0 0 0 0 -1233.9301552136239 -1123.4302909922553 0 -1123.4302909922553 -350.43506340769818 0 0 0 0 -1187.229181268689 -1135.7102323703584 0 -1135.7102323703584 -348.63862509127648 0 0 0 0 -1220.5966939051868 -1064.7731849836709 0 -1064.7731849836709 -344.10928356007207 0 0 0 0 -1200.550161325169 -1064.9992677125701 0 -1064.9992677125701 -349.04600938052317 0 0 0 0 -1220.3383774017566 -1069.8781926589436 0 -1069.8781926589436 -273.85795810549462 0 0 0 0 -1165.4334761795471 -995.57729263069632 0 -995.57729263069632 -359.75133519950032 0 0 0 0 -1178.3730025690011 -1045.1009243670405 0 -1045.1009243670405 -259.22917708163732 0 0 0 0 -1234.603329219739 -1178.8873457242516 0 -1178.8873457242516 -105.0293321643403 0 0 0 0 -1236.5191505254552 -1146.558246065093 0 -1146.558246065093 -371.74864727837848 0 0 0 0 -1271.177642919909 -1101.584843692086 0 -1101.584843692086 -284.77744675670692 0 0 0 0 -1089.102802634472 -1656.7046469052948 0 -1656.7046469052948 -614.16136868055037 0 0 0 0 -1134.8537966388685 -1740.5751043028358 0 -1740.5751043028358 -713.48623584628513 0 0 0 0 -1048.0896178272378 -1967.8651140870134 0 -1967.8651140870134 -723.30117563551175 0 0 0 0 -897.72184952304815 -1788.6491424320557 0 -1788.6491424320557 -479.7135722369494 0 0 0 0 -1197.9173839844589 -1918.996600403254 0 -1918.996600403254 -536.27460274353507 0 0 0 0 -1033.6467401337868 -2027.4068619453028 0 -2027.4068619453028 -409.07458320252772 0 0 0 0 -835.94353203393985 -1624.8636884533189 0 -1624.8636884533189 -429.35366297092423 0 0 0 0 -1218.4625037034566 -1646.7052749491122 0 -1646.7052749491122 -430.45934749780281 0 0 0 0 -1238.723378742754 -1442.0613543683867 0 -1442.0613543683867 -393.58301116475195 0 0 0 0 -1119.0222791051492 -1290.7727329352492 0 -1290.7727329352492 -472.37394077343924 0 0 0 0 -1288.7507019229524 -1356.443756001805 0 -1356.443756001805 -613.26305878517451 0 0 0 0 -1388.3569750218594 -1593.5142920751314 0 -1593.5142920751314 -690.18800962388923 0 0 0 0 -1162.627917004691 -1412.6310384683238 0 -1412.6310384683238 -555.15635424104403 0 0 0 0 -1248.8308659182221 -1715.9110692050235 0 -1715.9110692050235 -534.1205964966648 0 0 0 0 -1435.6104271990953 -1795.3356057375422 0 -1795.3356057375422 -937.00054762707441 0 0 0 0 -1495.3817393867939 -1496.4296292326471 0 -1496.4296292326471 -774.61269731115317 0 0 0 0 -1470.6263328075001 -1550.7689995839173 0 -1550.7689995839173 -771.90334292968328 0 0 0 0 -1673.1215771829593 -1647.4795069850516 0 -1647.4795069850516 -1001.020827457176 0 0 0 0 -1356.4980965809373 -1502.1329432064667 0 -1502.1329432064667 -985.08572663991072 0 0 0 0 -1630.2353106561204 -1857.0259749799588 0 -1857.0259749799588 -922.48253508591733 0 0 0 0 -1398.6401307003689 -1700.8218514189648 0 -1700.8218514189648 -1089.2364427522589 0 0 0 0 -1784.5425977755513 -1820.0681356108835 0 -1820.0681356108835 -1116.3594380609175 0 0 0 0 -1219.7418272187206 -1850.615281776707 0 -1850.615281776707 -923.68732803386229 0 0 0 0 -1479.0692558287119 -1718.8310492795426 0 -1718.8310492795426 -710.4645352997286 0 0 0 0 -1389.7629491688276 -1963.0744927492415 0 -1963.0744927492415 -715.34616998879937 0 0 0 0 -1621.2804474121658 -1905.0505656889145 0 -1905.0505656889145 -1142.73496263985 0 0 0 0 -1340.2888263590285 -1927.42450111793 0 -1927.42450111793 -1145.5943922733131 0 0 0 0 -1415.7828309935867 -1811.2616508364736 0 -1811.2616508364736 -1432.0234501504601 0 0 0 0 -1531.686011261947 -1803.0797255743382 0 -1803.0797255743382 -1414.7037044491153 0 0 0 0 -1656.8838794989861 -1727.6483419767465 0 -1727.6483419767465 -1510.861290496845 0 0 0 0 -1449.3248161914526 -1846.6396009043856 0 -1846.6396009043856 -1497.6035020042618 0 0 0 0 -1528.9911979141471 -1590.184611251665 0 -1590.184611251665 -2160.9523642032364 0 0 0 0 -1825.4015463044343 -2033.3715996784595 0 -2033.3715996784595 -2592.1993812009168 0 0 0 0 -1726.4545225643378 -2035.3436656977719 0 -2035.3436656977719 -1909.0825942606607 0 0 0 0 -1390.2263017244404 -1803.740032596972 0 -1803.740032596972 -2114.4672398243565 0 0 0 0 -1610.9799346209329 -1722.9499249702494 0 -1722.9499249702494 -1859.8998165613521 0 0 0 0 -1484.0661476928508 -1845.5359603588731 0 -1845.5359603588731 -1924.7791238515929 0 0 0 0 -1338.3850830092415 -1582.6970514185487 0 -1582.6970514185487 -1373.2686691231356 0 0 0 0 -1669.4367143333366 -1522.5635500362696 0 -1522.5635500362696 -1384.1079898354583 0 0 0 0 -1484.9084826729231 -1584.7048438828497 0 -1584.7048438828497 -1422.3236338214629 0 0 0 0 -1754.4705553293461 -1918.3453319143809 0 -1918.3453319143809 -1553.6534664641149 0 0 0 0 -1882.7435483775625 -1488.5720500741299 0 -1488.5720500741299 -2196.4370356650743 0 0 0 0 -1611.3956201894107 -1624.9471444037536 0 -1624.9471444037536 -2178.6452186245442 0 0 0 0 -855.38295846738038 545.6700196734746 0 545.6700196734746 -6424.847191392073 0 0 0 0 -778.46956253566896 -1235.0985036179482 0 -1235.0985036179482 -6290.2425126637609 0 0 0 0 -1206.1766455931865 -2755.6271430700072 0 -2755.6271430700072 -4243.766730290823 0 0 0 0 -1274.3416909989901 -1287.2231559859792 0 -1287.2231559859792 -2332.2892456912668 0 0 0 0 -1275.2726785064588 -1359.4488828964568 0 -1359.4488828964568 -3103.1578932559933 0 0 0 0 -1168.3095850095269 -914.64426690689288 0 -914.64426690689288 -2904.2110093772499 0 0 0 0 -1350.8974375440594 -1418.8929239493846 0 -1418.8929239493846 -2470.8804154248501 0 0 0 0 -1376.5687637267984 -1317.8436836299661 0 -1317.8436836299661 -2963.3972601333444 0 0 0 0 -1105.505228454771 -1450.3078720009944 0 -1450.3078720009944 -3265.8721817678597 0 0 0 0 -1124.113884736842 -1201.4839416539035 0 -1201.4839416539035 -4207.8752392374154 0 0 0 0 -1182.2675833209651 22.688928211078746 0 22.688928211078746 -4524.7032528431737 0 0 0 0 -1475.8875388783636 -91.736637724920001 0 -91.736637724920001 -2887.1303394396673 0 0 0 0 -1358.5571610330953 -1037.0399071605934 0 -1037.0399071605934 -2889.2662364033167 0 0 0 0 -1181.8970100250153 -811.31326867366442 0 -811.31326867366442 -3779.6062720389455 0 0 0 0 -1223.7640567070921 -699.13943792088685 0 -699.13943792088685 -2652.8058813944808 0 0 0 0 -1194.8901727547054 -673.99268515707809 0 -673.99268515707809 -2745.1284018655351 0 0 0 0 -1143.9265245197748 -731.34660651705053 0 -731.34660651705053 -2026.2673358454776 0 0 0 0 -1211.0292289909557 -282.31017879731371 0 -282.31017879731371 -2604.4385513382949 0 0 0 0 -1196.2848856720375 -571.74365872422641 0 -571.74365872422641 -2420.3764867670834 0 0 0 0 -1152.4040727955289 -1011.2613410836057 0 -1011.2613410836057 -2372.0168692526204 0 0 0 0 -1102.7510351105302 -814.17453920045227 0 -814.17453920045227 -2159.3085845825262 0 0 0 0 -1122.0787472400916 -818.48168804694433 0 -818.48168804694433 -1520.4194193981821 0 0 0 0 -1188.7195816924504 -1377.5922305187851 0 -1377.5922305187851 -1272.0170222770394 0 0 0 0 -1231.1289533314994 -1421.8341574708174 0 -1421.8341574708174 -1998.6582044052529 0 0 0 0 -1158.9028606082138 -860.16165582048416 0 -860.16165582048416 -2025.6296718824597 0 0 0 0 -911.48818092755391 -849.22772451308629 0 -849.22772451308629 -928.47131401429942 0 0 0 0 -992.70445073072915 -844.67617137914931 0 -844.67617137914931 -1593.4741620017194 0 0 0 0 -940.90936043101829 -732.19098270092945 0 -732.19098270092945 -1390.4083128539205 0 0 0 0 -1043.2250568699674 -1039.9455479876924 0 -1039.9455479876924 -1677.7940626787895 0 0 0 0 -1037.2221921766759 -1099.9025075496083 0 -1099.9025075496083 -1094.857431956334 0 0 0 0 -924.93970644065121 -1215.8211534598595 0 -1215.8211534598595 -722.06480619165814 0 0 0 0 -929.82525906647788 -1163.0399798339567 0 -1163.0399798339567 -1208.0963887814651 0 0 0 0 -1174.7067116278072 -1474.9510163565212 0 -1474.9510163565212 -1388.4669289524609 0 0 0 0 -1175.6950007158448 -1431.9881340580978 0 -1431.9881340580978 -734.57348357778392 0 0 0 0 -1030.8575635698362 -1400.5302380530484 0 -1400.5302380530484 -764.20294321986148 0 0 0 0 -1370.8075008744781 -1719.0943518757122 0 -1719.0943518757122 -1510.0457509291155 0 0 0 0 -1346.3245839335432 -1672.4029808565974 0 -1672.4029808565974 -1960.2197827440832 0 0 0 0 -1198.78540812133 -1301.8007141473718 0 -1301.8007141473718 -1814.2571262041165 0 0 0 0 -1334.6837900801911 -1922.2358814305408 0 -1922.2358814305408 -1007.1782730106097 0 0 0 0 -1311.4425209483597 -1622.5400746755986 0 -1622.5400746755986 -979.90534529114666 0 0 0 0 -1299.783345576172 -1650.5729481565013 0 -1650.5729481565013 -1455.900226563288 0 0 0 0 -1397.7732565461774 -1986.2970374837896 0 -1986.2970374837896 -1206.1572963196595 0 0 0 0 -1490.6432897715858 -1946.0688609539793 0 -1946.0688609539793 -894.6083822602086 0 0 0 0 -1355.209058965891 -2102.6808312024477 0 -2102.6808312024477 -873.3050089366734 0 0 0 0 -1229.2181740403757 -2031.1535897576759 0 -2031.1535897576759 -874.03526606606829 0 0 0 0 -1402.3337446028308 -2071.1092646758552 0 -2071.1092646758552 -826.54853091018595 0 0 0 0 -1382.2442762246355 -1865.4092927005258 0 -1865.4092927005258 -1038.4157045037282 0 0 0 0 -1322.4661231081118 -1821.3338426781629 0 -1821.3338426781629 -660.19743092231511 0 0 0 0 -1413.7915147620079 -1789.7930684505482 0 -1789.7930684505482 -529.67250962374965 0 0 0 0 -1390.5153348998865 -1852.0437056216178 0 -1852.0437056216178 -514.89414339444193 0 0 0 0 -1557.2684682075633 -2063.8434987380097 0 -2063.8434987380097 -606.84324338950319 0 0 0 0 -1419.692167320085 -2141.4661730219523 0 -2141.4661730219523 -600.09329699493537 0 0 0 0 -1696.4965095657535 -2164.220510490868 0 -2164.220510490868 -601.77762639134016 0 0 0 0 -1832.9035498049925 -1957.7549110309192 0 -1957.7549110309192 -497.81170314531482 0 0 0 0 -1603.5486258351302 -2006.022123170158 0 -2006.022123170158 -676.92173706419999 0 0 0 0 -1894.4147764407389 -1607.014738408463 0 -1607.014738408463 -982.75444686818082 0 0 0 0 -1995.1057049750816 -1913.3896887424635 0 -1913.3896887424635 -618.03428477432317 0 0 0 0 -1950.0540659538528 -1937.9112414930933 0 -1937.9112414930933 -404.4607810577254 0 0 0 0 -1102.4531319081725 -2210.9742094932881 0 -2210.9742094932881 -630.27758366220951 0 0 0 0 -1017.8317660915782 -1991.5055837006512 0 -1991.5055837006512 -460.46529163464584 0 0 0 0 -1118.5368942854402 -1915.0921188001084 0 -1915.0921188001084 -540.57204849520349 0 0 0 0 -1335.904306841403 -2175.8816404267418 0 -2175.8816404267418 -693.62829586786393 0 0 0 0 -1357.017523109942 -2357.3538150377717 0 -2357.3538150377717 -569.80885915587351 0 0 0 0 -1261.6544622059737 -2113.4687973908949 0 -2113.4687973908949 -671.40729195694439 0 0 0 0 2639.0544533092761 -3860.6148357944912 0 -3860.6148357944912 152.92639726714697 0 0 0 0 1531.4596788362105 -87.09051064401865 0 -87.09051064401865 -1695.5858297409723 0 0 0 0 -939.96031014289474 218.14892835920909 0 218.14892835920909 -1704.8528128329806 0 0 0 0 8.7251062218606421 -2.5966022575200327 0 -2.5966022575200327 -3.7373762515468911 0 0 0 0 3735.7110414260678 -2241.2430742465585 0 -2241.2430742465585 730.76896736814524 0 0 0 0 2911.070233698978 -3070.9721575598451 0 -3070.9721575598451 1207.0371970549168 0 0 0 0 -2703.1189767886826 -1264.4308918627503 0 -1264.4308918627503 -666.94848777102743 0 0 0 0 -2131.2456676521979 -1867.0442213424903 0 -1867.0442213424903 -1254.5452820749342 0 0 0 0 -1936.8066711850443 -1122.8442860382456 0 -1122.8442860382456 -699.41834731129347 0 0 0 0 -1636.6577634179848 -1953.3961812056514 0 -1953.3961812056514 -779.84606443241501 0 0 0 0 -691.55529188917717 -1315.4479792883722 0 -1315.4479792883722 -696.32680062868167 0 0 0 0 -1664.5947432113026 -1786.1563541800642 0 -1786.1563541800642 -296.50140371810994 0 0 0 0 -1003.2414241534425 -1470.1384608075605 0 -1470.1384608075605 -371.01239329014425 0 0 0 0 -837.79216104836087 -1592.1069085112613 0 -1592.1069085112613 -326.3261735344131 0 0 0 0 -427.3054357227229 -938.70083304311265 0 -938.70083304311265 5.8357191294962831 0 0 0 0 -501.25068510954588 -1613.2325237264522 0 -1613.2325237264522 -245.94636467599776 0 0 0 0 709.46133645809459 -2466.7741825314961 0 -2466.7741825314961 299.47950899899297 0 0 0 0 1125.2206384756464 -1294.4459288069811 0 -1294.4459288069811 -602.55520103883464 0 0 0 0 -241.77689899888355 -1435.6352068492997 0 -1435.6352068492997 -276.96195878561412 0 0 0 0 -795.13008725763939 -1190.2644573537655 0 -1190.2644573537655 -201.15775009871868 0 0 0 0 -1033.6680489216378 -1470.2695309592891 0 -1470.2695309592891 -462.7504711796646 0 0 0 0 -206.40384810449905 -1141.0514565480771 0 -1141.0514565480771 -573.49823242310958 0 0 0 0 -660.81591520679649 -1288.7614002428527 0 -1288.7614002428527 -497.34023586343392 0 0 0 0 -707.57405931857647 -1124.8475826542344 0 -1124.8475826542344 -735.68479356956232 0 0 0 0 -775.87962303159293 -865.84532448449318 0 -865.84532448449318 -1047.4222715419091 0 0 0 0 -741.44446745072491 -1048.0829267859008 0 -1048.0829267859008 -594.5325469715317 0 0 0 0 -467.85374908530503 -997.17108488937083 0 -997.17108488937083 -697.31201321667322 0 0 0 0 -652.75445843386115 -969.88383892415732 0 -969.88383892415732 -330.87061380740124 0 0 0 0 -602.94856600210187 -810.77727646610583 0 -810.77727646610583 -856.31483297447267 0 0 0 0 174.89283203517334 -1740.0829335323497 0 -1740.0829335323497 -73.307929836897529 0 0 0 0 -323.4633441775004 -1330.2658843051704 0 -1330.2658843051704 -481.94083975315152 0 0 0 0 -33.5677886082849 -1158.5131465680388 0 -1158.5131465680388 -521.55957739711812 0 0 0 0 -377.43434927562976 -1211.326816546188 0 -1211.326816546188 -21.191197749023559 0 0 0 0 -391.75086661574096 -911.03418733542708 0 -911.03418733542708 -590.66522598432493 0 0 0 0 -200.6222768399457 -520.76146922250337 0 -520.76146922250337 -1041.414639490089 0 0 0 0 -536.13739979150705 -909.58851909744408 0 -909.58851909744408 -538.70379765045072 0 0 0 0 -241.22748787673481 -477.05299992156142 0 -477.05299992156142 -1071.8579646804319 0 0 0 0 10.878592342197578 -48.437162701525772 0 -48.437162701525772 6.2937537090756663 0 0 0 0 -571.64006187230507 -712.33519398195506 0 -712.33519398195506 -315.77020374708809 0 0 0 0 -569.48388475822867 -652.71435907573323 0 -652.71435907573323 -1165.8451204237936 0 0 0 0 -1190.245832353452 -772.32651446967793 0 -772.32651446967793 821.23178907944566 0 0 0 0 -1456.7351738456928 175.24173144919041 0 175.24173144919041 -1050.8526955619491 0 0 0 0 2.321065272291321 -4.9931518575176028 0 -4.9931518575176028 13.921392456792319 0 0 0 0 0.43613699597193545 0.041098650934955572 0 0.041098650934955572 -14.323895492986225 0 0 0 0 -1223.911533080769 -549.07599933892197 0 -549.07599933892197 -441.03795876796357 0 0 0 0 -1290.6992454332758 -241.34967714569666 0 -241.34967714569666 -625.5915201784228 0 0 0 0 -898.92529325925352 -528.33437028983462 0 -528.33437028983462 -824.66640315679251 0 0 0 0 -807.94476837787079 -934.53760760904697 0 -934.53760760904697 -357.57349207053812 0 0 0 0 -903.70186499721603 -693.9516439248473 0 -693.9516439248473 -626.36403376686212 0 0 0 0 -1061.0621332321825 -144.55934298131797 0 -144.55934298131797 -1132.3360969965797 0 0 0 0 -1059.5002241533657 -358.66540504901423 0 -358.66540504901423 -963.73967415138031 0 0 0 0 -914.11797857796773 -466.005326264225 0 -466.005326264225 -1202.9699337934435 0 0 0 0 -1120.9934855517349 -164.99345145018742 0 -164.99345145018742 -1529.0382213485464 0 0 0 0 27.933002843030408 -33.021769228179835 0 -33.021769228179835 -26.6761389812376 0 0 0 0 -1299.8215082200477 -227.89410298882285 0 -227.89410298882285 -2009.1054167627735 0 0 0 0 1379.1642982613703 -2391.0638040908889 0 -2391.0638040908889 1706.2886669530853 0 0 0 0 -1227.2933060801006 -274.51513238872576 0 -274.51513238872576 -2009.0418819421247 0 0 0 0 -1067.0654159340629 -215.14997257947834 0 -215.14997257947834 -2115.3707245962287 0 0 0 0 -289.17197209878941 -1727.5054937175555 0 -1727.5054937175555 1443.2865618987162 0 0 0 0 1573.8209195511299 -1981.0157656656011 0 -1981.0157656656011 51.17706332259695 0 0 0 0 -646.1872777679273 -686.32838832382731 0 -686.32838832382731 -244.88190298503469 0 0 0 0 30.895814445232816 -40.433596143407811 0 -40.433596143407811 -21.781408838849543 0 0 0 0 -661.60743249329971 -1253.7098991525345 0 -1253.7098991525345 -1379.210490802463 0 0 0 0 316.13175034792221 -1377.1642878019593 0 -1377.1642878019593 112.09556326718302 0 0 0 0 -592.44297780419583 -1544.6246910350128 0 -1544.6246910350128 446.20907755299049 0 0 0 0 386.55859949212754 -1619.4965733581339 0 -1619.4965733581339 -19.991051876048004 0 0 0 0 609.11880875896168 -1325.3009398258091 0 -1325.3009398258091 361.73799009763752 0 0 0 0 -202.97469572591945 -466.59171608053293 0 -466.59171608053293 2670.0497499871635 0 0 0 0 86.037409138327348 -625.76075452104851 0 -625.76075452104851 154.61867802555207 0 0 0 0 -558.34715720355962 -1653.4864531324697 0 -1653.4864531324697 765.64232216466189 0 0 0 0 -589.18900435027172 -1826.2033714924719 0 -1826.2033714924719 -61.346543374638713 0 0 0 0 -639.73357511435461 -1747.069321963394 0 -1747.069321963394 -185.17876720000822 0 0 0 0 -615.25537919413182 -2230.5984104277777 0 -2230.5984104277777 -488.27514648410943 0 0 0 0 -542.70946506056134 -1789.0108263201819 0 -1789.0108263201819 -982.43143219462218 0 0 0 0 -553.70839180705298 -1796.8423537211738 0 -1796.8423537211738 -453.01545098026691 0 0 0 0 -603.18710879062928 -1283.3883344216893 0 -1283.3883344216893 -377.1935974588705 0 0 0 0 -421.8624734544137 -1503.0878401746704 0 -1503.0878401746704 -834.45589024537185 0 0 0 0 -577.81745230781962 -1291.5488262383988 0 -1291.5488262383988 -1104.3195655741292 0 0 0 0 -208.5364757479274 -976.16059345163899 0 -976.16059345163899 -919.89279491415073 0 0 0 0 -842.37661152688088 -1080.3429353976935 0 -1080.3429353976935 -545.74482245611216 0 0 0 0 -702.08482827703119 -1122.9471111834209 0 -1122.9471111834209 164.0170023156461 0 0 0 0 -881.88815839124436 -1319.2318101998571 0 -1319.2318101998571 438.92518998337255 0 0 0 0 -1440.3521403402119 -976.22030451548926 0 -976.22030451548926 -2550.8045485637062 0 0 0 0 -697.35249681833375 -1738.3157910002355 0 -1738.3157910002355 -2151.3417595133069 0 0 0 0 -305.39937276163255 -1585.1439160227601 0 -1585.1439160227601 -1424.7376051026622 0 0 0 0 -315.04206802506815 -1478.9876751905176 0 -1478.9876751905176 -2014.5409334838114 0 0 0 0 -203.04089681249661 -1030.5432635609077 0 -1030.5432635609077 -1862.7712662468839 0 0 0 0 -621.93291410663915 -2075.9881639689502 0 -2075.9881639689502 -789.30940025470045 0 0 0 0 -616.47454951112741 -2520.0051421368771 0 -2520.0051421368771 -1382.7644393492119 0 0 0 0 -338.87679114946513 -3182.875158579729 0 -3182.875158579729 -2820.0420839047583 0 0 0 0 -635.8294077169403 -2198.3404316838769 0 -2198.3404316838769 -1046.6193593758944 0 0 0 0 -1135.4226912253944 -2654.2656704301189 0 -2654.2656704301189 -693.9572870860211 0 0 0 0 -952.15767883549597 -1705.7931812259453 0 -1705.7931812259453 94.018712424425757 0 0 0 0 -6362.0566557202837 -2175.8467759911728 0 -2175.8467759911728 67.652988921610813 0 0 0 0 32.21485818911691 -14.29076067772499 0 -14.29076067772499 -2.3258843967234242 0 0 0 0 -6144.1198435607657 -3691.4993423781507 0 -3691.4993423781507 1541.3795293388685 0 0 0 0 10.722806178427675 -23.515510991693546 0 -23.515510991693546 7.7208254851197822 0 0 0 0 -8003.5770966563723 -1413.938598007051 0 -1413.938598007051 1667.1577993521933 0 0 0 0 -394.61349274870008 -3122.5407102653189 0 -3122.5407102653189 66.24988263144769 0 0 0 0 77.283959066902753 -103.24550797085612 0 -103.24550797085612 52.061173410940683 0 0 0 0 -3469.8031641037378 -3117.6844893251327 0 -3117.6844893251327 -5115.5985173873705 0 0 0 0 122.03160710455995 -56.084582140700149 0 -56.084582140700149 -17.017421285432647 0 0 0 0 84.922618413486475 -28.346453638525901 0 -28.346453638525901 -28.295348664754666 0 0 0 0 13.74952215100015 -58.1570816955238 0 -58.1570816955238 35.93366231928826 0 0 0 0 -754.94434627416922 -639.43126337749618 0 -639.43126337749618 -1919.3240747749805 0 0 0 0 -635.33953538825517 -844.30056881357905 0 -844.30056881357905 -3762.5970915139187 0 0 0 0 -2619.5827453404781 -2714.5935377760034 0 -2714.5935377760034 -3288.0040450662091 0 0 0 0 -1594.0217986657517 -1786.889252789595 0 -1786.889252789595 -4313.2925089828168 0 0 0 0 -2937.3200314987625 1088.6110651927665 0 1088.6110651927665 -7485.7216836219268 0 0 0 0 -3077.8895028317347 -1259.679752768825 0 -1259.679752768825 -2839.7430179871735 0 0 0 0 -1153.9984410084289 -849.85392877176128 0 -849.85392877176128 -2836.6965229276548 0 0 0 0 -2000.6515976881346 -1698.365030949939 0 -1698.365030949939 -3377.0935176190833 0 0 0 0 -996.08435160381487 -2112.8481367360473 0 -2112.8481367360473 -3218.177358602501 0 0 0 0 -781.91365891770693 -2121.852646159914 0 -2121.852646159914 5649.2025530776591 0 0 0 0 -5.9047003318819407 -16.76384222516505 0 -16.76384222516505 4.9819853097545348 0 0 0 0 -650.08242422441253 -3080.1700536679746 0 -3080.1700536679746 -4871.4698400176421 0 0 0 0 -395.67624036780035 -1399.4011054614821 0 -1399.4011054614821 1290.1498904255604 0 0 0 0 -387.8700187150389 -486.71703701110528 0 -486.71703701110528 2222.4315612567898 0 0 0 0 -7.2821623107303139 -39.1178931179995 0 -39.1178931179995 14.120983971596218 0 0 0 0 -51.578266209151479 -917.09108890363859 0 -917.09108890363859 -2650.6235941820578 0 0 0 0 -1257.6749208375368 -758.76761308415371 0 -758.76761308415371 -2162.8695140489181 0 0 0 0 33.825921617652057 -543.44329056533024 0 -543.44329056533024 -1518.4126087845325 0 0 0 0 57.531110038369661 -761.95043784762674 0 -761.95043784762674 -541.4239948827817 0 0 0 0 138.86568247247487 -498.875034599434 0 -498.875034599434 302.94747932739847 0 0 0 0 -91.830854245446972 -1272.9613194116901 0 -1272.9613194116901 -293.05319647896977 0 0 0 0 -33.988829877023818 -1487.3134077873256 0 -1487.3134077873256 473.12032364647348 0 0 0 0 86.453242380172014 -1492.7475546433161 0 -1492.7475546433161 202.0307359261642 0 0 0 0 -473.98109426046722 -2479.5471097975369 0 -2479.5471097975369 -910.37032020695187 0 0 0 0 -80.912562688041362 -1747.2614773044297 0 -1747.2614773044297 282.48029224957099 0 0 0 0 -31.676263072731672 -1849.5611197573271 0 -1849.5611197573271 -107.0625906798814 0 0 0 0 5090.7553843365313 -3125.9493740701582 0 -3125.9493740701582 -1156.5024336823117 0 0 0 0 -0.95847538127520693 -18.225665806680183 0 -18.225665806680183 3.6652511483360399 0 0 0 0 7325.140430692747 -741.94004290271732 0 -741.94004290271732 -1308.5164893078036 0 0 0 0 -2814.6716848840733 -2893.8635364114016 0 -2893.8635364114016 -384.17954474157159 0 0 0 0 -1858.4298520046141 -1471.7011747070865 0 -1471.7011747070865 -923.38607142034743 0 0 0 0 -1328.2965863863574 -1532.5259747246801 0 -1532.5259747246801 -1098.0009553023992 0 0 0 0 0.062398493288696955 -3.0218710240984592 0 -3.0218710240984592 -1.0326050573969496 0 0 0 0 -1384.3817866143654 -865.42669320035202 0 -865.42669320035202 -233.03515438492468 0 0 0 0 -4963.3617022302278 -905.25613599928329 0 -905.25613599928329 57.781235755173839 0 0 0 0 3456.7937762529764 -1108.76001247573 0 -1108.76001247573 1239.2448338425311 0 0 0 0 -447.0355575916692 -1245.5291845981301 0 -1245.5291845981301 -1622.521383705367 0 0 0 0 -886.37149017448246 -838.14876743313653 0 -838.14876743313653 -1590.4566540379756 0 0 0 0 -1346.3869867968606 -1452.2222813954941 0 -1452.2222813954941 -1114.7731791171482 0 0 0 0 -183.04475998143607 -1833.901230105188 0 -1833.901230105188 -955.12262843086501 0 0 0 0 -1323.9112163287282 -1553.7354449483482 0 -1553.7354449483482 -1017.5017247767537 0 0 0 0 576.6453051813296 -1282.6663609828356 0 -1282.6663609828356 -1668.0035058706562 0 0 0 0 -436.03882971465282 -763.63925901744824 0 -763.63925901744824 2738.5776106225312 0 0 0 0 -403.89377221241011 -1509.1077230634983 0 -1509.1077230634983 -4.8196449724200647 0 0 0 0 689.95901495423459 -2298.5366098316736 0 -2298.5366098316736 430.78138537532504 0 0 0 0 -126.80804922396055 -1245.6597203698857 0 -1245.6597203698857 725.00101507389627 0 0 0 0 -1117.7469816486919 -1685.6490644453115 0 -1685.6490644453115 1161.7992945009901 0 0 0 0 -559.40117343375459 -2377.1066435210741 0 -2377.1066435210741 1704.0226497207404 0 0 0 0 2347.6290547285607 -2109.1920606384083 0 -2109.1920606384083 1002.3861975531327 0 0 0 0 3784.4781061544782 -3917.2559747926443 0 -3917.2559747926443 404.42450655962602 0 0 0 0 -5371.2400192327623 1130.8621363981838 0 1130.8621363981838 -138.72956191725825 0 0 0 0 -9.9100561620822987 -13.271468041229525 0 -13.271468041229525 9.7813092073137398 0 0 0 0 -4346.1355696154787 457.65659965427403 0 457.65659965427403 -1158.1435487881827 0 0 0 0 -11.695639892125627 -20.829534081771413 0 -20.829534081771413 3.8913426964632833 0 0 0 0 -4011.7856977789488 -2056.1633977294368 0 -2056.1633977294368 -188.04992434861197 0 0 0 0 242.88700580751174 -1494.4518181986896 0 -1494.4518181986896 -134.05961032827327 0 0 0 0 -23.742289960226429 -29.375190361416344 0 -29.375190361416344 21.843741234093216 0 0 0 0 725.63459568610642 -937.37793179032656 0 -937.37793179032656 325.34041916385468 0 0 0 0 -3649.1956671177031 -58.335638641518017 0 -58.335638641518017 -1276.4118265690413 0 0 0 0 -4864.5168175866129 -71.895075454194739 0 -71.895075454194739 -1218.5676961453519 0 0 0 0 1536.1449642130319 -1727.3650527835125 0 -1727.3650527835125 -1843.0867197897023 0 0 0 0 -5.010947146424698 -11.171639935691843 0 -11.171639935691843 2.0765766234021612 0 0 0 0 -2370.4345616316277 -1287.8218147874322 0 -1287.8218147874322 -2222.8236035228038 0 0 0 0 -27.508138249557618 -32.993384945557949 0 -32.993384945557949 24.625572043215641 0 0 0 0 -303.46283003695135 -911.435818965012 0 -911.435818965012 -2553.1001034865913 0 0 0 0 0.10660702559107449 -1942.5609609770472 0 -1942.5609609770472 -1625.7494550070187 0 0 0 0 -496.7060573581075 -2242.7978324477122 0 -2242.7978324477122 -1697.8353784145656 0 0 0 0 -385.75726299092639 -1393.7795574009178 0 -1393.7795574009178 -859.87865929136751 0 0 0 0 -385.81075955137089 -1779.8570726655603 0 -1779.8570726655603 -1049.7603357248081 0 0 0 0 0.0097743746882770211 -1912.1059643160152 0 -1912.1059643160152 -337.83813457810174 0 0 0 0 434.28483439731644 -1668.0215040319963 0 -1668.0215040319963 -1041.8188890339316 0 0 0 0 -2249.8821027904633 -964.43077341251774 0 -964.43077341251774 -756.80959888343295 0 0 0 0 -1028.9215944959142 -2376.0267547252879 0 -2376.0267547252879 -218.92585861134285 0 0 0 0 924.89537987680524 -2993.4921472007918 0 -2993.4921472007918 -68.658683913297864 0 0 0 0 -6480.9767343984131 227.10052700132655 0 227.10052700132655 -1382.2321230467933 0 0 0 0 -11.207348057396842 -13.415351950238005 0 -13.415351950238005 9.0632044740050901 0 0 0 0 2412.6688184846716 -2539.9696891463973 0 -2539.9696891463973 -277.18510228589003 0 0 0 0 362.00936870535952 -1424.3375870370874 0 -1424.3375870370874 317.95416196009319 0 0 0 0 1784.4094286430045 -1320.9776999237438 0 -1320.9776999237438 202.53413502625699 0 0 0 0 1.6628836836625631 -827.56740234811457 0 -827.56740234811457 300.30129228343867 0 0 0 0 815.59996840942767 -522.48601830534608 0 -522.48601830534608 239.79689374777081 0 0 0 0 -14.208602889984917 -24.292790024270204 0 -24.292790024270204 28.961964856613832 0 0 0 0 10.318468951804505 -20.244050581026272 0 -20.244050581026272 19.179516568027225 0 0 0 0 316.52910745388363 -386.37525709837792 0 -386.37525709837792 229.6916150655743 0 0 0 0 -2530.4733552534381 -1289.1798451731556 0 -1289.1798451731556 -487.91901351252454 0 0 0 0 -1203.5120220778626 -524.22917501321353 0 -524.22917501321353 -61.00975262526299 0 0 0 0 -7775.5299109574698 599.64234583209327 0 599.64234583209327 436.23711539850774 0 0 0 0 -1087.3983382459992 -3879.4661007560026 0 -3879.4661007560026 -370.11632785385882 0 0 0 0 -8.5205498412505989 -10.017497264270446 0 -10.017497264270446 1.8954994211453027 0 0 0 0 -508.98152395254874 -3273.5356310682473 0 -3273.5356310682473 250.86388505315699 0 0 0 0 -946.44266010151478 -2830.8313453289084 0 -2830.8313453289084 1321.2464258523391 0 0 0 0 1729.5205315797939 -4136.6140843527028 0 -4136.6140843527028 1339.7328854788502 0 0 0 0 -424.94079730998055 -4015.7778863301901 0 -4015.7778863301901 -1210.7050034156637 0 0 0 0 -444.62090137251653 -1832.554294591966 0 -1832.554294591966 -1734.588816187912 0 0 0 0 -100.39224501004719 -2035.2934086042042 0 -2035.2934086042042 -1815.5618234372669 0 0 0 0 -994.82105269611748 -2161.0049213907473 0 -2161.0049213907473 -1908.0026659082068 0 0 0 0 -1168.6890269425057 -2187.7279331599566 0 -2187.7279331599566 -66.063066855396755 0 0 0 0 -149.67916804197012 -2137.1708674250767 0 -2137.1708674250767 -604.17348239688727 0 0 0 0 -1827.8344846404361 -1404.4444896626228 0 -1404.4444896626228 -160.65021353794145 0 0 0 0 -541.15109752677381 -1185.6278807567505 0 -1185.6278807567505 -132.26132870202491 0 0 0 0 -623.67972177784395 -1581.5602693770506 0 -1581.5602693770506 -1205.1226212968031 0 0 0 0 39.89888447264093 -885.27356015600526 0 -885.27356015600526 -810.36101421200146 0 0 0 0 -52.241846293916751 -1195.2203978378875 0 -1195.2203978378875 -1726.6853426218877 0 0 0 0 -268.36964706420258 -698.72524118497313 0 -698.72524118497313 -779.18011707239202 0 0 0 0 -226.61602290370502 -1528.4328647360162 0 -1528.4328647360162 -2729.4795519927866 0 0 0 0 -196.05446561440476 -1301.7309752505826 0 -1301.7309752505826 -1407.0527426058798 0 0 0 0 122.68965844842023 -41.318504208533341 0 -41.318504208533341 -34.242855572952976 0 0 0 0 57.190065656525519 -32.759839662318726 0 -32.759839662318726 -22.471230179045705 0 0 0 0 -197.03026523753942 -814.10870876752597 0 -814.10870876752597 -1918.4676918866753 0 0 0 0 -170.51336848404026 -224.79639214099006 0 -224.79639214099006 81.300973018765944 0 0 0 0 32.569389717960803 -47.038476192992562 0 -47.038476192992562 -9.2637346359991426 0 0 0 0 -58.277645851027046 4.6995921978741535 0 4.6995921978741535 -190.5224159823847 0 0 0 0 218.79538968353882 -238.61414271610556 0 -238.61414271610556 -1274.9125331262512 0 0 0 0 15.267899991531834 -50.054216144382252 0 -50.054216144382252 72.168831581846689 0 0 0 0 -65.947038999205688 -140.43278294774063 0 -140.43278294774063 64.878013456094777 0 0 0 0 176.36406159157923 -39.567836301910575 0 -39.567836301910575 -157.28348033288785 0 0 0 0 64.195908805762883 -177.89810824514279 0 -177.89810824514279 24.617830384069748 0 0 0 0 104.09555443387944 -17.810655856965241 0 -17.810655856965241 71.085312525290647 0 0 0 0 -0.028264633001526818 3.7756766660895664 0 3.7756766660895664 -43.150308843862149 0 0 0 0 38.520825144310948 -121.07321128669719 0 -121.07321128669719 -3.8117875635034579 0 0 0 0 122.59332154062577 -109.66328198848714 0 -109.66328198848714 133.85021919308929 0 0 0 0 64.329388096433831 -81.407400525396952 0 -81.407400525396952 20.218644745575148 0 0 0 0 -0.17187705772954587 -4.4466691709740758 0 -4.4466691709740758 -2.0854517826219592 0 0 0 0 -2.4519226700603838 -10.898789597305097 0 -10.898789597305097 9.4874241661148346 0 0 0 0 55.773201008727483 -36.244817872368003 0 -36.244817872368003 8.1000510811572894 0 0 0 0 -0.1186238801889594 -191.31083020649129 0 -191.31083020649129 173.49821849024738 0 0 0 0 8.5376523393837829 -31.47738344022045 0 -31.47738344022045 45.573076963749173 0 0 0 0 24.183178395658615 -17.095031348717384 0 -17.095031348717384 49.198420779008302 0 0 0 0 -441.93727844592649 -339.36943983604579 0 -339.36943983604579 -132.35196296681897 0 0 0 0 -194.63439830794232 -378.43485295720166 0 -378.43485295720166 -250.15085803931288 0 0 0 0 -784.7335063329665 -908.23901192002086 0 -908.23901192002086 -445.59933616548369 0 0 0 0 -425.91172034644114 -297.5145817959783 0 -297.5145817959783 99.698800356767606 0 0 0 0 -154.656628176308 -447.01209916892185 0 -447.01209916892185 -339.55561436054995 0 0 0 0 0.89951636584737571 -2969.4949666050343 0 -2969.4949666050343 400.06300327071949 0 0 0 0 161.95923194356146 -2703.0464053712712 0 -2703.0464053712712 337.04359932555963 0 0 0 0 100.52072537338245 -3079.915650000723 0 -3079.915650000723 822.63176036832738 0 0 0 0 265.32263316620083 -2857.1328786081503 0 -2857.1328786081503 -92.673861704490264 0 0 0 0 459.62482882686891 -2840.7745900650116 0 -2840.7745900650116 -103.59353992356773 0 0 0 0 443.69617874948017 -2715.1109844702587 0 -2715.1109844702587 -833.88199517752219 0 0 0 0 91.958969049534062 -2446.8598172036945 0 -2446.8598172036945 37.530879717771313 0 0 0 0 138.54643792833667 -2439.8826107145142 0 -2439.8826107145142 37.731497095704071 0 0 0 0 181.55425304248638 -2280.2560515707701 0 -2280.2560515707701 -873.44504535027954 0 0 0 0 -56.33891682481044 -2476.6693656584248 0 -2476.6693656584248 -788.49929506868648 0 0 0 0 -237.99612269861973 -2187.6350149324571 0 -2187.6350149324571 -1.0785777360124484 0 0 0 0 -71.580436370975804 -2376.2774145339208 0 -2376.2774145339208 33.980756388129521 0 0 0 0 258.01705559852417 -1856.2340360252565 0 -1856.2340360252565 93.020031015905261 0 0 0 0 -1087.3740693163418 -2362.2843469570871 0 -2362.2843469570871 2775.0989588849188 0 0 0 0 -382.02254111785805 -2005.9163527782985 0 -2005.9163527782985 173.27063295344124 0 0 0 0 -387.36023483888857 -2029.6371230773566 0 -2029.6371230773566 938.76622071280144 0 0 0 0 -414.42203358362895 -2470.1825284136139 0 -2470.1825284136139 1322.4812473878701 0 0 0 0 -1254.5122168367088 -1860.9351300347334 0 -1860.9351300347334 1921.1496066608815 0 0 0 0 -1167.6184779620271 -1185.5590619798531 0 -1185.5590619798531 1158.227814721904 0 0 0 0 164.59096298066333 -2824.6373177558889 0 -2824.6373177558889 815.42730057623703 0 0 0 0 -402.1162888797262 -2343.5065339124558 0 -2343.5065339124558 1093.7066166956211 0 0 0 0 -117.93526734389889 -2567.3395556032483 0 -2567.3395556032483 899.70609593371046 0 0 0 0 -94.438988184847403 -2979.9067215219693 0 -2979.9067215219693 1626.1999555696239 0 0 0 0 -178.13722911244258 -2649.4349641855661 0 -2649.4349641855661 1206.2973777919105 0 0 0 0 5.9367121911785148 -13.171673630985282 0 -13.171673630985282 -4.6658445744268278 0 0 0 0 397.34003605565522 -3825.623860593565 0 -3825.623860593565 1562.3128280310011 0 0 0 0 -852.12430384353502 -3491.8696465947141 0 -3491.8696465947141 3323.7872482881503 0 0 0 0 11.180378350891147 -7.4357875566956864 0 -7.4357875566956864 -0.074290076767283608 0 0 0 0 -1029.8306895495334 -1603.0048195315394 0 -1603.0048195315394 -4108.2649456659274 0 0 0 0 -3092.2584393295147 174.43619443229181 0 174.43619443229181 -1855.3996201827831 0 0 0 0 2.1160668704469572 -13.193774154873552 0 -13.193774154873552 13.19289003744575 0 0 0 0 -3031.3037413934985 -1356.7993456290512 0 -1356.7993456290512 -525.3580494109483 0 0 0 0 19.359575189313659 -43.930770773955516 0 -43.930770773955516 -6.1776073743049551 0 0 0 0 -1529.6672333433817 -1216.684834456144 0 -1216.684834456144 -529.90890073230548 0 0 0 0 -1507.3876745947673 -1328.5662681370686 0 -1328.5662681370686 -1476.5485868875257 0 0 0 0 -10.985765449926703 -7.8114509569857162 0 -7.8114509569857162 6.0107584811648849 0 0 0 0 -2500.6609009137028 -1606.1667113378353 0 -1606.1667113378353 -1498.5900248168618 0 0 0 0 -3242.449526554381 -2145.0267411493696 0 -2145.0267411493696 -1385.9832136908408 0 0 0 0 9.1286935453463229 -1.5576497275546188 0 -1.5576497275546188 -8.4129504976296801 0 0 0 0 230.38285981268564 -2946.812424837648 0 -2946.812424837648 1080.4205094473255 0 0 0 0 11.551894358871209 -4.42282099118313 0 -4.42282099118313 -8.7836827613058119 0 0 0 0 566.48655540216714 -2546.9740754793529 0 -2546.9740754793529 670.94765723132332 0 0 0 0 755.97005639980489 -2637.0473212825491 0 -2637.0473212825491 1170.7672743521252 0 0 0 0 4.2277389624505304 -4130.3849878626061 0 -4130.3849878626061 389.89479259619839 0 0 0 0 -460.62044884578791 -2390.8311583009199 0 -2390.8311583009199 738.72215469367802 0 0 0 0 219.70179490139708 -2792.2351494226168 0 -2792.2351494226168 613.30293722223723 0 0 0 0 207.06126362745999 -2576.7669071098935 0 -2576.7669071098935 -233.91711767402012 0 0 0 0 297.88032980680873 -3342.9884641891549 0 -3342.9884641891549 140.46646528301062 0 0 0 0 51.687269279576867 -2861.1769459786628 0 -2861.1769459786628 612.55027999597951 0 0 0 0 356.4162242038874 -2567.6758091230004 0 -2567.6758091230004 822.17356834477687 0 0 0 0 532.36029443971347 -2399.4147053742636 0 -2399.4147053742636 781.13002063678323 0 0 0 0 3.3189702529913347 -2.1216088614971227 0 -2.1216088614971227 -0.25169597874651117 0 0 0 0 1.5958608918064652 -2569.6441202292654 0 -2569.6441202292654 1841.0121106887382 0 0 0 0 -609.59802348053199 84.220859940447554 0 84.220859940447554 -527.31980569110601 0 0 0 0 -897.2866671654192 -1049.3030929728484 0 -1049.3030929728484 55.961844772573386 0 0 0 0 -823.477682004901 -582.42050942255082 0 -582.42050942255082 -826.29924007673253 0 0 0 0 -525.5828936395701 -379.43389146600384 0 -379.43389146600384 448.29561895067673 0 0 0 0 -1.5807877658226062 -1317.1499455081648 0 -1317.1499455081648 559.38367057273717 0 0 0 0 -272.22770377079723 -236.83642640915787 0 -236.83642640915787 -5807.2800547203769 0 0 0 0 -1048.0333894173382 -774.12259452134822 0 -774.12259452134822 2979.2288190258696 0 0 0 0 0.81603214122003465 -9.6433330372812236 0 -9.6433330372812236 -3.4389777476409211 0 0 0 0 -450.20838567621104 -1202.7640334812004 0 -1202.7640334812004 -3619.279445812841 0 0 0 0 -1.7673357238089857 -1799.9541124398731 0 -1799.9541124398731 -3375.1555746531158 0 0 0 0 -1195.6780956788061 -712.77375747194128 0 -712.77375747194128 -1929.4260099495004 0 0 0 0 -926.73352913912095 -746.01385317199674 0 -746.01385317199674 -2170.2372274858499 0 0 0 0 -1258.6165838314482 -926.84344272077215 0 -926.84344272077215 -2644.1750019643769 0 0 0 0 2.0110995666537974 -23.827653673124445 0 -23.827653673124445 -5.3861052153403506 0 0 0 0 3.7849299469020252 -45.194847175558237 0 -45.194847175558237 6.3472709540797254 0 0 0 0 -960.57687728544988 -794.47471376642716 0 -794.47471376642716 -1966.2334343607799 0 0 0 0 -1549.6696762877109 -1757.3558891881112 0 -1757.3558891881112 -1125.9588465750858 0 0 0 0 -900.038994797138 -509.17015910523332 0 -509.17015910523332 71.626543840175145 0 0 0 0 26.591910806820806 -45.951370596404573 0 -45.951370596404573 30.625459379603058 0 0 0 0 -830.94900329502707 -368.38579735544045 0 -368.38579735544045 -148.37677871785854 0 0 0 0 -956.68502371454815 -808.62162351252118 0 -808.62162351252118 1097.993955443555 0 0 0 0 7.9429384000593473 -19.663002076544117 0 -19.663002076544117 28.586718753633335 0 0 0 0 -900.8297940751545 -1112.9015983931936 0 -1112.9015983931936 -413.61708691765671 0 0 0 0 -2257.5249269646301 -2494.8673246432445 0 -2494.8673246432445 -2637.6488539873535 0 0 0 0 -700.94244987558341 -1106.5865412253988 0 -1106.5865412253988 -1655.0006433859526 0 0 0 0 -1365.6416552599694 -883.25082913445658 0 -883.25082913445658 -515.03756945884379 0 0 0 0 -1097.248017995269 -2752.2566343240542 0 -2752.2566343240542 -2782.0988223951354 0 0 0 0 -10.069118094355645 -7.6816422592777442 0 -7.6816422592777442 3.6924834504976616 0 0 0 0 -900.54279941324785 -1839.3123661278078 0 -1839.3123661278078 -3820.9428892750584 0 0 0 0 -1898.4157150585379 -1808.8138054642222 0 -1808.8138054642222 -1655.0027115466655 0 0 0 0 -1755.3470844255353 -3307.6914720867353 0 -3307.6914720867353 -4241.4160732885357 0 0 0 0 3.2187325925483492 -1.563248460996185 0 -1.563248460996185 -10.701888902702422 0 0 0 0 -2958.3211320026021 70.089773389678157 0 70.089773389678157 -1411.046376643586 0 0 0 0 -495.5016687771261 583.56732817491445 0 583.56732817491445 -1427.41755106255 0 0 0 0 3.0728364661918022 -329.52357313137327 0 -329.52357313137327 -2133.066914531315 0 0 0 0 -1943.5662281631667 -672.73952142756752 0 -672.73952142756752 -1500.5789232875395 0 0 0 0 -495.9142900321321 -1653.9330658572853 0 -1653.9330658572853 -844.13791321296594 0 0 0 0 -479.5843744793674 -211.86763329971291 0 -211.86763329971291 -1264.1641676485015 0 0 0 0 -2092.3647663065203 42.62055643821077 0 42.62055643821077 -821.97666488029063 0 0 0 0 24.998962714847607 -74.713090307954189 0 -74.713090307954189 -37.78586381045875 0 0 0 0 -1655.7366132182069 -739.33095867707743 0 -739.33095867707743 -1236.2149139385801 0 0 0 0 -1935.8483834514045 -1012.2904989079325 0 -1012.2904989079325 -1037.3313520728479 0 0 0 0 -12.546874925640566 -5.2753790873950379 0 -5.2753790873950379 0.23048034246326665 0 0 0 0 5.4682398481092491 -65.145704524556777 0 -65.145704524556777 1.2597118401487055 0 0 0 0 -1454.3622823976511 -44.504270764784451 0 -44.504270764784451 -572.88628369948128 0 0 0 0 -1348.9261416841036 -461.06153140615061 0 -461.06153140615061 -987.00993936721352 0 0 0 0 -1956.3327868089909 -474.33300447157126 0 -474.33300447157126 -512.57468664244516 0 0 0 0 -2087.8977074795694 -872.14130168109114 0 -872.14130168109114 -766.17637942009242 0 0 0 0 -1295.2109242576266 -747.06205423703511 0 -747.06205423703511 -1890.2079942620767 0 0 0 0 -20.460947783771417 -36.810634060661016 0 -36.810634060661016 26.372544105399925 0 0 0 0 -872.58271337530459 -860.62650320216562 0 -860.62650320216562 -1944.9337366752297 0 0 0 0 -1441.7184226762547 -382.15667549149293 0 -382.15667549149293 -1670.7585871988922 0 0 0 0 -1007.8616619809327 -683.70210495661013 0 -683.70210495661013 -606.62452574836789 0 0 0 0 3237.0003697213397 -1364.1670300179612 0 -1364.1670300179612 -576.87163054430857 0 0 0 0 2805.4392654837284 -1808.0263135927089 0 -1808.0263135927089 494.33070457843132 0 0 0 0 -9.9122029612293403 -43.50837820527579 0 -43.50837820527579 24.050077988677657 0 0 0 0 2808.7280423647935 -1840.0195598937426 0 -1840.0195598937426 -415.47191630851012 0 0 0 0 -1196.0301133960311 -561.98439786587551 0 -561.98439786587551 -583.31775618938991 0 0 0 0 -1268.7859463973145 -398.46565056964755 0 -398.46565056964755 -1240.3352775587064 0 0 0 0 -1045.3107211888419 -1019.6648331107208 0 -1019.6648331107208 -1410.4311252277039 0 0 0 0 -1439.8686967555841 -396.38239586647978 0 -396.38239586647978 105.87939890303824 0 0 0 0 -1167.929363759642 -791.00715151159056 0 -791.00715151159056 -466.73615160884219 0 0 0 0 6.3908672586453008 -48.810511942434289 0 -48.810511942434289 -5.632472263351044 0 0 0 0 -708.63226123480126 -196.22761614495539 0 -196.22761614495539 -306.07126767364389 0 0 0 0 -22.13344096968649 -815.38222110428615 0 -815.38222110428615 -5205.615241372725 0 0 0 0 2.6410875543973589 -39.499747006094665 0 -39.499747006094665 7.6149041207795563 0 0 0 0 -741.02993157155197 238.40270791471198 0 238.40270791471198 292.13017044385197 0 0 0 0 -1016.083878456815 -283.52435342062381 0 -283.52435342062381 138.46650019484514 0 0 0 0 2495.9648468891355 -66.138214355623859 0 -66.138214355623859 -173.41810774232727 0 0 0 0 2592.8402581335031 -1068.10481579925 0 -1068.10481579925 -1371.3474306844291 0 0 0 0 -17.164754091760756 -10.759924949431266 0 -10.759924949431266 14.40937988122127 0 0 0 0 -1013.2264302883996 733.15900832173065 0 733.15900832173065 6172.4139153085416 0 0 0 0 1055.5864918859443 -1888.8890312261719 0 -1888.8890312261719 -841.23007996811066 0 0 0 0 1013.7639519662771 -2595.0898310465491 0 -2595.0898310465491 -5063.2381761528159 0 0 0 0 -1405.5525889990204 -958.34083727626876 0 -958.34083727626876 -2518.9208470520098 0 0 0 0 -1.5659800683656755 -44.443216048655046 0 -44.443216048655046 8.9301911967945102 0 0 0 0 -1442.6213758140511 -1417.5755511317911 0 -1417.5755511317911 -2644.2238892489258 0 0 0 0 934.50503936369932 -1820.5049318814481 0 -1820.5049318814481 -4654.664046808175 0 0 0 0 390.54957062937319 -279.05728354590246 0 -279.05728354590246 -2789.0134413564265 0 0 0 0 21.011444164663715 6.4195883588183591 0 6.4195883588183591 -41.088933528367249 0 0 0 0 -2588.1474097066821 -3012.7730739704275 0 -3012.7730739704275 -5582.931916195841 0 0 0 0 -1180.8043059029442 -843.17798578062502 0 -843.17798578062502 -4801.0117738520348 0 0 0 0 -2763.7172516337305 -1531.0435366980309 0 -1531.0435366980309 -3173.0271361174964 0 0 0 0 -1745.7090465397632 -2032.6025530832849 0 -2032.6025530832849 -1280.9708198298176 0 0 0 0 -321.05259708728408 -2098.112835352098 0 -2098.112835352098 -3082.4700404111863 0 0 0 0 1945.0941024143249 -1882.2177542809804 0 -1882.2177542809804 -1795.2468448125801 0 0 0 0 -6.5575670643420452 -28.547091369910532 0 -28.547091369910532 5.7921836707337206 0 0 0 0 -625.53954635825357 -276.70153799459513 0 -276.70153799459513 -2682.7456333839341 0 0 0 0 -39.566406047655619 -770.62174462690018 0 -770.62174462690018 -578.40320283973051 0 0 0 0 4414.439411313826 -3133.655416739155 0 -3133.655416739155 496.47483870846918 0 0 0 0 -674.68657768879348 -1892.4638771312093 0 -1892.4638771312093 2159.4829198822699 0 0 0 0 -1537.3952801838896 -1923.3605577262424 0 -1923.3605577262424 1360.6732364917843 0 0 0 0 -643.27800575141737 -1860.4025517560767 0 -1860.4025517560767 2126.6949690094771 0 0 0 0 -60.710339797014058 -2282.3848169030566 0 -2282.3848169030566 -300.44074266360258 0 0 0 0 -753.57415954777389 -1412.3287698064523 0 -1412.3287698064523 -1353.6467951552486 0 0 0 0 -1710.9455070781114 -2095.8698131290512 0 -2095.8698131290512 41.549363872501999 0 0 0 0 -1196.4484392288432 -2008.9454009212641 0 -2008.9454009212641 -1598.0172682640405 0 0 0 0 -1673.1287026110222 -1650.8088484703476 0 -1650.8088484703476 329.38166905862454 0 0 0 0 -1466.0209049333935 -1352.4343075962242 0 -1352.4343075962242 8.0164040149525135 0 0 0 0 -1293.906899435824 -1197.2319154186334 0 -1197.2319154186334 -296.32817067584256 0 0 0 0 -977.81598173661041 -2458.9876750787371 0 -2458.9876750787371 -275.9860154097114 0 0 0 0 -523.56062797599589 -1085.2587586250411 0 -1085.2587586250411 562.08279347038479 0 0 0 0 559.23320707672974 -2282.225455700187 0 -2282.225455700187 -273.80743164987871 0 0 0 0 -2318.9912564504193 -66.67892132975976 0 -66.67892132975976 -2232.2184808330203 0 0 0 0 -1532.5454572238377 -1029.8161001878325 0 -1029.8161001878325 1350.936623003247 0 0 0 0 -1511.5272891349741 -1093.3219994527099 0 -1093.3219994527099 818.17587524331611 0 0 0 0 -2051.6365691800165 -599.55789549925612 0 -599.55789549925612 -2167.5031180409133 0 0 0 0 -2345.0266587992883 -565.56982530516689 0 -565.56982530516689 -692.4640339743637 0 0 0 0 24.816621853569927 -55.208860863264761 0 -55.208860863264761 -18.101578544420235 0 0 0 0 -289.1481674737297 442.8562490461336 0 442.8562490461336 -988.49824810886639 0 0 0 0 -3.3401272459150277 -8.5904103269932079 0 -8.5904103269932079 28.891976631214845 0 0 0 0 -37.423876801095417 -32.870933596037617 0 -32.870933596037617 44.504280575675466 0 0 0 0 318.69048857234884 -1209.493326709824 0 -1209.493326709824 1075.9118372233715 0 0 0 0 911.79813971841213 -2038.0321562381832 0 -2038.0321562381832 -490.33514856285183 0 0 0 0 447.47230998150553 -2555.1628620000793 0 -2555.1628620000793 -970.25007012611604 0 0 0 0 -13.09638603679096 -14.787508318743789 0 -14.787508318743789 23.529403691748371 0 0 0 0 -2788.1147178922256 -1007.6154102851215 0 -1007.6154102851215 -3105.0497214910865 0 0 0 0 -2129.7697816876607 -1271.746066162028 0 -1271.746066162028 -1533.3632016552583 0 0 0 0 -1934.9005061522766 -1491.1744183657338 0 -1491.1744183657338 -2832.9428683193109 0 0 0 0 -2511.4991703771229 -2071.0573480857347 0 -2071.0573480857347 -2910.2360448404943 0 0 0 0 -1765.8676706553088 -1950.4651346445899 0 -1950.4651346445899 -3680.5561069202813 0 0 0 0 -1820.8133813223685 -2655.9469446741423 0 -2655.9469446741423 -2394.6318391885434 0 0 0 0 -1876.9059784743877 -957.74864145759784 0 -957.74864145759784 -3358.71079152928 0 0 0 0 -712.27150750438523 -96.720728066258744 0 -96.720728066258744 -7690.0589271703648 0 0 0 0 -2301.4363551425049 -1054.0303388317188 0 -1054.0303388317188 -2993.0456329508743 0 0 0 0 19.722270516648166 -43.244513874276805 0 -43.244513874276805 -20.2031098159881 0 0 0 0 -831.35707541616284 -2255.6994491847872 0 -2255.6994491847872 -1025.3069085711777 0 0 0 0 -1273.3587251250283 -3829.7282235197999 0 -3829.7282235197999 6036.0807971015165 0 0 0 0 641.19639096969331 -3933.785778014997 0 -3933.785778014997 702.24288836744381 0 0 0 0 9.1439448075055338 -20.082337352143412 0 -20.082337352143412 -9.0629874806018194 0 0 0 0 -33.313680275517981 -2274.2352555375037 0 -2274.2352555375037 -5822.9089620835002 0 0 0 0 -781.43116565783566 -2723.1888157077119 0 -2723.1888157077119 -1365.4460249058757 0 0 0 0 -15.127872061282687 -2091.159867065755 0 -2091.159867065755 -997.70406961104891 0 0 0 0 -71.631879023087095 -2043.6757453176469 0 -2043.6757453176469 -1036.3984689706558 0 0 0 0 -1099.7799078697426 -2040.0648955878423 0 -2040.0648955878423 -876.47698077032692 0 0 0 0 13.871477730732295 -1717.1368059987726 0 -1717.1368059987726 -907.80092671578313 0 0 0 0 408.72161765092824 -2317.5647531920404 0 -2317.5647531920404 -829.49894862509973 0 0 0 0 -53.797287129465985 -1620.0521035058173 0 -1620.0521035058173 -957.35485002200585 0 0 0 0 -170.62236500891959 -1832.0415548626188 0 -1832.0415548626188 -1043.9910883359553 0 0 0 0 2242.7037986330761 -2101.1013269290052 0 -2101.1013269290052 -1588.1293424713076 0 0 0 0 307.01002229317965 -913.33208283504791 0 -913.33208283504791 -2001.1897414370906 0 0 0 0 -12.102326206687636 -24.82111544606542 0 -24.82111544606542 10.514879997763558 0 0 0 0 -7.8486865702725481 -1156.4178690010813 0 -1156.4178690010813 -2156.9801689854285 0 0 0 0 -834.34920663358935 -1120.1394862615634 0 -1120.1394862615634 -1804.2272678383124 0 0 0 0 -882.07437968750037 -1865.6872484758678 0 -1865.6872484758678 -1627.7836208583903 0 0 0 0 -2.3477155292536622 -11.554311913368053 0 -11.554311913368053 2.3413374337230266 0 0 0 0 -3418.6118269244034 -1870.0229181536852 0 -1870.0229181536852 291.3213521871694 0 0 0 0 -5171.5618892690181 -524.85903867461184 0 -524.85903867461184 -373.94016226576059 0 0 0 0 -2176.4255767459981 -761.56349317831337 0 -761.56349317831337 -1922.2807111785078 0 0 0 0 -2235.8033496739372 -952.53533503493236 0 -952.53533503493236 -1993.060185306138 0 0 0 0 -1530.6340152201301 -511.33665191555338 0 -511.33665191555338 -3412.2668269029091 0 0 0 0 -2615.6837416033577 -312.49919578636218 0 -312.49919578636218 -2363.9917413453513 0 0 0 0 -853.86750294117519 -1503.9063493210488 0 -1503.9063493210488 -2369.846500181171 0 0 0 0 -716.24540049784991 -1289.4381855926476 0 -1289.4381855926476 -2737.3910956336695 0 0 0 0 -995.04088957318163 -1735.2179386495191 0 -1735.2179386495191 -2468.6403507702926 0 0 0 0 -735.62038193666376 -2122.4778977925744 0 -2122.4778977925744 -1951.0938511627464 0 0 0 0 -269.94363073773275 -1634.9279955769889 0 -1634.9279955769889 -3189.8940032344544 0 0 0 0 -724.91281587103731 -1519.254412222981 0 -1519.254412222981 -2410.6402127492183 0 0 0 0 317.11294824225479 -930.86156817292795 0 -930.86156817292795 -2189.3844307941908 0 0 0 0 1673.7030603329767 -1469.6730871519248 0 -1469.6730871519248 -2243.1044331883368 0 0 0 0 729.86095844568626 -1261.666545509579 0 -1261.666545509579 -1106.7286755620735 0 0 0 0 1623.3616809204686 -1385.3286287093943 0 -1385.3286287093943 -1098.5296248694431 0 0 0 0 644.36859389906749 -1886.6473235487792 0 -1886.6473235487792 -1613.1381266569842 0 0 0 0 488.52604380072444 -2124.1280806188643 0 -2124.1280806188643 -811.74606144966674 0 0 0 0 318.5139251666842 -2025.4430841107387 0 -2025.4430841107387 -2415.8888322298299 0 0 0 0 -12.302822345642198 -2291.3471351456337 0 -2291.3471351456337 -1665.4756439704506 0 0 0 0 -685.49292387079913 -2364.8150434754134 0 -2364.8150434754134 -1302.629238802183 0 0 0 0 -1330.3043096724286 -2420.4645056341178 0 -2420.4645056341178 60.956126612996741 0 0 0 0 -1410.8102939663368 -2198.5949019002946 0 -2198.5949019002946 -971.42881550316815 0 0 0 0 -829.66703177438467 -2050.0065062249632 0 -2050.0065062249632 -1927.5351204487597 0 0 0 0 330.87696523216437 -2813.0511240726919 0 -2813.0511240726919 -1207.404352066249 0 0 0 0 -3544.3420068690903 -644.22463429148775 0 -644.22463429148775 2879.1957645736984 0 0 0 0 371.59786302434986 -3045.6034343803803 0 -3045.6034343803803 225.20138862090243 0 0 0 0 1.4052344222691318 -1.0696813898071298 0 -1.0696813898071298 2.2549758296455593 0 0 0 0 311.3981193213076 -2099.7042130016462 0 -2099.7042130016462 583.09312244778266 0 0 0 0 778.40476611407939 -2584.3728247731487 0 -2584.3728247731487 998.9476364760194 0 0 0 0 1769.5001546417479 -3064.7779318319954 0 -3064.7779318319954 1230.9532891255294 0 0 0 0 2487.7807750910288 -1851.7104128543724 0 -1851.7104128543724 633.31213335126813 0 0 0 0 2451.6878150340053 -2240.5633653409604 0 -2240.5633653409604 299.97524153243285 0 0 0 0 1248.1139395097707 -2259.7529619902925 0 -2259.7529619902925 -806.92241889654542 0 0 0 0 1924.0580828498641 -2336.5702850852467 0 -2336.5702850852467 -127.9498335691751 0 0 0 0 2561.9026097739115 -1582.6344944753655 0 -1582.6344944753655 -638.07029215953662 0 0 0 0 1748.1020240091602 -1716.2270321950491 0 -1716.2270321950491 -84.433740964217577 0 0 0 0 1783.6762199577352 -1663.8703259854738 0 -1663.8703259854738 -621.83005587704247 0 0 0 0 1286.3735474577988 -1816.8867911793641 0 -1816.8867911793641 -529.60740711867402 0 0 0 0 -562.80789677405846 -2820.9257317199517 0 -2820.9257317199517 179.75592122817397 0 0 0 0 -1.3594135485490426 -0.35561800510700436 0 -0.35561800510700436 2.2404216450718764 0 0 0 0 -3061.6117999625931 -1087.7202710176953 0 -1087.7202710176953 -1531.6244170711725 0 0 0 0 -643.43638943480619 -1912.5928729659427 0 -1912.5928729659427 93.183391679398483 0 0 0 0 -344.06183665961726 -2105.0129904720525 0 -2105.0129904720525 -118.72186428040004 0 0 0 0 -937.92352134977409 -2195.527791514407 0 -2195.527791514407 -49.939513752789935 0 0 0 0 -1407.8985878242747 -2501.3764475277785 0 -2501.3764475277785 137.375089465364 0 0 0 0 -3198.5847742918122 -1240.6210474011095 0 -1240.6210474011095 -311.1183124441377 0 0 0 0 -2237.9436351014592 -1041.289093103238 0 -1041.289093103238 -1546.313161061038 0 0 0 0 16.47955156548295 -9.2575761678824335 0 -9.2575761678824335 -16.241486089893669 0 0 0 0 -1873.7527174585048 -1689.678143829271 0 -1689.678143829271 -1164.9999151775264 0 0 0 0 -2047.7944353474304 -2605.6324659939564 0 -2605.6324659939564 -1132.5336565474863 0 0 0 0 6.238252744404349 -6.2173204450166111 0 -6.2173204450166111 2.3961295607667239 0 0 0 0 -1863.5927022324104 -1996.7122653897841 0 -1996.7122653897841 -979.06221993231156 0 0 0 0 -299.65549512382131 1130.7082543461584 0 1130.7082543461584 1780.7579701079521 0 0 0 0 -1742.6023506829224 -1774.5326290958401 0 -1774.5326290958401 -916.68051813074271 0 0 0 0 -1833.556233228519 -1623.5167159692719 0 -1623.5167159692719 -1739.0263514231192 0 0 0 0 -2256.6783652747981 -1959.8935493658646 0 -1959.8935493658646 -971.26806288889566 0 0 0 0 -1338.3938226270257 -1435.7277425473585 0 -1435.7277425473585 -440.25191679559066 0 0 0 0 -1306.6306489421113 -754.48971642641118 0 -754.48971642641118 -1474.3271260031106 0 0 0 0 -747.36420253498363 -964.71258411889721 0 -964.71258411889721 -995.17567954966216 0 0 0 0 22.595393519515198 -12.839577201477738 0 -12.839577201477738 -21.760240838380469 0 0 0 0 12.357154590880725 -4.9073903069014762 0 -4.9073903069014762 -16.176725785728664 0 0 0 0 413.232825202198 501.96815808510291 0 501.96815808510291 697.82907527076895 0 0 0 0 -10959.867180090281 -8886.7820177245012 0 -8886.7820177245012 -6187.6706810138421 0 0 0 0 38.062921656028948 -3.3161586756017982 0 -3.3161586756017982 -13.416753367433188 0 0 0 0 -413.42039323788777 -894.06686492909648 0 -894.06686492909648 -1228.0238466501469 0 0 0 0 -9.7694010931530428 -24.147729221904683 0 -24.147729221904683 9.4943306780715488 0 0 0 0 -869.95289780397434 -565.15664433108759 0 -565.15664433108759 -1343.6332956877595 0 0 0 0 -2985.2798774026305 -1164.8485916877544 0 -1164.8485916877544 -1288.7000177435984 0 0 0 0 -304.05868327600183 -673.4778346575622 0 -673.4778346575622 -1218.7898286405689 0 0 0 0 -245.46508971092044 -739.64484152969453 0 -739.64484152969453 -2047.8516768925183 0 0 0 0 -1791.0196006455517 -889.56706936765477 0 -889.56706936765477 -2289.8477039442223 0 0 0 0 -1129.9189702410367 -1818.4530346743268 0 -1818.4530346743268 -1851.2256998728408 0 0 0 0 -344.65108085075553 -847.50777843123979 0 -847.50777843123979 -2298.6825776918413 0 0 0 0 -709.15029711296665 -1658.2073618124195 0 -1658.2073618124195 -2223.5660634770902 0 0 0 0 -1744.2138071732552 -801.59881155030598 0 -801.59881155030598 -2599.1900775258255 0 0 0 0 -1466.5718585684663 -563.89330309729121 0 -563.89330309729121 -2400.1343619597756 0 0 0 0 -1954.2784448867314 -1034.5235276084131 0 -1034.5235276084131 -2678.9118317345565 0 0 0 0 -1752.4908848774503 -869.27292099532497 0 -869.27292099532497 -2518.0577862684295 0 0 0 0 -1301.434996508593 -1093.4858815861862 0 -1093.4858815861862 -2841.6436112936353 0 0 0 0 -2401.9892328663609 -500.64960564913417 0 -500.64960564913417 -3614.7777024322131 0 0 0 0 -1977.9257701509341 -1297.6816343578103 0 -1297.6816343578103 -3200.1657408933243 0 0 0 0 -2532.5086754264921 -1024.7489776176444 0 -1024.7489776176444 -2480.5949236854649 0 0 0 0 -1989.4415576855463 -1298.4998465271965 0 -1298.4998465271965 -2491.1716220902745 0 0 0 0 -1.3574112631467017 1.5741394424210569 0 1.5741394424210569 -1.811440943568698 0 0 0 0 -1661.0591139621974 -1892.6185775131162 0 -1892.6185775131162 -4049.6750264747097 0 0 0 0 -3015.9594177490071 112.83121656988988 0 112.83121656988988 -2093.0473487708659 0 0 0 0 -954.06698620202951 -2677.8041787503171 0 -2677.8041787503171 2055.9350833749313 0 0 0 0 19.826922895688028 -10.954420832515979 0 -10.954420832515979 -23.720587457116892 0 0 0 0 -650.08066294854507 -3387.250304024521 0 -3387.250304024521 1644.6732729265204 0 0 0 0 -12.578653595638173 4.5875510333133889 0 4.5875510333133889 18.661466426884829 0 0 0 0 -3493.6749231307185 -1996.2329856931465 0 -1996.2329856931465 -1143.8238703164388 0 0 0 0 -1614.7397262979939 -401.15434882391128 0 -401.15434882391128 -4868.8219144877221 0 0 0 0 -551.55563309288118 -3020.2931577150594 0 -3020.2931577150594 1306.920176876476 0 0 0 0 -1659.9988596799958 -1205.6798980735621 0 -1205.6798980735621 -2531.7255777111641 0 0 0 0 1.2417388748860674 -4.4687821739661899 0 -4.4687821739661899 8.0099701531027563 0 0 0 0 -3119.5216456346789 578.09235324504789 0 578.09235324504789 -3535.8180573662685 0 0 0 0 23.367907153294482 -12.346845960329887 0 -12.346845960329887 -29.951678561144121 0 0 0 0 -743.94044678416685 -1998.2192196322358 0 -1998.2192196322358 1212.1697855692473 0 0 0 0 92.717133223370183 142.04746709343453 0 142.04746709343453 -152.97321996989194 0 0 0 0 -705.03662591951434 -1991.2202483258443 0 -1991.2202483258443 1031.6157651626345 0 0 0 0 -683.13571239996236 -1997.9188971999392 0 -1997.9188971999392 1029.1723861712235 0 0 0 0 -696.70050569751766 -2103.6750013843121 0 -2103.6750013843121 1150.8636232536228 0 0 0 0 -688.90793391634361 -1974.7606398026583 0 -1974.7606398026583 1024.2766208968824 0 0 0 0 -632.25382394657936 -1934.5730022763018 0 -1934.5730022763018 776.09141507034656 0 0 0 0 -714.30911754869157 -1971.9559577952023 0 -1971.9559577952023 1030.980970968958 0 0 0 0 -627.15226177748991 -1890.678381278849 0 -1890.678381278849 1285.7339284130721 0 0 0 0 -972.17772110155784 -2182.2978488028748 0 -2182.2978488028748 2059.9477262518276 0 0 0 0 -801.8639271480497 -1928.7557061188272 0 -1928.7557061188272 1883.8798681952467 0 0 0 0 -726.3366401422536 -2148.9633707913454 0 -2148.9633707913454 1343.3956624750863 0 0 0 0 -785.39718146820087 -2431.9853080312023 0 -2431.9853080312023 1837.3046251227206 0 0 0 0 -606.0524852964445 -2141.5334523384663 0 -2141.5334523384663 892.18369886546861 0 0 0 0 -680.92374623625074 -2102.2435328881547 0 -2102.2435328881547 1351.6026265179098 0 0 0 0 -667.08826861326816 -2012.0662655866472 0 -2012.0662655866472 997.19467308779713 0 0 0 0 -550.13539495901205 -2043.1792302609683 0 -2043.1792302609683 987.64629339595558 0 0 0 0 -544.72849160310579 -2023.4445013379591 0 -2023.4445013379591 684.88776173040969 0 0 0 0 -630.0805729154963 -2023.3410998801119 0 -2023.3410998801119 927.05976783494407 0 0 0 0 -580.27845863363473 -1942.9142620017228 0 -1942.9142620017228 620.53289289907843 0 0 0 0 -570.03875416074879 -2250.5679677417502 0 -2250.5679677417502 791.84158518654294 0 0 0 0 -707.63117779063759 -2510.0966230509512 0 -2510.0966230509512 1354.2243946826202 0 0 0 0 -659.85333977336995 -2161.2796761523059 0 -2161.2796761523059 1174.3738883899641 0 0 0 0 -698.78223529053503 -2454.6545180633111 0 -2454.6545180633111 1198.8243234993424 0 0 0 0 -663.94072773246444 -350.09588521572005 0 -350.09588521572005 -2399.9811485267496 0 0 0 0 -1321.8088383944123 -934.72844791159878 0 -934.72844791159878 -2030.4462429350824 0 0 0 0 -1265.6067804982595 -796.71678136735864 0 -796.71678136735864 -2561.104259414431 0 0 0 0 -1374.051052955765 -828.09347871546925 0 -828.09347871546925 -2288.3539566387626 0 0 0 0 -9.8933744858278487 6.3775682965085991 0 6.3775682965085991 6.962726489620195 0 0 0 0 -3178.5894693790469 -1711.7934632896213 0 -1711.7934632896213 -1190.3918918518466 0 0 0 0 -1118.9779418024409 -322.82639885922254 0 -322.82639885922254 -1762.9946181414271 0 0 0 0 -777.8366061996785 -1942.321631348299 0 -1942.321631348299 1258.9128203353903 0 0 0 0 35.347406133242288 -27.67008796538704 0 -27.67008796538704 19.162159498762776 0 0 0 0 -1101.967447218718 -712.9838540811179 0 -712.9838540811179 -941.48785238727578 0 0 0 0 139.25776153500192 -180.41478423366789 0 -180.41478423366789 441.94415035739075 0 0 0 0 -188.6890708131541 -1599.833472925704 0 -1599.833472925704 501.13360863761045 0 0 0 0 -357.77014207362663 -1884.5788118297496 0 -1884.5788118297496 232.00780834563193 0 0 0 0 -1.2153796506200933 -2.7384103002374047 0 -2.7384103002374047 14.302156425251724 0 0 0 0 -494.88554894324625 -2021.1831858803635 0 -2021.1831858803635 154.97056759358384 0 0 0 0 -370.39725292701041 -1852.062892043803 0 -1852.062892043803 231.66168961062067 0 0 0 0 -547.14063182735117 -1811.6066229834687 0 -1811.6066229834687 222.42089521905291 0 0 0 0 -581.12397094976041 -1670.0229665925071 0 -1670.0229665925071 36.371947164356243 0 0 0 0 -665.7796438356163 -1689.474111409756 0 -1689.474111409756 272.48023630958778 0 0 0 0 -470.9468785377685 -1826.3126885324309 0 -1826.3126885324309 54.612124996172497 0 0 0 0 -619.06775393831776 -1629.2425472573959 0 -1629.2425472573959 546.19758458941942 0 0 0 0 -487.15318254171871 -1738.5281757329067 0 -1738.5281757329067 281.83910945603202 0 0 0 0 -621.05314281763276 -1768.7753072908527 0 -1768.7753072908527 585.32401244790526 0 0 0 0 -738.06200186372735 -1695.582695249992 0 -1695.582695249992 1341.5985078932572 0 0 0 0 -590.84984183614142 -1600.9895138378488 0 -1600.9895138378488 920.43100393516943 0 0 0 0 -527.0217283279635 -1697.7842083220894 0 -1697.7842083220894 608.46430166166101 0 0 0 0 -422.91241946123773 -1578.5124979704706 0 -1578.5124979704706 576.38124915809021 0 0 0 0 -403.09169145315536 -1411.0594159647735 0 -1411.0594159647735 1038.5079844124266 0 0 0 0 -707.01868310907594 -1857.1176410321314 0 -1857.1176410321314 1013.6791919786483 0 0 0 0 -699.63785298995936 -1839.7842484812463 0 -1839.7842484812463 815.41974647971801 0 0 0 0 -622.25735738675576 -1959.2232017891365 0 -1959.2232017891365 750.75400310684927 0 0 0 0 -627.60495254147099 -1803.1635207094805 0 -1803.1635207094805 494.80495252611581 0 0 0 0 -671.45493377567618 -1773.1751114902727 0 -1773.1751114902727 651.54933604638791 0 0 0 0 -683.68712506617885 -1780.9569368814118 0 -1780.9569368814118 860.24482447154878 0 0 0 0 -592.71011945892315 -1724.2321645779011 0 -1724.2321645779011 254.62687401473522 0 0 0 0 -597.35392987873638 -1999.815613074752 0 -1999.815613074752 545.10032417971524 0 0 0 0 -621.50410019478295 -1874.1849934846687 0 -1874.1849934846687 584.79694943761569 0 0 0 0 -645.43373841082212 -1839.6966913711803 0 -1839.6966913711803 650.76676457047142 0 0 0 0 -573.8577740608016 -1766.3890124235331 0 -1766.3890124235331 322.92542272538412 0 0 0 0 -714.26874444188434 -1706.6474111273856 0 -1706.6474111273856 317.22215742873959 0 0 0 0 -648.89137980522355 -1584.2238758056919 0 -1584.2238758056919 58.5410492051451 0 0 0 0 -699.6487850449048 -1695.7482801336009 0 -1695.7482801336009 363.71988033717935 0 0 0 0 -713.64008892234415 -1464.371872983771 0 -1464.371872983771 -71.111734009406064 0 0 0 0 -776.63842035809648 -1558.3579569085123 0 -1558.3579569085123 161.08873953211514 0 0 0 0 -803.68400059372652 -1529.437241118183 0 -1529.437241118183 106.20705751910282 0 0 0 0 -578.1082658545929 -1676.4339133599715 0 -1676.4339133599715 237.10110686608823 0 0 0 0 -627.27090932242572 -1617.9812052165362 0 -1617.9812052165362 140.81979972700356 0 0 0 0 -682.34232695389073 -1671.4410988531163 0 -1671.4410988531163 492.45440423682794 0 0 0 0 -716.58832297916524 -1612.3668249809416 0 -1612.3668249809416 227.0191490551224 0 0 0 0 -850.63079093251145 -1485.230571083448 0 -1485.230571083448 -50.11682798646325 0 0 0 0 -750.39732089423342 -1643.7812418088215 0 -1643.7812418088215 -128.07336990156909 0 0 0 0 -655.93626395988395 -1587.6589960268757 0 -1587.6589960268757 -32.006582664849702 0 0 0 0 -816.75811825139681 -1497.0119730304978 0 -1497.0119730304978 -237.86875980670447 0 0 0 0 -916.28649677094654 -1367.0590930147737 0 -1367.0590930147737 -145.82342675271502 0 0 0 0 -869.92922537168488 -1479.9304843272839 0 -1479.9304843272839 -50.495805166850914 0 0 0 0 -961.23480498301797 -1414.0770272291556 0 -1414.0770272291556 -391.62569136688762 0 0 0 0 -884.10794386058114 -1355.709588840793 0 -1355.709588840793 -266.3022601880657 0 0 0 0 -1109.6802957260516 -1325.6943888344904 0 -1325.6943888344904 -251.36260889060213 0 0 0 0 -1003.6366450073547 -1385.743644107366 0 -1385.743644107366 -261.32732838139054 0 0 0 0 -1015.7776609754346 -1628.3681388978916 0 -1628.3681388978916 -282.23885540745687 0 0 0 0 -816.82493204821367 -1530.8620559862029 0 -1530.8620559862029 -234.62828295718646 0 0 0 0 -1095.8199359942519 -1751.0257061858501 0 -1751.0257061858501 -287.53522650129162 0 0 0 0 -698.09972287632991 -1747.0039380107482 0 -1747.0039380107482 -287.93802924062584 0 0 0 0 -866.96157255082653 -1712.967374731923 0 -1712.967374731923 -113.24980741392937 0 0 0 0 -950.64420715111191 -1859.6744228267489 0 -1859.6744228267489 -62.956004501858843 0 0 0 0 -744.14779855961388 -1873.0263597900339 0 -1873.0263597900339 -329.57332272062195 0 0 0 0 -503.42158225932508 -1920.2132792329139 0 -1920.2132792329139 -60.989658399761538 0 0 0 0 -786.98081120452844 -1811.7311363390181 0 -1811.7311363390181 55.763944052761872 0 0 0 0 -780.69441162474686 -1606.955986295492 0 -1606.955986295492 26.211838500206795 0 0 0 0 -631.37463429613854 -1715.8619375953494 0 -1715.8619375953494 -114.12171373108868 0 0 0 0 -1135.4109488061076 -1116.3191584414963 0 -1116.3191584414963 -390.69164461162291 0 0 0 0 -1170.6266102974769 -1128.9565329359903 0 -1128.9565329359903 -536.09595028168405 0 0 0 0 -1176.3904714441014 -1143.7371063537139 0 -1143.7371063537139 -382.20146656557336 0 0 0 0 -1102.2092821798869 -1276.7211024914141 0 -1276.7211024914141 -417.44767296123609 0 0 0 0 -1165.8658266999118 -1126.0310288614128 0 -1126.0310288614128 -355.82102021455648 0 0 0 0 -1229.7523644955945 -1239.782867803835 0 -1239.782867803835 -443.37436501120101 0 0 0 0 -1273.5601148154819 -1274.4939709256068 0 -1274.4939709256068 -577.04812035057694 0 0 0 0 -1157.1735034859157 -1093.6481343510095 0 -1093.6481343510095 -618.85834443990097 0 0 0 0 -1180.2916547709392 -1071.8791232993954 0 -1071.8791232993954 -454.59027518928633 0 0 0 0 -1210.5451455872244 -1122.2730697470179 0 -1122.2730697470179 -431.01875673123868 0 0 0 0 -1189.92536227659 -1057.0891248103708 0 -1057.0891248103708 -362.14648426510394 0 0 0 0 -1144.6003942013776 -1131.5988325044309 0 -1131.5988325044309 -412.84089514968218 0 0 0 0 -1098.8477898726705 -1124.181488634742 0 -1124.181488634742 -365.23087654760457 0 0 0 0 -1118.6980732198572 -1228.0319205207343 0 -1228.0319205207343 -274.09928149204643 0 0 0 0 -1034.2688017713372 -1232.1001877420204 0 -1232.1001877420204 -359.875350484519 0 0 0 0 -997.62860765363439 -1321.1034508103257 0 -1321.1034508103257 -170.47920392701053 0 0 0 0 -936.99900228643673 -1245.877349251994 0 -1245.877349251994 -305.42313054780243 0 0 0 0 -1029.320260827546 -1279.1775721878221 0 -1279.1775721878221 -198.23585172113962 0 0 0 0 -820.31522241757921 -1346.1210863586784 0 -1346.1210863586784 -200.6194219404133 0 0 0 0 -1108.5640625920496 -1185.1028324876534 0 -1185.1028324876534 -285.054212269446 0 0 0 0 -1005.1268945773481 -1203.9556200693623 0 -1203.9556200693623 -386.7555569212127 0 0 0 0 -1094.5292638450337 -1231.9981511714868 0 -1231.9981511714868 -266.38761543830333 0 0 0 0 -964.45413105053012 -1318.6453857662118 0 -1318.6453857662118 -376.90236682471004 0 0 0 0 -981.20483061008781 -1391.0133749697834 0 -1391.0133749697834 -137.47900641424349 0 0 0 0 -1083.9383209672815 -1440.2710500257526 0 -1440.2710500257526 -275.73679077829001 0 0 0 0 -754.83505738370877 -1407.3594678084992 0 -1407.3594678084992 -123.11618831104715 0 0 0 0 -913.75626573219779 -1391.211564403915 0 -1391.211564403915 -77.260495257083676 0 0 0 0 -872.10488565883134 -1291.2681386251643 0 -1291.2681386251643 -267.41948840243276 0 0 0 0 -814.19526182115078 -1416.645060236624 0 -1416.645060236624 -223.32236863215803 0 0 0 0 -839.02396339218831 -1538.516756983212 0 -1538.516756983212 47.990489882053225 0 0 0 0 -671.75029334312421 -1569.1644154923706 0 -1569.1644154923706 -41.15010491994326 0 0 0 0 -750.33273219630064 -1588.1241426857559 0 -1588.1241426857559 -171.85970644940971 0 0 0 0 -787.66544804361911 -1664.940687767019 0 -1664.940687767019 184.56552981983987 0 0 0 0 -594.45259791990975 -1881.7807305318129 0 -1881.7807305318129 81.779426899120153 0 0 0 0 -919.68750483222539 -1450.1670579926576 0 -1450.1670579926576 -353.69395518046804 0 0 0 0 -920.78767391701695 -1531.2145093276777 0 -1531.2145093276777 -80.49245731892006 0 0 0 0 -883.72419820976211 -1681.5827414290397 0 -1681.5827414290397 -26.425682252302067 0 0 0 0 -887.18254498897295 -1581.9093460093259 0 -1581.9093460093259 -318.56393953386578 0 0 0 0 -1054.4211478972575 -1578.4857200405822 0 -1578.4857200405822 -217.66034692790709 0 0 0 0 -1054.6344376010106 -1590.6429778610454 0 -1590.6429778610454 -568.30782726939651 0 0 0 0 -1259.2951852297992 -1645.0345777323673 0 -1645.0345777323673 -445.98414936408517 0 0 0 0 -1131.5324590496602 -1342.7998667265201 0 -1342.7998667265201 -459.57698200018785 0 0 0 0 -1239.8232511360256 -1406.663219663671 0 -1406.663219663671 -442.43913913573488 0 0 0 0 -1147.1633447852801 -1207.0559594515798 0 -1207.0559594515798 -519.31494493005448 0 0 0 0 -1223.7569980608823 -1469.2618703627377 0 -1469.2618703627377 -734.00096394622233 0 0 0 0 -1221.6750597868522 -1216.897505111956 0 -1216.897505111956 -598.47004242960247 0 0 0 0 -1340.3747527115629 -1470.0946509759451 0 -1470.0946509759451 -645.40639151127834 0 0 0 0 -1221.3569788657769 -1728.1849903971888 0 -1728.1849903971888 -1008.9544668202579 0 0 0 0 -1483.901160440786 -1893.6530153959466 0 -1893.6530153959466 -815.80903957335977 0 0 0 0 -1221.3646720331308 -1955.8371950064175 0 -1955.8371950064175 -1162.192099241307 0 0 0 0 -1044.3424797584885 -1809.967665643373 0 -1809.967665643373 -716.92429078754503 0 0 0 0 -1255.0324030938791 -2049.3274377495254 0 -2049.3274377495254 -573.20614920419757 0 0 0 0 -1083.0907889021037 -1897.7912229001377 0 -1897.7912229001377 -585.14463015447836 0 0 0 0 -1369.0426779029222 -2420.5547521697663 0 -2420.5547521697663 -1184.4843762158416 0 0 0 0 -938.6573477187776 -2407.2500586154492 0 -2407.2500586154492 -862.13293753679318 0 0 0 0 -1062.8643423267931 -2159.0477630694513 0 -2159.0477630694513 -1242.5921727015229 0 0 0 0 -1473.7258427497873 -2189.9541567206907 0 -2189.9541567206907 -1502.7120746307628 0 0 0 0 -528.1275852060644 -2584.5576475453854 0 -2584.5576475453854 807.90859122827715 0 0 0 0 -580.70246769563528 -2505.3624082535971 0 -2505.3624082535971 703.73386929521803 0 0 0 0 -622.13139018937363 -2177.2656245043763 0 -2177.2656245043763 789.94124490238028 0 0 0 0 -535.75539142888738 -2239.0667944108573 0 -2239.0667944108573 473.00913111551199 0 0 0 0 -655.56948622885102 -1838.3723742483307 0 -1838.3723742483307 367.19818129512714 0 0 0 0 -737.65328069461975 -1804.6304145976464 0 -1804.6304145976464 155.30430900014471 0 0 0 0 -552.86082954783342 -2137.4514022997319 0 -2137.4514022997319 82.460223021975253 0 0 0 0 -538.53921660006745 -2414.296407887392 0 -2414.296407887392 278.55446733388817 0 0 0 0 -635.4549141334719 -2113.500478137561 0 -2113.500478137561 375.67718344123568 0 0 0 0 -409.79463467246387 -2532.2082365027163 0 -2532.2082365027163 358.44830722385632 0 0 0 0 -662.8960675659182 -2048.5741748835135 0 -2048.5741748835135 -242.16544341022382 0 0 0 0 -695.18822078971425 -2009.502541312977 0 -2009.502541312977 61.387104828216252 0 0 0 0 -396.29987039620755 -2393.9226350726385 0 -2393.9226350726385 -117.40873323143751 0 0 0 0 -688.35696283297148 -1814.1511118726048 0 -1814.1511118726048 -148.0925756169454 0 0 0 0 -867.33612120006001 -1755.5275778875512 0 -1755.5275778875512 -97.206702197552659 0 0 0 0 -1027.664944866061 -1728.7278669635998 0 -1728.7278669635998 -321.30370661889901 0 0 0 0 -893.11590304929996 -1830.0155783818627 0 -1830.0155783818627 -282.73276004381842 0 0 0 0 -851.79598904796876 -1936.9241168384324 0 -1936.9241168384324 -229.9161491849809 0 0 0 0 -886.37644375785021 -2039.5928851949284 0 -2039.5928851949284 -533.41931179951644 0 0 0 0 -909.42775405358407 -2271.0883906026465 0 -2271.0883906026465 -336.00981990370201 0 0 0 0 -602.89930923603242 -2300.6663131398091 0 -2300.6663131398091 -525.39099369672476 0 0 0 0 -547.02449422609061 -2272.0598319270648 0 -2272.0598319270648 -693.85102900055062 0 0 0 0 -363.77525831852108 -2888.0199992223061 0 -2888.0199992223061 -872.90886614918418 0 0 0 0 -196.29310043223086 -2482.2703401082399 0 -2482.2703401082399 -571.64401005330728 0 0 0 0 677.54158690350596 -2982.5435550618568 0 -2982.5435550618568 -503.97365410724888 0 0 0 0 -237.30979556782404 -2513.7142507148383 0 -2513.7142507148383 -181.4713536176132 0 0 0 0 -308.88421396006015 -2623.5162644328229 0 -2623.5162644328229 -341.64349657628918 0 0 0 0 -600.52451183431549 -2226.2837403408193 0 -2226.2837403408193 -120.85581090004416 0 0 0 0 -246.49349367478862 -2802.6080886391574 0 -2802.6080886391574 40.420370176841971 0 0 0 0 -453.90293980471324 -2840.1408882197284 0 -2840.1408882197284 658.64672366238665 0 0 0 0 -225.6293815386307 -3241.8062171448983 0 -3241.8062171448983 435.76007240399485 0 0 0 0 -13.830148427980021 -2987.7238467950083 0 -2987.7238467950083 177.04223513009492 0 0 0 0 437.36874645839271 -3618.3723219048552 0 -3618.3723219048552 237.15832299459726 0 0 0 0 -339.23200594418449 -3790.4730791266193 0 -3790.4730791266193 430.51847799055395 0 0 0 0 -243.94718130258843 -3140.3850272819982 0 -3140.3850272819982 76.201854179729708 0 0 0 0 -272.91382162662921 -3552.6773261602793 0 -3552.6773261602793 708.62730672022735 0 0 0 0 -463.49768385500647 -3195.9542149088811 0 -3195.9542149088811 1033.8197554786457 0 0 0 0 -397.67746327421628 -2907.8565159400023 0 -2907.8565159400023 734.18906697200146 0 0 0 0 -602.19545604346786 -2875.2757231996511 0 -2875.2757231996511 914.02915608599142 0 0 0 0 -940.35319686087314 -1376.6938012543105 0 -1376.6938012543105 -4624.8045322915714 0 0 0 0 -4552.973516508122 2315.1357625891687 0 2315.1357625891687 -6438.4872762418818 0 0 0 0 2522.0158520925324 -7691.8508625237446 0 -7691.8508625237446 4960.8019687415799 0 0 0 0 1.3135996760445892 -1.9279774523912181 0 -1.9279774523912181 2.7127731625214722 0 0 0 0 -484.97345047694398 -2024.6862083149026 0 -2024.6862083149026 -5730.7010230362503 0 0 0 0 -579.60908475209726 -1912.8618190792913 0 -1912.8618190792913 -3089.1805857485997 0 0 0 0 -525.97032242240675 -2211.5798264404875 0 -2211.5798264404875 -4188.7017291869561 0 0 0 0 721.05177911854116 -2969.6194727782859 0 -2969.6194727782859 -2930.8388646483654 0 0 0 0 1509.3147612583707 -4332.2129630151903 0 -4332.2129630151903 -1208.6738502002263 0 0 0 0 -682.56732180112158 -2465.3993290860526 0 -2465.3993290860526 -2171.1887543481716 0 0 0 0 -612.16510815749643 -2846.8844269113615 0 -2846.8844269113615 -850.66766091491445 0 0 0 0 -331.26524100258393 -2647.5490449335193 0 -2647.5490449335193 -2400.8808148102253 0 0 0 0 -1190.7741731030983 -1251.5297622873186 0 -1251.5297622873186 -3173.1118882901792 0 0 0 0 -1125.0096931727603 -1856.0944502871716 0 -1856.0944502871716 -2916.171832407621 0 0 0 0 -944.53051984723425 -1261.1873737619171 0 -1261.1873737619171 -3261.8625727381295 0 0 0 0 -1054.9960236898041 -2262.0102028347756 0 -2262.0102028347756 -2336.7094947053993 0 0 0 0 -1016.5485442409408 -2644.9561152435926 0 -2644.9561152435926 -1391.7311196178998 0 0 0 0 -1044.9137932522572 -2490.8202255936194 0 -2490.8202255936194 -2426.1337756189132 0 0 0 0 -853.24764081728063 -1946.3316988575534 0 -1946.3316988575534 -3145.9845371076808 0 0 0 0 -1529.1370727505564 -2104.1919595137369 0 -2104.1919595137369 -2729.6421308885765 0 0 0 0 -1924.1779202492762 -2125.49186068789 0 -2125.49186068789 -2466.8702241406863 0 0 0 0 -1949.7804688211036 -2013.8343713889335 0 -2013.8343713889335 -2551.8560234049801 0 0 0 0 -1326.4808059417555 -2016.7985859824767 0 -2016.7985859824767 -2720.5757630095177 0 0 0 0 -1395.9888753367923 -1711.3354094749629 0 -1711.3354094749629 -2993.3890994924004 0 0 0 0 -1826.6523682516563 -1766.7720501264121 0 -1766.7720501264121 -2056.2200074465363 0 0 0 0 -1856.4181664811622 -1358.3370836721442 0 -1358.3370836721442 -1679.0060655798588 0 0 0 0 -2020.7924062031161 -1622.0929874999674 0 -1622.0929874999674 -2196.1087452535867 0 0 0 0 -1949.671922289941 -1394.4229176066874 0 -1394.4229176066874 -2152.5980417355058 0 0 0 0 -1907.4541323755693 -1552.9525670808653 0 -1552.9525670808653 -2047.5614751517132 0 0 0 0 -1794.0291072138352 -1697.5470601690031 0 -1697.5470601690031 -2393.9765825446375 0 0 0 0 -1882.1144449180574 -1465.1887089448646 0 -1465.1887089448646 -2260.9121449761296 0 0 0 0 -1969.9219631659798 -1466.3955810876869 0 -1466.3955810876869 -2685.9736355982895 0 0 0 0 -1726.9813307877776 -1699.8253857480449 0 -1699.8253857480449 -2731.0175792710215 0 0 0 0 -1593.3291414037813 -1699.9065269652638 0 -1699.9065269652638 -2732.6026959711526 0 0 0 0 -1913.256785738442 -1587.764189556794 0 -1587.764189556794 -2844.3020209096139 0 0 0 0 -1645.9071740924628 -1564.4885067352552 0 -1564.4885067352552 -2897.558100450784 0 0 0 0 -1861.082760269288 -1434.9910763040825 0 -1434.9910763040825 -3581.1284024690121 0 0 0 0 -2193.9592404238792 -1377.589398758988 0 -1377.589398758988 -2694.1250883222383 0 0 0 0 -2068.6111223164989 -1647.5867692755201 0 -1647.5867692755201 -2490.7750515472435 0 0 0 0 -2139.9473445010663 -1521.5217367977602 0 -1521.5217367977602 -2708.5293301073198 0 0 0 0 -2509.3145226846536 -953.50662934777938 0 -953.50662934777938 -2476.2628499778293 0 0 0 0 -1621.4338923346077 -906.55313317057153 0 -906.55313317057153 -2695.0403513339988 0 0 0 0 -4637.1371575299127 -716.62731948589135 0 -716.62731948589135 -1737.3540577044005 0 0 0 0 -6.2266655741846364 -12.289942652148028 0 -12.289942652148028 5.212041013828582 0 0 0 0 -2385.374469739636 -1553.7118412298023 0 -1553.7118412298023 -2448.2415714921081 0 0 0 0 -2141.729378845077 -1458.3385819728719 0 -1458.3385819728719 -2405.1243641013789 0 0 0 0 -2170.2754059379513 -1626.1084819197713 0 -1626.1084819197713 -2464.9543792452168 0 0 0 0 -2374.6681614902627 -1220.3080063655798 0 -1220.3080063655798 -2307.2937594455834 0 0 0 0 -2087.6536017017788 -1428.6672734920285 0 -1428.6672734920285 -1735.5967091230123 0 0 0 0 -2308.1787305487815 -1419.6010803577265 0 -1419.6010803577265 -1726.3925894779386 0 0 0 0 -2574.3010808878753 -1323.9962410046974 0 -1323.9962410046974 -1298.1175898943038 0 0 0 0 -3332.5308923454213 -1863.0897748567222 0 -1863.0897748567222 -1450.6276996607048 0 0 0 0 -2010.3228462107363 -2135.7882327740663 0 -2135.7882327740663 -1435.6224532548586 0 0 0 0 -1074.3498754518514 -1883.788227648387 0 -1883.788227648387 -1391.0360529421159 0 0 0 0 -1878.0332211401765 -1632.4551968695268 0 -1632.4551968695268 -999.84260301938048 0 0 0 0 -1827.1432787506055 -1655.2363196351725 0 -1655.2363196351725 -1151.3083789471275 0 0 0 0 -2839.5863821827152 -2158.3494003713618 0 -2158.3494003713618 -1480.2301644049439 0 0 0 0 -0.22370240171542832 -3.9813088541150563 0 -3.9813088541150563 -6.5426041841352003 0 0 0 0 -2052.3205976133031 -1237.5984527952896 0 -1237.5984527952896 -1231.6037373405688 0 0 0 0 -2819.6142507083132 -2020.4400646950671 0 -2020.4400646950671 -1564.8191556674283 0 0 0 0 -2770.8335219023866 -2094.6285505420383 0 -2094.6285505420383 -1489.0919918517611 0 0 0 0 -2741.3633770342421 -2169.0737492194112 0 -2169.0737492194112 -1382.0972572737373 0 0 0 0 38.984950923780389 -35.469830366483393 0 -35.469830366483393 27.072319548770906 0 0 0 0 -2.8406032916162758 0.038149092799955042 0 0.038149092799955042 4.5246244118785057 0 0 0 0 -2519.4622763109655 -2022.3960387366023 0 -2022.3960387366023 -2096.3707292274339 0 0 0 0 -1698.7665178254247 -1253.0001661487186 0 -1253.0001661487186 -1788.678861559878 0 0 0 0 -2686.411900098552 -2320.444319356593 0 -2320.444319356593 -2071.0796731641458 0 0 0 0 4.8019738875161408 -4.9341813067434259 0 -4.9341813067434259 -11.708872753426192 0 0 0 0 -1614.2858107272186 -1437.1253556010925 0 -1437.1253556010925 -1762.4257071146276 0 0 0 0 -1749.321149039868 -1314.6758806255384 0 -1314.6758806255384 -1858.9782182597701 0 0 0 0 -1942.9270263123035 -1525.1581615794712 0 -1525.1581615794712 -1807.6596348059247 0 0 0 0 -1897.7733710043831 -1341.5909822816902 0 -1341.5909822816902 -1730.4755664527183 0 0 0 0 -2110.8231050245158 -1372.6156916337859 0 -1372.6156916337859 -1372.5768376884516 0 0 0 0 -2057.6271930359362 -1489.5998874920624 0 -1489.5998874920624 -1186.9842850636633 0 0 0 0 -1680.6243268612307 -1611.6000919160724 0 -1611.6000919160724 -1487.3712109897606 0 0 0 0 -2994.4804606232065 -3007.0387300445727 0 -3007.0387300445727 -1654.685993277255 0 0 0 0 -2699.4202713196864 -2159.07839292071 0 -2159.07839292071 -1886.7125191054438 0 0 0 0 -2706.7862681136994 -2118.9918656631107 0 -2118.9918656631107 -1231.0027795241622 0 0 0 0 -2581.9378252547758 -2589.2324975222873 0 -2589.2324975222873 -1665.4288387393754 0 0 0 0 -2453.8881693802759 -2363.6476679996849 0 -2363.6476679996849 -2067.9199269602686 0 0 0 0 -2510.7476648728552 -1566.5484254965268 0 -1566.5484254965268 -1203.4794042038266 0 0 0 0 -2848.9704426621647 -2022.4841674548788 0 -2022.4841674548788 -1427.439082293713 0 0 0 0 -2836.2468272193182 -2106.6468719667146 0 -2106.6468719667146 -1408.061027259595 0 0 0 0 -3133.232670004043 -3099.5351118907565 0 -3099.5351118907565 -1688.0032373226313 0 0 0 0 116.14147917072403 -116.42168369993922 0 -116.42168369993922 83.075091139249196 0 0 0 0 -2277.296963703353 -2066.1226452373303 0 -2066.1226452373303 -1529.301475189437 0 0 0 0 -2753.0506210994645 -2049.6462736108369 0 -2049.6462736108369 -1426.9273533673841 0 0 0 0 -2678.96868487139 -2185.4108642309257 0 -2185.4108642309257 -1476.029530196116 0 0 0 0 -2223.7189431357692 -1870.4193488891251 0 -1870.4193488891251 -1018.8662025908707 0 0 0 0 -1790.0488722040609 -2247.040683508807 0 -2247.040683508807 -884.26524553119998 0 0 0 0 -1398.9884765501338 -1794.832242734381 0 -1794.832242734381 -569.47988419173635 0 0 0 0 -1583.4252424251426 -2716.0196274307655 0 -2716.0196274307655 -447.83649802095897 0 0 0 0 -2100.3328447666718 -2546.5052818661352 0 -2546.5052818661352 -933.91096800438208 0 0 0 0 -1661.228037171677 -2463.8401413703032 0 -2463.8401413703032 -1183.4070779963804 0 0 0 0 -2448.7092583537014 -2269.9968310461736 0 -2269.9968310461736 -1001.7924071417947 0 0 0 0 -2183.6983119635843 -2225.6623443449862 0 -2225.6623443449862 -698.212400321936 0 0 0 0 -2790.8051360872632 -2744.7259733566461 0 -2744.7259733566461 -1028.0005403843406 0 0 0 0 -1651.3735164920363 -2084.9635560698371 0 -2084.9635560698371 -696.19435711400502 0 0 0 0 -0.56749852757803865 -5.3505870611459443 0 -5.3505870611459443 -3.0963544769181794 0 0 0 0 -1752.0174205709918 -2523.2429728322677 0 -2523.2429728322677 -1113.0362657411315 0 0 0 0 -3089.9658445258974 -2830.4479796665109 0 -2830.4479796665109 -2672.7328521748423 0 0 0 0 -1247.5661328472634 -2245.7541273829556 0 -2245.7541273829556 -960.91214014987781 0 0 0 0 -1254.7376013959438 -2164.3947831412497 0 -2164.3947831412497 -1624.5635558324429 0 0 0 0 -1760.6405156548572 -1793.7320017025704 0 -1793.7320017025704 -1549.26627580887 0 0 0 0 -1462.7084551283915 -2689.1669875262596 0 -2689.1669875262596 -4115.9886939024691 0 0 0 0 -1713.5072478663642 -2410.9091697913827 0 -2410.9091697913827 -3694.2076391139708 0 0 0 0 -44.863757634411058 -23.04738879785269 0 -23.04738879785269 21.947896897418673 0 0 0 0 88.622362848114676 -71.53143822879008 0 -71.53143822879008 8.0156205387318096 0 0 0 0 -897.34735421675578 -353.02161931537375 0 -353.02161931537375 81.208547675487353 0 0 0 0 -1875.3326812601881 -3025.2529751341208 0 -3025.2529751341208 -3993.7798760684382 0 0 0 0 -2454.8708469201338 -1317.8551579745981 0 -1317.8551579745981 -1506.9910806387779 0 0 0 0 -3000.6638337284967 -2107.8134881378937 0 -2107.8134881378937 -1888.8490348902269 0 0 0 0 -2964.3831391943968 -2134.7797455840628 0 -2134.7797455840628 -2051.9173438703583 0 0 0 0 -2310.0918435423955 -2342.2488951101695 0 -2342.2488951101695 -3699.3899741228379 0 0 0 0 -2201.3463526106498 -1602.6622453999007 0 -1602.6622453999007 -2824.0766748680035 0 0 0 0 -3209.2477932967595 -2803.9109073899745 0 -2803.9109073899745 -858.57582874507352 0 0 0 0 104.56468649466451 -97.053993462472192 0 -97.053993462472192 63.770937909674387 0 0 0 0 -13.405572955327983 -4.9731241014642364 0 -4.9731241014642364 10.790652315491798 0 0 0 0 -85.961575959336187 679.81631170334367 0 679.81631170334367 -291.17112650637864 0 0 0 0 -2733.1130628361279 -1359.7186647418712 0 -1359.7186647418712 1558.5609087949269 0 0 0 0 -3150.6479626275541 -2047.4828704475949 0 -2047.4828704475949 -172.22190888714977 0 0 0 0 -4603.6562494558893 -2987.7515819136715 0 -2987.7515819136715 -831.08413120382465 0 0 0 0 -3146.747630918122 -4098.2952574295341 0 -4098.2952574295341 -3236.2436630705779 0 0 0 0 -2664.2024314084629 -1929.5783942370326 0 -1929.5783942370326 -513.40419614387793 0 0 0 0 -1880.631881825062 -1301.4377906105146 0 -1301.4377906105146 -1507.4862265972188 0 0 0 0 -2956.2606110664274 -2688.914728807038 0 -2688.914728807038 -2496.8495890408376 0 0 0 0 -1587.5128083835425 -876.32382364693694 0 -876.32382364693694 -635.5567085188668 0 0 0 0 -1602.7202739678978 -876.75731903055021 0 -876.75731903055021 -53.783174527692609 0 0 0 0 -3162.8928916224468 -2011.598522113607 0 -2011.598522113607 -1756.9446605271078 0 0 0 0 -4.3341643394317657 -2.9664036085972327 0 -2.9664036085972327 3.51236026642556 0 0 0 0 -3064.9627240484697 -2136.3904268418846 0 -2136.3904268418846 -1876.1835451386905 0 0 0 0 -2641.5415102012194 -1921.506077368249 0 -1921.506077368249 -1911.3833979062038 0 0 0 0 -1211.0745552672888 -578.85164998938126 0 -578.85164998938126 -1136.8382659569324 0 0 0 0 -32.162525970181747 -60.642701708249945 0 -60.642701708249945 35.542415581886075 0 0 0 0 -1387.8192010051571 -544.62257732331636 0 -544.62257732331636 -813.90553466291749 0 0 0 0 -1074.6337085382547 -732.57798951760924 0 -732.57798951760924 -966.164514658798 0 0 0 0 -17.847332625323972 -21.647417128482338 0 -21.647417128482338 28.478505482909441 0 0 0 0 -1472.0102431373925 -406.07520447812385 0 -406.07520447812385 -334.49666529727983 0 0 0 0 -1474.6242784048081 -453.31352873763535 0 -453.31352873763535 -909.60461578209652 0 0 0 0 -8.0089185299894439 -12.427752129387272 0 -12.427752129387272 -13.55187104990074 0 0 0 0 -1578.9781859079521 -362.25124455963851 0 -362.25124455963851 -1832.4859342011623 0 0 0 0 -1674.9177606368321 -545.69747583256685 0 -545.69747583256685 -2019.6883252856496 0 0 0 0 -1618.551529352575 -505.58869103282996 0 -505.58869103282996 -2045.6453417537268 0 0 0 0 -1626.9358152504428 -853.79696823540144 0 -853.79696823540144 -2235.7736181652872 0 0 0 0 -1805.1597561486924 -979.83819332162238 0 -979.83819332162238 -1952.3223518697778 0 0 0 0 -1638.7286851999961 -575.90089953200368 0 -575.90089953200368 -2097.1021461788332 0 0 0 0 -1828.0993475645664 -553.2233779142698 0 -553.2233779142698 -1525.1564519695239 0 0 0 0 -1796.3368078981002 -276.76782852110045 0 -276.76782852110045 -1181.7316835342135 0 0 0 0 -1366.6631313138059 56.918994262974593 0 56.918994262974593 -1116.4397638248047 0 0 0 0 -2332.8950388062221 -1848.3133239284798 0 -1848.3133239284798 -3260.9430381784332 0 0 0 0 -1412.8130439480592 -1181.3640336693206 0 -1181.3640336693206 -823.68182434001938 0 0 0 0 -6.7671019694155632 -1.1596765525978867 0 -1.1596765525978867 1.7343557504352702 0 0 0 0 -10.224473034406003 -7.2483131230775371 0 -7.2483131230775371 5.5221109670442274 0 0 0 0 -3533.534045872977 -1839.3676172208507 0 -1839.3676172208507 -187.37924131378531 0 0 0 0 -1160.2744245067879 280.56410516391043 0 280.56410516391043 -1.17278757219757 0 0 0 0 -2215.7723147367433 -595.86117326977546 0 -595.86117326977546 -727.53120222366124 0 0 0 0 -14.697290350340893 -9.3498798683730513 0 -9.3498798683730513 11.624195833208205 0 0 0 0 -1966.0736806765199 -930.99233276784071 0 -930.99233276784071 -1450.6984519668622 0 0 0 0 312.77269027597504 -1216.2846251864685 0 -1216.2846251864685 955.73797510412987 0 0 0 0 -483.55354644908948 -1548.2116867221375 0 -1548.2116867221375 1309.4135948890471 0 0 0 0 -617.12784158981958 -1134.6138987180602 0 -1134.6138987180602 29.296127170440741 0 0 0 0 -941.32493696390884 -1003.6206208541698 0 -1003.6206208541698 -3.004886885404972 0 0 0 0 -1368.7997499164048 -963.44868327988661 0 -963.44868327988661 240.94747517367068 0 0 0 0 -1126.5253656644345 -1146.1787354771222 0 -1146.1787354771222 306.50585780310212 0 0 0 0 -1107.5916820409038 -361.46038737065101 0 -361.46038737065101 -465.32995390889118 0 0 0 0 -32.582979311197107 -62.276926925135456 0 -62.276926925135456 29.160209446167698 0 0 0 0 -714.01575277352822 -114.34992277763376 0 -114.34992277763376 -310.9501320081763 0 0 0 0 -2409.1353500932164 -3084.0190734291682 0 -3084.0190734291682 -4687.6907997540839 0 0 0 0 -712.63291174176925 -54.503262056948188 0 -54.503262056948188 1357.7389642022317 0 0 0 0 -396.17765096088988 -441.74554462041124 0 -441.74554462041124 29.578373529788223 0 0 0 0 -3.1176363996005421 -17.607480817784037 0 -17.607480817784037 -14.364781422311808 0 0 0 0 -16.608530169242329 -33.332122015177987 0 -33.332122015177987 2.0598004674420309 0 0 0 0 -1660.7822746614547 -2818.3219551409711 0 -2818.3219551409711 -6819.440582176816 0 0 0 0 -2835.8367930304521 -2214.9624433555509 0 -2214.9624433555509 -2653.7261400067364 0 0 0 0 -2988.3848340869299 -2749.2194589907886 0 -2749.2194589907886 -1476.4677310007974 0 0 0 0 -2545.315364497772 -1876.2523827641417 0 -1876.2523827641417 -4863.4947487901081 0 0 0 0 -2914.9583778543456 -1523.0925205014064 0 -1523.0925205014064 -916.52303326845868 0 0 0 0 -1814.9387320445821 -2298.4564923803991 0 -2298.4564923803991 -2892.7121994945919 0 0 0 0 -1115.9279206207627 236.86219588290339 0 236.86219588290339 -1511.6533791015536 0 0 0 0 -2389.1723281494487 -2914.2061985033652 0 -2914.2061985033652 -3269.216352998541 0 0 0 0 -1709.7612494681089 -2053.5449802088842 0 -2053.5449802088842 -3469.0081500433662 0 0 0 0 4.0474427458828757 -9.5977026543180983 0 -9.5977026543180983 -25.827413383163503 0 0 0 0 -2766.9317978063191 -1823.0721208155446 0 -1823.0721208155446 -1184.4694465339271 0 0 0 0 -2898.7844583816623 -1582.6714682868769 0 -1582.6714682868769 -2346.1131380839215 0 0 0 0 -2222.1746883329761 -2130.5986584667553 0 -2130.5986584667553 -2282.9018160830019 0 0 0 0 -847.13902423446416 -2111.5210867569695 0 -2111.5210867569695 -2570.935205515867 0 0 0 0 -2169.6029614274303 -2409.9427879235591 0 -2409.9427879235591 -1434.3248026462388 0 0 0 0 43.331186746153605 -19.185867728318897 0 -19.185867728318897 -46.895769361303564 0 0 0 0 -1383.4626506807981 -1232.8172077229538 0 -1232.8172077229538 -1774.1281025352218 0 0 0 0 -71.974179765762528 -298.2626693205093 0 -298.2626693205093 -247.5821725113201 0 0 0 0 5.4596768352411686 -43.660022037228877 0 -43.660022037228877 28.028308711436523 0 0 0 0 -1367.5919380618543 -826.27338612805761 0 -826.27338612805761 -1872.386756518943 0 0 0 0 -932.33157744290656 -1397.4166923056328 0 -1397.4166923056328 -2574.6113981226226 0 0 0 0 -1190.7980002514087 -1334.6869010824739 0 -1334.6869010824739 -2356.4612589177414 0 0 0 0 -1024.0752326728834 -1594.0478611241997 0 -1594.0478611241997 -2075.9884883542545 0 0 0 0 -902.15244066627929 -1530.0819997391518 0 -1530.0819997391518 -2430.441628036031 0 0 0 0 -1569.2824896796337 -1004.3144351915653 0 -1004.3144351915653 -912.73431555330171 0 0 0 0 -4.4556842637045975 -4.1872691894393057 0 -4.1872691894393057 -1.3478773932322952 0 0 0 0 -1290.5331486371288 -1390.9175080524146 0 -1390.9175080524146 -2062.4755768325413 0 0 0 0 28.014149891497482 -30.255610558787069 0 -30.255610558787069 26.014459202685543 0 0 0 0 123.17175655558822 -182.27621661737794 0 -182.27621661737794 -1273.5045133700478 0 0 0 0 -1633.8233125038096 -2059.8139471158793 0 -2059.8139471158793 -1770.2790108784939 0 0 0 0 -2066.8882775445818 -1715.767956118827 0 -1715.767956118827 -991.5128425234434 0 0 0 0 -1270.1249074607913 -1503.1748475456989 0 -1503.1748475456989 -1899.9987977752171 0 0 0 0 60.536114039452514 265.71213657807675 0 265.71213657807675 -601.96280279522762 0 0 0 0 -469.69597865648393 -137.52629362171865 0 -137.52629362171865 216.06337326065113 0 0 0 0 -244.70893376681488 -233.84115778720297 0 -233.84115778720297 -558.80464281904278 0 0 0 0 -2225.0304309195053 -3652.9684140520294 0 -3652.9684140520294 -8427.2154786990141 0 0 0 0 26.867265913713766 -9.585223766944452 0 -9.585223766944452 -33.33379226387251 0 0 0 0 -534.13532889214912 -633.61003049614374 0 -633.61003049614374 3814.9360088069225 0 0 0 0 -6.2986854600531501 -12.414138445680209 0 -12.414138445680209 2.6129824937792563 0 0 0 0 -5084.8192664093804 -2870.8868942770641 0 -2870.8868942770641 -8526.5926751032239 0 0 0 0 -2770.8905631877133 -752.82513135985937 0 -752.82513135985937 6073.055609539806 0 0 0 0 279.26360884375754 183.89529806116479 0 183.89529806116479 -1201.0054865470156 0 0 0 0 63.804057519300841 601.2965059724811 0 601.2965059724811 -1450.5965501131286 0 0 0 0 243.46359511061746 40.130262656984996 0 40.130262656984996 -400.10130422346992 0 0 0 0 -612.35712141351542 873.83842406641634 0 873.83842406641634 -53.118738787161419 0 0 0 0 -676.11741876721499 682.43027585477103 0 682.43027585477103 468.12626360624563 0 0 0 0 -2405.6484959092413 -3297.3525946501431 0 -3297.3525946501431 -7.4624710883799708 0 0 0 0 1389.5463354761741 -188.8890492268838 0 -188.8890492268838 830.04802483321691 0 0 0 0 -4442.5602887405148 -4551.900841557057 0 -4551.900841557057 1676.5651489452575 0 0 0 0 -5475.5823223523039 -4844.6308918783689 0 -4844.6308918783689 3686.767390395049 0 0 0 0 7.0832529603143257 -6.3626542258837446 0 -6.3626542258837446 -10.096313779501145 0 0 0 0 -1586.221499096253 -1776.2924867120601 0 -1776.2924867120601 2136.4049989454215 0 0 0 0 -367.55868594028288 -2341.5913156242459 0 -2341.5913156242459 4.3623893504465965 0 0 0 0 -1856.8736651746149 -2114.7842907897139 0 -2114.7842907897139 2899.839080702659 0 0 0 0 -3428.1125269322947 -2347.9533585774479 0 -2347.9533585774479 4994.1335620381869 0 0 0 0 -1585.0283793108902 -1300.0058998734457 0 -1300.0058998734457 3995.8275939978776 0 0 0 0 -3829.6456813365803 -2399.307091899449 0 -2399.307091899449 5275.8182436620991 0 0 0 0 -2617.6619089960004 -2895.4849165554042 0 -2895.4849165554042 2027.174559011939 0 0 0 0 1259.4337508377939 -2390.0003202544176 0 -2390.0003202544176 993.55939141281124 0 0 0 0 3159.1567705979105 -3168.2721888019951 0 -3168.2721888019951 -1.0322015466663288 0 0 0 0 2416.062506379516 -2578.6099012137274 0 -2578.6099012137274 1298.5090205109118 0 0 0 0 317.00932714101873 -1729.3583410989995 0 -1729.3583410989995 1064.8687078587245 0 0 0 0 1507.7346145860502 -2512.4852154006367 0 -2512.4852154006367 -2430.6503144335002 0 0 0 0 13.923233136092961 -16.342625280510958 0 -16.342625280510958 10.662350073754226 0 0 0 0 1440.4769573708036 -4646.8363456425286 0 -4646.8363456425286 -5.7355678756139241 0 0 0 0 2021.7005604305159 -3639.1370883615164 0 -3639.1370883615164 -2240.6703381551924 0 0 0 0 2436.1157847542781 -4443.1359624338875 0 -4443.1359624338875 -1508.2359462422901 0 0 0 0 997.27287653087114 -3822.2963288221072 0 -3822.2963288221072 -863.03735618814244 0 0 0 0 548.54234196913239 -3408.7148577717344 0 -3408.7148577717344 -2028.4892042336432 0 0 0 0 997.03278357570525 -3549.2701528204198 0 -3549.2701528204198 -2001.2862397341087 0 0 0 0 -376.6441636676318 -1433.1419828398648 0 -1433.1419828398648 -2495.0643036638867 0 0 0 0 -1657.6770749573188 -2289.3550323903692 0 -2289.3550323903692 -3555.391999856256 0 0 0 0 -1422.7019503773627 -3015.2514397187624 0 -3015.2514397187624 -2599.6832877755078 0 0 0 0 -1260.2185811059462 -2405.7288956792763 0 -2405.7288956792763 -1192.0400429627771 0 0 0 0 -1133.7521839237788 -1212.6698433816446 0 -1212.6698433816446 -3347.525643046014 0 0 0 0 -1024.7976211319492 -2137.5752335085481 0 -2137.5752335085481 -1688.0000387129548 0 0 0 0 -503.80964110800414 -1012.6848896098672 0 -1012.6848896098672 -4920.3901330747467 0 0 0 0 -1377.9301719815412 -571.71480827560299 0 -571.71480827560299 1970.9767837911058 0 0 0 0 0.55463871553911304 -55.467102111991323 0 -55.467102111991323 -3.5168152346046648 0 0 0 0 -1835.0386370076303 -1354.1095989690075 0 -1354.1095989690075 -3273.6554294655507 0 0 0 0 -1764.0012228681617 -658.36423595486804 0 -658.36423595486804 -5559.1876551851165 0 0 0 0 -1395.0580053923841 -1528.6511143391799 0 -1528.6511143391799 -4865.2265992207977 0 0 0 0 -1981.8800799784949 -2335.5937826231675 0 -2335.5937826231675 -3545.935647384249 0 0 0 0 -5.362370377130901 -8.4911258159536658 0 -8.4911258159536658 0.10075754039166895 0 0 0 0 -1623.3005610406399 -1639.5030825807771 0 -1639.5030825807771 -3322.6651050263317 0 0 0 0 -1384.560589145578 -2091.7077997666493 0 -2091.7077997666493 -2577.0804847882973 0 0 0 0 -1506.515930558744 -3228.6690316336753 0 -3228.6690316336753 -3477.9370565868294 0 0 0 0 -1454.4470601589856 -3389.1171105269023 0 -3389.1171105269023 -5260.7926302886608 0 0 0 0 -1623.8138852736738 -2027.8259666703234 0 -2027.8259666703234 5213.666393152268 0 0 0 0 0.21061375939649452 -20.936336788150697 0 -20.936336788150697 -3.1354683169934492 0 0 0 0 -434.67002059548395 -2122.0734375574684 0 -2122.0734375574684 -8857.7646034542922 0 0 0 0 -902.35167760422337 -2891.6898898112049 0 -2891.6898898112049 -1392.3949398387267 0 0 0 0 -642.91300489503192 -3715.6969020750548 0 -3715.6969020750548 1210.2878029949352 0 0 0 0 -88.691421753363102 -1343.1590755739235 0 -1343.1590755739235 419.44165538782181 0 0 0 0 -943.3348516905171 -2306.0469204823166 0 -2306.0469204823166 -593.22231695584196 0 0 0 0 232.17276072963978 -2037.0128541407439 0 -2037.0128541407439 -416.38467839692021 0 0 0 0 17.457994957323535 -1626.0879127001244 0 -1626.0879127001244 -579.99956641754397 0 0 0 0 -1585.8182101080602 -154.93723738851986 0 -154.93723738851986 901.59799233021477 0 0 0 0 438.31342698682056 -2161.2265705517657 0 -2161.2265705517657 -1813.067581399926 0 0 0 0 -4.9051571183945839 -7.9829509331755446 0 -7.9829509331755446 2.8115528344215051 0 0 0 0 173.51045122048527 -1459.5605680486042 0 -1459.5605680486042 -2209.571581956654 0 0 0 0 -396.25421444726089 -468.25446088700119 0 -468.25446088700119 1509.1115473062891 0 0 0 0 -919.90934891630241 -1793.6388977626611 0 -1793.6388977626611 118.71469419114874 0 0 0 0 -1884.7542841443501 -1642.3380344227335 0 -1642.3380344227335 -2141.5620658646749 0 0 0 0 -404.87193759644288 -739.22553455144953 0 -739.22553455144953 -526.57425284593774 0 0 0 0 -2407.7480696017301 -2461.0623540200322 0 -2461.0623540200322 -2277.2117387496401 0 0 0 0 -4.2386238372376397 -15.881081097395665 0 -15.881081097395665 6.3697742943180344 0 0 0 0 -819.71279271054664 -902.98664190220006 0 -902.98664190220006 -5.506863984715892 0 0 0 0 -140.13726370225777 514.99244241255656 0 514.99244241255656 -900.02812283852109 0 0 0 0 -2013.8815909243713 -1558.8146219185874 0 -1558.8146219185874 -1895.340412996964 0 0 0 0 654.25366201993893 -1146.9296675284277 0 -1146.9296675284277 -2651.3730438892817 0 0 0 0 -4167.5216837654298 -2308.8233645527871 0 -2308.8233645527871 -1873.2522949591366 0 0 0 0 -1814.1926522253416 -2010.5777404114342 0 -2010.5777404114342 -3011.3397818517406 0 0 0 0 -6.0879094772492124 -4.5573740766076867 0 -4.5573740766076867 6.4148716752126802 0 0 0 0 1693.4186590216559 -5273.6695431797343 0 -5273.6695431797343 -2319.241207208077 0 0 0 0 -4931.7119831258315 -571.20306796674413 0 -571.20306796674413 -2350.7558722391914 0 0 0 0 1600.9969904145837 -2797.3240733118291 0 -2797.3240733118291 -2494.0117449409299 0 0 0 0 -87.412558013602393 -2710.4999658688612 0 -2710.4999658688612 -969.41865326684126 0 0 0 0 -732.37669007887598 -2343.5762970581782 0 -2343.5762970581782 -2205.5785793739487 0 0 0 0 156.52903124332079 -3056.5815514344067 0 -3056.5815514344067 -4169.6449296987266 0 0 0 0 354.50257811538177 -2182.9822222741204 0 -2182.9822222741204 -4887.3071259041317 0 0 0 0 -374.66812762171321 -3579.6095962769905 0 -3579.6095962769905 -2751.2554782878724 0 0 0 0 313.59229907973349 -3671.9793595930096 0 -3671.9793595930096 -5866.8435275294469 0 0 0 0 -1040.372539950069 -3942.703132450566 0 -3942.703132450566 -4556.9730488368514 0 0 0 0 378.37752697186079 -3490.2426374640308 0 -3490.2426374640308 -6471.9833263552573 0 0 0 0 -1554.3458155053668 -2160.4164362535521 0 -2160.4164362535521 -1501.4259220960776 0 0 0 0 541.48333001311403 -2237.2094830102069 0 -2237.2094830102069 -6505.3266373153601 0 0 0 0 966.00052689967561 -2943.7932814082014 0 -2943.7932814082014 -7111.1014758018428 0 0 0 0 -1109.5267928062822 -1405.6102202500333 0 -1405.6102202500333 5134.4188103202614 0 0 0 0 -43.33770970306432 70.431648961754036 0 70.431648961754036 -322.59056469255302 0 0 0 0 -934.68844284466468 -527.50912723797956 0 -527.50912723797956 4156.0685890977329 0 0 0 0 -392.99977562463027 -395.64246093410475 0 -395.64246093410475 1670.4336233491777 0 0 0 0 -338.95869559410494 -1480.556130095385 0 -1480.556130095385 5141.266085621799 0 0 0 0 2.4670809015379973 -66.610117388718265 0 -66.610117388718265 5.8653075347331685 0 0 0 0 416.07259751792299 -3593.4244276270183 0 -3593.4244276270183 -7133.3755906862598 0 0 0 0 2.5430748842230173 -2.0959986099907866 0 -2.0959986099907866 -17.720221663417632 0 0 0 0 -1048.0913876711274 -3593.5512334232626 0 -3593.5512334232626 -6446.9229898913982 0 0 0 0 162.99819215259049 -2525.9364883903763 0 -2525.9364883903763 4151.0827958258742 0 0 0 0 259.99330277211266 -2197.4322791772211 0 -2197.4322791772211 5250.1604705459904 0 0 0 0 778.97710680554155 -2882.9195514583844 0 -2882.9195514583844 6023.492537245198 0 0 0 0 885.63266038848087 -770.56827513710596 0 -770.56827513710596 5511.3368751594826 0 0 0 0 2284.5166007440421 -2516.6256205869722 0 -2516.6256205869722 594.94490071160544 0 0 0 0 1839.6349038513144 -3543.6659425092366 0 -3543.6659425092366 3397.8016408496478 0 0 0 0 -320.00377677893266 -1828.6601576940448 0 -1828.6601576940448 3425.4029614269966 0 0 0 0 183.72106739255833 -3130.6725888650544 0 -3130.6725888650544 2754.3535927138801 0 0 0 0 447.39110143468133 -2404.1182561913738 0 -2404.1182561913738 2578.6627202057571 0 0 0 0 -1186.0467698968423 -2691.6407774603722 0 -2691.6407774603722 2038.9191728183905 0 0 0 0 -833.44472806071281 -1874.2993719397055 0 -1874.2993719397055 2599.8599133390235 0 0 0 0 -368.47047968988772 -2185.1106750807667 0 -2185.1106750807667 2807.6032785924908 0 0 0 0 163.34476769095636 -2769.7016553977592 0 -2769.7016553977592 1397.5872708772513 0 0 0 0 917.54168594648945 -2853.1618852810352 0 -2853.1618852810352 -360.73698134011329 0 0 0 0 -310.85428817918728 -3166.3547052734611 0 -3166.3547052734611 885.66608452895889 0 0 0 0 -383.36609905279329 -687.98643676167558 0 -687.98643676167558 -237.95932913629804 0 0 0 0 -758.52647311217152 -558.87386686167156 0 -558.87386686167156 266.02066328092042 0 0 0 0 0.72156188663018384 -72.224524731108374 0 -72.224524731108374 -1.8374396452163113 0 0 0 0 463.6961827424384 -1454.2628623141791 0 -1454.2628623141791 -1481.1064992558822 0 0 0 0 -97.835828198876698 -56.750672572743497 0 -56.750672572743497 -371.20205697073834 0 0 0 0 -723.26994513395766 -1634.5199772089327 0 -1634.5199772089327 -848.733233951687 0 0 0 0 -766.43602215730061 -28.577016269664455 0 -28.577016269664455 -2950.7750421930541 0 0 0 0 1127.6902154810668 -1761.3077547476714 0 -1761.3077547476714 -1682.165090027891 0 0 0 0 100.09957024065989 -3358.4337070831916 0 -3358.4337070831916 782.21164784178836 0 0 0 0 259.49181824117841 -2361.1161940716847 0 -2361.1161940716847 -2373.3274252632546 0 0 0 0 8.9538772220227258 -18.502491966743321 0 -18.502491966743321 9.5607422386819394 0 0 0 0 5161.0444275112532 -3209.102402340759 0 -3209.102402340759 -1868.6346605058206 0 0 0 0 -1355.4786534701416 -4410.9261129705119 0 -4410.9261129705119 49.1698802768733 0 0 0 0 -5950.1574787044665 -4393.3005981163442 0 -4393.3005981163442 654.14096978271846 0 0 0 0 -1026.4856902790198 -3063.9058921955002 0 -3063.9058921955002 -1384.3895450190903 0 0 0 0 1201.4192064760864 -2870.8675621130606 0 -2870.8675621130606 -1492.8199019794556 0 0 0 0 944.19491812561319 -3594.7388409630639 0 -3594.7388409630639 -1328.6799299760314 0 0 0 0 -1467.9616393122633 -3407.0886087616127 0 -3407.0886087616127 -1072.0205207090912 0 0 0 0 -1969.3100753774688 -2098.8426838954001 0 -2098.8426838954001 -1504.4680415888142 0 0 0 0 -1785.9764813209331 -2980.3942842481483 0 -2980.3942842481483 25.091545570649032 0 0 0 0 175.23348557527061 -3798.7566028586116 0 -3798.7566028586116 0.092176297039259225 0 0 0 0 3571.1187478776392 -4110.8644671163684 0 -4110.8644671163684 -1488.1693421679665 0 0 0 0 4204.708095227521 -429.22376712136611 0 -429.22376712136611 -1942.3508697676443 0 0 0 0 -4494.2869614541851 -3140.5313902908019 0 -3140.5313902908019 -1.5118353419421668 0 0 0 0 11.417738747122741 -18.506262409634886 0 -18.506262409634886 6.3170355647208112 0 0 0 0 21.145871625306825 -35.470195314516829 0 -35.470195314516829 17.051743172060469 0 0 0 0 -345.61084126975038 -3599.2914920511685 0 -3599.2914920511685 -1677.7648578990193 0 0 0 0 -1042.4884175700718 -1680.2558205468667 0 -1680.2558205468667 -1985.9847873498911 0 0 0 0 1355.5046757947566 -3438.8405865980312 0 -3438.8405865980312 -1107.8496757682151 0 0 0 0 -1368.5661743544174 -2031.6512742326352 0 -2031.6512742326352 1042.0431439930398 0 0 0 0 1432.1775175363837 -2740.6054263841534 0 -2740.6054263841534 -840.58453840763832 0 0 0 0 1967.3453692798939 -4745.6202279409554 0 -4745.6202279409554 -4.8081404898289124 0 0 0 0 1.3394978764190455 -4032.4571778286263 0 -4032.4571778286263 473.76554899245093 0 0 0 0 1914.8228745820525 -3742.0844159287226 0 -3742.0844159287226 255.69028793732286 0 0 0 0 565.32323903139331 -4509.7278741178234 0 -4509.7278741178234 604.71920959877571 0 0 0 0 976.36980036755267 -3729.8577483302288 0 -3729.8577483302288 452.63594602945523 0 0 0 0 1372.3378635472181 -3058.0411637873331 0 -3058.0411637873331 1568.5012910624209 0 0 0 0 1372.7298784120067 -3331.0833875275421 0 -3331.0833875275421 1268.245815954404 0 0 0 0 1624.3760603309638 -2590.5326135596988 0 -2590.5326135596988 3444.573056695197 0 0 0 0 2544.0271758131566 -3663.4228781403217 0 -3663.4228781403217 1975.1623066062166 0 0 0 0 2006.4719346339116 -2497.3224507165432 0 -2497.3224507165432 3294.2041392201209 0 0 0 0 2033.4886960157019 -2142.4208492579055 0 -2142.4208492579055 7390.3391520496807 0 0 0 0 899.84062410425395 -3415.7803916179109 0 -3415.7803916179109 8021.361039841885 0 0 0 0 444.05709736724384 -363.85375725396443 0 -363.85375725396443 8055.8362754846075 0 0 0 0 3118.1601632792153 -4312.4199111556227 0 -4312.4199111556227 5407.840102256363 0 0 0 0 2651.7760821067495 -2968.0080447347718 0 -2968.0080447347718 7913.7657580699306 0 0 0 0 2954.4725319472054 -1959.6874114666534 0 -1959.6874114666534 3698.9024249494832 0 0 0 0 2281.4900761934114 -7597.1544403308362 0 -7597.1544403308362 5447.3429653144412 0 0 0 0 1002.0404774599592 -8157.503594979833 0 -8157.503594979833 -6043.1705086306611 0 0 0 0 1017.1482673812279 -4888.405080855684 0 -4888.405080855684 852.65871357481228 0 0 0 0 1482.3955548957456 -2088.89227433005 0 -2088.89227433005 -18492.942058217188 0 0 0 0 189.99767611874267 -1964.4722851389088 0 -1964.4722851389088 18504.428680050605 0 0 0 0 3.3221439907221679 -13.28581073302675 0 -13.28581073302675 -14.124866783316826 0 0 0 0 763.15823681477923 -4266.8975936627248 0 -4266.8975936627248 18027.607130232907 0 0 0 0 -1780.70942274353 -3746.642907722824 0 -3746.642907722824 -7922.1965176493977 0 0 0 0 298.13090466009453 -4118.2821766739944 0 -4118.2821766739944 -16131.170063716359 0 0 0 0 -2345.7331741542439 -1970.0746658623393 0 -1970.0746658623393 -8092.7161326824862 0 0 0 0 -2184.2457546404912 -233.6560010871035 0 -233.6560010871035 -13405.900562464492 0 0 0 0 2.8664727237477905 0.54238072683253336 0 0.54238072683253336 -11.474497822664105 0 0 0 0 502.29594567102322 -1171.3918010673078 0 -1171.3918010673078 19191.901604479644 0 0 0 0 450.45313666123548 -4222.0049972713605 0 -4222.0049972713605 293.71784526847478 0 0 0 0 -115.85705236840295 -4852.9602941268531 0 -4852.9602941268531 1925.6311211299326 0 0 0 0 1313.8857204960368 -4435.4569676853134 0 -4435.4569676853134 -2380.3343200926611 0 0 0 0 1130.0831333132373 -5853.1365405136012 0 -5853.1365405136012 -270.24984619556926 0 0 0 0 1089.7275941668704 -3327.6308807119349 0 -3327.6308807119349 -1677.5672779010201 0 0 0 0 887.7441055397212 -2778.046888934754 0 -2778.046888934754 -3014.8248469113169 0 0 0 0 919.97888638608856 -3806.1348311983602 0 -3806.1348311983602 -2085.0693325851171 0 0 0 0 -656.55043948091043 -2965.741874197276 0 -2965.741874197276 -4710.1218476598151 0 0 0 0 -2336.6328101399704 -4168.3095973890886 0 -4168.3095973890886 -5475.8923679163854 0 0 0 0 -673.54438093840145 -3071.5826852091122 0 -3071.5826852091122 -7911.0292483070716 0 0 0 0 -1245.8477412142674 -1939.2084167830471 0 -1939.2084167830471 -5775.5267561858254 0 0 0 0 831.16418032854563 -3231.7743424836808 0 -3231.7743424836808 -4971.1680366375222 0 0 0 0 293.67632860111189 -2977.3472548281716 0 -2977.3472548281716 -2299.4437043534272 0 0 0 0 -806.7029107696726 -1880.0012310487364 0 -1880.0012310487364 -3375.7213036349131 0 0 0 0 -1016.5463338737318 -3367.9557868994016 0 -3367.9557868994016 -3795.8205109020928 0 0 0 0 -402.52254651396652 -2905.6721379209775 0 -2905.6721379209775 -1789.6820602752923 0 0 0 0 102.35046663445246 -2005.1422220812456 0 -2005.1422220812456 -1942.3384390955034 0 0 0 0 160.03055270881305 -2148.1372523414375 0 -2148.1372523414375 -1085.3509434066655 0 0 0 0 409.87712908250978 -2351.585635264626 0 -2351.585635264626 -1208.0828483888763 0 0 0 0 231.00302444488625 -2566.5780137312831 0 -2566.5780137312831 -933.46857769567941 0 0 0 0 1.9888945141938166 -3257.9706105871992 0 -3257.9706105871992 -439.51976615011517 0 0 0 0 435.15788050205447 -3661.0980125685164 0 -3661.0980125685164 -418.97402385604801 0 0 0 0 -0.84657159127419135 -43.599733015370361 0 -43.599733015370361 -3.2128223240306397 0 0 0 0 387.74664632526765 -601.04795059492608 0 -601.04795059492608 -1054.7637487956817 0 0 0 0 -3995.2835855113008 -1263.9189292596566 0 -1263.9189292596566 -1450.4745153233671 0 0 0 0 457.8424480728936 -580.73661618289043 0 -580.73661618289043 -1084.827393583786 0 0 0 0 456.49815837749702 -1612.0168912659974 0 -1612.0168912659974 -1840.1161604924055 0 0 0 0 -7365.4177680636785 -1499.3279435172153 0 -1499.3279435172153 -1808.7844901329045 0 0 0 0 -3845.4407384306833 -966.92280234015925 0 -966.92280234015925 -2015.6488438478991 0 0 0 0 -4824.7443322188046 -929.05934882353904 0 -929.05934882353904 -2791.6393961592385 0 0 0 0 757.72525248675083 -2740.5045689452563 0 -2740.5045689452563 -1831.5243993118929 0 0 0 0 -9.0417383403871838 -7.2967395431259945 0 -7.2967395431259945 8.1760046157469901 0 0 0 0 -4143.8470301336201 -1785.7686262506686 0 -1785.7686262506686 -1737.4958542633394 0 0 0 0 -2180.4930780395589 -1765.1632104632808 0 -1765.1632104632808 -1826.1195568677176 0 0 0 0 -2018.2838043679913 -833.56393253603892 0 -833.56393253603892 -1345.3169160062389 0 0 0 0 -3415.5583425528384 -854.53875783382682 0 -854.53875783382682 -1345.4340383702365 0 0 0 0 -1019.7824633162963 -1776.0837777710331 0 -1776.0837777710331 -1821.755116601671 0 0 0 0 -2133.7185420279748 -1650.4657429566687 0 -1650.4657429566687 -1728.6755984015617 0 0 0 0 -1541.9400652152835 -1834.6625231628204 0 -1834.6625231628204 -1540.2453734739684 0 0 0 0 -930.10480651327089 -1484.4462541776011 0 -1484.4462541776011 -1341.3232766087458 0 0 0 0 -2028.5608649508758 -1078.7639906028926 0 -1078.7639906028926 -2021.642396692012 0 0 0 0 -2.7673595291622348 3.1469583045521006 0 3.1469583045521006 2.9717350826114739 0 0 0 0 -1815.4765276565449 -445.1305753117922 0 -445.1305753117922 -2539.960372813206 0 0 0 0 -1808.1307124133746 -542.28054502596206 0 -542.28054502596206 -1564.5712224963063 0 0 0 0 4.2909149940121161 -55.570932952242075 0 -55.570932952242075 -4.1026230885772179 0 0 0 0 -1857.8205513036228 -652.24560895619652 0 -652.24560895619652 -1311.1122389759112 0 0 0 0 -1755.1460130252381 -690.63591941463528 0 -690.63591941463528 -1745.9698559525932 0 0 0 0 -577.26047491593636 -167.4766144993082 0 -167.4766144993082 -1159.4635599981411 0 0 0 0 -1808.7594864466737 -678.24960422424192 0 -678.24960422424192 -1576.0734847496205 0 0 0 0 -228.74728079424676 -212.91717643869561 0 -212.91717643869561 -1260.6615895313444 0 0 0 0 -610.39149433421153 -225.33982813369403 0 -225.33982813369403 -1162.3096565119922 0 0 0 0 -691.76076366856432 -243.80588312179316 0 -243.80588312179316 -1131.0663147094165 0 0 0 0 -7.5142488484906949 -5.8904443261544941 0 -5.8904443261544941 -4.234601422500134 0 0 0 0 -1057.8647823510655 -1549.7797930123961 0 -1549.7797930123961 -1759.9557558804227 0 0 0 0 -324.26047780280078 -876.1739769511787 0 -876.1739769511787 -405.7199880125554 0 0 0 0 -891.67001593102759 -514.46625629301343 0 -514.46625629301343 -472.73952536296565 0 0 0 0 -589.55515602444029 -1259.3788366583594 0 -1259.3788366583594 -852.24331785579852 0 0 0 0 6.7678038777604428 -12.1494786489707 0 -12.1494786489707 9.6110427730701531 0 0 0 0 -2938.8570829603045 -1822.1249126632647 0 -1822.1249126632647 -223.17383448213513 0 0 0 0 -889.7304250340776 272.2564947950159 0 272.2564947950159 -2518.3574929855113 0 0 0 0 1.5147839257779196 -1452.5324623827328 0 -1452.5324623827328 -152.94295290712034 0 0 0 0 -1168.9385608896714 -67.348481013607852 0 -67.348481013607852 -583.97979460499482 0 0 0 0 116.43473369209489 -84.418864240201941 0 -84.418864240201941 46.004496840462139 0 0 0 0 69.17018793974421 191.46115956783615 0 191.46115956783615 -145.12107215136712 0 0 0 0 -284.08571999417472 -860.20246060028148 0 -860.20246060028148 -545.41274843629071 0 0 0 0 170.10914569774832 -61.050079773838661 0 -61.050079773838661 -338.80959582857031 0 0 0 0 -339.2464848182135 -873.65145509325157 0 -873.65145509325157 -402.23355260166863 0 0 0 0 -173.99791658811228 -621.88574829638674 0 -621.88574829638674 -1317.2852943385151 0 0 0 0 -921.851691638185 -558.13969400349743 0 -558.13969400349743 -543.57297529279458 0 0 0 0 -858.94077484733134 -618.43112024196307 0 -618.43112024196307 -545.10238035564544 0 0 0 0 -811.48184454536386 -684.9510512189845 0 -684.9510512189845 -626.75084587256424 0 0 0 0 4.3527049352094167 -6.5587664871754043 0 -6.5587664871754043 0.27477566894316396 0 0 0 0 -948.90341246563912 -1462.8603568181279 0 -1462.8603568181279 -1244.3564864883506 0 0 0 0 -37.674995393484153 -30.867917868981635 0 -30.867917868981635 50.180298605122573 0 0 0 0 -381.88628327079641 -742.86845109337082 0 -742.86845109337082 -1352.554636369634 0 0 0 0 -820.6209560922216 -563.94470482453471 0 -563.94470482453471 -476.92566815221653 0 0 0 0 4.2429160268824404 -4.2176307184304704 0 -4.2176307184304704 -1.8075327952208227 0 0 0 0 -965.514476005701 -903.25830237963601 0 -903.25830237963601 -678.21436093957163 0 0 0 0 12.674766483561939 -13.295826228611745 0 -13.295826228611745 4.6681041990846666 0 0 0 0 -938.89708436660658 -1556.1245855745547 0 -1556.1245855745547 -1747.9633412733092 0 0 0 0 -845.42515854146041 -740.37083759410598 0 -740.37083759410598 -609.10047581986328 0 0 0 0 -1506.4176430690495 -1673.3568191558625 0 -1673.3568191558625 -1321.1713814294199 0 0 0 0 -1280.3691762611124 -1140.4474754816529 0 -1140.4474754816529 -690.82273065234767 0 0 0 0 0.36065761658336726 -6.6920096653815406 0 -6.6920096653815406 3.9868142509943709 0 0 0 0 -1773.5314281805768 -1549.5305162660879 0 -1549.5305162660879 -1182.9563844869917 0 0 0 0 -1678.5571556349132 -1312.6112945789755 0 -1312.6112945789755 -1184.0504346277303 0 0 0 0 -1474.1575435556761 -1488.9063036200178 0 -1488.9063036200178 -1400.428480441682 0 0 0 0 45.780764153959737 -46.952167044150897 0 -46.952167044150897 21.679929728934098 0 0 0 0 -453.51682123512001 -313.07810847494693 0 -313.07810847494693 -813.01588027508114 0 0 0 0 -340.65184979853439 -423.28281752698967 0 -423.28281752698967 -854.93373824533774 0 0 0 0 -242.54533270283719 -887.71481601647974 0 -887.71481601647974 -622.82861545617925 0 0 0 0 5.2085738072255481 -7.0125254670170989 0 -7.0125254670170989 6.5094746511544486 0 0 0 0 -1024.2291766462149 -908.46357379038818 0 -908.46357379038818 -657.13451265796175 0 0 0 0 -852.76031027147837 -748.33032071181515 0 -748.33032071181515 -696.88055818396606 0 0 0 0 -1050.7445353132644 -722.6909834854232 0 -722.6909834854232 -490.14920755921048 0 0 0 0 -2.9049313341046314 -4.1399129110519439 0 -4.1399129110519439 4.2886052338178899 0 0 0 0 -1176.6949894901772 -848.3865062930854 0 -848.3865062930854 -678.69110494662891 0 0 0 0 -1085.6157455165358 -403.36441425313569 0 -403.36441425313569 -1015.8003614549525 0 0 0 0 -845.69730163532586 -472.18595764413112 0 -472.18595764413112 -995.71616603608709 0 0 0 0 -666.8861163839174 -416.25579032823225 0 -416.25579032823225 -1063.3885107089009 0 0 0 0 -684.63160292520479 -553.12449761351309 0 -553.12449761351309 -860.60187084687641 0 0 0 0 -816.5606060946302 -602.33991781844816 0 -602.33991781844816 -870.16309515748799 0 0 0 0 -751.37326095433673 -530.39624209923204 0 -530.39624209923204 -1198.0366525844875 0 0 0 0 -811.72346297559852 -539.78133630879893 0 -539.78133630879893 -1004.9974321135087 0 0 0 0 -659.1871058037359 -489.54950929427287 0 -489.54950929427287 -868.50933422264643 0 0 0 0 -712.58218408474204 -304.84190126203976 0 -304.84190126203976 -801.12433139744098 0 0 0 0 -804.68218735713162 -610.21200612491521 0 -610.21200612491521 -1146.5112596543731 0 0 0 0 -1712.1589069756374 -313.91803385970707 0 -313.91803385970707 -919.67431138458778 0 0 0 0 -15.363893990058017 -4.7326333223308268 0 -4.7326333223308268 4.7512898981172782 0 0 0 0 -826.92733225590928 -586.4869909738627 0 -586.4869909738627 -1106.7749225545995 0 0 0 0 -2024.3891893270702 -1489.5995388919655 0 -1489.5995388919655 -1241.4204085681267 0 0 0 0 -1570.6215146847317 -1218.668645669437 0 -1218.668645669437 -1293.8926415424357 0 0 0 0 -2452.0703583625436 -1291.1537956488392 0 -1291.1537956488392 -1156.4779546769605 0 0 0 0 -2436.1013641344543 -1413.1660533749746 0 -1413.1660533749746 -1499.2167069636926 0 0 0 0 -20.329944318258239 -28.908867240021266 0 -28.908867240021266 14.12060204803447 0 0 0 0 -2937.367833201939 -1065.538477462107 0 -1065.538477462107 -1416.8702249196504 0 0 0 0 1003.4125939961232 -842.14354413902765 0 -842.14354413902765 -532.59967314018286 0 0 0 0 -2706.4881141237274 -660.71643454728473 0 -660.71643454728473 -859.52179036204598 0 0 0 0 -1983.4021202717122 -1910.628662645111 0 -1910.628662645111 -1728.9229829595715 0 0 0 0 -1855.8640751564162 -1483.4586624726762 0 -1483.4586624726762 -1352.6540718467877 0 0 0 0 -2286.9041762797242 -1900.692810777432 0 -1900.692810777432 -1721.7052351311722 0 0 0 0 -2162.4605393680904 -1818.9098365342834 0 -1818.9098365342834 -1801.7755531447983 0 0 0 0 -2167.037325043264 -2246.9682191845654 0 -2246.9682191845654 -2126.6430754414614 0 0 0 0 -1693.4911988968233 -1876.0607889538842 0 -1876.0607889538842 -1881.9597047390562 0 0 0 0 -1751.5146323890185 -2165.3211271356195 0 -2165.3211271356195 -2645.1534927870252 0 0 0 0 -2055.0137654210994 -2309.9722252507618 0 -2309.9722252507618 -1870.7800885871402 0 0 0 0 -1786.3198215619086 -2063.1781512984635 0 -2063.1781512984635 -1822.3972519606759 0 0 0 0 -1871.9466161360178 -2150.215110243611 0 -2150.215110243611 -1885.3235507121499 0 0 0 0 -1297.467059842254 -2151.9586875510804 0 -2151.9586875510804 -1878.1083990768821 0 0 0 0 -1953.4761925994862 -2374.3338198541242 0 -2374.3338198541242 -1547.2469626906459 0 0 0 0 -1993.6580838895497 -2202.8333463465688 0 -2202.8333463465688 -1824.0883015948639 0 0 0 0 4020.8573072555264 -1499.2028538787679 0 -1499.2028538787679 -2505.9345499617775 0 0 0 0 -1.3426265942840923 -20.908073875080142 0 -20.908073875080142 -1.5391854179397342 0 0 0 0 886.25204052162007 -2744.4749017681388 0 -2744.4749017681388 -1499.2698817776254 0 0 0 0 -3303.0923990647716 -840.2625004381116 0 -840.2625004381116 -2795.8609863339516 0 0 0 0 -2747.9975208340511 -1412.0028294140939 0 -1412.0028294140939 -2220.0740297342345 0 0 0 0 -4246.2768119848115 -3007.7877070631039 0 -3007.7877070631039 -2237.9784384605446 0 0 0 0 -2187.5548561637115 -2499.207364217953 0 -2499.207364217953 -2250.5842732101323 0 0 0 0 -2940.2050768828158 -1699.2919771529851 0 -1699.2919771529851 -1520.3013870799623 0 0 0 0 -1512.3185122358045 -949.02267323390333 0 -949.02267323390333 -2185.0374496509612 0 0 0 0 -1001.6592857109499 -1491.512659198379 0 -1491.512659198379 -1686.1238149087185 0 0 0 0 -1363.0183813389704 -600.25643568491432 0 -600.25643568491432 -1044.485460078824 0 0 0 0 -1935.8618856273206 -2055.6195565779162 0 -2055.6195565779162 -1733.8304622397554 0 0 0 0 8.2545560893297392 -31.574859286438652 0 -31.574859286438652 29.164643734474126 0 0 0 0 -1856.3314562860578 -1981.8187019304332 0 -1981.8187019304332 -1719.708763883551 0 0 0 0 -1311.90536247419 -1291.4571945115276 0 -1291.4571945115276 -1563.125429832362 0 0 0 0 -245.94690321962844 -1348.1748982477038 0 -1348.1748982477038 -808.26231542469759 0 0 0 0 -530.55962988913961 -2421.5940276036963 0 -2421.5940276036963 -2213.6893962625109 0 0 0 0 -685.08641462336527 -2342.3033976347378 0 -2342.3033976347378 -1256.512389557487 0 0 0 0 25.475550471458845 -45.728317956087373 0 -45.728317956087373 39.501961071728942 0 0 0 0 1799.2467376239219 -1576.94901816532 0 -1576.94901816532 -3886.5324713086047 0 0 0 0 1470.308828626512 -280.37199879404943 0 -280.37199879404943 -3209.5284590585252 0 0 0 0 -1655.179490210081 -410.4894848904878 0 -410.4894848904878 -33.588742739535519 0 0 0 0 -6.9164368710312658 -28.566137673372054 0 -28.566137673372054 26.491477991052619 0 0 0 0 -779.67972539139737 -745.46991408179383 0 -745.46991408179383 -3346.4156713957636 0 0 0 0 -3747.2820702858153 -2691.4788510969665 0 -2691.4788510969665 -1916.3192098684322 0 0 0 0 -3170.579247986956 -2828.6100564139233 0 -2828.6100564139233 -2712.4906406356458 0 0 0 0 -3767.1949850875462 -2762.2660487010944 0 -2762.2660487010944 -2136.3558532225288 0 0 0 0 -3885.2689528322662 -3155.7174082926067 0 -3155.7174082926067 -1912.4000051529692 0 0 0 0 -3611.2052172396216 -3462.7763486538897 0 -3462.7763486538897 -3043.2395625166027 0 0 0 0 -3645.3627105236228 -2993.0826676224387 0 -2993.0826676224387 -1701.6240900609591 0 0 0 0 -3603.0106192110252 -2781.4148250715589 0 -2781.4148250715589 -1353.7740313852919 0 0 0 0 -2801.7709710180352 -2762.4876131441561 0 -2762.4876131441561 -1919.5545426636818 0 0 0 0 -3401.2833263218781 -3107.89942839777 0 -3107.89942839777 -1833.9985646558489 0 0 0 0 -3715.4918952356011 -3364.9443083472624 0 -3364.9443083472624 -2375.0296943054273 0 0 0 0 -3695.8917908347794 -2793.2751591914421 0 -2793.2751591914421 -2155.350162695715 0 0 0 0 -3998.2530253523873 -2755.9038962022423 0 -2755.9038962022423 -2878.4586407133465 0 0 0 0 -3328.9334812630004 -2845.2199900706264 0 -2845.2199900706264 -2315.8262561470619 0 0 0 0 -3399.6074604432506 -3268.3601731567687 0 -3268.3601731567687 -2461.4208728452832 0 0 0 0 -4579.6570555722574 -3226.6314537775615 0 -3226.6314537775615 -2166.1051447992213 0 0 0 0 20.177023496234483 -18.644016092199394 0 -18.644016092199394 1.2738250865957355 0 0 0 0 -4282.3096388847189 -3870.1212797293483 0 -3870.1212797293483 -2547.6781841597731 0 0 0 0 1630.8460759813438 1035.8219194306241 0 1035.8219194306241 -2535.3217256987409 0 0 0 0 17.992738501018849 -12.403092847042309 0 -12.403092847042309 -18.284850911654786 0 0 0 0 756.64334832797613 -2723.8854038903301 0 -2723.8854038903301 -4637.4368781627563 0 0 0 0 -3884.3903906902706 -879.48216982105805 0 -879.48216982105805 1452.4682545616961 0 0 0 0 -4016.9186185909202 -3823.9202914649359 0 -3823.9202914649359 -2696.9696729332718 0 0 0 0 75.6776938193521 -65.620396851304235 0 -65.620396851304235 22.568424552923005 0 0 0 0 -3571.650795682559 -3258.6605956081476 0 -3258.6605956081476 -2433.3638321410253 0 0 0 0 -3414.1542560068629 -3504.5405012659612 0 -3504.5405012659612 -3259.7396871764395 0 0 0 0 42.183430735894945 -419.72240578833589 0 -419.72240578833589 861.7184278194909 0 0 0 0 -309.23105455881523 -1201.1802605870289 0 -1201.1802605870289 -2976.1534774487227 0 0 0 0 14.461115150996108 -0.12874181901004533 0 -0.12874181901004533 -9.1021099486918331 0 0 0 0 -3890.1860299362452 1155.1291875409079 0 1155.1291875409079 -4363.1775038723135 0 0 0 0 -1184.4244044089091 -1409.0434538963082 0 -1409.0434538963082 -1142.359028099163 0 0 0 0 -1186.9011995949677 -1434.9261204373274 0 -1434.9261204373274 -1341.6544920893211 0 0 0 0 52.15153215258033 -90.674043937695387 0 -90.674043937695387 -7.4461729483737145 0 0 0 0 44.86263419912661 -42.9146455056622 0 -42.9146455056622 0.81532210330811949 0 0 0 0 7.6600417321114094 -15.249128350849702 0 -15.249128350849702 4.8935483660607986 0 0 0 0 -751.16660100182344 -1531.0223291701332 0 -1531.0223291701332 -1516.0319920152979 0 0 0 0 -219.6035926391778 -1276.7380700307767 0 -1276.7380700307767 -1496.6563540729403 0 0 0 0 -794.43514388828771 -1669.7351777865479 0 -1669.7351777865479 -1751.7745083249392 0 0 0 0 -15.204230854983372 -12.028191692278881 0 -12.028191692278881 13.535190758886301 0 0 0 0 132.60083661173849 -1683.8436900208617 0 -1683.8436900208617 -2036.378337424394 0 0 0 0 -308.9387397731989 -1454.7222449358451 0 -1454.7222449358451 -1811.4774044154328 0 0 0 0 -4.1466274816550381 -28.782785774700599 0 -28.782785774700599 26.142122272904203 0 0 0 0 -1137.2724621849338 -1483.7278176547989 0 -1483.7278176547989 -1457.5159455767207 0 0 0 0 -23.764023222971446 -855.46663420185723 0 -855.46663420185723 -1705.392501386712 0 0 0 0 -1024.5692943655667 -1262.429561814366 0 -1262.429561814366 -1010.8326422139216 0 0 0 0 -376.15143566995539 -552.60136989777675 0 -552.60136989777675 -847.65845533416723 0 0 0 0 58.223412461924028 -59.191391502152143 0 -59.191391502152143 36.441691493032422 0 0 0 0 -1322.1448723783924 -1656.0678949133212 0 -1656.0678949133212 -1165.1903400447045 0 0 0 0 -1434.4266126693547 -1735.208192551072 0 -1735.208192551072 -1278.4015367702814 0 0 0 0 -1275.717569553779 -1704.0650959556569 0 -1704.0650959556569 -1372.0131488497136 0 0 0 0 -1311.6571584032354 -1411.4155530895077 0 -1411.4155530895077 -761.2492642912257 0 0 0 0 -1175.048856913083 -1160.5025966112298 0 -1160.5025966112298 -651.30921808471612 0 0 0 0 -1201.3053801123751 -1342.4121214709739 0 -1342.4121214709739 -898.59286119874741 0 0 0 0 -1194.0273818656788 -1184.2223150595964 0 -1184.2223150595964 -593.98493225959828 0 0 0 0 -1085.5611135132494 -999.90975258800609 0 -999.90975258800609 -496.95407469851489 0 0 0 0 -986.44145255791955 -1155.9150429169968 0 -1155.9150429169968 -732.71040733868722 0 0 0 0 -1015.6174098363554 -1071.9941443284697 0 -1071.9941443284697 -454.89115595830299 0 0 0 0 -1087.4109692861966 -1305.0811517280817 0 -1305.0811517280817 -931.00934273276653 0 0 0 0 -1181.9765825133695 -1337.9180239473933 0 -1337.9180239473933 -777.6888577316131 0 0 0 0 -1174.5485109918518 -1749.5239234674082 0 -1749.5239234674082 -1364.0125046647299 0 0 0 0 -857.22654113880708 -1310.067830861386 0 -1310.067830861386 -978.11219074903056 0 0 0 0 -742.06551743962336 -1388.3703451600668 0 -1388.3703451600668 -933.10719687506207 0 0 0 0 -1149.0042950684947 -1811.0339136563089 0 -1811.0339136563089 -1035.0262632566155 0 0 0 0 -317.07031823928992 -1572.0720785314734 0 -1572.0720785314734 -1104.4069638239889 0 0 0 0 -1338.1791348334227 -1696.3703389052389 0 -1696.3703389052389 -1373.1291865020685 0 0 0 0 -1516.7631386892754 -2160.857651835242 0 -2160.857651835242 -1742.9408619306996 0 0 0 0 -1960.8373614089214 -2327.4779361894762 0 -2327.4779361894762 -1815.2619505786715 0 0 0 0 -1740.7626859918237 -2466.7972372211116 0 -2466.7972372211116 -2303.4743351795405 0 0 0 0 -1221.5326212035743 -2209.2428336645826 0 -2209.2428336645826 -1913.8459766546875 0 0 0 0 -1626.1978918726236 -2018.1678356760458 0 -2018.1678356760458 -1536.386734177162 0 0 0 0 -792.06184975143697 -2003.3874176195823 0 -2003.3874176195823 -1629.9159430932923 0 0 0 0 -1457.5378356611182 -2074.6407003403438 0 -2074.6407003403438 -908.71526325101149 0 0 0 0 -1549.4617730548107 -2661.8815786427563 0 -2661.8815786427563 -1850.6212845983246 0 0 0 0 -2197.084785105224 -2418.2721147229822 0 -2418.2721147229822 -1425.9135697377715 0 0 0 0 -1187.8227905246822 -2499.1239806256781 0 -2499.1239806256781 -1523.3717163593828 0 0 0 0 -2207.5121468841535 -2447.5252571213277 0 -2447.5252571213277 -1537.400572742743 0 0 0 0 -2838.5216574613296 -2832.4596036651928 0 -2832.4596036651928 -1392.6323229079826 0 0 0 0 -2036.373229616278 -2562.0161604208406 0 -2562.0161604208406 -1853.3890627413348 0 0 0 0 -2586.900281165319 -2885.6207826307509 0 -2885.6207826307509 -1768.701224970393 0 0 0 0 -2648.8248808266508 -2683.6433429541466 0 -2683.6433429541466 -2212.4572222028219 0 0 0 0 -2075.7009784965485 -2364.1512497979857 0 -2364.1512497979857 -1986.5020149491756 0 0 0 0 -2299.2614706555178 -2761.594496672049 0 -2761.594496672049 -2395.5194830762339 0 0 0 0 -2487.7348409219703 -2742.6577351517844 0 -2742.6577351517844 -2013.2383389414317 0 0 0 0 -3153.2039289871464 -2999.7622141892643 0 -2999.7622141892643 -2181.6455143578896 0 0 0 0 -2926.9507536256278 -3145.1499578192816 0 -3145.1499578192816 -2792.0556644054159 0 0 0 0 -3074.6737494915142 -2976.8222523886579 0 -2976.8222523886579 -2264.4539119858528 0 0 0 0 -2427.0387252022047 -2861.3179758340993 0 -2861.3179758340993 -2538.7882530125644 0 0 0 0 -3141.7401109613129 -2971.9171974543569 0 -2971.9171974543569 -2446.3229031826922 0 0 0 0 -2664.5236556839081 -2938.7668441014248 0 -2938.7668441014248 -2580.773797162954 0 0 0 0 -3248.642122081219 -2876.2954483493668 0 -2876.2954483493668 -2445.9335292035248 0 0 0 0 -3335.421780823177 -3313.9164020554017 0 -3313.9164020554017 -2637.4923363950365 0 0 0 0 -4034.4892773036991 -2869.3003083022704 0 -2869.3003083022704 -2364.3566709028091 0 0 0 0 -4283.7753019463125 -3370.9620818913972 0 -3370.9620818913972 -2315.9333968974024 0 0 0 0 -2863.8660925178556 -2794.9528911857633 0 -2794.9528911857633 -2721.2283586879857 0 0 0 0 -3546.4308488194365 -2685.1483291827171 0 -2685.1483291827171 -2594.4622348440462 0 0 0 0 -3294.6067635788349 -3068.127247144861 0 -3068.127247144861 -2624.1133267099649 0 0 0 0 -2839.1246947030886 -2931.8396439397038 0 -2931.8396439397038 -2674.6972803795215 0 0 0 0 -3228.7791259838632 -2815.6690688956023 0 -2815.6690688956023 -2500.9266477157071 0 0 0 0 -2822.0941457017943 -2846.4841217617777 0 -2846.4841217617777 -2422.488871012436 0 0 0 0 -2496.5034937045566 -2675.8964465770187 0 -2675.8964465770187 -2263.8571135830498 0 0 0 0 -2418.1569667568547 -2992.9570077756944 0 -2992.9570077756944 -2738.1932977656397 0 0 0 0 -1919.4440308379999 -2327.4192732238807 0 -2327.4192732238807 -2323.063712500516 0 0 0 0 -2329.8767819031928 -2827.7086615466615 0 -2827.7086615466615 -2432.6914464779111 0 0 0 0 -2517.3320025977446 -2634.9410202769504 0 -2634.9410202769504 -2549.4699355063203 0 0 0 0 -2539.8762007704026 -2573.8902124970118 0 -2573.8902124970118 -2149.0994967082806 0 0 0 0 -1756.4197395230003 -2534.5068867292357 0 -2534.5068867292357 -2076.6251102959395 0 0 0 0 -1356.4745076893741 -2078.1728497064032 0 -2078.1728497064032 -2025.4548748611996 0 0 0 0 -1480.1527273523097 -2430.2329735499625 0 -2430.2329735499625 -2320.5417446422653 0 0 0 0 -1671.2799193774117 -2528.5146160840086 0 -2528.5146160840086 -2470.7828148320768 0 0 0 0 -1729.6845231599073 -2451.7501486780911 0 -2451.7501486780911 -2301.9871841675631 0 0 0 0 -1649.7791305708815 -2937.3448093686384 0 -2937.3448093686384 -3084.9753464368114 0 0 0 0 -1532.1435210409959 -2603.3048891462377 0 -2603.3048891462377 -2685.5315052847727 0 0 0 0 -2078.5337857050472 -2286.4969720310837 0 -2286.4969720310837 -2142.8230823498452 0 0 0 0 -1467.2394144955108 -2498.0107667932057 0 -2498.0107667932057 -2075.732281888806 0 0 0 0 -1608.4403744224401 -1986.1016962466238 0 -1986.1016962466238 -1514.4389028483274 0 0 0 0 -1854.3530261543638 -2321.3136701122203 0 -2321.3136701122203 -1532.9605189058057 0 0 0 0 -1444.8296752105525 -2041.9496918996447 0 -2041.9496918996447 -1659.203091874544 0 0 0 0 -1479.9452030993707 -1758.5894902696018 0 -1758.5894902696018 -1020.3144857099833 0 0 0 0 -1412.4333412236047 -2070.213060276601 0 -2070.213060276601 -1478.872386941337 0 0 0 0 -2043.2848656069546 -2111.4671435579585 0 -2111.4671435579585 -2093.8507706460728 0 0 0 0 -2104.8059864772713 -2325.8453425757198 0 -2325.8453425757198 -2161.6138703959732 0 0 0 0 6.6199527909823814 -6.8785645978404588 0 -6.8785645978404588 -13.844916106441644 0 0 0 0 -2872.6482130162622 -3571.3079752021731 0 -3571.3079752021731 -2792.8782585309964 0 0 0 0 2.780939429408761 -4.9803695418501661 0 -4.9803695418501661 -8.3616084881132338 0 0 0 0 -2645.4575944569951 -2244.4998067573906 0 -2244.4998067573906 -2446.4956057942618 0 0 0 0 -1209.6658908060635 -1549.8415832768551 0 -1549.8415832768551 -1794.021432564623 0 0 0 0 -1534.662417280244 -2817.0482821365576 0 -2817.0482821365576 -2492.7209454674012 0 0 0 0 -2321.1694332150655 -2314.1074648041867 0 -2314.1074648041867 -2029.1239804731085 0 0 0 0 -2295.0051430562744 -2782.0040735766706 0 -2782.0040735766706 -2220.5269327647748 0 0 0 0 128.60001306345623 -121.94787532616968 0 -121.94787532616968 80.789686451251669 0 0 0 0 -2936.7017877692269 -2366.4534357180673 0 -2366.4534357180673 -2082.4698596518756 0 0 0 0 -423.0815147283065 -2934.1259583838619 0 -2934.1259583838619 -1933.7685980930983 0 0 0 0 -3194.7549503020564 -3324.289360955132 0 -3324.289360955132 -2421.5563877218519 0 0 0 0 -1364.869170623173 -4065.603555747035 0 -4065.603555747035 1755.2179042650969 0 0 0 0 115.92414732654674 -107.39080839128042 0 -107.39080839128042 63.271024109993732 0 0 0 0 2102.4814485255556 -1195.444985656366 0 -1195.444985656366 -2873.6456255024896 0 0 0 0 -1960.1004857386069 -1703.7130697828397 0 -1703.7130697828397 -854.18701732320915 0 0 0 0 -355.78552811358531 -1843.9708504264272 0 -1843.9708504264272 -2009.6486225290428 0 0 0 0 -1330.2976662176661 -1872.3827042958437 0 -1872.3827042958437 -1356.9351058468746 0 0 0 0 -829.52641902327741 -1778.7898530412422 0 -1778.7898530412422 -1988.172071963867 0 0 0 0 -2463.3018813347444 -1847.9829674296634 0 -1847.9829674296634 -1470.4052961204652 0 0 0 0 -1238.8216829717203 -2034.682496809095 0 -2034.682496809095 -1765.7946005245758 0 0 0 0 -2082.6644818381578 -2591.9291960408696 0 -2591.9291960408696 -2051.7269795948523 0 0 0 0 -2875.1066988097537 -3101.949504340515 0 -3101.949504340515 -1812.3797348738735 0 0 0 0 126.66463771038524 -119.7805825337368 0 -119.7805825337368 81.645858245917765 0 0 0 0 -2332.5764686393231 -2286.5391169057693 0 -2286.5391169057693 -1727.159145916361 0 0 0 0 -2211.7700110146397 -1997.1979964280908 0 -1997.1979964280908 -1886.8679191118927 0 0 0 0 -2414.6022114854859 -2035.201098557176 0 -2035.201098557176 -2092.0218231867939 0 0 0 0 -2293.9729817290499 -2209.4826374972981 0 -2209.4826374972981 -1848.6136956156552 0 0 0 0 -806.45844320754986 -1714.7137166459361 0 -1714.7137166459361 -1919.4176660119974 0 0 0 0 -835.46879301078297 -1895.7208526152317 0 -1895.7208526152317 -2238.8381110240007 0 0 0 0 -1014.692884305965 -2290.7651768410578 0 -2290.7651768410578 -1676.3895484658697 0 0 0 0 -600.25176401600766 -1792.9739836901026 0 -1792.9739836901026 -2065.8045472339145 0 0 0 0 -346.43747476359567 -1961.3667453097005 0 -1961.3667453097005 -2164.1217574342118 0 0 0 0 -285.50708371943801 -1769.5193979396208 0 -1769.5193979396208 -1878.1353633025137 0 0 0 0 -792.75299773351435 -1980.8153451286344 0 -1980.8153451286344 -1866.5500037050024 0 0 0 0 -805.4460185065077 -1739.2971267972443 0 -1739.2971267972443 -1811.8025945127592 0 0 0 0 -1247.9281861252384 -1776.7894418345531 0 -1776.7894418345531 -1629.6236891626613 0 0 0 0 -2189.2704658539224 -1527.0907416669506 0 -1527.0907416669506 -1432.6699391684015 0 0 0 0 -1317.2412562069144 -1344.0313504248315 0 -1344.0313504248315 -1402.0959542819619 0 0 0 0 -594.47059092374775 -758.40636863538703 0 -758.40636863538703 682.09798826297629 0 0 0 0 -3311.5192467213601 -3207.8426834772145 0 -3207.8426834772145 -1965.3740529035131 0 0 0 0 15.0348540782432 -17.056229146777341 0 -17.056229146777341 -3.8010395590056874 0 0 0 0 2314.1402027313688 658.27760110951112 0 658.27760110951112 -1386.6796114546305 0 0 0 0 -1526.678503826588 -2106.2186226030681 0 -2106.2186226030681 -1957.3456523983768 0 0 0 0 -1367.2358023999941 -1747.553353457185 0 -1747.553353457185 -1975.8447449146624 0 0 0 0 -708.13246279372834 -1940.2693983936697 0 -1940.2693983936697 -1924.2678492359482 0 0 0 0 -484.78040627907467 -2129.3332824441604 0 -2129.3332824441604 -2114.4980145745649 0 0 0 0 -1146.1828589239085 -2680.351417066071 0 -2680.351417066071 -2525.2475517852654 0 0 0 0 -834.91559876495739 -2260.9151412537976 0 -2260.9151412537976 -1935.0792177097755 0 0 0 0 -737.44739191866756 -2001.858883539222 0 -2001.858883539222 -1447.8377580932865 0 0 0 0 -563.90193148347316 -2083.2631695249001 0 -2083.2631695249001 -1505.9980835991591 0 0 0 0 -1065.0822411218414 -1857.9971665269222 0 -1857.9971665269222 -1605.3789506374305 0 0 0 0 -611.40727122349927 -1818.7053746748425 0 -1818.7053746748425 -1708.5422941912911 0 0 0 0 -849.84944640276444 -1766.9715162257489 0 -1766.9715162257489 -1718.483456405258 0 0 0 0 -762.669562298659 -1799.7801704325175 0 -1799.7801704325175 -2066.0874147294153 0 0 0 0 -1016.2415107217539 -1744.3165285384275 0 -1744.3165285384275 -1671.225610176858 0 0 0 0 -817.0245899873189 -1637.9149863920829 0 -1637.9149863920829 -1337.4505874427705 0 0 0 0 -792.54439859790727 -1751.0576954823046 0 -1751.0576954823046 -1671.1810485382321 0 0 0 0 -804.61037899593975 -1298.5933426731463 0 -1298.5933426731463 -813.99832654561033 0 0 0 0 -599.96445691240115 -1644.5582335042782 0 -1644.5582335042782 -1344.725877026649 0 0 0 0 -295.39957430986033 -1005.1729426434686 0 -1005.1729426434686 -917.84589774342021 0 0 0 0 52.254771950778377 -1604.3059705097839 0 -1604.3059705097839 -1118.3449978939025 0 0 0 0 -235.63178154094203 -1742.0275613255508 0 -1742.0275613255508 -888.36456461931812 0 0 0 0 14.043185648515646 -2051.4106169354345 0 -2051.4106169354345 -1031.6571187355221 0 0 0 0 -607.09436240463401 -1550.6019246682845 0 -1550.6019246682845 -1119.4446560841207 0 0 0 0 -783.40784632755822 -1780.2752001651461 0 -1780.2752001651461 -1393.2019523693743 0 0 0 0 -361.22886856510377 -1870.7677105818002 0 -1870.7677105818002 -1374.5114359598956 0 0 0 0 -858.34967324607715 -1880.9076190789783 0 -1880.9076190789783 -1225.6477617141863 0 0 0 0 -762.52601103792585 -2070.5953827916037 0 -2070.5953827916037 -1420.8868539083924 0 0 0 0 -734.15402460170299 -2029.355860075877 0 -2029.355860075877 -859.5326968217305 0 0 0 0 -524.80962003243621 -2214.1951367868605 0 -2214.1951367868605 -936.67103613694781 0 0 0 0 -663.8140906064873 -1904.1368175371827 0 -1904.1368175371827 -1063.3576010408433 0 0 0 0 -585.56313608606069 -2246.2665211017083 0 -2246.2665211017083 -558.63912626574165 0 0 0 0 207.36755653951695 -2683.0807737619762 0 -2683.0807737619762 -354.33349129272392 0 0 0 0 -964.60242498639309 -2384.149553359448 0 -2384.149553359448 -226.98089519242058 0 0 0 0 -946.23259494152626 -2507.1043280194426 0 -2507.1043280194426 118.61051730965846 0 0 0 0 -1429.5363179866326 -2057.5713593080072 0 -2057.5713593080072 -188.25646069340928 0 0 0 0 -769.46892698681586 -2182.6928538011234 0 -2182.6928538011234 386.13229779014364 0 0 0 0 1268.6426584843284 -2628.4472962339132 0 -2628.4472962339132 -179.18288884432695 0 0 0 0 14.451820438259233 -15.048308797305069 0 -15.048308797305069 14.076558503595038 0 0 0 0 -292.65692398361352 -649.05096767095529 0 -649.05096767095529 2130.3889930467485 0 0 0 0 -791.52965602309996 -957.46526457133587 0 -957.46526457133587 -833.05234975572239 0 0 0 0 1287.6521971408217 -812.23985303528252 0 -812.23985303528252 -1071.5152889125893 0 0 0 0 415.09674766406533 -1827.976153859694 0 -1827.976153859694 -916.7989044036367 0 0 0 0 -2075.4054332169617 -2042.1358355231569 0 -2042.1358355231569 -1377.3963243649487 0 0 0 0 -2769.026045122373 -2272.4982558937336 0 -2272.4982558937336 -531.44530623554056 0 0 0 0 -3167.1666399271858 -2127.1327841759012 0 -2127.1327841759012 -1256.9715125871589 0 0 0 0 35.791375781033992 -30.077957535919381 0 -30.077957535919381 18.509165908938229 0 0 0 0 -2146.2331179350531 -1965.3746637540789 0 -1965.3746637540789 -1037.8638414976595 0 0 0 0 -1812.1585701433578 -2332.9322387413704 0 -2332.9322387413704 -2105.2853501299251 0 0 0 0 -1.2631906255178365 1.0349016321951865 0 1.0349016321951865 -0.58600397469410836 0 0 0 0 -1741.9796506352122 -1232.7115320020457 0 -1232.7115320020457 -804.65001527729328 0 0 0 0 -2151.0098584260049 -2300.1003094934931 0 -2300.1003094934931 -391.56498199453927 0 0 0 0 -1633.9852523552981 -1406.6222885867464 0 -1406.6222885867464 -586.70504728178275 0 0 0 0 -1137.3464971385838 -2257.1899446033131 0 -2257.1899446033131 -957.30467902182136 0 0 0 0 -1222.9527454031331 -1647.2816537266535 0 -1647.2816537266535 -625.11830747322529 0 0 0 0 -496.46787703453447 -1797.2437712416286 0 -1797.2437712416286 -744.15356016952137 0 0 0 0 -1011.9215683347647 -1928.3180840358109 0 -1928.3180840358109 -1347.9619912102935 0 0 0 0 -1056.1531875218097 -1990.13934157521 0 -1990.13934157521 -664.86655871882976 0 0 0 0 -1199.6923850181702 -2061.4547816054182 0 -2061.4547816054182 -668.26750321355439 0 0 0 0 -1240.023630317286 -2177.2657536340776 0 -2177.2657536340776 -62.817241783821373 0 0 0 0 -1463.9205015273255 -2100.3754386920591 0 -2100.3754386920591 -55.827021864039125 0 0 0 0 -1859.2905254750585 -1210.1305552834165 0 -1210.1305552834165 63.249583411183266 0 0 0 0 -1691.4671990907591 -2207.6820182761148 0 -2207.6820182761148 -980.40265365812229 0 0 0 0 -2403.2663770453146 -2205.6645309819141 0 -2205.6645309819141 -201.97704012098256 0 0 0 0 -0.18453542885380614 -0.65922711597977468 0 -0.65922711597977468 1.9800662732325236 0 0 0 0 -1604.1401395754947 -1880.0964393739996 0 -1880.0964393739996 -399.75269239029149 0 0 0 0 -1878.3890840677268 -1851.5379231066036 0 -1851.5379231066036 -402.11821086282725 0 0 0 0 -1788.6067995275389 -1515.6395415455008 0 -1515.6395415455008 428.27603654505219 0 0 0 0 -3.4918334387522378 -6.1802299815449544 0 -6.1802299815449544 12.032533245819423 0 0 0 0 -856.42806172541168 91.851394009310752 0 91.851394009310752 577.70364785660786 0 0 0 0 -2519.3209952282295 -3085.0318087153128 0 -3085.0318087153128 -1247.086771166476 0 0 0 0 -1925.4908015120818 -1765.7031443955639 0 -1765.7031443955639 1388.2610689518333 0 0 0 0 -1549.4897296395866 -1437.5032079270313 0 -1437.5032079270313 -1918.9108817071246 0 0 0 0 -1584.7108001454217 -1585.0279783573933 0 -1585.0279783573933 -1312.4104460316448 0 0 0 0 -10.858442645542425 -9.3037584977440488 0 -9.3037584977440488 36.280462589800607 0 0 0 0 -1470.0810558294615 -529.18752921331179 0 -529.18752921331179 -232.61688728787703 0 0 0 0 -2430.8911858784231 -1849.1835191005521 0 -1849.1835191005521 91.865732360281982 0 0 0 0 -2533.9028895702286 -1585.2570832944621 0 -1585.2570832944621 -550.08678883070957 0 0 0 0 -894.31309216213958 -1095.1792425899473 0 -1095.1792425899473 -1082.1535132504359 0 0 0 0 -2366.5227554866651 -371.67251978352579 0 -371.67251978352579 991.44364941412641 0 0 0 0 -1798.1012904624804 -667.7330475415074 0 -667.7330475415074 -2173.9574034709585 0 0 0 0 -18.301958847909674 -34.557936389045125 0 -34.557936389045125 19.831417892239514 0 0 0 0 -2394.1118809931231 -580.97349548207058 0 -580.97349548207058 -1789.801878810802 0 0 0 0 -3140.5250380982143 146.02839203138137 0 146.02839203138137 4745.0016856125294 0 0 0 0 -899.54916624681209 -357.54271966509987 0 -357.54271966509987 -318.89552159642335 0 0 0 0 -3467.9057648212438 -2120.8321739188759 0 -2120.8321739188759 492.78289275737188 0 0 0 0 -2395.3508811020583 -3174.1287035430287 0 -3174.1287035430287 -5158.1988169236938 0 0 0 0 -7.6959141063453558 -14.869732287337257 0 -14.869732287337257 5.6067559188030458 0 0 0 0 -2505.010996011988 789.22593559719098 0 789.22593559719098 -1953.7797995273431 0 0 0 0 -8.333919085592612 -6.2274880829848485 0 -6.2274880829848485 3.3993600786481295 0 0 0 0 -4184.105301552845 -1725.7377052773954 0 -1725.7377052773954 -2161.2918964649907 0 0 0 0 -3600.9552524835453 -3759.5760386333714 0 -3759.5760386333714 -2664.1865316637923 0 0 0 0 -2024.0282239134103 -2145.3615188371259 0 -2145.3615188371259 1420.5068189201702 0 0 0 0 -2023.9594261123784 -2058.0718916142214 0 -2058.0718916142214 13.219624691540957 0 0 0 0 -1671.7826354869831 -2121.2842582333687 0 -2121.2842582333687 -155.64265122920915 0 0 0 0 -3310.78300986672 -2634.7675378490239 0 -2634.7675378490239 -288.10919518573792 0 0 0 0 -1321.7881208360704 -2703.9997654461768 0 -2703.9997654461768 -1376.6486909789382 0 0 0 0 -2043.13044666723 -1321.4890210459562 0 -1321.4890210459562 -1287.0806565703679 0 0 0 0 -2804.0686591656931 -1684.0827051651841 0 -1684.0827051651841 -749.80006293331098 0 0 0 0 -4197.9137883490475 -1412.2844072843291 0 -1412.2844072843291 -1.0651619418058544 0 0 0 0 -2902.8223747700686 -1977.6243234024842 0 -1977.6243234024842 -329.25600190398109 0 0 0 0 2.6758743253913906 -3.068605806314963 0 -3.068605806314963 -2.0948575657091624 0 0 0 0 -3896.1962335358694 -991.34825721970992 0 -991.34825721970992 -1152.642477562782 0 0 0 0 -2747.0640950900897 -2200.7531056058151 0 -2200.7531056058151 -2260.796649907541 0 0 0 0 -3509.9196551692148 -1657.8998063771578 0 -1657.8998063771578 -2975.6396271470439 0 0 0 0 -3696.1673797877156 -1404.8745702557499 0 -1404.8745702557499 -1645.8453514888824 0 0 0 0 -4154.6324917050133 -3431.6958139808271 0 -3431.6958139808271 -3821.9102223796363 0 0 0 0 -4061.5691790600613 -1566.705573430263 0 -1566.705573430263 -573.41993575065862 0 0 0 0 2.6918975249080574 -3.1455272850194547 0 -3.1455272850194547 -1.8223784308748634 0 0 0 0 -2392.5557951511437 -321.25732629784034 0 -321.25732629784034 -502.17642201088893 0 0 0 0 -3041.6135794814909 -712.30618318426423 0 -712.30618318426423 -0.85054419104283485 0 0 0 0 -2677.1277966645575 -689.41153696371475 0 -689.41153696371475 -961.48954774581944 0 0 0 0 -1659.2975943180063 -533.91676996310707 0 -533.91676996310707 -2144.1309266353055 0 0 0 0 -2.2971624201858845 2.1536588679636566 0 2.1536588679636566 4.295032973054191 0 0 0 0 -1737.5553695348208 -299.17127866161172 0 -299.17127866161172 -1757.5956020323501 0 0 0 0 -15.930863345713476 -11.326880136509914 0 -11.326880136509914 8.4813581464608205 0 0 0 0 1435.8338756936791 -1318.0525669870476 0 -1318.0525669870476 -1297.4673363422407 0 0 0 0 1.0009587765905223 -4.7587824237678262 0 -4.7587824237678262 3.8718453741823282 0 0 0 0 1263.1381486125883 -2326.1699025931011 0 -2326.1699025931011 78.697206522658234 0 0 0 0 2094.9349602226994 -888.79770777100566 0 -888.79770777100566 -1125.0139049654099 0 0 0 0 580.14519399147684 -1538.0001309944273 0 -1538.0001309944273 1516.0614591641133 0 0 0 0 -1.4032699777536237 -4.2204509543211657 0 -4.2204509543211657 3.8524750945276196 0 0 0 0 922.84446891017069 -2187.6348283279949 0 -2187.6348283279949 109.87873507187032 0 0 0 0 -1018.7355226351283 -2051.4873865989321 0 -2051.4873865989321 -536.84954329225002 0 0 0 0 -1627.2256512710655 -2315.21232960628 0 -2315.21232960628 -382.0650859833695 0 0 0 0 -1240.2138505674593 -1967.5629195707588 0 -1967.5629195707588 -72.927321171377116 0 0 0 0 -1019.9866876910019 -1960.0079598330994 0 -1960.0079598330994 -462.95249038115435 0 0 0 0 -907.09055134706432 -2067.6357131129625 0 -2067.6357131129625 -827.31236485540285 0 0 0 0 919.01894206054385 -1910.5489845415977 0 -1910.5489845415977 -1255.9821294158028 0 0 0 0 1243.1428077106011 -2481.6448994313141 0 -2481.6448994313141 -564.20255429373356 0 0 0 0 -1733.2698537576071 -1949.9270574077382 0 -1949.9270574077382 -123.64625970070483 0 0 0 0 233.63337757274712 -2720.9352413871966 0 -2720.9352413871966 -2.2480581916170195 0 0 0 0 341.36728492284942 -1528.7216474120637 0 -1528.7216474120637 -899.09976009142702 0 0 0 0 2307.7935119532704 -3103.1071126323295 0 -3103.1071126323295 -1.367848635680275 0 0 0 0 3080.0058080282979 -1079.9266844216327 0 -1079.9266844216327 -1511.0408972849618 0 0 0 0 5.4058156347814403 -3.1278359970403642 0 -3.1278359970403642 1.6845774183390745 0 0 0 0 1756.1234412261365 -189.38854301393076 0 -189.38854301393076 -1359.6768568793195 0 0 0 0 2207.0408027778831 -1448.1920065517479 0 -1448.1920065517479 -1666.1885593828483 0 0 0 0 3219.4305971611993 -274.01884834050907 0 -274.01884834050907 -1426.438345003553 0 0 0 0 4161.40872767369 -3282.9694361282454 0 -3282.9694361282454 -54.812834406504408 0 0 0 0 13.073344611918557 -12.659917799591838 0 -12.659917799591838 11.670713958763088 0 0 0 0 -597.68025761622994 -372.30238982455921 0 -372.30238982455921 -0.80891663948556647 0 0 0 0 -673.1126418032909 -532.82349520122807 0 -532.82349520122807 -312.32592546720116 0 0 0 0 -842.54318968468215 -555.37605384565541 0 -555.37605384565541 0.10235916929377709 0 0 0 0 -778.03798784174796 -683.93567406278453 0 -683.93567406278453 -367.48035491447445 0 0 0 0 -909.70055440936039 -688.85053513127423 0 -688.85053513127423 -0.28711609946913086 0 0 0 0 -891.06265886607616 -681.85436941205262 0 -681.85436941205262 -237.80762467696331 0 0 0 0 -770.36071483456908 -619.548075273211 0 -619.548075273211 -300.63204914924427 0 0 0 0 -763.97391824154465 -716.48351096840088 0 -716.48351096840088 -519.70483979195706 0 0 0 0 -784.36668257624797 -796.02271794140688 0 -796.02271794140688 -558.13117536621576 0 0 0 0 -850.32273172559144 -832.31815727728826 0 -832.31815727728826 -551.28119614452044 0 0 0 0 -1394.1691372063287 -1372.1084310175938 0 -1372.1084310175938 -1106.6628257914854 0 0 0 0 28.968864135858709 -41.060510273016689 0 -41.060510273016689 45.961291484580272 0 0 0 0 -845.05579267264136 -756.65730623698437 0 -756.65730623698437 -517.75478831928922 0 0 0 0 9.5024197233875825 -8.1544831887175064 0 -8.1544831887175064 5.8924287311830881 0 0 0 0 -658.33818610726848 -915.25652228455874 0 -915.25652228455874 -629.49414281509962 0 0 0 0 537.95493370210897 -1297.9187845058914 0 -1297.9187845058914 -1184.9433801365049 0 0 0 0 -877.40446921647344 -1736.130762561239 0 -1736.130762561239 -1052.4753767855436 0 0 0 0 27.789209602214939 -33.611411230186036 0 -33.611411230186036 32.284463342611275 0 0 0 0 -1789.5676125113878 -1151.3652891421334 0 -1151.3652891421334 51.790475198125932 0 0 0 0 -1396.844383853655 -565.50214064620377 0 -565.50214064620377 364.36157553794328 0 0 0 0 -307.42378589458008 -391.56950125744061 0 -391.56950125744061 -145.27080659064814 0 0 0 0 -783.18990839669777 -1152.3660963095713 0 -1152.3660963095713 -833.87562166694261 0 0 0 0 36.659482639158469 -41.572853590201774 0 -41.572853590201774 44.780780800409218 0 0 0 0 -696.89802555926144 -336.21297654905356 0 -336.21297654905356 -14.892051623921816 0 0 0 0 -967.57687106447702 -725.48185065134749 0 -725.48185065134749 -281.65490847581532 0 0 0 0 -972.04021697632197 -593.68506659710692 0 -593.68506659710692 -302.91635470080655 0 0 0 0 -943.5581953115252 -700.39985369856004 0 -700.39985369856004 -13.018678386303293 0 0 0 0 -1328.0507056303395 -662.58697863643465 0 -662.58697863643465 -42.078490095009329 0 0 0 0 -1119.7601511691391 -849.94523426833621 0 -849.94523426833621 29.842045961690019 0 0 0 0 12.84326191709124 -13.060870458994316 0 -13.060870458994316 12.861617928582177 0 0 0 0 27.787282827362219 -40.031339715729558 0 -40.031339715729558 49.816608524797743 0 0 0 0 -683.96278953925685 -894.28967942697636 0 -894.28967942697636 -631.97848405514378 0 0 0 0 -1093.7403520758799 -674.45975524024652 0 -674.45975524024652 -139.90892472727865 0 0 0 0 -1100.8290095533557 -612.76513773888291 0 -612.76513773888291 -151.2250961138634 0 0 0 0 -1308.0017694020571 -673.39484425756382 0 -673.39484425756382 -43.02647161403911 0 0 0 0 -1226.480518541015 -575.77302249360946 0 -575.77302249360946 -40.66653130663326 0 0 0 0 -1334.558092466521 -938.38911796598268 0 -938.38911796598268 -366.25122288501007 0 0 0 0 -1391.8767137338127 -944.65075296936993 0 -944.65075296936993 -356.32174246467184 0 0 0 0 -1321.2360475098651 -619.84593297111951 0 -619.84593297111951 -181.89385906478856 0 0 0 0 -1353.4391424405039 -723.97320918575861 0 -723.97320918575861 -287.53176383895334 0 0 0 0 -1793.8103584213823 -588.40399937517941 0 -588.40399937517941 -305.8361388213234 0 0 0 0 -1205.3598003494426 -368.20092698993176 0 -368.20092698993176 4.0678236426902004 0 0 0 0 -1038.2557340535277 -568.31586987245828 0 -568.31586987245828 -243.85829208069481 0 0 0 0 -1302.1270668500511 -695.44519855003455 0 -695.44519855003455 -74.732818793818296 0 0 0 0 -1381.1384733818632 -512.39113074549823 0 -512.39113074549823 -252.8362084899054 0 0 0 0 -931.52856058077305 -450.72122055377258 0 -450.72122055377258 -524.24250040404149 0 0 0 0 46.750370858997712 -57.437321000182294 0 -57.437321000182294 -27.341193065268925 0 0 0 0 -1572.3253319896953 -1459.4663531079977 0 -1459.4663531079977 -1271.1873816672887 0 0 0 0 -1504.3135381134052 -440.63661082315957 0 -440.63661082315957 -524.0627481306019 0 0 0 0 -1417.3424520915796 -1049.8258529936284 0 -1049.8258529936284 -557.96598031569738 0 0 0 0 -2261.1546341414651 -748.59844604704995 0 -748.59844604704995 -360.35161065572174 0 0 0 0 -3015.6711643399176 -2137.5229616918368 0 -2137.5229616918368 -1061.7073728770483 0 0 0 0 39.539937943346132 -57.140480181745545 0 -57.140480181745545 22.630900397219222 0 0 0 0 -10.624083919202945 -71.159669435063222 0 -71.159669435063222 48.316043170802345 0 0 0 0 -937.40074237859517 92.786703442834551 0 92.786703442834551 -847.41093443729915 0 0 0 0 -835.12171977918752 -439.88158787815564 0 -439.88158787815564 55.908339922141749 0 0 0 0 -107.64444022797397 -86.540827534336131 0 -86.540827534336131 -73.127848532982171 0 0 0 0 54.417700365082659 -83.988505418798979 0 -83.988505418798979 -6.2614896584171333 0 0 0 0 -1064.0794214257476 -1075.1780381326607 0 -1075.1780381326607 -518.02211427399016 0 0 0 0 14.230790639923555 -19.298387996031067 0 -19.298387996031067 1.3842447278298664 0 0 0 0 -1134.3191182078663 -808.92316828958428 0 -808.92316828958428 -272.57949611159711 0 0 0 0 -960.72972691868199 -1617.9252050276846 0 -1617.9252050276846 -1223.9007912037632 0 0 0 0 -955.29212634468422 -1729.7505604689723 0 -1729.7505604689723 318.4583955267226 0 0 0 0 -750.22812117893773 -1169.6037305809296 0 -1169.6037305809296 -909.18644384999061 0 0 0 0 -805.9365368169274 -1073.9149108438687 0 -1073.9149108438687 -839.89489890336699 0 0 0 0 53.799144037024192 -74.535432724287418 0 -74.535432724287418 55.194278245597218 0 0 0 0 -1421.2451031977589 -843.12235449752188 0 -843.12235449752188 413.16336972863064 0 0 0 0 -876.67968879855653 -442.91678599595616 0 -442.91678599595616 -1097.3971892465197 0 0 0 0 -4.9173523560237538 -78.197475059047406 0 -78.197475059047406 3.9409038735024993 0 0 0 0 -1375.0288304670894 -597.47322494971013 0 -597.47322494971013 -8.9291144204180455 0 0 0 0 -312.79255530608532 -249.97976351087345 0 -249.97976351087345 -482.25292344267655 0 0 0 0 -1266.3154204070524 -1756.411384899304 0 -1756.411384899304 -597.50694141213899 0 0 0 0 -1329.294707684046 39.617629503532953 0 39.617629503532953 1361.6093694850861 0 0 0 0 -22.511156726737681 322.45123752346262 0 322.45123752346262 2.1556020464995527 0 0 0 0 100.91157185617715 -76.989611597925759 0 -76.989611597925759 7.4299142007913588 0 0 0 0 -1369.7544138181383 -410.36041754100916 0 -410.36041754100916 -327.35795986108133 0 0 0 0 -344.38571914029308 -848.28887494037917 0 -848.28887494037917 -252.22456768124539 0 0 0 0 -415.63147724006558 32.603376616098103 0 32.603376616098103 9.1427331598388264 0 0 0 0 -0.33053494055525334 -8.0054758453604222 0 -8.0054758453604222 -8.522045441891958 0 0 0 0 -459.30206609898596 -71.037192600895651 0 -71.037192600895651 120.64190273061104 0 0 0 0 -1108.7221567937631 -328.29593772850785 0 -328.29593772850785 -293.91476283801603 0 0 0 0 66.209005361456221 -62.131735723181322 0 -62.131735723181322 -27.03426521340063 0 0 0 0 -766.17475235489474 -634.0409093661583 0 -634.0409093661583 -933.78217660381051 0 0 0 0 13.299979640855756 -22.327464478110272 0 -22.327464478110272 24.286092623263954 0 0 0 0 -623.203765809576 -529.05995523916499 0 -529.05995523916499 -960.13586349051911 0 0 0 0 -675.05079446396303 -719.36946578352945 0 -719.36946578352945 -898.86508469746332 0 0 0 0 -707.74599076959112 -636.83610675483942 0 -636.83610675483942 -1107.2062340665143 0 0 0 0 -673.0147683250907 -661.25089932308765 0 -661.25089932308765 -702.73422632884467 0 0 0 0 -188.34095005259587 -220.15166917383613 0 -220.15166917383613 -129.58296114351106 0 0 0 0 35.856307840763108 -45.485197527279325 0 -45.485197527279325 31.745008113945744 0 0 0 0 -622.3299924144244 -543.46121034920907 0 -543.46121034920907 -794.00451079083723 0 0 0 0 -663.65280333726696 -859.68736420208006 0 -859.68736420208006 -761.09012328747122 0 0 0 0 -672.61740501831355 -829.75568639578705 0 -829.75568639578705 -956.13283705896902 0 0 0 0 -697.53627571056495 -918.02509632772853 0 -918.02509632772853 -640.16338384785922 0 0 0 0 -891.59834305604181 -964.73262292025538 0 -964.73262292025538 -564.4503594757989 0 0 0 0 -885.71966278486707 -842.63981934043113 0 -842.63981934043113 -924.35056071502913 0 0 0 0 -744.2141930190254 -746.0278635486975 0 -746.0278635486975 -1455.3179961480491 0 0 0 0 -1340.1643680759512 -265.96150018541084 0 -265.96150018541084 -1204.0909547905612 0 0 0 0 -1036.1646240991076 -622.06866313386126 0 -622.06866313386126 -916.47465360503702 0 0 0 0 3.0282695957801793 -2.5868135971302024 0 -2.5868135971302024 -7.8304753275861003 0 0 0 0 -753.26775303836439 14.922202157074935 0 14.922202157074935 -2494.6197422104306 0 0 0 0 -512.66483632591985 -878.24585374949675 0 -878.24585374949675 -1957.5467298247386 0 0 0 0 -642.32086654126897 -798.35019823370385 0 -798.35019823370385 -1018.7741432273142 0 0 0 0 -1056.8705179617205 -701.8884592005561 0 -701.8884592005561 -1009.5289786055218 0 0 0 0 -801.64783241388864 -851.05463291220076 0 -851.05463291220076 -369.37403984072444 0 0 0 0 -488.84396686237079 -568.64420535168028 0 -568.64420535168028 -343.74088138189109 0 0 0 0 -628.59228487278051 -824.73799265122943 0 -824.73799265122943 -518.64251501906256 0 0 0 0 -637.3596546191568 -949.34021304953785 0 -949.34021304953785 -303.4896530193073 0 0 0 0 -720.79928028238191 -797.04802216307871 0 -797.04802216307871 -75.969975057902047 0 0 0 0 -653.64002822179827 -846.16795755265048 0 -846.16795755265048 -606.51844487070048 0 0 0 0 -789.56963653184721 -953.96596808310642 0 -953.96596808310642 -355.05855508495006 0 0 0 0 -646.03723005878237 -902.93879441660829 0 -902.93879441660829 -350.47758597760367 0 0 0 0 1.9549210487360753 0.25519338851148632 0 0.25519338851148632 -3.4207987974084517 0 0 0 0 -810.65052251339898 -724.07949757411916 0 -724.07949757411916 -206.43450766199385 0 0 0 0 -830.63496378655145 -823.56466373839794 0 -823.56466373839794 -232.85368372502853 0 0 0 0 -633.28728254442831 -730.9991644594993 0 -730.9991644594993 -211.4587987604682 0 0 0 0 -548.41523863118573 -819.62251526179898 0 -819.62251526179898 -137.53518204887223 0 0 0 0 -717.50953001975813 -802.5664117078195 0 -802.5664117078195 0.21168744131864514 0 0 0 0 -824.37404537392649 -713.51693835648621 0 -713.51693835648621 -198.14813644250171 0 0 0 0 -823.48006018068918 -725.00489751912392 0 -725.00489751912392 -52.939421076647704 0 0 0 0 -536.76966290937253 -528.51159704809288 0 -528.51159704809288 256.35847254743567 0 0 0 0 -535.90451821723286 -530.95922568042442 0 -530.95922568042442 -211.2689616836069 0 0 0 0 3.2661904230512313 -1.0345819598637434 0 -1.0345819598637434 -2.2086991564179925 0 0 0 0 -557.27310610565928 -801.27593384192187 0 -801.27593384192187 238.23300891518011 0 0 0 0 -323.335592965405 -554.75148085701221 0 -554.75148085701221 0.13435627665603533 0 0 0 0 -4.6615290758884385 -482.97312377978233 0 -482.97312377978233 -46.31422013512929 0 0 0 0 -37.721731312432667 -445.58204583483166 0 -445.58204583483166 219.38833600070211 0 0 0 0 392.27791348297797 -234.08806472367723 0 -234.08806472367723 224.1044468410837 0 0 0 0 534.91931360571925 -439.99887636244239 0 -439.99887636244239 0.4326515037973877 0 0 0 0 -8.7776492474858969 -348.46679906629288 0 -348.46679906629288 19.208962126765982 0 0 0 0 264.2234425994784 -590.60452964925207 0 -590.60452964925207 151.38162391869628 0 0 0 0 615.64493661314327 -103.37204731214297 0 -103.37204731214297 282.71385877787543 0 0 0 0 1392.6069966800133 -401.97786842222558 0 -401.97786842222558 123.07600327214459 0 0 0 0 1283.4760156622406 40.538490968188853 0 40.538490968188853 236.43676759809023 0 0 0 0 955.67738958577411 -364.96564164383017 0 -364.96564164383017 -41.42798421139014 0 0 0 0 3499.1008747943415 430.82961220647121 0 430.82961220647121 -289.95738204776717 0 0 0 0 1911.9531662500212 -414.41614840332477 0 -414.41614840332477 34.100534303310269 0 0 0 0 804.44456692544918 -195.59483535087202 0 -195.59483535087202 -0.55422093848756049 0 0 0 0 -3549.8422711810485 -866.38829714553208 0 -866.38829714553208 335.38193837419385 0 0 0 0 -3587.807787450949 -1866.4485187953105 0 -1866.4485187953105 -452.73005010783163 0 0 0 0 4.9070257150575234 -7.6591946382180254 0 -7.6591946382180254 -3.661543449501437 0 0 0 0 2126.1686431159587 693.38704194064485 0 693.38704194064485 321.03500726883067 0 0 0 0 1025.6697801378759 253.41657545302587 0 253.41657545302587 523.46474244135243 0 0 0 0 1532.90722926696 -3.3465608980986872 0 -3.3465608980986872 -0.6059853591141291 0 0 0 0 19.885121494062929 -26.436981417766688 0 -26.436981417766688 -17.796852901736713 0 0 0 0 2200.7991995059192 1026.8465126952979 0 1026.8465126952979 193.2755989266152 0 0 0 0 322.2593920235422 169.50998467188037 0 169.50998467188037 311.80808447996969 0 0 0 0 320.17558598891719 -681.53921856654779 0 -681.53921856654779 -458.50558246977744 0 0 0 0 -279.25596627432787 -842.88828722226754 0 -842.88828722226754 14.862348422640935 0 0 0 0 67.828167526033894 -125.90181405350086 0 -125.90181405350086 58.094727826159215 0 0 0 0 1015.0721745171331 -465.4329888906359 0 -465.4329888906359 -3.7905638980082585 0 0 0 0 1687.2043488924282 -690.0681041472144 0 -690.0681041472144 760.99172029289184 0 0 0 0 1698.0420540149116 -648.57376479542472 0 -648.57376479542472 -484.02032751761726 0 0 0 0 4.6262949746887898 -1317.3281183664512 0 -1317.3281183664512 0.60081977985100821 0 0 0 0 -152.00937372679982 -535.82306263018108 0 -535.82306263018108 121.34819106449868 0 0 0 0 -1230.2931125813739 -1369.6891712532961 0 -1369.6891712532961 -18.577299505878727 0 0 0 0 -1205.5637147211582 -607.68650475668255 0 -607.68650475668255 -21.707721468366799 0 0 0 0 -2333.3448237659395 -1299.6294443261431 0 -1299.6294443261431 -0.56272829030472127 0 0 0 0 -2114.0017184515073 -631.72165932335338 0 -631.72165932335338 -458.71520248659363 0 0 0 0 -3014.6378202073111 -1694.4198864803257 0 -1694.4198864803257 -260.61598411556042 0 0 0 0 -1569.8607493315358 -1513.483958113371 0 -1513.483958113371 -925.01158783921346 0 0 0 0 -1236.608412006133 -737.83562333950749 0 -737.83562333950749 -63.26755096251145 0 0 0 0 -1237.5868533557332 -710.91342261488171 0 -710.91342261488171 -723.25907702578479 0 0 0 0 565.39936897766893 -1521.8482082595947 0 -1521.8482082595947 -297.85333244326102 0 0 0 0 -582.48261274609831 -1457.1207294631167 0 -1457.1207294631167 -231.23119138206675 0 0 0 0 1903.4842427283365 -958.13316507676063 0 -958.13316507676063 -687.30681478472252 0 0 0 0 1509.327448983071 -109.4603076080457 0 -109.4603076080457 19.946572033280972 0 0 0 0 639.77530917143667 -855.13745179295802 0 -855.13745179295802 -916.37038934078009 0 0 0 0 247.59982030601532 -717.08065644445742 0 -717.08065644445742 -716.34360993564769 0 0 0 0 514.5803299186141 -801.37646535811473 0 -801.37646535811473 -359.34427714906633 0 0 0 0 1330.9315474337673 -1045.1114984149826 0 -1045.1114984149826 -828.24072839044675 0 0 0 0 -667.20775978496386 -959.81847315464984 0 -959.81847315464984 -534.94633817653812 0 0 0 0 582.25407678983447 -997.39873893888762 0 -997.39873893888762 -783.77023544281838 0 0 0 0 112.19722357426326 -1098.947614773846 0 -1098.947614773846 -802.44075630872976 0 0 0 0 -842.07498951492744 -979.61363549879752 0 -979.61363549879752 -620.90912802415551 0 0 0 0 -1858.2460461523151 -631.27474830023857 0 -631.27474830023857 -525.56192073741113 0 0 0 0 -848.91649886863161 -919.27056220750092 0 -919.27056220750092 -724.57450836222415 0 0 0 0 -880.88150468280219 -1409.1506461734571 0 -1409.1506461734571 -650.40214607451344 0 0 0 0 -1238.4572300712171 -871.99798897306027 0 -871.99798897306027 -433.9927755605604 0 0 0 0 2133.8961897340632 1144.161994657472 0 1144.161994657472 -1140.5095254222397 0 0 0 0 33.071627059647746 -43.01551049604528 0 -43.01551049604528 -30.567068973152232 0 0 0 0 -2679.0194286213591 -1614.1515164073571 0 -1614.1515164073571 -256.51069715674384 0 0 0 0 1387.3586980515754 -284.12547815150174 0 -284.12547815150174 112.4553714106296 0 0 0 0 840.97674021596958 -2993.5069238005526 0 -2993.5069238005526 -1411.7701844792173 0 0 0 0 -11.840008931172067 -20.809827245616873 0 -20.809827245616873 -1.8570252813210573 0 0 0 0 540.84987994595554 -724.86165896835155 0 -724.86165896835155 392.3899278142344 0 0 0 0 -362.15494728324575 -1123.0565432366093 0 -1123.0565432366093 390.74268545096857 0 0 0 0 1308.2912352055585 -756.14550336638422 0 -756.14550336638422 -805.3590283607482 0 0 0 0 938.94799674662318 -2342.8677038880305 0 -2342.8677038880305 3237.3895430398115 0 0 0 0 -822.32677412546218 27.243466665953747 0 27.243466665953747 759.30506415507989 0 0 0 0 -1050.2815862039097 -362.69205116484954 0 -362.69205116484954 152.30450889552594 0 0 0 0 49.544048781832899 -56.036704939229253 0 -56.036704939229253 -36.753268637487736 0 0 0 0 -554.48750003966416 -468.81410009943647 0 -468.81410009943647 -436.72525861301983 0 0 0 0 -5.2529065770971073 -32.274887197484219 0 -32.274887197484219 5.2974325542226666 0 0 0 0 -760.22199287018884 -513.85625790129416 0 -513.85625790129416 -410.61785135374521 0 0 0 0 -1165.6633816945741 -1005.5907684100603 0 -1005.5907684100603 -460.85786321334308 0 0 0 0 -929.78411809849786 -608.30899801062333 0 -608.30899801062333 -461.04898566240445 0 0 0 0 45.47091836168309 -55.870021973526462 0 -55.870021973526462 -38.906878983638649 0 0 0 0 -151.96725780254565 -977.32180171059736 0 -977.32180171059736 -692.22527857145178 0 0 0 0 -94.263123428348536 -557.3863440908226 0 -557.3863440908226 -814.21211759187281 0 0 0 0 -815.54773744564591 -770.3477999951283 0 -770.3477999951283 -595.33858383324696 0 0 0 0 -233.86665866991461 -488.34804087636439 0 -488.34804087636439 -624.07556089262653 0 0 0 0 -561.47262171188049 -707.37464833587001 0 -707.37464833587001 -588.25476750715825 0 0 0 0 -556.31077259834274 -373.2434557871602 0 -373.2434557871602 -661.83782451580919 0 0 0 0 329.93590655113803 53.289690377754596 0 53.289690377754596 -1644.8593022723508 0 0 0 0 -143.92472552919571 -532.56494794331229 0 -532.56494794331229 -799.91171121969819 0 0 0 0 -1.5137553179585836 1.8063924187877944 0 1.8063924187877944 1.8609154036428208 0 0 0 0 858.35831797117316 -188.67469369578248 0 -188.67469369578248 -825.90956371583161 0 0 0 0 -447.96881072004953 -298.12957110998104 0 -298.12957110998104 -2032.8264940133231 0 0 0 0 -445.94148208693059 -812.04014559057396 0 -812.04014559057396 -1580.9411399407982 0 0 0 0 -727.10312162921309 -675.10273116728058 0 -675.10273116728058 -1212.7308338203002 0 0 0 0 -175.56204081933856 -769.04416564201529 0 -769.04416564201529 -1197.6540767620318 0 0 0 0 -425.59409330626659 -431.26943870900868 0 -431.26943870900868 -512.02608110537403 0 0 0 0 -20.294336417392515 -1030.8436840431459 0 -1030.8436840431459 -1301.3521062340151 0 0 0 0 -212.80961433976518 5.5649240242637461 0 5.5649240242637461 -833.16228770941962 0 0 0 0 949.66288467289587 -324.06923878694943 0 -324.06923878694943 -788.24287650801125 0 0 0 0 1924.8231036543398 61.490598573082025 0 61.490598573082025 -993.24212637415621 0 0 0 0 782.39362162812449 30.023134231654694 0 30.023134231654694 564.2657609221169 0 0 0 0 13.845601227312727 270.84003053183551 0 270.84003053183551 -798.09753639709379 0 0 0 0 1312.1899743741487 433.71177237796655 0 433.71177237796655 -2834.5196667892451 0 0 0 0 629.59073115941374 -586.47572456040871 0 -586.47572456040871 -1945.3747056753346 0 0 0 0 -1063.7295134202332 -204.06778457682231 0 -204.06778457682231 -2031.4451350869858 0 0 0 0 1628.5766359271493 -567.09375047872163 0 -567.09375047872163 -5935.1476062554866 0 0 0 0 -558.74354806277552 -1325.3133782992372 0 -1325.3133782992372 5494.5778892090866 0 0 0 0 2.8174438887800584 -12.451711584143908 0 -12.451711584143908 0.17337631626436867 0 0 0 0 1061.5410772868636 -791.76454740176268 0 -791.76454740176268 561.88959606004937 0 0 0 0 129.70770173994651 -318.71526464629278 0 -318.71526464629278 4052.0822139319644 0 0 0 0 686.33423884563922 -200.60538058945167 0 -200.60538058945167 1313.6339155420428 0 0 0 0 155.66674897201165 -283.17733447236242 0 -283.17733447236242 890.06728884448239 0 0 0 0 -243.48472042992739 -491.22186528339807 0 -491.22186528339807 1194.6403088111401 0 0 0 0 -402.40112107969253 -462.78479816390609 0 -462.78479816390609 2857.6636182109019 0 0 0 0 173.70008829496578 -858.97435152906837 0 -858.97435152906837 -3651.3223744883144 0 0 0 0 2.0655986516478286 -41.95293401297738 0 -41.95293401297738 1.4259654104986108 0 0 0 0 -775.1716180715548 -725.94228310552717 0 -725.94228310552717 2059.7714434147165 0 0 0 0 -99.46205786959672 -747.53250916788238 0 -747.53250916788238 -2235.8663649221562 0 0 0 0 -3.0268411509131079 -57.288291349930688 0 -57.288291349930688 2.7094288848771804 0 0 0 0 -15.830324160969212 -877.69579934120702 0 -877.69579934120702 460.12193193778512 0 0 0 0 -676.64208890041664 -823.16931515101169 0 -823.16931515101169 568.48855993663892 0 0 0 0 -118.62472970473391 -1321.2687798827246 0 -1321.2687798827246 -148.00752302640467 0 0 0 0 -137.72908519359771 -1533.1464953105606 0 -1533.1464953105606 153.49544447139488 0 0 0 0 -587.18057228490034 -147.95248744267519 0 -147.95248744267519 -1092.1478100851673 0 0 0 0 -123.98315219261531 -1603.2481629440008 0 -1603.2481629440008 599.44818775572639 0 0 0 0 -1.4822490265403534 -5.7227967558591786 0 -5.7227967558591786 7.3482728724537765 0 0 0 0 -130.00070187941984 -1182.5616318199477 0 -1182.5616318199477 1107.3514050149242 0 0 0 0 4.1679603253073303 -8.3804055937080761 0 -8.3804055937080761 2.2797688032511871 0 0 0 0 -383.17320652050421 -1885.4642902633059 0 -1885.4642902633059 -1436.4289132417034 0 0 0 0 -831.42418887280746 -1174.4664920294272 0 -1174.4664920294272 -1475.8025591541664 0 0 0 0 5.8793693211391993 -7.6402927246353443 0 -7.6402927246353443 0.25459828679350949 0 0 0 0 -357.36263151909907 -3400.9556677843575 0 -3400.9556677843575 -2307.0096378359062 0 0 0 0 -1820.1097861898406 -1999.5760700901155 0 -1999.5760700901155 -2733.0213381429348 0 0 0 0 131.25190778463408 -96.405423987528224 0 -96.405423987528224 38.671959120824795 0 0 0 0 -18.070699606741982 -1648.6737903542962 0 -1648.6737903542962 88.55118897381908 0 0 0 0 53.446365433173028 -39.449643636758253 0 -39.449643636758253 28.04009732540942 0 0 0 0 -6.5187773275777872 -40.173995499588045 0 -40.173995499588045 50.203052711720204 0 0 0 0 53.071608003156143 -317.02613844899315 0 -317.02613844899315 -827.88003712135833 0 0 0 0 -687.22531793368262 -1187.5343568765384 0 -1187.5343568765384 -1750.4100894556905 0 0 0 0 -55.986252441260149 -50.082363814362907 0 -50.082363814362907 -415.999874562287 0 0 0 0 -843.28888070995527 -1116.1554983033129 0 -1116.1554983033129 -1512.0801561097105 0 0 0 0 104.54154773930139 -64.690136865421195 0 -64.690136865421195 9.0086777393740931 0 0 0 0 -850.0135653490413 -1101.5964375316616 0 -1101.5964375316616 -941.30667350982549 0 0 0 0 -352.46991564763448 -478.37421565178374 0 -478.37421565178374 -254.59115750504134 0 0 0 0 -193.93713629600734 -564.94604258795971 0 -564.94604258795971 -1128.7140345519147 0 0 0 0 -245.82558468430216 -819.13131811168569 0 -819.13131811168569 -766.07205816896749 0 0 0 0 -418.16261225472408 -786.58929887795966 0 -786.58929887795966 -886.15934589245444 0 0 0 0 -221.38899437503278 -765.17998198659916 0 -765.17998198659916 -970.4230440347892 0 0 0 0 -1590.9081133280192 -230.63845446238702 0 -230.63845446238702 -904.63670334927156 0 0 0 0 -381.23805960987556 -382.97660794619151 0 -382.97660794619151 -1215.7074841669237 0 0 0 0 -817.15930594088536 -829.12970904598478 0 -829.12970904598478 -1019.4219076205627 0 0 0 0 -90.845468967020679 -1141.9799942672398 0 -1141.9799942672398 -808.68891428093048 0 0 0 0 -331.56653053067384 -723.14650677938334 0 -723.14650677938334 -740.95503327967162 0 0 0 0 106.22229835078018 -76.377213625445961 0 -76.377213625445961 7.9806649503411222 0 0 0 0 21.455171591263777 -12.636206116716224 0 -12.636206116716224 5.0177586930534517 0 0 0 0 -525.00166254838268 -876.39510034966224 0 -876.39510034966224 -959.86886500882974 0 0 0 0 -507.94285930197157 -793.30232126933697 0 -793.30232126933697 -1618.45284815169 0 0 0 0 -522.58081863987763 -851.10007083247183 0 -851.10007083247183 -1052.1962974230046 0 0 0 0 12.043660353128427 -6.5937584414678554 0 -6.5937584414678554 -2.2595194041984996 0 0 0 0 -636.60508906924917 -976.36768773473887 0 -976.36768773473887 -2354.5430592359917 0 0 0 0 783.44230021084877 -249.52647337838425 0 -249.52647337838425 248.19728378945729 0 0 0 0 522.97053598026741 -85.475154385215319 0 -85.475154385215319 -212.80194482543448 0 0 0 0 -3.8030055912235614 5.8913724130059393 0 5.8913724130059393 5.3127048581514771 0 0 0 0 3.7355863883402485 -2.1184073566102199 0 -2.1184073566102199 -1.3233722284126657 0 0 0 0 -412.01210935931454 -47.456726674543461 0 -47.456726674543461 422.54109462374618 0 0 0 0 -507.38832894738698 -823.9615855585289 0 -823.9615855585289 -2294.0989732323615 0 0 0 0 595.53459586342024 -357.47671058798733 0 -357.47671058798733 314.55044738557626 0 0 0 0 -580.95607257142137 -530.04660796136886 0 -530.04660796136886 800.35261435556458 0 0 0 0 174.12732077655255 -1078.1268407237658 0 -1078.1268407237658 1185.6048105770315 0 0 0 0 886.1697138144757 -432.66520373606909 0 -432.66520373606909 -115.53576811745006 0 0 0 0 61.898767011959535 603.14037298814219 0 603.14037298814219 11.177724302877323 0 0 0 0 149.50901536660763 -471.05677507909422 0 -471.05677507909422 604.89171363124296 0 0 0 0 -201.102225122253 -161.86406128831004 0 -161.86406128831004 -97.855676812061574 0 0 0 0 5.3065242254492677 -5.8649990360109712 0 -5.8649990360109712 -2.8548743401981937 0 0 0 0 -203.06346766613979 259.25761131838954 0 259.25761131838954 -423.46540223917691 0 0 0 0 -145.52773680954169 -21.516131314161612 0 -21.516131314161612 9.4044508594233776 0 0 0 0 -224.93880278200686 -114.62153727608165 0 -114.62153727608165 -16.871732546409476 0 0 0 0 -48.923001112694692 -102.87786614926881 0 -102.87786614926881 -71.207245945755858 0 0 0 0 -114.76973767605023 -24.211532721492404 0 -24.211532721492404 -48.558389861806063 0 0 0 0 -66.30864627673327 29.852367203886388 0 29.852367203886388 -29.741072230623104 0 0 0 0 -47.229463787976783 14.267177643574541 0 14.267177643574541 -31.924003358333721 0 0 0 0 568.51927549311949 -887.91480855669215 0 -887.91480855669215 379.6954509014613 0 0 0 0 -36.267738995884429 -356.17277130944422 0 -356.17277130944422 -86.815931385353906 0 0 0 0 -165.26305019290157 -487.88178243603033 0 -487.88178243603033 -81.081776879430436 0 0 0 0 -188.18657354299648 -167.65515890873212 0 -167.65515890873212 -110.60719105608587 0 0 0 0 -139.90182297918363 -581.33692892971158 0 -581.33692892971158 -201.47638645226834 0 0 0 0 17.285349009197276 -16.053186014326059 0 -16.053186014326059 8.6785149216102013 0 0 0 0 2.5197002017750378 -4.2720866667969233 0 -4.2720866667969233 5.8727441051250935 0 0 0 0 -34.010361416320734 -471.5545411503623 0 -471.5545411503623 -281.2793197138526 0 0 0 0 44.867524378435533 -51.630672493170209 0 -51.630672493170209 -14.190764305062089 0 0 0 0 -188.06979823568781 -168.61531524054271 0 -168.61531524054271 -124.53622526820982 0 0 0 0 -156.06313940741893 -99.526367176433268 0 -99.526367176433268 -88.129018480576633 0 0 0 0 34.689698297700204 -49.412804478436861 0 -49.412804478436861 -39.662941425491283 0 0 0 0 461.71894052011521 -211.38101951804856 0 -211.38101951804856 -458.87743214299553 0 0 0 0 243.49305082373394 -521.55558217668295 0 -521.55558217668295 103.86740987322992 0 0 0 0 -141.40615169825537 -189.3357944249401 0 -189.3357944249401 -29.59216425458726 0 0 0 0 9.0849956691726703 -5.9425251860971571 0 -5.9425251860971571 1.6530493692145569 0 0 0 0 -17.359799373664789 -19.853372561148888 0 -19.853372561148888 8.8638066486391551 0 0 0 0 45.804928314954068 -49.899381473741883 0 -49.899381473741883 -33.779757656081586 0 0 0 0 -131.50542299148583 -166.38831706620113 0 -166.38831706620113 -6.8477870304923272 0 0 0 0 -122.07193432547501 -40.456018113771279 0 -40.456018113771279 -29.634736782762047 0 0 0 0 86.265877029310104 -404.90888960062148 0 -404.90888960062148 -2377.4907151593361 0 0 0 0 -2073.2783090119401 -1390.2091803066724 0 -1390.2091803066724 -622.26217596505012 0 0 0 0 5.6418186347160164 -6.4994791743932296 0 -6.4994791743932296 -5.3540328645483442 0 0 0 0 12.760740682510004 -215.85207613658713 0 -215.85207613658713 -265.23925991340366 0 0 0 0 899.77451177587045 -698.64971324323415 0 -698.64971324323415 -1822.6815032328013 0 0 0 0 50.013533500385009 -26.930801838535274 0 -26.930801838535274 -4.2868373950407204 0 0 0 0 -403.547542847984 -312.92977685092774 0 -312.92977685092774 -1172.9729138084585 0 0 0 0 361.22541534008087 -947.43393683637987 0 -947.43393683637987 -3076.9486996113119 0 0 0 0 -632.50053623110261 -861.85260395656928 0 -861.85260395656928 -2077.6578453406401 0 0 0 0 5.1658677706367477 -8.2092020955083171 0 -8.2092020955083171 2.6595198523088186 0 0 0 0 -36.63822169472769 46.058406589232618 0 46.058406589232618 -25.326636986996164 0 0 0 0 -169.02938288886799 -254.470883263828 0 -254.470883263828 -1539.8712865300768 0 0 0 0 1172.4658494520681 -148.95604014403943 0 -148.95604014403943 -2874.1884167912176 0 0 0 0 -89.165704384842684 -76.574458450035308 0 -76.574458450035308 9.8674349472858012 0 0 0 0 27.147263392269451 -12.135141811639187 0 -12.135141811639187 -67.963789792614989 0 0 0 0 -367.65473165508229 -1479.5274341925979 0 -1479.5274341925979 -2481.712629956688 0 0 0 0 -1436.010103468192 -1530.2902189568049 0 -1530.2902189568049 -653.13239089542185 0 0 0 0 16.17786708166042 -7.8780510475491496 0 -7.8780510475491496 0.66827564294024455 0 0 0 0 -539.22459846847323 -298.28990633130888 0 -298.28990633130888 -1411.2262832548022 0 0 0 0 -730.65256774503996 -253.92547294331598 0 -253.92547294331598 -907.54490877583157 0 0 0 0 -329.33146846382078 -469.17012931108911 0 -469.17012931108911 -1135.2257440684407 0 0 0 0 12.303937573571908 -3.9006707849288489 0 -3.9006707849288489 -4.1977601506820861 0 0 0 0 238.44164636994537 -1367.272581187819 0 -1367.272581187819 -1409.4968231529201 0 0 0 0 -356.49405539200609 -356.26237519129972 0 -356.26237519129972 -954.1516082418093 0 0 0 0 -200.20004032546967 -561.65235645680514 0 -561.65235645680514 -1161.771755699272 0 0 0 0 -281.92740860138838 -519.65876082547766 0 -519.65876082547766 -1183.2448973844876 0 0 0 0 -322.23883146476328 -640.65557998506119 0 -640.65557998506119 -1160.0832450517628 0 0 0 0 -78.557325483048771 -781.90218537500186 0 -781.90218537500186 -1328.0312600390316 0 0 0 0 8.5394941878165156 -0.12973348438291055 0 -0.12973348438291055 -5.8734638412485651 0 0 0 0 -140.75952583313119 -614.12767252243066 0 -614.12767252243066 -1180.6738108769641 0 0 0 0 -273.38724595958502 -545.69916230480158 0 -545.69916230480158 -1098.8473545173038 0 0 0 0 -50.046912432072531 -518.19546681577049 0 -518.19546681577049 -1240.6996058699515 0 0 0 0 -48.138496606181434 -442.94378495529963 0 -442.94378495529963 -1181.6952484778158 0 0 0 0 38.151097409680006 -563.42584594424261 0 -563.42584594424261 -1217.7901582042105 0 0 0 0 -423.82488847831337 -707.34438847533602 0 -707.34438847533602 -1234.8972320339813 0 0 0 0 -179.65195811368176 -478.47940409951843 0 -478.47940409951843 -1244.8704714649325 0 0 0 0 -198.7321053174328 -480.29638919638091 0 -480.29638919638091 -1108.4374684306094 0 0 0 0 -29.106566542594919 -627.8012577104746 0 -627.8012577104746 -1052.5281097125553 0 0 0 0 14.009450087360165 -536.13254187077109 0 -536.13254187077109 -1980.0597717916935 0 0 0 0 44.691976735227911 -31.712467037199531 0 -31.712467037199531 18.041795127961876 0 0 0 0 -660.80858534511208 -539.79847265857097 0 -539.79847265857097 -1372.0512393373156 0 0 0 0 411.95332494829927 -1505.8334183691768 0 -1505.8334183691768 -1783.5630438008811 0 0 0 0 -396.67391603248183 -390.95252480648924 0 -390.95252480648924 -1034.2980941693531 0 0 0 0 306.22668737155618 -729.06963675536826 0 -729.06963675536826 -1324.7669254365865 0 0 0 0 -4.2387155033284216 -545.60076929359639 0 -545.60076929359639 -1405.3459429162976 0 0 0 0 266.24375120288641 -840.50447777581212 0 -840.50447777581212 -1634.2534772420186 0 0 0 0 92.112443935635383 -1097.9988300475816 0 -1097.9988300475816 -1306.7412102682574 0 0 0 0 -577.54658004956946 -995.02314035822928 0 -995.02314035822928 -817.87308647535974 0 0 0 0 -1027.036079398742 -810.94557699219877 0 -810.94557699219877 -1359.2825437628926 0 0 0 0 384.98092288666521 -1765.208567377751 0 -1765.208567377751 46.845822899675113 0 0 0 0 -376.80244848169605 -929.72704858913494 0 -929.72704858913494 -837.52060252668161 0 0 0 0 1570.0576640336585 -614.76643824061466 0 -614.76643824061466 -1190.5697319111277 0 0 0 0 389.80496851515636 -848.20633881279355 0 -848.20633881279355 -1175.0720864287869 0 0 0 0 407.56186335142837 -155.60711617184847 0 -155.60711617184847 -972.92921158589888 0 0 0 0 760.31534943323913 228.06034198330599 0 228.06034198330599 -319.33533252049529 0 0 0 0 1461.1774748028693 -1630.1107168639137 0 -1630.1107168639137 -1816.8929411536155 0 0 0 0 -1051.7961205925785 -604.29588913478074 0 -604.29588913478074 373.67282286248155 0 0 0 0 -859.93100245209644 -1076.604465144912 0 -1076.604465144912 702.24078856948472 0 0 0 0 -419.78043785375735 -854.54399534015101 0 -854.54399534015101 -1440.5595200874959 0 0 0 0 -470.63085243275987 -704.38002985324056 0 -704.38002985324056 -1164.7694903726515 0 0 0 0 -560.18549450119281 -781.62941736706125 0 -781.62941736706125 -915.69143180103083 0 0 0 0 -292.54298585844617 -434.99665353272212 0 -434.99665353272212 -920.27824925130699 0 0 0 0 -50.185437782834924 -561.25580118963262 0 -561.25580118963262 -940.30210396987968 0 0 0 0 -478.03787487505633 -398.45012358914391 0 -398.45012358914391 -87.279349234595429 0 0 0 0 -542.94638530796874 -853.78646605583435 0 -853.78646605583435 -1138.1618612073944 0 0 0 0 -534.80514884000331 -499.14930309204647 0 -499.14930309204647 -10.913259507284238 0 0 0 0 -1004.428051883322 -1135.3740024790604 0 -1135.3740024790604 -748.13357589914813 0 0 0 0 -995.31414655615015 -1267.4550694497675 0 -1267.4550694497675 -453.94162456985214 0 0 0 0 -315.9793890996898 -609.35939181214053 0 -609.35939181214053 -516.29194504176121 0 0 0 0 36.641553181766014 -13.690054728102581 0 -13.690054728102581 -2.5252965451791738 0 0 0 0 -643.10372493836348 -1337.3214685162384 0 -1337.3214685162384 -1350.6800926227734 0 0 0 0 -426.38125895137182 -139.34693545478513 0 -139.34693545478513 -183.59238715833635 0 0 0 0 -522.35801989987749 -878.67665703371676 0 -878.67665703371676 -1542.5842123569164 0 0 0 0 -10.275735497986863 -14.120702925593037 0 -14.120702925593037 2.0826266057819112 0 0 0 0 -804.12350582953241 -617.27712018346938 0 -617.27712018346938 -1318.0564255624195 0 0 0 0 -539.13587077331977 -739.17386515569524 0 -739.17386515569524 -697.13000914434087 0 0 0 0 -36.08944356441738 3.5966080851163156 0 3.5966080851163156 10.045152711042903 0 0 0 0 -2399.8533364055038 -268.93744069351669 0 -268.93744069351669 -1582.7334184339852 0 0 0 0 5.7965159821364836 -106.18805963642167 0 -106.18805963642167 53.331107054320967 0 0 0 0 -139.8822931209661 -649.62290899639629 0 -649.62290899639629 -819.32335630389207 0 0 0 0 0.88351291260340048 -33.733776535199127 0 -33.733776535199127 17.005298718459187 0 0 0 0 32.910168189963159 -76.284417174804503 0 -76.284417174804503 14.174606053864011 0 0 0 0 1.5697845180493459 -456.1101251112741 0 -456.1101251112741 -431.44090953994601 0 0 0 0 -740.57829712665989 -148.68153539136983 0 -148.68153539136983 -917.41668525051955 0 0 0 0 -1268.1845508807455 -198.68866674485253 0 -198.68866674485253 -592.98547195678111 0 0 0 0 -673.01643016748858 -460.6369256938633 0 -460.6369256938633 -882.86907539468666 0 0 0 0 -963.25350872106355 -591.83335087017622 0 -591.83335087017622 -578.41795772063779 0 0 0 0 1002.5290810185106 -1035.1888567775168 0 -1035.1888567775168 -1244.7569803795341 0 0 0 0 -946.67278708334197 -521.26591710665525 0 -521.26591710665525 -598.18463349790181 0 0 0 0 -188.20235343405511 -648.92808887820865 0 -648.92808887820865 -639.48624869833657 0 0 0 0 -511.17153143498581 -768.20252717986295 0 -768.20252717986295 -334.17879902222739 0 0 0 0 -614.32898442094302 -283.16099767052219 0 -283.16099767052219 -433.32639699699939 0 0 0 0 65.737249087775126 -1105.2697989010048 0 -1105.2697989010048 -21.200353042126153 0 0 0 0 129.85084567962986 -198.90846905469516 0 -198.90846905469516 -136.67217824643012 0 0 0 0 -22.270736810578853 -7.4774703077735012 0 -7.4774703077735012 10.951556915149439 0 0 0 0 -12.174942415211603 -45.48550845227679 0 -45.48550845227679 21.20182898324191 0 0 0 0 -85.768491205963073 -438.53795785250259 0 -438.53795785250259 -1102.1310773980222 0 0 0 0 219.46525118943828 -175.56759821264131 0 -175.56759821264131 -1041.7950262562372 0 0 0 0 989.9839707758947 -203.53068060455553 0 -203.53068060455553 -1186.7880706584256 0 0 0 0 918.7917437624601 -725.71679274831877 0 -725.71679274831877 -1045.4590758872801 0 0 0 0 86.841252144542523 -644.72571162413806 0 -644.72571162413806 -955.82390803559974 0 0 0 0 -235.16454490246542 -759.60905558434024 0 -759.60905558434024 -723.11294877068212 0 0 0 0 -168.80351808185878 -637.62229103767822 0 -637.62229103767822 -740.57247006814578 0 0 0 0 31.792397497803904 -701.96808854774281 0 -701.96808854774281 -999.3124312502332 0 0 0 0 -371.25660136918304 -600.61498975472932 0 -600.61498975472932 -901.58953849336831 0 0 0 0 -292.42086505351472 -673.61446663635434 0 -673.61446663635434 -980.24215861229459 0 0 0 0 -195.34094932043809 -587.73171413479577 0 -587.73171413479577 -1124.6646461443161 0 0 0 0 -146.16533346367942 -664.44633156931377 0 -664.44633156931377 -1007.1780472076643 0 0 0 0 -138.82811558828689 -580.27575906465063 0 -580.27575906465063 -1139.9690915982937 0 0 0 0 43.828653125786332 -582.69673973200588 0 -582.69673973200588 -1031.1841349137831 0 0 0 0 -137.23379116525757 -538.25226931771613 0 -538.25226931771613 -1042.0180820788664 0 0 0 0 -538.07822947049863 -163.50139616263914 0 -163.50139616263914 -847.3895314677502 0 0 0 0 -732.67965007495513 -401.19038679025107 0 -401.19038679025107 -806.16809726954671 0 0 0 0 -636.03351863528951 -601.67975803480658 0 -601.67975803480658 -691.16404265625897 0 0 0 0 -646.0010939810636 -467.68019886468755 0 -467.68019886468755 -748.66457282178453 0 0 0 0 -455.9387783074053 -508.46870884404052 0 -508.46870884404052 -994.69086512087961 0 0 0 0 -386.2003804432461 -622.96006922588276 0 -622.96006922588276 -849.86095477375784 0 0 0 0 -306.95676081019337 -624.409185593031 0 -624.409185593031 -1137.794159084282 0 0 0 0 147.74458140683419 102.66929975709354 0 102.66929975709354 -906.97968441727062 0 0 0 0 -267.83220650901785 -309.74677251044341 0 -309.74677251044341 -1293.5893988286261 0 0 0 0 -394.86769576260122 -364.72721230563911 0 -364.72721230563911 -818.62607088132063 0 0 0 0 -35.879307910361263 -22.520828755988902 0 -22.520828755988902 19.5086925718538 0 0 0 0 -368.77851148701302 -790.04094108121353 0 -790.04094108121353 -1625.8061765846214 0 0 0 0 -197.31396596488776 -375.71467886475148 0 -375.71467886475148 -1686.6710249354364 0 0 0 0 -233.58567383321679 -553.47702463576024 0 -553.47702463576024 -1366.3660899339884 0 0 0 0 -234.14558358177328 -555.13713442178232 0 -555.13713442178232 -1207.5835297775629 0 0 0 0 -306.4796220620774 -716.34079808996466 0 -716.34079808996466 -1346.5308178286941 0 0 0 0 -402.83974201166075 -748.92070297462124 0 -748.92070297462124 -1372.8695996211318 0 0 0 0 -356.85389608955302 -711.31221022669342 0 -711.31221022669342 -1343.1392219902191 0 0 0 0 -86.116123068077286 -518.87474344140355 0 -518.87474344140355 -1287.8073539669276 0 0 0 0 -241.51171177419019 -571.74484385290998 0 -571.74484385290998 -1232.7452609353641 0 0 0 0 -234.96763438645576 -560.53453038452426 0 -560.53453038452426 -1291.5865642820136 0 0 0 0 -137.47642499629001 -572.70822863125068 0 -572.70822863125068 -1234.1628941142699 0 0 0 0 -225.61429689379293 -637.61626570828957 0 -637.61626570828957 -1157.2709956250619 0 0 0 0 -319.20527388034679 -573.87633694335818 0 -573.87633694335818 -1196.1472236665577 0 0 0 0 -422.93820329377195 -615.10243153426563 0 -615.10243153426563 -1377.0985813038133 0 0 0 0 -517.43896533675434 -608.81120750040282 0 -608.81120750040282 -1299.8369476203807 0 0 0 0 -152.38097218513576 -397.98697945467575 0 -397.98697945467575 -1409.3071625115699 0 0 0 0 -10.192006393971383 -1.8518032345592417 0 -1.8518032345592417 6.631295392841281 0 0 0 0 -326.95678785683776 -257.1467312207169 0 -257.1467312207169 -1333.5179265616462 0 0 0 0 -306.21048723965941 -1231.3755241574981 0 -1231.3755241574981 -1242.5285479200102 0 0 0 0 6.5869370033378161 -11.967543097163812 0 -11.967543097163812 5.0780758141766 0 0 0 0 -1198.5209986353075 -303.471677000809 0 -303.471677000809 -1208.1358746831247 0 0 0 0 -607.87899053519504 -897.17458472431463 0 -897.17458472431463 -1256.6796789238288 0 0 0 0 -994.53818308374321 -712.14646794284636 0 -712.14646794284636 -1233.5649307721178 0 0 0 0 -254.41085816294799 -792.6302461373707 0 -792.6302461373707 -1260.1861627502658 0 0 0 0 -361.4124070215255 -495.90939369749481 0 -495.90939369749481 -1145.7154168660782 0 0 0 0 -392.4816660945944 -664.71578530530678 0 -664.71578530530678 -1398.7437544577406 0 0 0 0 -373.55370368379954 -741.62348041871155 0 -741.62348041871155 -1247.6117655607231 0 0 0 0 -369.99818594753742 -561.74250517256951 0 -561.74250517256951 -1049.948132415564 0 0 0 0 -608.20819544529445 -546.82975089120737 0 -546.82975089120737 -1087.6458371462177 0 0 0 0 -595.97299971546499 -172.587393060865 0 -172.587393060865 -1129.2600046244479 0 0 0 0 -14.372733159260671 -7.820233720674139 0 -7.820233720674139 -2.0067878920408475 0 0 0 0 196.60837094835824 -98.898923934149934 0 -98.898923934149934 -964.46473633413552 0 0 0 0 8.2983645869247553 -1.8875931095617347 0 -1.8875931095617347 -10.540715050855539 0 0 0 0 -1117.4267931370487 -1182.8652831216677 0 -1182.8652831216677 -1669.8809623688139 0 0 0 0 -632.74808179753018 -693.02263935904921 0 -693.02263935904921 -1281.8219146246702 0 0 0 0 -770.79665827966051 -718.26724721136998 0 -718.26724721136998 -1484.4320726071164 0 0 0 0 -34.154422602278281 -84.623240760390104 0 -84.623240760390104 44.981085198672815 0 0 0 0 -1061.3581170024399 -787.60317899396614 0 -787.60317899396614 -1355.6315350953955 0 0 0 0 -1270.1042170849178 -1457.6442915318476 0 -1457.6442915318476 -843.55963150427851 0 0 0 0 -863.05445110425353 -1000.6085403616089 0 -1000.6085403616089 -740.1552420871194 0 0 0 0 -3539.3657336242486 -410.80184507263493 0 -410.80184507263493 -22.645908094040351 0 0 0 0 1091.7660884556535 -674.22162278254473 0 -674.22162278254473 -1126.9283774279393 0 0 0 0 0.30111809318545113 -11.339714297226664 0 -11.339714297226664 0.24274847779719266 0 0 0 0 -1055.9144585856993 -425.38345747250423 0 -425.38345747250423 -920.20324180384341 0 0 0 0 -1096.7270398911933 -505.79670016594901 0 -505.79670016594901 -1456.8187015354779 0 0 0 0 -9.4971374145432925 -18.410978041057518 0 -18.410978041057518 -2.6221407953666471 0 0 0 0 -1352.3063157024444 -510.84858564472233 0 -510.84858564472233 -944.83938753922121 0 0 0 0 -2762.1321861287142 -306.74396822619747 0 -306.74396822619747 -1457.7954898373973 0 0 0 0 -2012.9563937089551 -1597.6252795377004 0 -1597.6252795377004 -1337.3602058764482 0 0 0 0 -2024.66998184775 -901.3179464785062 0 -901.3179464785062 -1240.8450997528271 0 0 0 0 -719.98391744574474 -739.94629069274743 0 -739.94629069274743 -1194.3536992131558 0 0 0 0 -1144.4831282383602 -937.17623237345106 0 -937.17623237345106 -1276.029763680388 0 0 0 0 -1272.9616748927947 -1304.1723400393239 0 -1304.1723400393239 -1263.4563072400524 0 0 0 0 -1529.8748250236677 -1696.8655678661526 0 -1696.8655678661526 -1514.7671499399876 0 0 0 0 -1791.3681785283552 -1939.2870976529812 0 -1939.2870976529812 -1624.3814120341922 0 0 0 0 -1642.5633504516809 -1718.6285975346182 0 -1718.6285975346182 -1066.9045342832687 0 0 0 0 -1561.5219952313946 -1926.530920919341 0 -1926.530920919341 -1618.7388793614955 0 0 0 0 -1660.8717868542299 -1696.9912812696275 0 -1696.9912812696275 -1134.2371519747248 0 0 0 0 -1433.2401708722609 -1670.8645494069569 0 -1670.8645494069569 -1224.743816991846 0 0 0 0 -1294.0748764161108 -1319.7597523565055 0 -1319.7597523565055 -897.16734237213677 0 0 0 0 -1272.0181567388208 -1424.3295782948408 0 -1424.3295782948408 -604.79278592141054 0 0 0 0 -816.10643131232064 -1048.4512406440335 0 -1048.4512406440335 -765.41457887990691 0 0 0 0 -1106.2672710904594 -975.76626047563832 0 -975.76626047563832 -425.72978931402031 0 0 0 0 -1114.4936193136673 -1209.7105304090728 0 -1209.7105304090728 -1082.1555871749079 0 0 0 0 -1386.03860562513 -1279.7323143367685 0 -1279.7323143367685 -770.75146595892875 0 0 0 0 -1450.0137089982709 -1532.5580032161615 0 -1532.5580032161615 -1259.8564101318771 0 0 0 0 -1206.8100507833005 -1144.6278030891954 0 -1144.6278030891954 -1195.6145130299992 0 0 0 0 -1155.957960515836 -968.20800448915907 0 -968.20800448915907 -721.15261215045757 0 0 0 0 -660.68674364709295 -846.61258499005999 0 -846.61258499005999 -902.32915228085767 0 0 0 0 -670.9149706766184 -704.47422938955788 0 -704.47422938955788 -314.57729464039585 0 0 0 0 -425.76574958914716 -653.92588980275468 0 -653.92588980275468 -393.32158656645333 0 0 0 0 -817.0821455556918 -1035.0003290776431 0 -1035.0003290776431 -72.481418893847149 0 0 0 0 -247.29848842911451 -1484.7546652752499 0 -1484.7546652752499 -471.78374267743493 0 0 0 0 -407.92650397582474 -694.46691821941567 0 -694.46691821941567 -301.31596363936842 0 0 0 0 64.037796127522597 -317.55552571995941 0 -317.55552571995941 -226.01018121033849 0 0 0 0 -286.53903475270636 -517.44135478285898 0 -517.44135478285898 -241.14930903995992 0 0 0 0 -371.03078819075017 -474.40448174143967 0 -474.40448174143967 -40.678517949207162 0 0 0 0 -109.2144282754889 -240.89287203366257 0 -240.89287203366257 -30.475780035660136 0 0 0 0 14.389456671080552 -388.39652693537937 0 -388.39652693537937 76.512684067318332 0 0 0 0 -35.76069668555283 -335.10270069360558 0 -335.10270069360558 -3.1721654124557972 0 0 0 0 168.37500034080585 -116.33918523747707 0 -116.33918523747707 -69.731899625454389 0 0 0 0 49.632897754258011 -190.03035078042012 0 -190.03035078042012 -55.297504415939329 0 0 0 0 -155.53016497430872 -340.41189548974944 0 -340.41189548974944 -63.735691841604421 0 0 0 0 390.55182711717498 -121.18035038291055 0 -121.18035038291055 -165.2819104102382 0 0 0 0 -128.46091316457159 -325.52719651903681 0 -325.52719651903681 -233.23308977729175 0 0 0 0 -192.82391437902697 -400.5351146588946 0 -400.5351146588946 -220.44510004304902 0 0 0 0 -126.98494898478384 -363.26073981133231 0 -363.26073981133231 -274.24158253963105 0 0 0 0 -146.55253848929715 -368.21285744963097 0 -368.21285744963097 -208.94988145647949 0 0 0 0 -202.12276805836518 -468.59998099679797 0 -468.59998099679797 -288.4838166605623 0 0 0 0 173.73467559254641 -112.76293205813272 0 -112.76293205813272 -354.11243975885736 0 0 0 0 -318.16207228622807 -557.18935564393178 0 -557.18935564393178 -389.2450192560209 0 0 0 0 -43.27713902890946 -395.24718737212152 0 -395.24718737212152 -308.80289416815504 0 0 0 0 -56.553982940647984 -289.13945938274264 0 -289.13945938274264 -218.62367908342276 0 0 0 0 -82.751089308352675 -319.33154227328487 0 -319.33154227328487 -250.22672140854411 0 0 0 0 -98.116433392075123 -286.2491549779661 0 -286.2491549779661 -187.6208188670571 0 0 0 0 172.55866935806444 -40.277261288541013 0 -40.277261288541013 74.416660395334475 0 0 0 0 27.847830725368112 -210.54508424158121 0 -210.54508424158121 209.6436591015663 0 0 0 0 -109.74793529245653 -291.16747973818565 0 -291.16747973818565 -187.87725727865472 0 0 0 0 -109.74793529236922 -291.16747973812744 0 -291.16747973812744 -187.8772572784801 0 0 0 0 -109.74793529241288 -291.16747973818565 0 -291.16747973818565 -187.87725727842189 0 0 0 0 36.244233641006645 -40.506739488797237 0 -40.506739488797237 26.653537422220381 0 0 0 0 358.43613941918738 351.57410513823561 0 351.57410513823561 -570.40924867868307 0 0 0 0 429.36410053126383 -244.45577373022388 0 -244.45577373022388 -515.2081803366309 0 0 0 0 408.1952014757444 -251.47413543158473 0 -251.47413543158473 -68.484146223141579 0 0 0 0 8.5780628603250353 -190.41752979166392 0 -190.41752979166392 -45.65878974750558 0 0 0 0 214.39201549906511 -389.79463296827998 0 -389.79463296827998 -573.91112641670043 0 0 0 0 492.15426918831508 -405.05136020901773 0 -405.05136020901773 -932.65704600664321 0 0 0 0 226.98145259849844 -10.360960543184774 0 -10.360960543184774 -492.01928102405509 0 0 0 0 357.26313415824552 -449.85746906023996 0 -449.85746906023996 -346.23628408808145 0 0 0 0 -1576.7981517234584 78.990056761758751 0 78.990056761758751 260.23635369587282 0 0 0 0 -2172.112646899448 -1412.8034071124639 0 -1412.8034071124639 -136.52761421404648 0 0 0 0 -681.8257530797855 -860.7936992780742 0 -860.7936992780742 -472.68227724730968 0 0 0 0 -551.59091378378071 -218.98722297276072 0 -218.98722297276072 -190.98832706955727 0 0 0 0 41.892832084500697 -394.68515905378445 0 -394.68515905378445 -198.88397011219058 0 0 0 0 -886.13494720957556 -718.85130207669545 0 -718.85130207669545 -1.0867805560264969 0 0 0 0 -966.78258442031438 -575.9413760025127 0 -575.9413760025127 133.67003555127303 0 0 0 0 -958.67353438644932 -499.00179343537457 0 -499.00179343537457 -81.455865056210314 0 0 0 0 -778.27175892826926 -572.65190755901858 0 -572.65190755901858 -73.65442232946225 0 0 0 0 -886.92773113843941 -732.91237683528016 0 -732.91237683528016 -145.88120154888747 0 0 0 0 -729.6251545286741 -477.41062951312779 0 -477.41062951312779 -105.05756934965029 0 0 0 0 -364.01714686043124 -387.96530986613652 0 -387.96530986613652 -154.41742278384481 0 0 0 0 -533.33295785321752 -572.62091561208945 0 -572.62091561208945 -227.52228001641924 0 0 0 0 -353.016899014714 -519.03213437386148 0 -519.03213437386148 -269.91911385700951 0 0 0 0 -165.35520340388757 -623.85423548916879 0 -623.85423548916879 -632.6544576100714 0 0 0 0 -162.65362420886959 -669.05978632096958 0 -669.05978632096958 -770.30306558636948 0 0 0 0 9.7174046154104872 -811.43739264269243 0 -811.43739264269243 -1274.6150000040361 0 0 0 0 -644.5544435284778 -724.69296993262196 0 -724.69296993262196 -539.01019800992799 0 0 0 0 -626.18839328976173 -696.28759370851913 0 -696.28759370851913 -381.83318638343189 0 0 0 0 -642.83563419386792 -749.14448516048651 0 -749.14448516048651 -526.95746533563943 0 0 0 0 -617.62859159201616 -897.93917210990912 0 -897.93917210990912 -770.12759407705744 0 0 0 0 -812.5815293846681 -1026.0514285266981 0 -1026.0514285266981 -802.45075086326688 0 0 0 0 -670.9453846139877 -859.30484272311878 0 -859.30484272311878 -1058.0416074213572 0 0 0 0 -712.45411833583785 -806.09247000598407 0 -806.09247000598407 -770.20986691834696 0 0 0 0 -880.28893193653857 -704.65646096879937 0 -704.65646096879937 -25.672658259427408 0 0 0 0 -602.00796334700135 -1182.8469045525271 0 -1182.8469045525271 -418.60907142933138 0 0 0 0 -572.83523915819569 -1484.9291126253574 0 -1484.9291126253574 -1738.7828220071533 0 0 0 0 82.520989944206946 -55.8337709024037 0 -55.8337709024037 21.460941559516868 0 0 0 0 -381.93655905723426 -855.21273149587796 0 -855.21273149587796 -1626.8564762364258 0 0 0 0 -476.06758875690321 -1187.9666895478258 0 -1187.9666895478258 -1288.9236947035242 0 0 0 0 19.175583490563287 -9.6251215019420613 0 -9.6251215019420613 1.5882807464781763 0 0 0 0 -923.6222858850233 -579.83307225373574 0 -579.83307225373574 -1256.5211993516132 0 0 0 0 16.352203093897344 6.3224272190038704 0 6.3224272190038704 -12.980262550083467 0 0 0 0 -516.48782982689954 -1129.1715622591873 0 -1129.1715622591873 -1270.498816228268 0 0 0 0 564.92304760297702 272.7447645124339 0 272.7447645124339 39.307752789492952 0 0 0 0 244.6449980409634 132.64059723902028 0 132.64059723902028 29.148117390317566 0 0 0 0 78.26111681782703 0.78176681984525942 0 0.78176681984525942 -43.42742416166837 0 0 0 0 -962.99610533019586 -801.8218997498916 0 -801.8218997498916 -965.06380352398264 0 0 0 0 461.1486322546516 -145.04757175736449 0 -145.04757175736449 -101.83450835227268 0 0 0 0 -1075.7408289956438 2205.6980136173661 0 2205.6980136173661 -488.31546730018454 0 0 0 0 545.64830311736659 -185.26108201463649 0 -185.26108201463649 -82.697718740513665 0 0 0 0 157.81632234111862 -6.5365003252011604 0 -6.5365003252011604 -59.059147916862827 0 0 0 0 1835.2453141046244 272.23888610803988 0 272.23888610803988 -1846.0804611105414 0 0 0 0 420.35034838221691 629.20976475581119 0 629.20976475581119 -1819.7321079747635 0 0 0 0 6.2268787396387779 -445.31920775522303 0 -445.31920775522303 -733.49283574274159 0 0 0 0 455.96367157028817 -977.08298798234318 0 -977.08298798234318 -1052.2310155710729 0 0 0 0 23.944385308906476 -312.94625627340793 0 -312.94625627340793 -1337.0549616005737 0 0 0 0 1299.4344218150413 -755.74054400010209 0 -755.74054400010209 -1240.1793490184646 0 0 0 0 -528.13764661320602 -712.03740721012582 0 -712.03740721012582 -739.79210903108788 0 0 0 0 -898.98036541746114 100.39375081636535 0 100.39375081636535 -545.91394972821581 0 0 0 0 -1152.9494405959995 -754.61170194447914 0 -754.61170194447914 -1001.5091778433271 0 0 0 0 -39.758068690803086 -34.058257948554512 0 -34.058257948554512 33.701678144552744 0 0 0 0 -1374.6055928231654 86.346380402530485 0 86.346380402530485 -2017.4628854979383 0 0 0 0 -834.48457889313795 -194.61448583032143 0 -194.61448583032143 434.05175020566094 0 0 0 0 787.01124436519967 75.09481196445995 0 75.09481196445995 -301.41529673431069 0 0 0 0 525.50723822536384 -80.562546287284931 0 -80.562546287284931 -178.65840624257544 0 0 0 0 -58.951512728875969 -762.61689600284444 0 -762.61689600284444 -453.63126046053367 0 0 0 0 166.93099776044983 -747.89747698592691 0 -747.89747698592691 -1174.9020661332179 0 0 0 0 574.30220958734208 -131.51611042131117 0 -131.51611042131117 -141.56281689007301 0 0 0 0 63.665365224852266 -195.11018356790214 0 -195.11018356790214 -25.577325832163467 0 0 0 0 -95.599687584974163 -825.03800850779953 0 -825.03800850779953 -658.70819979032967 0 0 0 0 -20.032462059698389 -35.252921566067599 0 -35.252921566067599 31.490117022488505 0 0 0 0 -614.14249409729382 -897.00589459111143 0 -897.00589459111143 -880.71940190083114 0 0 0 0 -133.99610365973786 -1074.1238836532284 0 -1074.1238836532284 -1714.1250910793742 0 0 0 0 -192.14717418851069 -311.82569029281694 0 -311.82569029281694 -1770.9361652616499 0 0 0 0 -99.502402065623755 -944.94884304021252 0 -944.94884304021252 -1060.6185334419279 0 0 0 0 73.989784239685889 -28.539901981532346 0 -28.539901981532346 -9.5726527815506302 0 0 0 0 -2474.2127529704812 -636.88741771802233 0 -636.88741771802233 -1247.3581142904804 0 0 0 0 96.193750411348447 -1485.1133360802178 0 -1485.1133360802178 -630.58434752070752 0 0 0 0 45.11904375562554 -145.11878060831549 0 -145.11878060831549 -35.349879407819003 0 0 0 0 -1330.4732751381525 -1130.5994986123478 0 -1130.5994986123478 -1248.6049658317061 0 0 0 0 1441.9488881955986 -1629.2601302399598 0 -1629.2601302399598 -769.1241325482697 0 0 0 0 676.87891980042332 -583.55233870835218 0 -583.55233870835218 824.08094539912418 0 0 0 0 1037.5711016563873 -31.578521565301344 0 -31.578521565301344 -1283.1113808121245 0 0 0 0 -13.021464220399025 -0.88912724364000439 0 -0.88912724364000439 12.483173310594907 0 0 0 0 -1219.2698172821638 -76.31947778778158 0 -76.31947778778158 -1283.7522489768453 0 0 0 0 1401.2778905256346 1124.5399987567507 0 1124.5399987567507 78.793454928207211 0 0 0 0 -308.31382622583624 -1085.4758615731262 0 -1085.4758615731262 -1067.0774578465061 0 0 0 0 22.872621484829764 -5.5665034068129273 0 -5.5665034068129273 0.78878959665811976 0 0 0 0 1158.8024295784962 659.68576051977288 0 659.68576051977288 -141.05673403893888 0 0 0 0 1301.3936759864901 612.47467383028561 0 612.47467383028561 -222.14094164673588 0 0 0 0 -1203.3463858652899 -712.7299853292534 0 -712.7299853292534 -176.59080357674975 0 0 0 0 780.42163169724518 -836.23149334138725 0 -836.23149334138725 -1257.9188010699836 0 0 0 0 596.63244654512528 -165.59804604688543 0 -165.59804604688543 -758.16600112841934 0 0 0 0 2109.61735465942 570.87487277929904 0 570.87487277929904 -791.02004242036492 0 0 0 0 -257.38366345233226 306.66188042330759 0 306.66188042330759 -472.91801639663754 0 0 0 0 566.03191391033033 127.3335261088796 0 127.3335261088796 -1092.2061039096816 0 0 0 0 958.39472926601957 -584.71133779346565 0 -584.71133779346565 -650.92209194184397 0 0 0 0 637.77725007754634 -163.23890021590523 0 -163.23890021590523 12.298325272975489 0 0 0 0 1222.2944308285441 -74.595438339027169 0 -74.595438339027169 -439.15119908179622 0 0 0 0 893.19435124209485 -410.95706112925836 0 -410.95706112925836 -1112.9513628737432 0 0 0 0 27.451927158391214 -135.07775276745448 0 -135.07775276745448 -25.229382540648146 0 0 0 0 349.5113794172812 -731.49761654348549 0 -731.49761654348549 -467.92069646677555 0 0 0 0 692.22115899939308 -307.6212239006345 0 -307.6212239006345 -41.351725652551977 0 0 0 0 672.20663216037792 -362.44666403748852 0 -362.44666403748852 -312.37911585382244 0 0 0 0 674.51969353906679 -384.1979201245922 0 -384.1979201245922 -333.7366734216921 0 0 0 0 5464.1854370303336 -921.05462519512366 0 -921.05462519512366 -2116.1505960797076 0 0 0 0 1421.3831504907575 -1233.4727892332157 0 -1233.4727892332157 -564.26766926934579 0 0 0 0 694.56928299579886 -762.84320412363741 0 -762.84320412363741 -475.10393472358919 0 0 0 0 2231.3443316396551 1141.4065694480305 0 1141.4065694480305 -219.59539496258367 0 0 0 0 -1123.1000682711347 -379.52758702778738 0 -379.52758702778738 177.44127163811936 0 0 0 0 -1126.1546008925652 -282.16895007167477 0 -282.16895007167477 -1254.1337485206263 0 0 0 0 -3534.8769734483976 -674.66288244763473 0 -674.66288244763473 459.98325275386742 0 0 0 0 -4312.4783277546085 -828.47533639048925 0 -828.47533639048925 -89.997416901876932 0 0 0 0 -1841.1344864355342 -845.87801730669162 0 -845.87801730669162 -98.210704428085592 0 0 0 0 -2185.1704421321192 -1687.3450173056626 0 -1687.3450173056626 531.27427517186152 0 0 0 0 3454.282547121511 -3214.9368871861298 0 -3214.9368871861298 -1439.7960163812677 0 0 0 0 998.09834046880133 -3587.254062381071 0 -3587.254062381071 -461.80658133968245 0 0 0 0 -3043.4028081911965 -2771.7658327456447 0 -2771.7658327456447 -409.77984365210523 0 0 0 0 -2424.4120233876893 -3333.9008912595455 0 -3333.9008912595455 -906.5153717296489 0 0 0 0 -1564.3761954878864 -3278.2913059347484 0 -3278.2913059347484 -2243.6619535220307 0 0 0 0 -3161.4259350738139 -2965.929799471327 0 -2965.929799471327 -683.36324916704325 0 0 0 0 -3868.3686697740777 -2250.1631470212888 0 -2250.1631470212888 -1508.1504238555353 0 0 0 0 -4247.7672750065394 -4333.9140955065086 0 -4333.9140955065086 -2315.4252113661541 0 0 0 0 -2549.8622425147041 -2185.6665214755049 0 -2185.6665214755049 -1567.7316521317043 0 0 0 0 -2715.5636347406471 -1997.70312131424 0 -1997.70312131424 -2032.3539630450105 0 0 0 0 -2621.5889149176292 -2234.8761174430547 0 -2234.8761174430547 -2072.7743026987737 0 0 0 0 -2996.1282339873505 -2513.535005951544 0 -2513.535005951544 -2231.9414029201434 0 0 0 0 -8087.8831418015761 -2998.5987472279521 0 -2998.5987472279521 -606.00835864403052 0 0 0 0 2.1411345988074117 -21.777682987988214 0 -21.777682987988214 -3.1699216319806851 0 0 0 0 -4852.2324520672555 -2373.3216151237866 0 -2373.3216151237866 -1667.2407856979407 0 0 0 0 -3639.3825519348029 -2172.9290988500434 0 -2172.9290988500434 -1643.1629469339096 0 0 0 0 -5110.2172392621069 -992.63887429295755 0 -992.63887429295755 -1209.9172629492532 0 0 0 0 -4095.0719482981076 -733.44486048938415 0 -733.44486048938415 -1180.3765995141293 0 0 0 0 1025.8899875871793 -905.09475597932033 0 -905.09475597932033 -429.7890786461212 0 0 0 0 -4539.1161599477055 -407.88022947061836 0 -407.88022947061836 -1310.7509062441823 0 0 0 0 -909.82062958646566 -1670.8201382324187 0 -1670.8201382324187 -913.35896091592076 0 0 0 0 1.6924762900188881 -9.4410427482380754 0 -9.4410427482380754 7.2981884932214598 0 0 0 0 -4.6289842689076863 -42.896905766079641 0 -42.896905766079641 2.5648078735827653 0 0 0 0 -3210.8801423428522 -1901.6149395597968 0 -1901.6149395597968 -1568.7076490745967 0 0 0 0 -2379.4812250681716 -1381.1269324069799 0 -1381.1269324069799 -1916.2290966748988 0 0 0 0 -3235.9783194325282 -1704.1867093905748 0 -1704.1867093905748 -1663.1381097652265 0 0 0 0 -1635.2862636257632 -1188.7862608952273 0 -1188.7862608952273 -1525.9280346646556 0 0 0 0 -2698.2451970235852 -1543.1469415683096 0 -1543.1469415683096 -1641.9803502587456 0 0 0 0 -1331.370875715118 -290.92702665210891 0 -290.92702665210891 -1604.2991121082305 0 0 0 0 -2398.9625005270409 -132.10235212954922 0 -132.10235212954922 -1611.9803716627066 0 0 0 0 -1934.1516308657301 -1815.1539477155748 0 -1815.1539477155748 -1726.2700531298324 0 0 0 0 -1706.5807674199823 -2101.0253278972286 0 -2101.0253278972286 -2086.8941512091696 0 0 0 0 -1811.278693884844 -1673.7149484406254 0 -1673.7149484406254 -1894.2148396552657 0 0 0 0 -1640.4383112809737 -1780.5372123752459 0 -1780.5372123752459 -1859.5799010780756 0 0 0 0 -2186.7557665678742 -1957.4399904854008 0 -1957.4399904854008 -2102.2057464505051 0 0 0 0 -2160.4174388434039 -1914.9051132377645 0 -1914.9051132377645 -2128.144082970226 0 0 0 0 -2082.6183968701116 -2366.6368860434413 0 -2366.6368860434413 -2578.1538964765641 0 0 0 0 -1799.1501279661752 -1911.0744400339245 0 -1911.0744400339245 -2216.5832000124938 0 0 0 0 -1932.579954457764 -2094.6145187761249 0 -2094.6145187761249 -2287.7709966842085 0 0 0 0 -2055.3137252088345 -2231.2057718440046 0 -2231.2057718440046 -2310.0443342046019 0 0 0 0 -2475.1835384180013 -2085.5844022701858 0 -2085.5844022701858 -1410.5480676130792 0 0 0 0 -2289.3333343381819 -2455.1263987803468 0 -2455.1263987803468 -1541.8299827520823 0 0 0 0 -1939.363603576734 -2666.9242066430452 0 -2666.9242066430452 -1329.7890419088653 0 0 0 0 -1752.6387891610648 -2337.1360131566835 0 -2337.1360131566835 -1344.0382658277531 0 0 0 0 -1841.9236642620599 -2673.8588000678283 0 -2673.8588000678283 -840.22880075201101 0 0 0 0 -2289.9645891902037 -2408.7532409313935 0 -2408.7532409313935 -636.50091786561279 0 0 0 0 -2354.1585378112868 -2432.7912313156667 0 -2432.7912313156667 -640.55916679656366 0 0 0 0 -2451.3645972786471 -2392.2364539480113 0 -2392.2364539480113 -532.21494536198225 0 0 0 0 -2809.1483317516177 -2330.9247033220199 0 -2330.9247033220199 -461.19852724298835 0 0 0 0 -2589.9958011591443 -2517.3730662793059 0 -2517.3730662793059 -250.65632721507427 0 0 0 0 -2456.8573968163255 -2365.9191699308794 0 -2365.9191699308794 127.55451434913266 0 0 0 0 55.813568728292012 -4589.2425645433505 0 -4589.2425645433505 -762.10761800705222 0 0 0 0 -783.2962121413002 -2341.2198294135596 0 -2341.2198294135596 -712.43183271569433 0 0 0 0 121.16482461734267 -1352.4080516705726 0 -1352.4080516705726 -262.75568034259777 0 0 0 0 -2960.2313988324349 -1599.2827554739779 0 -1599.2827554739779 -237.11697520945745 0 0 0 0 -2801.3060939624884 -2798.2941528198098 0 -2798.2941528198098 -366.05505125141644 0 0 0 0 -2303.8073776447854 -2365.3827259220416 0 -2365.3827259220416 -526.56368747923989 0 0 0 0 -3923.6131842956456 -2435.3493303530267 0 -2435.3493303530267 -472.64504301231864 0 0 0 0 -3604.321379143541 -1247.8426670563713 0 -1247.8426670563713 -752.57168761190405 0 0 0 0 -3081.7911973433256 -2805.684774468562 0 -2805.684774468562 -807.99766747903777 0 0 0 0 -2385.8359906165279 -3250.610940575767 0 -3250.610940575767 -870.65475005832559 0 0 0 0 -3123.0569778554345 -2823.1331968362065 0 -2823.1331968362065 -586.53771528870129 0 0 0 0 -1818.0344855902949 -2893.162660597678 0 -2893.162660597678 -877.54703538046306 0 0 0 0 -2294.079888390901 -2982.9147079428076 0 -2982.9147079428076 -781.64474047204567 0 0 0 0 -1713.851189468689 -2715.5265265542839 0 -2715.5265265542839 -837.79276938148541 0 0 0 0 -2333.0322004088084 -2783.9255893815935 0 -2783.9255893815935 -626.52537443858819 0 0 0 0 837.70912057233727 -530.6505281527061 0 -530.6505281527061 -1091.6601184921019 0 0 0 0 1064.8732234796416 -161.74325258248791 0 -161.74325258248791 -836.54909972393943 0 0 0 0 1021.5327899499571 -146.64991500216274 0 -146.64991500216274 -815.53997848162544 0 0 0 0 1122.1207585507964 51.357178441088763 0 51.357178441088763 -431.47658152709482 0 0 0 0 27.055812757954868 -123.13538694524594 0 -123.13538694524594 -29.759398852171444 0 0 0 0 1864.3953947005357 -80.473227812864934 0 -80.473227812864934 -1077.9316930351197 0 0 0 0 -5259.685022727157 -1005.8292515135036 0 -1005.8292515135036 -807.42508004972478 0 0 0 0 -5224.1516693277517 -1161.3383248739265 0 -1161.3383248739265 -1277.0398880743887 0 0 0 0 -3763.4040956876379 -945.53690207217187 0 -945.53690207217187 -1445.6416016693984 0 0 0 0 2576.2047898438468 -2246.0101422646185 0 -2246.0101422646185 -1686.9542004428804 0 0 0 0 -1.3032223066524082 -17.698032480468896 0 -17.698032480468896 -4.1686390206781994 0 0 0 0 -1850.365217426639 -3016.2410513769137 0 -3016.2410513769137 -1852.8287541933532 0 0 0 0 -8095.6829668475693 -2729.7223928405801 0 -2729.7223928405801 -731.37992694454442 0 0 0 0 -0.72492993091918123 -35.624386453464012 0 -35.624386453464012 -8.4178601737316399 0 0 0 0 -5611.1376730180145 -1274.925390623881 0 -1274.925390623881 -1026.778963915538 0 0 0 0 -2918.8055757084876 -1680.741000568778 0 -1680.741000568778 -491.43927016408998 0 0 0 0 -4599.7341632299431 -736.83207343929826 0 -736.83207343929826 -895.83397830536705 0 0 0 0 -5463.1317923816241 -897.52430225125136 0 -897.52430225125136 -342.78357865815633 0 0 0 0 -5461.1683800158844 -851.67785074203493 0 -851.67785074203493 -1324.6056492696225 0 0 0 0 22.250389256375911 -107.03061716670869 0 -107.03061716670869 -25.91397997888771 0 0 0 0 -5317.2957776799303 -1130.8400469829867 0 -1130.8400469829867 -1031.8845360869309 0 0 0 0 16.73992276405713 -84.472952579069926 0 -84.472952579069926 -20.441238572416694 0 0 0 0 -6363.8660481463885 -926.8738675196073 0 -926.8738675196073 -227.98656442908396 0 0 0 0 2907.6222254761487 -483.49677533349313 0 -483.49677533349313 -828.28590709309356 0 0 0 0 1716.4696196147233 -98.850776343373582 0 -98.850776343373582 -832.64828955219855 0 0 0 0 1248.9500067051431 -392.77389731398944 0 -392.77389731398944 -916.15901894550188 0 0 0 0 2421.0652150153655 -834.34734811100861 0 -834.34734811100861 80.452154321741546 0 0 0 0 4351.8446215438744 92.917330286552897 0 92.917330286552897 -475.52581092000764 0 0 0 0 1977.7203555984711 -34.615766981932211 0 -34.615766981932211 109.8550639738678 0 0 0 0 -5482.3569124600399 -874.89870584935124 0 -874.89870584935124 -674.89188470276713 0 0 0 0 -7127.7141144195812 -1371.9431101068694 0 -1371.9431101068694 157.15324981941376 0 0 0 0 10.189679611923525 -54.669141135081773 0 -54.669141135081773 -13.219875989670356 0 0 0 0 -3830.425684591246 -760.55352804638824 0 -760.55352804638824 -867.71500820640358 0 0 0 0 -5499.3448939603222 -846.60744729977705 0 -846.60744729977705 -57.464550282602431 0 0 0 0 -5594.0359468403767 -1264.3307473177847 0 -1264.3307473177847 -782.44401334795111 0 0 0 0 -5522.4978776324278 -1695.6516585835161 0 -1695.6516585835161 -395.9365291261638 0 0 0 0 -1.9784014139218158 -36.481825195424278 0 -36.481825195424278 -8.6027025895002112 0 0 0 0 -7896.7651487134644 -1700.8972426577566 0 -1700.8972426577566 -197.92117926213541 0 0 0 0 -5.5686382186703618 -28.031349921228085 0 -28.031349921228085 -6.5533975511874019 0 0 0 0 -6247.2964018293787 -2035.9822663440718 0 -2035.9822663440718 -672.22936879181361 0 0 0 0 -8560.4586125426795 -1362.583915640098 0 -1362.583915640098 -451.63813790341374 0 0 0 0 -10224.830058403611 -2164.8222197195064 0 -2164.8222197195064 465.24046388310671 0 0 0 0 -8562.5476361899709 -2623.4427114596401 0 -2623.4427114596401 -0.76903284006402828 0 0 0 0 -2663.6577154052102 -483.82728086021234 0 -483.82728086021234 -793.81186859749141 0 0 0 0 -4733.2750516945343 -2133.6710135520261 0 -2133.6710135520261 -0.22647246590349823 0 0 0 0 -10.768629925907337 -11.089446166189035 0 -11.089446166189035 -2.4721403225991025 0 0 0 0 -5067.707550522362 -727.19682041554915 0 -727.19682041554915 566.87060817948077 0 0 0 0 -5126.289586559441 -1283.3459908531086 0 -1283.3459908531086 -1089.3667663088127 0 0 0 0 -7751.2432105984954 -2250.4931275964555 0 -2250.4931275964555 1.6957622649788391 0 0 0 0 -6055.0429222773892 -291.85676628895453 0 -291.85676628895453 298.39368755354371 0 0 0 0 6141.0230761990251 -237.14093141167541 0 -237.14093141167541 -681.74077609190135 0 0 0 0 2.1835364659454761 -18.443410308689693 0 -18.443410308689693 -3.7223434010089704 0 0 0 0 3857.9630606593273 -1183.9481908121088 0 -1183.9481908121088 0.16213376695303836 0 0 0 0 3963.3628182164757 275.05336741899373 0 275.05336741899373 79.80094372336653 0 0 0 0 -2685.9604184588025 -2938.0237004997834 0 -2938.0237004997834 -934.81614470248314 0 0 0 0 -3275.33313874327 -3323.4919136361204 0 -3323.4919136361204 -745.44455871247919 0 0 0 0 -2576.9191484567282 -3401.9237851685284 0 -3401.9237851685284 -532.59797740641807 0 0 0 0 -2114.0098742696573 -3367.6699941482402 0 -3367.6699941482402 -892.28535562200705 0 0 0 0 -2346.1959219658675 -2990.9948564678707 0 -2990.9948564678707 -907.18664668670681 0 0 0 0 -4117.4364248728743 -2378.1418986792414 0 -2378.1418986792414 -708.33018549080953 0 0 0 0 -4550.7341739112671 -2741.760575285396 0 -2741.760575285396 -688.35370152308315 0 0 0 0 -6270.0267419507582 -2071.8353234967653 0 -2071.8353234967653 -576.77281158315418 0 0 0 0 -4359.5856273057798 -2777.6022009260646 0 -2777.6022009260646 -830.85408783477033 0 0 0 0 -4352.7652399197723 -3123.1293355406224 0 -3123.1293355406224 -311.46763490934973 0 0 0 0 -6461.589061005805 -2298.9145896317641 0 -2298.9145896317641 -219.72040523387841 0 0 0 0 -6448.6671324553463 -2126.1732652954961 0 -2126.1732652954961 -756.23447571569704 0 0 0 0 -4936.0854638137098 -3158.3976247982791 0 -3158.3976247982791 -0.49554826259554829 0 0 0 0 -4033.4277347929201 -2566.2517314760335 0 -2566.2517314760335 -528.91624098570901 0 0 0 0 -3002.3964446211976 -3498.6927117937703 0 -3498.6927117937703 -0.57770797582634259 0 0 0 0 -2419.6511352812231 -3094.4581885135558 0 -3094.4581885135558 -315.28080933851015 0 0 0 0 -1424.1823406239928 -3748.4000455421192 0 -3748.4000455421192 -0.12830320603097789 0 0 0 0 -376.31225607451051 -3474.0462911150098 0 -3474.0462911150098 -493.07096939135226 0 0 0 0 -1346.6706574338023 -3521.5418563423664 0 -3521.5418563423664 -370.08838416541403 0 0 0 0 -1347.940404442299 -3543.924178649133 0 -3543.924178649133 -680.1863246075809 0 0 0 0 -1087.7629061920879 -3243.7092023023997 0 -3243.7092023023997 -983.64717966095486 0 0 0 0 -1133.106179118302 -3444.7707987991744 0 -3444.7707987991744 -962.55937754282786 0 0 0 0 265.21843251647078 -3580.2767704010184 0 -3580.2767704010184 -1021.1409070784575 0 0 0 0 -724.1385174525858 -3458.0107867366241 0 -3458.0107867366241 -1078.6344887097839 0 0 0 0 106.1240901965939 -2905.9279515928501 0 -2905.9279515928501 -1474.6181585340382 0 0 0 0 -1048.1293144288138 -3135.0731445168276 0 -3135.0731445168276 -1100.3961593601925 0 0 0 0 118.13347210679785 -2904.2612849210491 0 -2904.2612849210491 -1644.3733772263658 0 0 0 0 1787.0389489040754 -3326.4548168044421 0 -3326.4548168044421 -1569.4007562647857 0 0 0 0 236.30231178099439 -3444.0260574384183 0 -3444.0260574384183 -858.64794135504053 0 0 0 0 2119.6274191919583 -3458.5905530389064 0 -3458.5905530389064 -949.07359184609595 0 0 0 0 33.105987889302924 -4095.651427858149 0 -4095.651427858149 -0.65688104939181358 0 0 0 0 2934.6981990226996 -4712.9027788587337 0 -4712.9027788587337 2.0311349409457762 0 0 0 0 6978.1504671915682 -2224.2465057598893 0 -2224.2465057598893 -2264.5629577098298 0 0 0 0 86.765316566947149 -2.1145352312596515 0 -2.1145352312596515 -0.24678130242682528 0 0 0 0 4865.9586762694398 1773.1803637304711 0 1773.1803637304711 -259.25223931054643 0 0 0 0 39.236084214917923 -4.9113293799585449 0 -4.9113293799585449 1.1816138157057594 0 0 0 0 658.65448294315138 -124.50280109290179 0 -124.50280109290179 -736.43265959594282 0 0 0 0 3054.7984764161665 156.58173016127694 0 156.58173016127694 -1520.830629257398 0 0 0 0 3034.8318738127127 -2431.533718466686 0 -2431.533718466686 -2132.2478535296395 0 0 0 0 -637.21456403005868 -288.94300019780349 0 -288.94300019780349 0.09157856173987966 0 0 0 0 74.334628655358756 -69.96363879827004 0 -69.96363879827004 -242.85605089715682 0 0 0 0 14.377498308465832 -10.633230849093792 0 -10.633230849093792 -3.4025520207983391 0 0 0 0 -2118.9782253446465 -62.148793000116711 0 -62.148793000116711 -540.40440365456743 0 0 0 0 -1040.7600959292613 -857.98933588518412 0 -857.98933588518412 -795.64888526173308 0 0 0 0 128.54197564549395 -287.51419573571184 0 -287.51419573571184 -432.69357331817446 0 0 0 0 97.076458680258611 -33.243895119004662 0 -33.243895119004662 4.1191965167401463 0 0 0 0 -49.277634335565381 -192.01320865127491 0 -192.01320865127491 -213.90651783411886 0 0 0 0 210.91881489894877 -529.04736734698236 0 -529.04736734698236 -717.88485445905826 0 0 0 0 590.15177671853053 -387.61995229801869 0 -387.61995229801869 -752.43188061736873 0 0 0 0 221.45631819355185 -396.66645170647826 0 -396.66645170647826 -1199.0855739550316 0 0 0 0 -232.3030361298006 -508.08273172198096 0 -508.08273172198096 -416.9718704426341 0 0 0 0 -123.53721545514418 -407.8480607442325 0 -407.8480607442325 -481.44344201427884 0 0 0 0 -198.12260015781067 -660.18912168208772 0 -660.18912168208772 234.71699113555951 0 0 0 0 12.1046352468002 -51.080496154159391 0 -51.080496154159391 -8.1867531700108955 0 0 0 0 -230.68801275880833 -378.01629745629907 0 -378.01629745629907 -281.57076586293988 0 0 0 0 30.656431385924805 -85.021709264592261 0 -85.021709264592261 29.773368107145018 0 0 0 0 32.866406548883063 -76.379815986372193 0 -76.379815986372193 -24.740507790392257 0 0 0 0 -1038.6097710141403 -191.89964273466467 0 -191.89964273466467 -1194.4563971290045 0 0 0 0 -193.63634816168633 -2.8842390251957113 0 -2.8842390251957113 -2552.8716844222326 0 0 0 0 -386.17227854228258 -325.52785848209896 0 -325.52785848209896 -971.37984176230384 0 0 0 0 651.55237356011639 -65.927207163374987 0 -65.927207163374987 -1192.8269737929804 0 0 0 0 -508.96176619347534 -512.05478558971663 0 -512.05478558971663 -1447.6083966856095 0 0 0 0 375.59415424562758 -411.28442560726398 0 -411.28442560726398 -1475.5868106973503 0 0 0 0 -593.45880042726822 -1372.7227277318652 0 -1372.7227277318652 -1921.4832031580299 0 0 0 0 658.76092240399157 -889.66473570669041 0 -889.66473570669041 -1787.2839805498952 0 0 0 0 -470.01631749259832 -415.46195946105581 0 -415.46195946105581 -1277.500254861312 0 0 0 0 -920.51050478030811 -455.33924986840066 0 -455.33924986840066 -1280.4208568524482 0 0 0 0 1935.1416826476052 -2009.9808161267269 0 -2009.9808161267269 -2031.2057564799325 0 0 0 0 1320.8936657331433 -882.55219691301681 0 -882.55219691301681 -1828.1824639213883 0 0 0 0 687.90821324677381 -843.51621339400299 0 -843.51621339400299 -1829.8858106683174 0 0 0 0 1589.7557773024801 -1221.4222161616653 0 -1221.4222161616653 -2150.5430374705466 0 0 0 0 1188.5390208823083 -2074.7918429124038 0 -2074.7918429124038 -1938.1173471612128 0 0 0 0 498.62244551908952 -1179.0326123966734 0 -1179.0326123966734 -2058.7914849698718 0 0 0 0 694.99658556537906 -939.60280102509569 0 -939.60280102509569 -1926.0353108440177 0 0 0 0 62.057270150267868 -1360.2883548227983 0 -1360.2883548227983 -1769.4486539343052 0 0 0 0 253.22591547948832 -873.31128259793331 0 -873.31128259793331 -1889.3944387925585 0 0 0 0 638.93361217030906 -1348.524044938189 0 -1348.524044938189 -1862.4851134752389 0 0 0 0 289.20443861801687 -1979.0241565594515 0 -1979.0241565594515 -1775.761940499302 0 0 0 0 -2194.8885206407431 -1490.2869298520854 0 -1490.2869298520854 -1947.08914882307 0 0 0 0 816.97787558556593 -1081.5202450745201 0 -1081.5202450745201 -2235.8855661665002 0 0 0 0 1438.3646156446339 -766.72841703340964 0 -766.72841703340964 -2257.8656626788143 0 0 0 0 434.47276952512038 -964.90239076060243 0 -964.90239076060243 -1927.9765239416483 0 0 0 0 764.67621313016571 -389.60493864079763 0 -389.60493864079763 -2056.0256371313008 0 0 0 0 -2721.287970030724 -615.06935646664715 0 -615.06935646664715 -2674.7441456687811 0 0 0 0 -2561.3753555407093 -684.42772179622989 0 -684.42772179622989 -3253.0922969786334 0 0 0 0 -1.3509767007280979 -9.8245609943342771 0 -9.8245609943342771 0.4400350983402177 0 0 0 0 -1741.7712852311306 -19.992147209155519 0 -19.992147209155519 -1164.5237896691178 0 0 0 0 -1867.2009252857315 681.05242624867969 0 681.05242624867969 -2812.8717766570335 0 0 0 0 27.657108469205014 -14.791893714653412 0 -14.791893714653412 10.173540600950446 0 0 0 0 37.200103852199391 1279.3553873408819 0 1279.3553873408819 -3190.2731272459496 0 0 0 0 -1012.8495593055122 464.00361548749788 0 464.00361548749788 -2795.7364054583595 0 0 0 0 -29.133464640808398 10.045406610793691 0 10.045406610793691 17.2173037582142 0 0 0 0 65.311116505385144 -317.20360166897444 0 -317.20360166897444 -2063.5124263316338 0 0 0 0 162.54847934057761 -104.01887612697465 0 -104.01887612697465 -1773.5249060804272 0 0 0 0 -756.56441640295088 -36.029343174945097 0 -36.029343174945097 -1119.1728168655973 0 0 0 0 -2.3662570014185054 -18.135625231698995 0 -18.135625231698995 0.81230181533163659 0 0 0 0 -1883.1043523682238 49.724229733921675 0 49.724229733921675 697.86807064438472 0 0 0 0 -325.44195138296345 -488.63916504850204 0 -488.63916504850204 -1511.3405399245385 0 0 0 0 -838.57437330253015 313.26412446057657 0 313.26412446057657 -940.25928628828842 0 0 0 0 -193.91495110313554 -1753.8541687679644 0 -1753.8541687679644 -1657.4629132571281 0 0 0 0 -582.1577242633939 -1337.7296546804137 0 -1337.7296546804137 -1676.9984975424013 0 0 0 0 -267.88434383567073 -847.9173805831233 0 -847.9173805831233 -1614.8898397078447 0 0 0 0 -1.928982641951734 -854.50016410922217 0 -854.50016410922217 -1876.9108710103028 0 0 0 0 -755.74496438997448 -956.27742693143955 0 -956.27742693143955 -1638.6889653602411 0 0 0 0 -889.40237253652595 -1534.5025229368912 0 -1534.5025229368912 -1719.0043107081037 0 0 0 0 -759.0086033689804 -2155.3993776150637 0 -2155.3993776150637 -1500.8591643129839 0 0 0 0 -706.96164048763603 -2198.0379302176298 0 -2198.0379302176298 -1593.0508054546372 0 0 0 0 -578.66079381941381 -2435.3804101151691 0 -2435.3804101151691 -1254.8110657981488 0 0 0 0 -803.06196163997811 -1980.0999187947018 0 -1980.0999187947018 -1153.099012892515 0 0 0 0 -1691.5088776897292 -2624.9381084583465 0 -2624.9381084583465 -585.69387342892878 0 0 0 0 -1126.2824690725538 -2231.8963513221606 0 -2231.8963513221606 -767.87340973510436 0 0 0 0 -756.88683572217269 -2598.9232483966043 0 -2598.9232483966043 -1282.3581942108722 0 0 0 0 -823.31991103947439 -2677.777770241104 0 -2677.777770241104 -1290.718281464171 0 0 0 0 -986.07564226067188 -3021.8732917359812 0 -3021.8732917359812 -1107.315707107613 0 0 0 0 -1694.2691473826162 -3095.2559671391446 0 -3095.2559671391446 -1020.9954886678461 0 0 0 0 -344.29909445278463 -2933.2816945935265 0 -2933.2816945935265 -1476.2465216978271 0 0 0 0 678.10804537763033 -2704.5023838465349 0 -2704.5023838465349 -1690.5975200690009 0 0 0 0 784.94742920529097 -1931.491887670687 0 -1931.491887670687 -1887.1568292772863 0 0 0 0 -242.95253201293235 -1807.3269533757339 0 -1807.3269533757339 -1713.635270221348 0 0 0 0 -148.2013643906248 -2361.3552592566148 0 -2361.3552592566148 -1566.2684842010349 0 0 0 0 -149.51006097166101 -2429.2623608079957 0 -2429.2623608079957 -1656.4206009406334 0 0 0 0 -35.505493472373928 -1148.0821235435888 0 -1148.0821235435888 -358.23343564409879 0 0 0 0 -2.4378759903192986 -1539.8886007330639 0 -1539.8886007330639 -1398.7069637160457 0 0 0 0 -437.57950078071735 -234.20115098480346 0 -234.20115098480346 -560.98590403154958 0 0 0 0 -28.985183122220519 -7.6184522512832586 0 -7.6184522512832586 33.360163084015653 0 0 0 0 -179.59097339314758 -2166.7747524878359 0 -2166.7747524878359 -842.07690182388251 0 0 0 0 -56.828334398174775 -84.9669342749512 0 -84.9669342749512 -90.329395017761271 0 0 0 0 11.860039431169781 -23.715241585740216 0 -23.715241585740216 -17.005913113391216 0 0 0 0 -160.38862079309183 -104.7645782566542 0 -104.7645782566542 45.301118895469699 0 0 0 0 -68.059914110112004 -12.002352897558012 0 -12.002352897558012 -16.429579090283369 0 0 0 0 -24.431093605210719 -4.8913696835584801 0 -4.8913696835584801 34.983349405195554 0 0 0 0 -119.10731199985457 -152.89152380036467 0 -152.89152380036467 -72.909110721171601 0 0 0 0 -3591.3711529557186 3.704544583997631 0 3.704544583997631 366.12073092497303 0 0 0 0 -2.3645895471269114 -10.278901795155207 0 -10.278901795155207 12.038149966679555 0 0 0 0 -534.29650365186535 -2403.9198829945817 0 -2403.9198829945817 173.13754505908582 0 0 0 0 1.5522632581590301 -6.7860494557374977 0 -6.7860494557374977 2.9653763548772076 0 0 0 0 -6613.3215315371926 -575.87840990682889 0 -575.87840990682889 -3449.4909268155134 0 0 0 0 -3.6938881308288387 -9.7300497037703622 0 -9.7300497037703622 -3.463046624497224 0 0 0 0 -1449.8143177447782 -4837.1885123985412 0 -4837.1885123985412 -3.386360978387529 0 0 0 0 499.03822537897213 51.05348759932167 0 51.05348759932167 -1269.9427760870894 0 0 0 0 -3850.9584821415192 -996.17410681159527 0 -996.17410681159527 -1019.1385607187694 0 0 0 0 2.3715560166454566 -9.9745994290267959 0 -9.9745994290267959 -6.8657740471926445 0 0 0 0 -2845.2260989741771 -2032.9582210393564 0 -2032.9582210393564 -12.167119000487791 0 0 0 0 -1321.848162447568 -1162.003346703561 0 -1162.003346703561 -2392.600935133989 0 0 0 0 -1951.6574905543239 -398.91549357541953 0 -398.91549357541953 -3255.040660337283 0 0 0 0 7.0974187400635174 -30.279674598026645 0 -30.279674598026645 0.81104172374311645 0 0 0 0 19.868811100561288 -45.319474904856179 0 -45.319474904856179 -40.986471639946103 0 0 0 0 -3729.3581938912394 -933.13582990587383 0 -933.13582990587383 -96.600075683789328 0 0 0 0 9.281017205860536 -22.560686700050496 0 -22.560686700050496 2.4687657142873718 0 0 0 0 -113.73985967010958 -49.283919843866897 0 -49.283919843866897 10.322132569766836 0 0 0 0 -83.316907109416206 -93.971238374695531 0 -93.971238374695531 68.981192815204849 0 0 0 0 -107.51143584222882 -132.96860520881455 0 -132.96860520881455 -62.831695286155082 0 0 0 0 -380.14573129956261 -164.8615849398775 0 -164.8615849398775 -1.7863241076847771 0 0 0 0 16.869503691223997 -35.09502694294352 0 -35.09502694294352 -11.348023948597572 0 0 0 0 -798.21054757649108 307.32073458777813 0 307.32073458777813 -1.7872515400958946 0 0 0 0 -687.52388851159776 404.92805386175314 0 404.92805386175314 -1004.7640302963846 0 0 0 0 7.755557826605866 -32.946795660235153 0 -32.946795660235153 -1.5081771655945033 0 0 0 0 -15.585127246271384 -17.128184551434344 0 -17.128184551434344 19.041942903667632 0 0 0 0 -2580.9050619440968 -765.08597723798448 0 -765.08597723798448 -752.13180225915858 0 0 0 0 -1552.6075054955727 -1406.4681954369007 0 -1406.4681954369007 -1014.2625531766171 0 0 0 0 -989.76408576157701 -481.26478785702784 0 -481.26478785702784 -780.36082441348117 0 0 0 0 -28.844335603360378 -59.818264598176029 0 -59.818264598176029 -125.41376721279812 0 0 0 0 -1538.6047515571991 -1160.1687008326408 0 -1160.1687008326408 -738.98090873543606 0 0 0 0 -1563.0016154754703 -1055.267552136982 0 -1055.267552136982 -1140.5383795890521 0 0 0 0 -2989.2352209536621 -1089.2385769188695 0 -1089.2385769188695 -713.11366235843161 0 0 0 0 -2992.3132412720934 -1000.4963581935214 0 -1000.4963581935214 -990.85418827664398 0 0 0 0 -3641.40559841918 -969.50562744739 0 -969.50562744739 -848.80513460369548 0 0 0 0 -4156.9887743421314 -293.58973178974338 0 -293.58973178974338 -1912.72896286381 0 0 0 0 -4469.1462416443974 -942.30848905478342 0 -942.30848905478342 -719.42900600856228 0 0 0 0 -2797.2997294499473 -1302.0665317885032 0 -1302.0665317885032 -1661.9896455149137 0 0 0 0 11.925686964904912 -50.386521843797169 0 -50.386521843797169 -7.023672147193821 0 0 0 0 -5276.7115966727579 -1321.0284037656602 0 -1321.0284037656602 -1665.9559276721993 0 0 0 0 -13.350740512334198 -7.1578646688238337 0 -7.1578646688238337 -1.142282329496993 0 0 0 0 -6990.1524707878561 444.51616296555585 0 444.51616296555585 -725.9099897299875 0 0 0 0 -5209.0581806501505 -976.20260806500119 0 -976.20260806500119 -17.224907644646009 0 0 0 0 12.434200021920901 -52.287383712029765 0 -52.287383712029765 -11.542205763456636 0 0 0 0 -485.68514373046492 -1653.8450251129107 0 -1653.8450251129107 -841.87416084980941 0 0 0 0 -115.51040245948298 -1113.152048864355 0 -1113.152048864355 -673.97171639429871 0 0 0 0 -9.1709502759897674 -13.852634494660009 0 -13.852634494660009 9.148019156551868 0 0 0 0 -405.08217478560982 -1147.2378662265837 0 -1147.2378662265837 -1733.4385809622763 0 0 0 0 -984.45648083373089 -1047.5919617280306 0 -1047.5919617280306 -3.2274387892431129 0 0 0 0 -1042.5422979354626 -557.10191071190638 0 -557.10191071190638 -1215.3917791559943 0 0 0 0 -1102.4664150347235 -244.08257246395806 0 -244.08257246395806 -1413.2712897264864 0 0 0 0 15.442135406914304 -65.330775110508455 0 -65.330775110508455 -7.5862931120754737 0 0 0 0 -116.32763149141101 -1102.2644545775256 0 -1102.2644545775256 52.284340915939538 0 0 0 0 -9.2867033789602829 -15.525617883217762 0 -15.525617883217762 9.3832392578582358 0 0 0 0 -853.78806212571726 20.910095851122605 0 20.910095851122605 744.90774114707892 0 0 0 0 -469.54058121886919 -86.707026082222001 0 -86.707026082222001 -1754.8522152707628 0 0 0 0 -843.7347806727048 -105.81321925799057 0 -105.81321925799057 -857.78288196126232 0 0 0 0 -4643.5252102048617 -325.36556839733748 0 -325.36556839733748 -915.60437124338932 0 0 0 0 -16.202037870900838 -31.601413955236794 0 -31.601413955236794 20.443251164702644 0 0 0 0 -2809.2836353929597 5.6161637236800743 0 5.6161637236800743 -879.95782052917275 0 0 0 0 -58.819015003784443 -254.58555666649772 0 -254.58555666649772 -903.524286644737 0 0 0 0 -8.7868819906470605 -30.710869838315105 0 -30.710869838315105 19.240797018888088 0 0 0 0 -11.768308559904717 -71.155426103459035 0 -71.155426103459035 9.6239936641021586 0 0 0 0 -2785.3803299872961 204.06338776374469 0 204.06338776374469 -2000.5267506023811 0 0 0 0 -1481.382774506259 121.79344576959556 0 121.79344576959556 -2726.4313404496788 0 0 0 0 -2023.8856849775802 -1475.0895656936718 0 -1475.0895656936718 -1052.5064524131303 0 0 0 0 -194.6491229319945 -2825.1858818072797 0 -2825.1858818072797 -1042.6045461262229 0 0 0 0 3018.0509654251364 -2850.5013907488901 0 -2850.5013907488901 -3122.3503142802219 0 0 0 0 -3754.0926649498651 -2044.7398471177294 0 -2044.7398471177294 -3952.5875930395559 0 0 0 0 -5714.8946832034417 -1402.8356029235947 0 -1402.8356029235947 -2316.6310836366029 0 0 0 0 -83.415024283585808 -1232.8843945639092 0 -1232.8843945639092 -3100.7156218584569 0 0 0 0 -24.556432959820171 -97.867424983799964 0 -97.867424983799964 60.998694827660188 0 0 0 0 -312.63002465176396 -746.63315516781586 0 -746.63315516781586 -2292.5200958545902 0 0 0 0 -44.484441386356679 6.0507223448828427 0 6.0507223448828427 2.9883042527940802 0 0 0 0 -1711.6181966357981 -2641.534121501114 0 -2641.534121501114 -2611.6679175086247 0 0 0 0 75.965917021116439 -114.00920922679754 0 -114.00920922679754 40.066140474485735 0 0 0 0 142.28965210276147 -69.247240507884271 0 -69.247240507884271 88.986438757900032 0 0 0 0 -1982.645592658082 -418.54136247725546 0 -418.54136247725546 -4239.2281334798608 0 0 0 0 -1286.7728145825749 -1649.5075470849151 0 -1649.5075470849151 -1400.9586763177358 0 0 0 0 -758.9163736293267 -2301.374597739341 0 -2301.374597739341 -2376.1467149377349 0 0 0 0 55.396603657641549 -118.30233251504521 0 -118.30233251504521 38.199682817364362 0 0 0 0 -785.7477447473575 70.926250064956548 0 70.926250064956548 154.40986134091509 0 0 0 0 -290.25629190597101 -669.58511087490479 0 -669.58511087490479 -593.43534832650039 0 0 0 0 145.51420925754064 -799.44783285314043 0 -799.44783285314043 -911.64931760868785 0 0 0 0 -2.6953602101546181 -40.739443950102668 0 -40.739443950102668 20.019795998790983 0 0 0 0 -4575.9812687899539 -469.69393640674753 0 -469.69393640674753 -1365.4644713545422 0 0 0 0 -12.510002141353525 -13.563372437668136 0 -13.563372437668136 7.3550661869795704 0 0 0 0 1084.2098186728253 -752.97679409589182 0 -752.97679409589182 -2909.5348251421819 0 0 0 0 -5085.1999272258836 -1556.0120227758125 0 -1556.0120227758125 -1428.718127775559 0 0 0 0 -6517.4112230567334 665.38378232455398 0 665.38378232455398 -2478.443233094571 0 0 0 0 -3694.6667612737801 -1232.3692435461853 0 -1232.3692435461853 -2076.7156728663358 0 0 0 0 -3406.4877886462782 -901.72325387965248 0 -901.72325387965248 -1768.7929929043457 0 0 0 0 -2976.7733824604074 -1840.9807341860869 0 -1840.9807341860869 -1783.3638908529247 0 0 0 0 -2907.3131700403028 -971.23440192650014 0 -971.23440192650014 -2631.7960233083868 0 0 0 0 -2576.3025249927086 -1791.5809284443312 0 -1791.5809284443312 -1592.1331865348475 0 0 0 0 -3534.9703358302213 -1260.1556412178579 0 -1260.1556412178579 -1198.5218199323572 0 0 0 0 -3280.0345964842563 -1488.4891191584902 0 -1488.4891191584902 -2314.1852245714545 0 0 0 0 -3780.2677004935977 -659.78461326551769 0 -659.78461326551769 -1274.2327820682258 0 0 0 0 -3253.8038438158255 -567.11128352792002 0 -567.11128352792002 -1344.5771946294844 0 0 0 0 -2549.7975840425934 -1128.1067094691098 0 -1128.1067094691098 -1531.8352017169964 0 0 0 0 -2543.3241412343632 -1225.5437651391403 0 -1225.5437651391403 -853.7798679712505 0 0 0 0 -1511.5437502231489 -1279.735705700049 0 -1279.735705700049 -1518.2433712940838 0 0 0 0 -1519.8774924553381 -1268.0505262167153 0 -1268.0505262167153 -565.18856809622957 0 0 0 0 -2003.1995414540579 -1734.1649065566526 0 -1734.1649065566526 -1057.4029691822871 0 0 0 0 -2125.50793468747 -1327.2189063238402 0 -1327.2189063238402 -2139.5218229693419 0 0 0 0 -1645.6131355156249 -1703.1622586058875 0 -1703.1622586058875 -2021.8142749935869 0 0 0 0 -1530.8173911754711 -2121.9104210671067 0 -2121.9104210671067 -1387.8314291999268 0 0 0 0 -1275.4461462976324 -1733.0445463396354 0 -1733.0445463396354 -1720.4481049895185 0 0 0 0 -1027.6721994450199 -2237.4021207772203 0 -2237.4021207772203 -734.27209124583169 0 0 0 0 -388.10908057136112 -2434.7043092501408 0 -2434.7043092501408 -1505.8350625093508 0 0 0 0 -351.12676866695983 -2194.1202337499708 0 -2194.1202337499708 -1476.0366811657987 0 0 0 0 -2.7358066468877951 -2727.6012560797171 0 -2727.6012560797171 -763.65817337910994 0 0 0 0 -1206.5324554844701 -752.75669104258122 0 -752.75669104258122 177.02753902217592 0 0 0 0 -901.85668029560475 -2300.3328812192485 0 -2300.3328812192485 735.93502836451808 0 0 0 0 -4.3534443697569429 -11.024975452128217 0 -11.024975452128217 4.3053548373607669 0 0 0 0 -1058.2520607165643 -1748.9415743038262 0 -1748.9415743038262 -1081.4101351680001 0 0 0 0 -767.34997493577612 -555.589061882431 0 -555.589061882431 -562.97215165631496 0 0 0 0 -925.6270825957763 -1172.2505364380922 0 -1172.2505364380922 -1019.7875852988363 0 0 0 0 -740.02515436816611 -777.13326337302715 0 -777.13326337302715 -922.6601492377813 0 0 0 0 -999.58233301452856 -957.70674016255361 0 -957.70674016255361 -502.5398795765359 0 0 0 0 -0.92929627548437566 -119.56370374964899 0 -119.56370374964899 74.528993895626627 0 0 0 0 -10.633148606397583 -9.9345331796225764 0 -9.9345331796225764 -9.2539985051538451 0 0 0 0 -0.065197933538001962 -1965.2695704570106 0 -1965.2695704570106 -1573.2247033524909 0 0 0 0 -718.58910807740176 -1876.4712369296067 0 -1876.4712369296067 -1430.0797620155499 0 0 0 0 -82.34580744842242 -1788.1986351098894 0 -1788.1986351098894 -1504.0240715570835 0 0 0 0 -241.10170004150859 -1970.4435980997487 0 -1970.4435980997487 -1590.0823991883808 0 0 0 0 -256.37125687501975 -2126.8211193334646 0 -2126.8211193334646 -1674.7835405542646 0 0 0 0 -0.38027145605320711 -2147.7459191710991 0 -2147.7459191710991 -1792.9697577315383 0 0 0 0 0.54668865702114999 -2353.497783730294 0 -2353.497783730294 -1776.5356419870805 0 0 0 0 -299.84474410123948 -2256.0157477940229 0 -2256.0157477940229 -1784.2819119287524 0 0 0 0 -293.82919461987876 -2210.7039868478782 0 -2210.7039868478782 -1763.3932608234318 0 0 0 0 -739.74076694672112 -2182.9316448338432 0 -2182.9316448338432 -1590.1669184437196 0 0 0 0 -727.30696476227604 -2120.0821360902482 0 -2120.0821360902482 -1603.956002052495 0 0 0 0 -723.45805042950087 -2108.2399249627415 0 -2108.2399249627415 -1604.6132130480473 0 0 0 0 -1347.7959439874394 -2143.4298864776138 0 -2143.4298864776138 -1535.7883282019466 0 0 0 0 -747.86275739744815 -2219.1884286158129 0 -2219.1884286158129 -1748.0165090448572 0 0 0 0 -1337.4493970541998 -1881.9577779022852 0 -1881.9577779022852 -1622.5333575418335 0 0 0 0 -2042.8010953927005 -2073.9428040143684 0 -2073.9428040143684 -1562.1664354377062 0 0 0 0 -1737.3218246877659 -2007.0104284084955 0 -2007.0104284084955 -1406.3138813193218 0 0 0 0 -1137.1083597146062 -1821.6101742955834 0 -1821.6101742955834 -1384.0079295133328 0 0 0 0 -1191.2117808782787 -1914.6015859810013 0 -1914.6015859810013 -1327.100816598555 0 0 0 0 -704.52102841027954 -1774.1163808391066 0 -1774.1163808391066 -1302.9191178159235 0 0 0 0 -1088.4005881110643 -1699.9157098585129 0 -1699.9157098585129 -1180.7703396376091 0 0 0 0 -1259.8907332902891 -1645.9354588252609 0 -1645.9354588252609 -1112.9367882361257 0 0 0 0 -974.92444731859723 -1461.7405429845603 0 -1461.7405429845603 -994.5476966790302 0 0 0 0 -1302.4516609493003 -1265.6524694336913 0 -1265.6524694336913 -917.38166464833193 0 0 0 0 -1065.8319323491014 -1312.2042791333224 0 -1312.2042791333224 -909.2623732820939 0 0 0 0 -1171.1835237646883 -1184.7858753509063 0 -1184.7858753509063 -716.73017428748426 0 0 0 0 -1379.8675223476748 -1025.7036924345393 0 -1025.7036924345393 -869.78666006884305 0 0 0 0 -1295.4847599263594 -1375.1699262272186 0 -1375.1699262272186 -1125.8761467000295 0 0 0 0 -1719.2950499215804 -1284.1399401260278 0 -1284.1399401260278 -1132.2183443198073 0 0 0 0 -1497.9542890620651 -1572.5571979412925 0 -1572.5571979412925 -1133.5290709147048 0 0 0 0 -1507.6441740481678 -1640.5250612999007 0 -1640.5250612999007 -1278.5568294792756 0 0 0 0 -1690.2405408262821 -1494.2863369743832 0 -1494.2863369743832 -1359.3981424583908 0 0 0 0 -2189.5931872552901 -1447.5863259820771 0 -1447.5863259820771 -1728.7741137990379 0 0 0 0 -2294.65609311359 -1731.8318469403166 0 -1731.8318469403166 -1406.7002173131987 0 0 0 0 -2188.7612784552039 -957.19362050955533 0 -957.19362050955533 -1430.5744198780303 0 0 0 0 -3181.9885371054697 -1271.8769844642375 0 -1271.8769844642375 -1471.5592199803796 0 0 0 0 -2547.7984258092183 -816.49349566175806 0 -816.49349566175806 -1351.6066041153827 0 0 0 0 -1220.8598646805331 -895.38810855010161 0 -895.38810855010161 -1368.3056296733557 0 0 0 0 -2678.1142903700675 -310.80525858945111 0 -310.80525858945111 -1701.6233926869754 0 0 0 0 -41.971322336858918 -9.1053724310643815 0 -9.1053724310643815 1.3366600754238789 0 0 0 0 -1963.3213886555022 -214.65553701816316 0 -214.65553701816316 -1435.5381058394123 0 0 0 0 -3230.1423591467774 -40.26439135080318 0 -40.26439135080318 -1446.227435810375 0 0 0 0 -9.6653643218087382 -569.26805826521377 0 -569.26805826521377 -1323.8739277348068 0 0 0 0 -188.22976381651824 -572.93453228820727 0 -572.93453228820727 -1318.4709288083359 0 0 0 0 -46.444548586349612 -145.90341274403812 0 -145.90341274403812 73.876157013772399 0 0 0 0 25.607814082155528 -838.56149603182712 0 -838.56149603182712 -1914.7934940436535 0 0 0 0 -240.63864084405941 -742.06926452859625 0 -742.06926452859625 -1577.7088489998132 0 0 0 0 -81.156991569455613 -143.97831201572905 0 -143.97831201572905 75.002479827003583 0 0 0 0 -1393.8879536486784 -842.83345923963498 0 -842.83345923963498 -1304.0505666994723 0 0 0 0 -310.17809165389917 -347.60357762044987 0 -347.60357762044987 -1404.6320228384866 0 0 0 0 -1767.7612077880767 -360.18917863554088 0 -360.18917863554088 -1922.7966931852498 0 0 0 0 -2370.0661288002739 -1144.9339005274305 0 -1144.9339005274305 -1314.1330961757048 0 0 0 0 5.8979183281975622 -7.2056664240417376 0 -7.2056664240417376 -8.4221922173584289 0 0 0 0 -1261.6288372576819 -1156.0505249781563 0 -1156.0505249781563 -1315.3164511297882 0 0 0 0 -1569.5854737635455 -618.02092517654637 0 -618.02092517654637 -741.62305797854788 0 0 0 0 -543.12092346788268 -387.28965143154346 0 -387.28965143154346 -734.27684531583282 0 0 0 0 -963.68073838492273 -1002.3921882448776 0 -1002.3921882448776 -877.57288686902393 0 0 0 0 -287.84569910953724 -651.6737260884729 0 -651.6737260884729 -607.53465138237516 0 0 0 0 -243.39329415551038 -280.18450523306819 0 -280.18450523306819 -318.17732245662773 0 0 0 0 -50.043634926875413 -149.33619419131804 0 -149.33619419131804 75.767361259397603 0 0 0 0 -1078.7784029386967 -953.77207460647696 0 -953.77207460647696 -623.46541315353534 0 0 0 0 -260.29876224297914 -705.98871582197899 0 -705.98871582197899 -613.83536926426314 0 0 0 0 -939.25927031468018 -987.03741583281226 0 -987.03741583281226 -549.91851582404342 0 0 0 0 -650.55523654198623 -685.78526044396131 0 -685.78526044396131 -502.25741670207935 0 0 0 0 -513.54181935092492 -760.91350135019093 0 -760.91350135019093 -429.36225222637586 0 0 0 0 -468.60854635178111 -811.03772759258209 0 -811.03772759258209 -630.7359642321826 0 0 0 0 -269.69331077401876 -516.55413246808166 0 -516.55413246808166 -382.69807074808523 0 0 0 0 -100.18448507452558 -926.24935074118548 0 -926.24935074118548 -797.8663821289083 0 0 0 0 175.0694056227187 -100.49507106970083 0 -100.49507106970083 42.546987178514556 0 0 0 0 412.12699878065905 -2935.1375477458532 0 -2935.1375477458532 -4468.8635408495647 0 0 0 0 149.53644396418821 -119.15808958250435 0 -119.15808958250435 44.867889367910607 0 0 0 0 -793.81030736037064 -2073.465165222995 0 -2073.465165222995 -3132.1227953180496 0 0 0 0 -362.94173530930857 -2835.4170577172672 0 -2835.4170577172672 -2247.8280653504626 0 0 0 0 -1519.2444910664926 -2260.5107346065124 0 -2260.5107346065124 -1952.0477064359802 0 0 0 0 -1564.1253116793523 -3240.5798173015755 0 -3240.5798173015755 -2615.559902543624 0 0 0 0 -1500.2051683580321 -3618.5224447101236 0 -3618.5224447101236 -4685.2890404221762 0 0 0 0 6.0183280928675345 -27.796476008822026 0 -27.796476008822026 30.624984000955493 0 0 0 0 -964.26455500799057 -1652.828877060063 0 -1652.828877060063 -3275.8529476786789 0 0 0 0 103.25572803643979 -76.881495336305221 0 -76.881495336305221 44.023371957728145 0 0 0 0 -734.28725560600287 -957.59705915433005 0 -957.59705915433005 -874.79358566465089 0 0 0 0 -1244.6989161228012 -3779.126728574066 0 -3779.126728574066 -4029.5707783890175 0 0 0 0 -1043.4160686949035 -3502.0754544084411 0 -3502.0754544084411 -1802.8981921681698 0 0 0 0 -2268.352439846989 -2130.1457388192212 0 -2130.1457388192212 -3026.3587367599393 0 0 0 0 -846.0541568895278 -1389.3748276480983 0 -1389.3748276480983 -1333.0025127027911 0 0 0 0 79.74667908748296 -60.6214182734426 0 -60.6214182734426 34.026764552791832 0 0 0 0 -2152.0420391139796 -2975.6364840057731 0 -2975.6364840057731 -2242.1877252927225 0 0 0 0 -761.48015271961776 -1008.1071248141034 0 -1008.1071248141034 -1112.1322155166272 0 0 0 0 -747.13689150886785 -946.96480729619361 0 -946.96480729619361 -862.0904525303049 0 0 0 0 -818.88806935568573 -1112.6312843240667 0 -1112.6312843240667 -909.69100047651227 0 0 0 0 -920.94303679137374 -1175.1535304840872 0 -1175.1535304840872 -936.60955640426255 0 0 0 0 -977.61579612008063 -1239.6704750209756 0 -1239.6704750209756 -852.36792291638267 0 0 0 0 -874.20900398996309 -1089.0834099009553 0 -1089.0834099009553 -779.68589553183119 0 0 0 0 -822.23606520524481 -1009.9780501778878 0 -1009.9780501778878 -657.32897048963787 0 0 0 0 -845.9361141055706 -1076.0805801493552 0 -1076.0805801493552 -841.69100844153036 0 0 0 0 -613.784371803049 -816.19734640410752 0 -816.19734640410752 -805.41072020379943 0 0 0 0 43.26855479904458 -24.027230980250891 0 -24.027230980250891 13.294677591259159 0 0 0 0 -674.13145756002632 -1064.0327637419687 0 -1064.0327637419687 -748.402784171034 0 0 0 0 -629.14784198877169 -822.99103986265254 0 -822.99103986265254 -460.69722702649597 0 0 0 0 -900.30300047740457 -1050.5142363580817 0 -1050.5142363580817 -618.95033016821253 0 0 0 0 -994.53495752661547 -1242.9750311297103 0 -1242.9750311297103 -742.30832273160922 0 0 0 0 -853.97013381992292 -1057.8603944348288 0 -1057.8603944348288 -711.03656060164212 0 0 0 0 -1045.4637288752128 -1206.8433150440251 0 -1206.8433150440251 -765.60096465302922 0 0 0 0 -914.93363763141679 -1272.1677199638871 0 -1272.1677199638871 -838.28212988754967 0 0 0 0 -1126.0152324725641 -1455.5227709028895 0 -1455.5227709028895 -950.22627588303294 0 0 0 0 -984.75143458061939 -1405.9769589669304 0 -1405.9769589669304 -1040.2194084845396 0 0 0 0 -664.34820627898443 -1516.5403799510823 0 -1516.5403799510823 -1117.953020287121 0 0 0 0 -612.36471818327846 -1535.8834366984847 0 -1535.8834366984847 -1376.1557108717243 0 0 0 0 -633.83972756643197 -1314.6223652248518 0 -1314.6223652248518 -1258.7993871216167 0 0 0 0 -585.02595586407188 -1347.7547631837979 0 -1347.7547631837979 -1236.8581113424443 0 0 0 0 -638.78801470161488 -1162.7341478977633 0 -1162.7341478977633 -1023.4862491227832 0 0 0 0 -787.90598465583753 -1222.5726547509112 0 -1222.5726547509112 -1004.5819515169896 0 0 0 0 -505.0179256699339 -946.1405136136018 0 -946.1405136136018 -981.08299728896236 0 0 0 0 -819.05826046530274 -1119.0639356069078 0 -1119.0639356069078 -1033.2213771302377 0 0 0 0 -898.4377183878205 -1222.8198271933552 0 -1222.8198271933552 -921.93267130182358 0 0 0 0 24.063219465194209 -7.6203385270283377 0 -7.6203385270283377 -3.0049311158746264 0 0 0 0 3016.7237140474463 -2047.5167338493557 0 -2047.5167338493557 -1588.813661155611 0 0 0 0 2248.9309158763353 -4132.395480817293 0 -4132.395480817293 1366.4878247651068 0 0 0 0 8.0101225674087573 0.027705825047320332 0 0.027705825047320332 -5.0574886505240784 0 0 0 0 -385.57880245906199 -1266.8342450335849 0 -1266.8342450335849 -1213.5752660610742 0 0 0 0 1128.704110062652 -3005.1414207266789 0 -3005.1414207266789 306.85197830032848 0 0 0 0 1682.6577580872981 -3319.0974744248888 0 -3319.0974744248888 273.97758601239684 0 0 0 0 1341.7327943843557 -3602.5283392059282 0 -3602.5283392059282 1422.6303681194931 0 0 0 0 636.8530496472813 -3498.4014986837101 0 -3498.4014986837101 1478.3096829048809 0 0 0 0 2.2863052597967908 -2869.6757685779594 0 -2869.6757685779594 937.54063839148876 0 0 0 0 1080.8029274090368 -2884.331962783519 0 -2884.331962783519 78.513472926191753 0 0 0 0 764.6260492533911 -2835.5204944497382 0 -2835.5204944497382 76.098089238008015 0 0 0 0 -612.2921182914688 -1334.2692212090515 0 -1334.2692212090515 -1540.4742083988531 0 0 0 0 1.8546894295997163 -1.3546536757669259 0 -1.3546536757669259 0.98237993548724489 0 0 0 0 -579.93776391154825 -1546.0727400097167 0 -1546.0727400097167 -1619.7400292145612 0 0 0 0 -3.0287692441506806 -2226.068953971484 0 -2226.068953971484 -1174.776537450598 0 0 0 0 0.51496664328442421 -1963.3313835639601 0 -1963.3313835639601 -918.90007880194753 0 0 0 0 -1051.8885668971052 -1773.1702520787148 0 -1773.1702520787148 -2643.8403358953219 0 0 0 0 -960.65961631273603 -1378.3577737009527 0 -1378.3577737009527 -1453.5667653920827 0 0 0 0 -1100.4519477366121 -1945.96537637031 0 -1945.96537637031 -1950.4812641953795 0 0 0 0 -1237.1092346624282 -1930.1838112231308 0 -1930.1838112231308 -1817.8689314842049 0 0 0 0 -1312.7599143747793 -2115.5129597234918 0 -2115.5129597234918 -2081.7892944522464 0 0 0 0 -1600.9913808910351 -1950.2042543221396 0 -1950.2042543221396 -2110.8797329102345 0 0 0 0 -1584.5945251196099 -2148.5657409313862 0 -2148.5657409313862 -2039.3480112934631 0 0 0 0 -1738.2782845790061 -1857.414688693214 0 -1857.414688693214 -1645.2623710077023 0 0 0 0 -1722.3824404887382 -2305.9897342822333 0 -2305.9897342822333 -2582.8800485761894 0 0 0 0 -1585.8811942494358 -2183.7629506743469 0 -2183.7629506743469 -2088.2870716272155 0 0 0 0 -1441.6252181417331 -2196.0008747857883 0 -2196.0008747857883 -3014.7989635421109 0 0 0 0 -1535.7651079521602 -1785.507515184865 0 -1785.507515184865 -2812.100611032005 0 0 0 0 -1424.1974696684192 -2103.3556059926777 0 -2103.3556059926777 -3633.7037399872206 0 0 0 0 -3.2171144194946351 -7.3347967275653616 0 -7.3347967275653616 0.27716713800268167 0 0 0 0 -891.33639984713227 -1149.9359947587291 0 -1149.9359947587291 1007.2483747531005 0 0 0 0 -2369.3933502466316 -3797.4838663226055 0 -3797.4838663226055 -4296.9628920144387 0 0 0 0 -819.68185919879397 -1715.020309463971 0 -1715.020309463971 -1590.7211733029399 0 0 0 0 -742.01455613862163 -1898.0583547435763 0 -1898.0583547435763 -1981.2115464967501 0 0 0 0 -9.4402511314158915 -16.461053147423144 0 -16.461053147423144 6.6119432482778961 0 0 0 0 -795.23914489339222 -1669.687677948561 0 -1669.687677948561 -1551.8759695435801 0 0 0 0 -960.54480929434067 -1971.3340207869587 0 -1971.3340207869587 -3168.4629189286134 0 0 0 0 -10.895638462881493 -15.010076926695263 0 -15.010076926695263 6.0154346566711467 0 0 0 0 -896.5532985310092 -1468.7472598735276 0 -1468.7472598735276 -1890.0961304581433 0 0 0 0 -1027.2926385171377 -1819.0459084079339 0 -1819.0459084079339 -2121.4172230188706 0 0 0 0 -1597.818316083587 -864.84169180051322 0 -864.84169180051322 -1340.8436228755745 0 0 0 0 -1447.9758119269809 -2119.6468767732968 0 -2119.6468767732968 -3956.6429185950983 0 0 0 0 -1366.3065350246179 -1455.4666637350601 0 -1455.4666637350601 -2291.0395630013336 0 0 0 0 -583.40825841419428 -521.40611137108499 0 -521.40611137108499 -1410.1653043243969 0 0 0 0 -3.0044266616405437 -21.963067313631953 0 -21.963067313631953 0.98315919082506298 0 0 0 0 -1348.9672496917119 -914.02676388353575 0 -914.02676388353575 -1371.9251954212141 0 0 0 0 -1007.897392998213 -988.24848945574195 0 -988.24848945574195 -2119.8318756643203 0 0 0 0 -2007.9126211128569 -650.57809603828446 0 -650.57809603828446 -2194.2307985682419 0 0 0 0 -238.46682217103807 -424.12979762695613 0 -424.12979762695613 -1757.8067326772289 0 0 0 0 318.70647077649483 -424.97245439899416 0 -424.97245439899416 -1812.8078059137079 0 0 0 0 1069.8551696363938 -762.31797872378957 0 -762.31797872378957 -1781.5145388558667 0 0 0 0 -2.8921176657648253 -13.803653141365658 0 -13.803653141365658 0.61811064889286627 0 0 0 0 -3140.4272823007777 -1782.4637684405971 0 -1782.4637684405971 -2441.4150616182214 0 0 0 0 -4133.1609395922023 -1639.4027384153001 0 -1639.4027384153001 -1358.6849970916519 0 0 0 0 -2665.1529432386742 -1866.5990887917433 0 -1866.5990887917433 -1332.1008802160868 0 0 0 0 -2521.7510912944708 -2008.9192117847488 0 -2008.9192117847488 -1417.9274921296237 0 0 0 0 109.1098950698688 -916.87418926076134 0 -916.87418926076134 -800.2436080948828 0 0 0 0 -2489.7355176998244 -1353.5051108494226 0 -1353.5051108494226 -801.13494750643622 0 0 0 0 -2241.8217933049746 -3175.9072414584516 0 -3175.9072414584516 -4501.6476253533438 0 0 0 0 -1672.5802873756766 -608.56631410340924 0 -608.56631410340924 812.11539437741885 0 0 0 0 -4.1624006749838145 -5.3492143152034828 0 -5.3492143152034828 -0.82116198481534752 0 0 0 0 -2523.9357081094313 -2028.7790164689404 0 -2028.7790164689404 -1031.4636699535185 0 0 0 0 -2261.0667468423053 -1548.8181830757385 0 -1548.8181830757385 -1103.9977855197058 0 0 0 0 -730.71721461522611 -1426.9143151075295 0 -1426.9143151075295 -1507.0899467945419 0 0 0 0 -1246.8454253315722 -1809.3295442337894 0 -1809.3295442337894 -2102.6085976288887 0 0 0 0 -1481.8472434233227 -2074.0730106940991 0 -2074.0730106940991 -1801.9889495563402 0 0 0 0 -1973.3412788150745 -1911.7704858136858 0 -1911.7704858136858 -2104.7228092501318 0 0 0 0 -1916.9318130555148 -1837.8685485662645 0 -1837.8685485662645 -2701.7429953548854 0 0 0 0 -1392.5157949532149 -1836.8073557874668 0 -1836.8073557874668 -2636.9111976238419 0 0 0 0 -841.04604747356643 -210.6187163036775 0 -210.6187163036775 -159.02048381144414 0 0 0 0 -3851.5036536319531 -2357.9415536560045 0 -2357.9415536560045 -2494.6465402072281 0 0 0 0 -3635.4523939747742 -2098.9050711220407 0 -2098.9050711220407 -4652.9586864704106 0 0 0 0 -47.747799810260517 -23.27445163909519 0 -23.27445163909519 30.290035898076411 0 0 0 0 -2145.0242558582613 -1575.4555253937979 0 -1575.4555253937979 -1687.3999984998663 0 0 0 0 -2777.0373486222379 -1420.5296297001623 0 -1420.5296297001623 -1724.3562441908252 0 0 0 0 -2406.9711981481014 -1824.6200360179464 0 -1824.6200360179464 -1625.1329957923153 0 0 0 0 -2979.9241054077283 -2084.9464435589471 0 -2084.9464435589471 -1723.2626037623486 0 0 0 0 -2739.093089301954 -1867.7519307879847 0 -1867.7519307879847 -2610.0918837087702 0 0 0 0 -2708.9060624939593 -1175.1007409925951 0 -1175.1007409925951 -3263.962699871212 0 0 0 0 6.478753782259318 -41.982465236601826 0 -41.982465236601826 20.081824431212141 0 0 0 0 -3894.8020135164843 -1808.8967440789856 0 -1808.8967440789856 -3540.6984064604185 0 0 0 0 -4827.8012961843924 -1166.5111939251256 0 -1166.5111939251256 -3152.3745324465563 0 0 0 0 -9.4036056355509174 -10.011023559012415 0 -10.011023559012415 5.4394697282971265 0 0 0 0 3409.6979873487144 -2404.7812084991092 0 -2404.7812084991092 -3618.5615486455936 0 0 0 0 -3215.2028823825531 -642.73058631903768 0 -642.73058631903768 -3855.2237199212514 0 0 0 0 -2413.0067350108584 -766.85623252018559 0 -766.85623252018559 -2235.7982776063 0 0 0 0 -2322.1078625772716 -1802.3535996905812 0 -1802.3535996905812 -2355.8043847467561 0 0 0 0 -7303.8597268037847 -1128.7964929724585 0 -1128.7964929724585 -2305.604095890747 0 0 0 0 -1426.6055032071745 -1492.0821595571906 0 -1492.0821595571906 -2679.1470967950081 0 0 0 0 -1878.2300491426431 -1574.4484235591444 0 -1574.4484235591444 -2351.0737014247607 0 0 0 0 -1840.6781426043162 -1557.2916050551903 0 -1557.2916050551903 -3152.6423566977974 0 0 0 0 -3192.0954010718942 -1418.517462947495 0 -1418.517462947495 -2678.0097317987966 0 0 0 0 -1805.1364874263381 -1356.6942178188838 0 -1356.6942178188838 -3023.1157607743044 0 0 0 0 -1900.2435159589422 -1226.8921905728575 0 -1226.8921905728575 -2046.6174647133157 0 0 0 0 -1377.3440744848922 -1475.8570089952191 0 -1475.8570089952191 -1822.8986162723832 0 0 0 0 -1297.5287965423704 -1359.337325080709 0 -1359.337325080709 -1669.3661559049797 0 0 0 0 -1408.8078493218527 -1378.611705149071 0 -1378.611705149071 -1989.4756096802448 0 0 0 0 -1462.5007347124265 -1893.5646580202756 0 -1893.5646580202756 -2097.4830520723481 0 0 0 0 -1309.29945107596 -1806.3723642986733 0 -1806.3723642986733 -2325.4870744314539 0 0 0 0 -1396.6625529077573 -2007.3734729609496 0 -2007.3734729609496 -1966.3502182075681 0 0 0 0 -1311.5306208178408 -1734.0655725111064 0 -1734.0655725111064 -1824.6874344859025 0 0 0 0 -1324.4246587267044 -2073.797913989376 0 -2073.797913989376 -1905.2824058883707 0 0 0 0 -1225.0717920486786 -1971.3705556138884 0 -1971.3705556138884 -2175.3938019170382 0 0 0 0 -1381.2422776863241 -1939.5918536050522 0 -1939.5918536050522 -1762.3890774404845 0 0 0 0 -1581.0150038391293 -2055.5250908533162 0 -2055.5250908533162 -1789.408999787076 0 0 0 0 -1450.9777121869265 -1701.7476865302597 0 -1701.7476865302597 -1550.2795979423699 0 0 0 0 -1620.0358877491963 -1932.8924236289604 0 -1932.8924236289604 -1519.8947873563011 0 0 0 0 -1581.7673641712172 -1771.1443028563299 0 -1771.1443028563299 -1308.3502165432146 0 0 0 0 -1416.3797844411019 -1533.7649122050134 0 -1533.7649122050134 -1304.4393442474025 0 0 0 0 -1376.8770917448564 -1565.2652290079059 0 -1565.2652290079059 -1392.3320693593996 0 0 0 0 -1392.134242243832 -1695.0011551768403 0 -1695.0011551768403 -1834.3784526983291 0 0 0 0 -1374.6458989101156 -1327.0105355685992 0 -1327.0105355685992 -1354.984889272273 0 0 0 0 -1380.1339778812253 -1244.9116832670625 0 -1244.9116832670625 -965.41818907867855 0 0 0 0 -1363.1293398380803 -1400.3689889031994 0 -1400.3689889031994 -1496.8264603706593 0 0 0 0 -1305.8320836330895 -1081.8430387820717 0 -1081.8430387820717 -1229.1944212143426 0 0 0 0 -1160.1069099855813 -1135.9703425011248 0 -1135.9703425011248 -1398.1600319156623 0 0 0 0 -1408.2786799787209 -1080.9027522304968 0 -1080.9027522304968 -1053.8938675576792 0 0 0 0 -1309.5525497324124 -1280.3063141143157 0 -1280.3063141143157 -802.79862623656663 0 0 0 0 -964.06748545612209 -1139.4907338534977 0 -1139.4907338534977 -1233.6641927321325 0 0 0 0 -781.29998204945537 -917.56233416955274 0 -917.56233416955274 154.81133402721025 0 0 0 0 -1296.9041152611462 -819.65276665030979 0 -819.65276665030979 -777.21148425330466 0 0 0 0 -783.18116957206075 -1163.1109217886988 0 -1163.1109217886988 -599.81459214195638 0 0 0 0 -1432.561674384182 -852.01872613486921 0 -852.01872613486921 -204.09215841712285 0 0 0 0 -2251.8437960996525 -799.65220000172121 0 -799.65220000172121 -318.21407624057792 0 0 0 0 -1810.0034219804074 -1111.9479632966359 0 -1111.9479632966359 -734.83578929886426 0 0 0 0 -1431.5783770405396 -840.37005285395571 0 -840.37005285395571 -599.08054114010974 0 0 0 0 -1603.5703479783697 -1149.4670722413466 0 -1149.4670722413466 -490.50837633347146 0 0 0 0 -1785.2584127966511 -894.49506903477049 0 -894.49506903477049 -736.68966255024134 0 0 0 0 -1873.7923900418973 -685.81489305827927 0 -685.81489305827927 -366.7292098750986 0 0 0 0 -1726.3225414696208 -752.25742929811895 0 -752.25742929811895 -849.17990403674048 0 0 0 0 -1546.9825673836458 -1152.9001865753162 0 -1152.9001865753162 -1151.3935440355745 0 0 0 0 -1434.0634619001794 -947.53574862696405 0 -947.53574862696405 -1646.3964046000183 0 0 0 0 -1382.6201881567067 -1098.6118501627716 0 -1098.6118501627716 -1469.0068916793534 0 0 0 0 -1645.403261531917 -960.89558998869529 0 -960.89558998869529 -1379.7569587554608 0 0 0 0 -1643.7407828581822 -1078.487337115067 0 -1078.487337115067 -1523.5688409953655 0 0 0 0 -1709.0350239640393 -754.33642927927212 0 -754.33642927927212 -2167.8214779142181 0 0 0 0 -2016.6610434288159 -1253.6143082213284 0 -1253.6143082213284 -1667.9992011170616 0 0 0 0 -1599.437818806764 -846.48438451522452 0 -846.48438451522452 -1609.9248104604903 0 0 0 0 -1867.4732343698779 -649.51676571187272 0 -649.51676571187272 -708.33585616661003 0 0 0 0 -1689.8978937937063 -711.89187196414423 0 -711.89187196414423 -1411.9051627141362 0 0 0 0 -1919.54875118583 -1319.753415043102 0 -1319.753415043102 -1782.8600966433005 0 0 0 0 -2072.0394691829024 -858.97443119318814 0 -858.97443119318814 -1983.8620002631287 0 0 0 0 2024.8782064647894 -3616.3918127272082 0 -3616.3918127272082 396.61386279461294 0 0 0 0 -4.0713944524945305 -5.1832148721703533 0 -5.1832148721703533 7.508558166241869 0 0 0 0 1575.2865517497412 -3291.1490987723009 0 -3291.1490987723009 575.76983768976424 0 0 0 0 -2152.1392160858959 -1040.9506395877925 0 -1040.9506395877925 -598.17270186432143 0 0 0 0 -70.428905397115159 -1092.0038808810023 0 -1092.0038808810023 -141.2540649121147 0 0 0 0 -833.46723682402808 -1597.3830229015039 0 -1597.3830229015039 -422.45785443393834 0 0 0 0 2052.5724219323165 -2490.7197978756303 0 -2490.7197978756303 -113.38873349617643 0 0 0 0 5.434819256955052 -2628.8010263458773 0 -2628.8010263458773 377.78335623120074 0 0 0 0 -1775.7158147369628 -826.82959279715215 0 -826.82959279715215 -681.13305223212137 0 0 0 0 -1754.2186969344039 -891.30117905335283 0 -891.30117905335283 -26.841220449605316 0 0 0 0 -1497.6740279682272 -501.07938144194395 0 -501.07938144194395 -314.56334956367937 0 0 0 0 -1786.694934875597 -658.46743602412653 0 -658.46743602412653 -375.40026263661275 0 0 0 0 -3.5675398270879555 1.6763096592546631 0 1.6763096592546631 2.9593911639435646 0 0 0 0 -384.86019574403326 -787.70414651488682 0 -787.70414651488682 -220.70081532892073 0 0 0 0 -646.33424450745224 -1075.569120095126 0 -1075.569120095126 -397.94138528664189 0 0 0 0 -1000.266689588505 -1002.2813425405966 0 -1002.2813425405966 252.23263680156379 0 0 0 0 -286.9013147719088 -1594.7193396993316 0 -1594.7193396993316 -320.4633196091454 0 0 0 0 -1236.9559488984087 -1393.3243245192862 0 -1393.3243245192862 -117.86081067696068 0 0 0 0 -1863.6350149887912 -1123.6367212951154 0 -1123.6367212951154 -1130.9644129293738 0 0 0 0 -1783.7408832241563 -851.27941526323957 0 -851.27941526323957 -283.45336822466925 0 0 0 0 -1475.4894733697874 -1663.0189913364229 0 -1663.0189913364229 -677.57525953096047 0 0 0 0 2502.5184533548891 -1756.7846742255861 0 -1756.7846742255861 -65.712636942465906 0 0 0 0 801.94375820046116 -2299.3410132760837 0 -2299.3410132760837 110.18347790853295 0 0 0 0 -141.7658507800079 -1634.5757795569443 0 -1634.5757795569443 216.43405271819938 0 0 0 0 991.05580000099144 -1690.5457224314887 0 -1690.5457224314887 -290.42451558678022 0 0 0 0 270.82829655219939 -1043.5371220841785 0 -1043.5371220841785 -99.8548858667491 0 0 0 0 340.37693782828865 -1705.7819762417239 0 -1705.7819762417239 324.26180453848792 0 0 0 0 1551.6964367670007 -1701.3281981228647 0 -1701.3281981228647 -10.843324333720375 0 0 0 0 1708.7520020513621 -2045.059570925041 0 -2045.059570925041 -6.5200392399178781 0 0 0 0 1167.1720130017202 -2019.0127770696345 0 -2019.0127770696345 -105.88965890172403 0 0 0 0 1418.4571036183625 -1544.169139132995 0 -1544.169139132995 -229.64822287636343 0 0 0 0 4019.9380357250775 -4494.5972177041222 0 -4494.5972177041222 1983.6460479672241 0 0 0 0 2923.8485610191028 -2697.9978986943743 0 -2697.9978986943743 -49.318865418506903 0 0 0 0 1211.3852872264251 -1740.2024118825502 0 -1740.2024118825502 355.9757750017161 0 0 0 0 2110.3048090928351 -2244.9994330387708 0 -2244.9994330387708 116.10628444873873 0 0 0 0 1526.5521209293656 -2103.0694754206015 0 -2103.0694754206015 667.45847783632053 0 0 0 0 1696.2522546948894 -2451.9775112454408 0 -2451.9775112454408 663.08447023871122 0 0 0 0 5676.6735090033908 -2030.4109305189813 0 -2030.4109305189813 2523.7278853907483 0 0 0 0 0.29288569622647742 -9.2148245274882754 0 -9.2148245274882754 10.766154457311785 0 0 0 0 7249.5344080991708 -1107.8589846811656 0 -1107.8589846811656 -3017.997406181792 0 0 0 0 18.480412304616493 -4.2631736435488392 0 -4.2631736435488392 4.7809476611333181 0 0 0 0 2786.7327451801248 -3915.6273185438331 0 -3915.6273185438331 4365.3133193245449 0 0 0 0 6577.7644103615603 -5490.4460962291123 0 -5490.4460962291123 -910.01513407054881 0 0 0 0 2982.1533752355581 -1431.8534911921292 0 -1431.8534911921292 -353.60575653039268 0 0 0 0 933.47851003688993 -2010.9890588152921 0 -2010.9890588152921 901.02299900440994 0 0 0 0 1746.6105996195402 -976.17685488505231 0 -976.17685488505231 637.59971900755772 0 0 0 0 1393.4197467618287 -1114.7443191181974 0 -1114.7443191181974 -29.047505262380582 0 0 0 0 1127.9291897536023 -1786.4600744418713 0 -1786.4600744418713 -18.130843297469482 0 0 0 0 633.45687063618971 -1355.6432695132789 0 -1355.6432695132789 177.91713839389558 0 0 0 0 779.25914281267615 -2454.2704706092445 0 -2454.2704706092445 -366.78104831410747 0 0 0 0 1504.588049773316 -2683.7006107041962 0 -2683.7006107041962 -1885.9246884526474 0 0 0 0 -2.8306848813499528 -7.4961412116645505 0 -7.4961412116645505 9.8276187065894334 0 0 0 0 3292.2454612308443 -2810.9172524710157 0 -2810.9172524710157 -963.73323089000041 0 0 0 0 1439.9398447949497 -3043.4323146725656 0 -3043.4323146725656 -602.75387707959817 0 0 0 0 3479.6841268535754 -1119.48117526639 0 -1119.48117526639 -2106.1028756053129 0 0 0 0 22.387438513802294 -8.1809301164518615 0 -8.1809301164518615 2.6210982759099011 0 0 0 0 3254.0216334946263 -3551.6161215771663 0 -3551.6161215771663 -1720.4376530074078 0 0 0 0 4010.2686498079274 -2770.5831425832221 0 -2770.5831425832221 -965.9146774830806 0 0 0 0 3503.1452473702957 -2998.1379802057891 0 -2998.1379802057891 -691.18510610638259 0 0 0 0 -1711.7228110306023 -1450.1281609123289 0 -1450.1281609123289 -593.78657664934144 0 0 0 0 -1846.0981215653883 -2012.173286006564 0 -2012.173286006564 -1046.3636028815308 0 0 0 0 -2092.1339791736937 -1459.157190527977 0 -1459.157190527977 -471.69244301068829 0 0 0 0 -1044.0150633873272 -1090.8504862663722 0 -1090.8504862663722 -225.36915574147133 0 0 0 0 24.476778248848859 -1991.8507584537656 0 -1991.8507584537656 -124.00204106851902 0 0 0 0 -509.20359844554332 -1396.618211066987 0 -1396.618211066987 -406.93856083702121 0 0 0 0 -864.69711492533679 -1880.1794312773563 0 -1880.1794312773563 -558.96669710335482 0 0 0 0 -560.41721033441718 -1846.2315258275339 0 -1846.2315258275339 -1529.5606028726761 0 0 0 0 -384.45430419809418 -2274.9341155179573 0 -2274.9341155179573 -677.3379724505412 0 0 0 0 95.676688375489903 -1810.2798432250129 0 -1810.2798432250129 -849.92625816055079 0 0 0 0 -1648.5225440367358 -1972.3731747454149 0 -1972.3731747454149 -1311.915148387292 0 0 0 0 -898.5729573056451 -3691.7807827597208 0 -3691.7807827597208 -3062.9883946333648 0 0 0 0 -1403.6029329406738 -1641.5010932609148 0 -1641.5010932609148 -3939.8058977905675 0 0 0 0 -2156.0217778247024 -1552.492173001323 0 -1552.492173001323 -1633.5106468878585 0 0 0 0 -2139.0332729702641 -1683.7600472333434 0 -1683.7600472333434 -1688.4450572278456 0 0 0 0 -2275.2266087279495 -1696.3648301965186 0 -1696.3648301965186 -925.28407415989932 0 0 0 0 -1942.4745322142553 -1766.922624096107 0 -1766.922624096107 -1963.3978054054096 0 0 0 0 -2305.9659194627602 -1215.1804904908458 0 -1215.1804904908458 -1555.9377598757601 0 0 0 0 -22.286334629442365 -27.626200223326634 0 -27.626200223326634 12.502241076615618 0 0 0 0 28.42317170549768 -40.934673504229352 0 -40.934673504229352 -2.6088482139616076 0 0 0 0 -2632.6281256456132 -1598.6884485815754 0 -1598.6884485815754 -918.38440610135876 0 0 0 0 -2187.6588800374702 -1776.6438928915059 0 -1776.6438928915059 -1026.3487914670404 0 0 0 0 31.769610334391473 -44.856983537429187 0 -44.856983537429187 -11.102009401107352 0 0 0 0 20.636701515368884 -37.003282200245138 0 -37.003282200245138 16.242850729597251 0 0 0 0 -3482.7767625424021 -2174.6690032729457 0 -2174.6690032729457 -1073.8190444249558 0 0 0 0 3.2993530212697806 -74.534150252356994 0 -74.534150252356994 -38.068562438093068 0 0 0 0 38.507509917909829 -43.993625583337476 0 -43.993625583337476 13.333234245306258 0 0 0 0 39.304277932678815 -107.42239847067685 0 -107.42239847067685 -20.924319855155773 0 0 0 0 27.753718384657986 -89.989913126602914 0 -89.989913126602914 -45.826761744894611 0 0 0 0 43.764431477658462 -21.250578777305236 0 -21.250578777305236 5.0428437703003794 0 0 0 0 42.76750843130867 -72.02921950675227 0 -72.02921950675227 -87.433511557832389 0 0 0 0 39.877288689414854 -86.095596417817433 0 -86.095596417817433 -100.46529373085286 0 0 0 0 71.647150085642352 -74.207776259111597 0 -74.207776259111597 -70.880218826765486 0 0 0 0 76.652679995750077 -80.331011332167691 0 -80.331011332167691 -95.293039172251156 0 0 0 0 14.985726291051833 -26.673061440906167 0 -26.673061440906167 -131.0466395430376 0 0 0 0 8.1677466091754809 -11.824173265192936 0 -11.824173265192936 17.09945849988911 0 0 0 0 82.730150174382288 -235.25875318289673 0 -235.25875318289673 -389.01388623287494 0 0 0 0 86.438342037028633 -104.90683479692416 0 -104.90683479692416 -41.968137270854641 0 0 0 0 56.144195542951536 -46.473910610928286 0 -46.473910610928286 22.228887815810509 0 0 0 0 -39.517038635938661 -164.61790233419924 0 -164.61790233419924 -253.66788695202558 0 0 0 0 31.402081078527488 -19.082521571922921 0 -19.082521571922921 -13.114752072030498 0 0 0 0 24.807513491046848 -55.542112873648875 0 -55.542112873648875 0.91091381554724649 0 0 0 0 215.16513640727499 116.92166067349626 0 116.92166067349626 -840.25887938644155 0 0 0 0 951.3090727804738 -114.50501864745092 0 -114.50501864745092 -779.66407514470484 0 0 0 0 368.49852625115454 -526.39958358501462 0 -526.39958358501462 -451.05851595144486 0 0 0 0 -57.961917469918262 -359.84663478857692 0 -359.84663478857692 -466.08295629378335 0 0 0 0 -113.98595709830624 -253.87543593967166 0 -253.87543593967166 -306.05299032813491 0 0 0 0 -221.24627614910059 -243.73286717174506 0 -243.73286717174506 -164.39008370735246 0 0 0 0 -437.17979984189515 -848.73198829357534 0 -848.73198829357534 -574.29097571696184 0 0 0 0 -2504.017082793478 -839.27747789187197 0 -839.27747789187197 -111.61841095047566 0 0 0 0 -2515.3316871649004 -1648.6094594008428 0 -1648.6094594008428 -900.56405459364942 0 0 0 0 4.426382581364237 -4.1816972382087307 0 -4.1816972382087307 2.6123685932025467 0 0 0 0 -2425.5817061146699 -1579.8797436748582 0 -1579.8797436748582 -1407.0330124591856 0 0 0 0 -2356.2005340658216 -1166.3526462479203 0 -1166.3526462479203 -639.10168289946887 0 0 0 0 7.0042609388807193 -7.9703615908931909 0 -7.9703615908931909 -7.2048539405663803 0 0 0 0 -4307.5401262929954 -1306.2816314693737 0 -1306.2816314693737 -785.39697191072992 0 0 0 0 -0.26051861711312085 -2162.1681398791734 0 -2162.1681398791734 -2506.6898678600828 0 0 0 0 -250.12546563615615 -1719.9389098997799 0 -1719.9389098997799 -819.24762957057101 0 0 0 0 188.50590475279023 -1532.1444416308732 0 -1532.1444416308732 -2075.5007538186837 0 0 0 0 183.86253468359064 -1673.3459622868068 0 -1673.3459622868068 -474.81136277079349 0 0 0 0 0.45445476085296832 -2041.7724032955884 0 -2041.7724032955884 -988.88860133793787 0 0 0 0 -1.7805772275556702 -1924.2649664638639 0 -1924.2649664638639 -240.42845030140597 0 0 0 0 -3.2456991355192031 -4.6231919011679281 0 -4.6231919011679281 9.793931748320432 0 0 0 0 1020.5391089291516 -3120.0137787685017 0 -3120.0137787685017 768.4363032577894 0 0 0 0 294.07165702621751 -2301.8937918569154 0 -2301.8937918569154 -825.27509116769215 0 0 0 0 604.97654632746708 -2116.6073020165713 0 -2116.6073020165713 1020.2883096175647 0 0 0 0 -7.3934955746602782 -4.4996210598569775 0 -4.4996210598569775 12.380564551650309 0 0 0 0 651.11458777610096 -2943.639404139718 0 -2943.639404139718 927.66434672837204 0 0 0 0 1359.192935542902 -2624.0352372882262 0 -2624.0352372882262 -591.22344256676297 0 0 0 0 952.26922544983609 -3184.3332345363706 0 -3184.3332345363706 2758.7183409799036 0 0 0 0 2294.9168010056601 -2017.9133090725809 0 -2017.9133090725809 1403.4566073317837 0 0 0 0 -558.20902489484433 -3397.7664008048741 0 -3397.7664008048741 2527.8289348789258 0 0 0 0 16.194784582155876 -11.621315025235035 0 -11.621315025235035 8.2525309637022417 0 0 0 0 -321.74887453913107 -4315.7289846094718 0 -4315.7289846094718 6089.7597141053993 0 0 0 0 16.195269501416362 -10.85193598622979 0 -10.85193598622979 5.8104449997515815 0 0 0 0 4377.5572381355742 -5381.3530950931745 0 -5381.3530950931745 1881.6544474198599 0 0 0 0 94.508681341631018 -5787.2120790941444 0 -5787.2120790941444 2455.9839955224306 0 0 0 0 -54.648796897788998 -3978.9045812532277 0 -3978.9045812532277 690.06590812143622 0 0 0 0 -1931.0230995429301 -4342.9669362466266 0 -4342.9669362466266 1569.5282927644439 0 0 0 0 898.87461790905218 -3504.9146080187711 0 -3504.9146080187711 904.19241823372431 0 0 0 0 -10.941695784022158 -3878.8335357428914 0 -3878.8335357428914 -239.07202336116461 0 0 0 0 -2073.1495897756249 -3627.9233009365307 0 -3627.9233009365307 -248.21769057192432 0 0 0 0 -488.61848854814161 -2649.9639162160092 0 -2649.9639162160092 -1930.2726182961924 0 0 0 0 -500.67587725134217 -2776.3066137777132 0 -2776.3066137777132 -566.87190615910913 0 0 0 0 -8.0511839515718293 -3.6489041151779702 0 -3.6489041151779702 11.435389785477554 0 0 0 0 201.6400705306296 -2097.1848797379553 0 -2097.1848797379553 -2397.0721450328347 0 0 0 0 -1169.6696609836072 -1927.9064603206061 0 -1927.9064603206061 -2417.2089342579538 0 0 0 0 -1193.0413031800417 -1734.9491455625721 0 -1734.9491455625721 -3899.6747013327549 0 0 0 0 -3532.1263762257295 -2778.2552366358068 0 -2778.2552366358068 -1697.7532951592839 0 0 0 0 -15.194316445147365 -1.2749219991737561 0 -1.2749219991737561 12.350136815906382 0 0 0 0 -4.8489187351706704 -15.16236695838839 0 -15.16236695838839 4.3049351104277207 0 0 0 0 -3931.958178482746 -4490.1009001944767 0 -4490.1009001944767 -1624.1209247716326 0 0 0 0 6756.2805119730328 -4878.7085576969112 0 -4878.7085576969112 -1575.8513584635875 0 0 0 0 688.53190665093462 -3430.8722130155893 0 -3430.8722130155893 -476.04568638179626 0 0 0 0 412.17371488883509 -5348.4189588466761 0 -5348.4189588466761 122.95415659553692 0 0 0 0 -1566.947429071025 -4059.331905000663 0 -4059.331905000663 89.293227021647908 0 0 0 0 -1828.8620933344646 -4710.9971911025059 0 -4710.9971911025059 11.586603523654048 0 0 0 0 -1037.9264009936596 -3703.6673004657896 0 -3703.6673004657896 -223.99684714908653 0 0 0 0 -724.76824060901708 -4024.6855254684706 0 -4024.6855254684706 15.579620554512076 0 0 0 0 -2164.8862494901623 -4087.7678632375773 0 -4087.7678632375773 295.21145271035493 0 0 0 0 -1770.5703658411221 -4252.2234882841003 0 -4252.2234882841003 -1622.2422633184237 0 0 0 0 -1944.287707733668 -4009.8704840389387 0 -4009.8704840389387 281.34143834476708 0 0 0 0 -1563.0986910559004 -4099.3019755856258 0 -4099.3019755856258 224.68410082328774 0 0 0 0 -2782.054574715643 -1671.5771835854684 0 -1671.5771835854684 -2146.9909617975677 0 0 0 0 -2867.0313793550158 -2320.6302031162522 0 -2320.6302031162522 -414.42957123264205 0 0 0 0 -1409.516938451241 -3825.8678319519458 0 -3825.8678319519458 222.832581288867 0 0 0 0 -1858.5484308983578 -3135.5698612022843 0 -3135.5698612022843 -459.06437099105096 0 0 0 0 126.88865084081772 -3738.472146554428 0 -3738.472146554428 -276.93002046562833 0 0 0 0 175.1814468276425 -3944.091926056688 0 -3944.091926056688 436.45166441407491 0 0 0 0 468.77530878937978 -3133.6156524485341 0 -3133.6156524485341 -1568.7671644410329 0 0 0 0 -18.921079596037544 -8.8313533390384578 0 -8.8313533390384578 16.943133857790173 0 0 0 0 -1368.9942000320298 -1847.8122045338096 0 -1847.8122045338096 -2409.9385556430116 0 0 0 0 418.20363901566452 -3087.0952434161072 0 -3087.0952434161072 -1154.5494003415297 0 0 0 0 1845.2266875155619 -3073.4644743251847 0 -3073.4644743251847 -1194.2955278970931 0 0 0 0 3073.4740381469892 -4166.9155309808775 0 -4166.9155309808775 146.49668535308956 0 0 0 0 0.54355510657680384 -5.0058471979865686 0 -5.0058471979865686 5.7150073199790654 0 0 0 0 -962.36322722199657 -2419.8120592918167 0 -2419.8120592918167 -409.8299707879487 0 0 0 0 155.69113489742449 -3537.7349366612216 0 -3537.7349366612216 98.935091416482464 0 0 0 0 860.84121126728132 -2863.1052078521461 0 -2863.1052078521461 -939.25503824513726 0 0 0 0 2174.7614754992392 -2876.8132976065717 0 -2876.8132976065717 -159.49620307414443 0 0 0 0 1848.2323982869566 -2902.2509570028269 0 -2902.2509570028269 -76.438411682895094 0 0 0 0 4561.6065562297008 -3027.3328003698116 0 -3027.3328003698116 255.60620904460666 0 0 0 0 -1.0257289215592778 -9.5782007221938699 0 -9.5782007221938699 11.653486488918048 0 0 0 0 2840.0791475328297 -2979.5288095812757 0 -2979.5288095812757 -318.62016803079678 0 0 0 0 4543.2512662516092 -3043.7721852561481 0 -3043.7721852561481 319.91397454609978 0 0 0 0 -1972.0402276541354 -1263.8760613003724 0 -1263.8760613003724 -1538.2446817667587 0 0 0 0 4012.1545878684992 -5280.0920732366831 0 -5280.0920732366831 859.16606663479615 0 0 0 0 -975.58229171729181 -2517.7923904606178 0 -2517.7923904606178 -1253.3250848510361 0 0 0 0 -4.7119517162924751 -7.2253192380501616 0 -7.2253192380501616 8.2807600478087124 0 0 0 0 5010.7694680363638 -4626.8226375482191 0 -4626.8226375482191 586.14140268438496 0 0 0 0 -268.97878963810217 -788.4761002727646 0 -788.4761002727646 -1425.0502494607572 0 0 0 0 0.91860269061504596 -9.6031180515984147 0 -9.6031180515984147 10.515424533166822 0 0 0 0 -9.5423612573441687 -3.8134891342111814 0 -3.8134891342111814 8.6911756974589025 0 0 0 0 9701.4626028907369 -4091.3432792765088 0 -4091.3432792765088 -345.86400675826008 0 0 0 0 4538.5766764716245 -3462.2476513688307 0 -3462.2476513688307 1282.002212553256 0 0 0 0 4544.3358600953943 -3550.6334195434465 0 -3550.6334195434465 -254.72756169487548 0 0 0 0 4913.4879997755925 -3410.5020785172819 0 -3410.5020785172819 -263.90404514231068 0 0 0 0 3948.7768457787461 -4095.600524389607 0 -4095.600524389607 436.95724889432313 0 0 0 0 11.445330371424063 -19.2936431887195 0 -19.2936431887195 16.256065125650764 0 0 0 0 -152.20043445883493 -323.39690416844314 0 -323.39690416844314 -445.36212671671819 0 0 0 0 2587.030531267359 -2887.4989633398436 0 -2887.4989633398436 1971.9534957876531 0 0 0 0 98.902977603603716 -67.065944512749297 0 -67.065944512749297 21.572313042620408 0 0 0 0 -66.661290675350472 -57.848740641275015 0 -57.848740641275015 74.773343339027747 0 0 0 0 -679.96986101370385 -961.97012496674051 0 -961.97012496674051 -1651.7276088841609 0 0 0 0 207.1056101078575 -809.16945478057642 0 -809.16945478057642 -1855.9504572008336 0 0 0 0 -364.7197875568163 -1169.8061419412115 0 -1169.8061419412115 -2080.40812852198 0 0 0 0 -666.3908047175355 -1020.8137215141796 0 -1020.8137215141796 -1916.3921018041146 0 0 0 0 -843.10396676888922 -749.55041668369813 0 -749.55041668369813 -1017.1403325722713 0 0 0 0 -836.25704985513585 -508.22566839169303 0 -508.22566839169303 -2766.8589231527876 0 0 0 0 -739.39184590647346 -1004.6519270560129 0 -1004.6519270560129 -850.03534196301189 0 0 0 0 -146.96469120151596 -1062.0413133012044 0 -1062.0413133012044 -2372.7425270238309 0 0 0 0 -282.09099221802899 -442.47045687637728 0 -442.47045687637728 -540.63932500316878 0 0 0 0 -5.4388028816524638 1.1868907314411388 0 1.1868907314411388 1.7205988310652458 0 0 0 0 -20.557595111816966 -22.516937801717518 0 -22.516937801717518 38.398827534885143 0 0 0 0 -282.09099221805809 -442.47045687639911 0 -442.47045687639911 -540.63932500315423 0 0 0 0 -139.1201771898086 -371.59794162059461 0 -371.59794162059461 -520.39777437600424 0 0 0 0 -266.99052526626838 -344.35052263549096 0 -344.35052263549096 -487.21635221748147 0 0 0 0 -192.90702701655391 -333.12362600350389 0 -333.12362600350389 -486.75356808080687 0 0 0 0 16.348704036836324 -1.993033403831646 0 -1.993033403831646 -7.7695821788974513 0 0 0 0 -282.09099221805809 -442.47045687629725 0 -442.47045687629725 -540.63932500324154 0 0 0 0 -522.93607122162939 -98.766055960717495 0 -98.766055960717495 -607.65695969073568 0 0 0 0 32.521752528030532 -6.886254624011201 0 -6.886254624011201 -10.638338079057434 0 0 0 0 -8.2996358689210084 -68.813589587825618 0 -68.813589587825618 11.080232604952613 0 0 0 0 -575.27847276294779 -237.9939343150545 0 -237.9939343150545 -869.19170845909684 0 0 0 0 -6.6996139059600068 -14.910698842862502 0 -14.910698842862502 -25.254446565074218 0 0 0 0 -7.227197003605113 -11.066285207168647 0 -11.066285207168647 -4.3478484827180068 0 0 0 0 -695.34597607588512 -715.41184781930497 0 -715.41184781930497 -1486.87432377816 0 0 0 0 -592.57271472693537 -237.41555054012133 0 -237.41555054012133 -868.92601011831903 0 0 0 0 2.8545398107761102 -52.563240370976501 0 -52.563240370976501 8.403412441328669 0 0 0 0 -1109.9816860433457 -72.787955545109071 0 -72.787955545109071 -1120.8213159670704 0 0 0 0 -3.7444857542409409 -10.633618332071904 0 -10.633618332071904 -19.345282052401117 0 0 0 0 -25.380203078859267 -34.562590971368053 0 -34.562590971368053 8.9201896181535005 0 0 0 0 -1479.5837144214893 -309.26049579157552 0 -309.26049579157552 -1391.4291376532074 0 0 0 0 -1990.409128318046 -879.79124605629477 0 -879.79124605629477 -1288.754599368498 0 0 0 0 -3214.0419117258189 -1912.7100307046489 0 -1912.7100307046489 -2145.7701279445319 0 0 0 0 -3137.8738800994324 -1787.4183727573727 0 -1787.4183727573727 -3116.0961950518104 0 0 0 0 -8.5044557897826607 -37.095443618793922 0 -37.095443618793922 5.9989173185035725 0 0 0 0 -1633.8411226974567 -1750.7604299241648 0 -1750.7604299241648 -3126.9718665011806 0 0 0 0 857.36290191620355 -1823.9196818775017 0 -1823.9196818775017 -2605.0323924839904 0 0 0 0 -277.92576998596269 -603.3220155611134 0 -603.3220155611134 -3198.9666031578527 0 0 0 0 751.43674272057251 -1865.9326772866516 0 -1865.9326772866516 -2273.6709258032497 0 0 0 0 1155.9902481521131 -3936.2639686717812 0 -3936.2639686717812 -348.43054216975725 0 0 0 0 1121.3627464580175 -2028.1355301694923 0 -2028.1355301694923 -2393.4644959806756 0 0 0 0 -7207.3305884399342 -1432.4931731682714 0 -1432.4931731682714 -3077.7012519991695 0 0 0 0 -10450.51512055481 -380.37510807085255 0 -380.37510807085255 -2661.213049828817 0 0 0 0 2.9301136224490847 -8.672971607910867 0 -8.672971607910867 12.277767022960148 0 0 0 0 -1338.1227609151974 -2694.4187519951738 0 -2694.4187519951738 -4090.2706781686884 0 0 0 0 -358.90359734775848 -2393.8911071918446 0 -2393.8911071918446 -3470.1362583166556 0 0 0 0 -1093.4891842988072 -2217.3009082628887 0 -2217.3009082628887 -3443.8891294641362 0 0 0 0 -743.40016925663804 -2340.3613767270035 0 -2340.3613767270035 -3622.3588688123855 0 0 0 0 -1245.4547316899116 -2356.8036326682959 0 -2356.8036326682959 -3510.6380854110575 0 0 0 0 -1589.6283326223056 -1615.2786811248625 0 -1615.2786811248625 -2835.1060548794776 0 0 0 0 -1723.6078371069161 -1717.0884858120553 0 -1717.0884858120553 -2742.5104412017936 0 0 0 0 -1070.835323818028 -1041.8487477854724 0 -1041.8487477854724 -2076.5509632262183 0 0 0 0 -818.46637650293997 -597.04430613820296 0 -597.04430613820296 -2033.355621647599 0 0 0 0 -1218.2042831114377 -875.64928211242659 0 -875.64928211242659 -2190.3789320239448 0 0 0 0 -1612.5921678047162 -598.36757302671322 0 -598.36757302671322 -1765.1777976188896 0 0 0 0 977.44515432648768 -1112.5749746220645 0 -1112.5749746220645 -3335.1650763584985 0 0 0 0 -104.27534184302203 -494.2656679026768 0 -494.2656679026768 -3025.4736860288831 0 0 0 0 -812.8932375763543 -645.50137435575743 0 -645.50137435575743 -2501.1548200320249 0 0 0 0 -292.80392323067645 -946.94232291702065 0 -946.94232291702065 -2432.5679643295498 0 0 0 0 -1124.5468400213358 -1236.4482315791311 0 -1236.4482315791311 -2500.6920106537436 0 0 0 0 -158.85586652620987 -1790.8662289057502 0 -1790.8662289057502 -3389.8176483953212 0 0 0 0 -947.76450634955836 -2115.6519332251701 0 -2115.6519332251701 -3333.704377744325 0 0 0 0 -1012.3195739322691 -1970.7629708229742 0 -1970.7629708229742 -3651.3066810224336 0 0 0 0 -612.61539524488035 -1796.9884137406771 0 -1796.9884137406771 -3950.0635404305494 0 0 0 0 -1162.4717201261083 -1948.9410390207813 0 -1948.9410390207813 -3968.3462294699348 0 0 0 0 -3902.5340418615087 188.40267728883555 0 188.40267728883555 -5294.4599807159611 0 0 0 0 1.6785662535409269 -11.388084502048713 0 -11.388084502048713 0.41807538587192994 0 0 0 0 7.4471034909506102 -2.6684789826498729 0 -2.6684789826498729 -4.4961093109822201 0 0 0 0 -823.45859820221085 -1113.6389563988159 0 -1113.6389563988159 -4295.7823945757928 0 0 0 0 181.58091539816814 -1638.5283034994063 0 -1638.5283034994063 -4321.0557534038089 0 0 0 0 -0.16773279654444195 -1566.567586920346 0 -1566.567586920346 -4231.6581795289094 0 0 0 0 -694.0401516778802 -1638.2635766698477 0 -1638.2635766698477 -3933.7247262908422 0 0 0 0 0.02416059112874791 -1910.5155971367039 0 -1910.5155971367039 -3846.0763456680525 0 0 0 0 -523.5379349833529 -1967.4707722686362 0 -1967.4707722686362 -3656.2292117777015 0 0 0 0 25.337326664412103 -1634.5549056852697 0 -1634.5549056852697 -3259.5795733436717 0 0 0 0 -544.63753218944476 -2052.8291037233466 0 -2052.8291037233466 -3415.7834785318228 0 0 0 0 -1.718555778672453 -604.75065691973214 0 -604.75065691973214 -2349.657587469188 0 0 0 0 212.20278193810373 -474.23521956797777 0 -474.23521956797777 -1900.6502218166152 0 0 0 0 -73.740412970173793 183.71454299865496 0 183.71454299865496 -4496.9731309944182 0 0 0 0 -1514.9782891493378 1303.3453644722958 0 1303.3453644722958 -4337.2950586718143 0 0 0 0 -77.763368730404181 -694.82359911144522 0 -694.82359911144522 -1995.0657351393602 0 0 0 0 -1.4587336819844801 -8.1109919599128943 0 -8.1109919599128943 0.29758871014901445 0 0 0 0 2255.4300354821607 -635.9553840586168 0 -635.9553840586168 -2895.8354783282812 0 0 0 0 230.89537620890769 -264.20504498644368 0 -264.20504498644368 -737.9233492443127 0 0 0 0 235.26422617709613 -633.56714676558113 0 -633.56714676558113 -713.84660347324689 0 0 0 0 -9.2486792431154754 -507.39604360685189 0 -507.39604360685189 61.372388695766858 0 0 0 0 181.0336975499813 -426.99592034675516 0 -426.99592034675516 -931.27175314353644 0 0 0 0 -382.20190224287217 -94.270412811192728 0 -94.270412811192728 -983.94467470972086 0 0 0 0 0.26873825836810283 -703.24599401875093 0 -703.24599401875093 42.202709581404633 0 0 0 0 -37.147080966256908 -346.07567244184611 0 -346.07567244184611 36.440983458058327 0 0 0 0 -217.91273324434587 -261.78770456337861 0 -261.78770456337861 1112.1288764044075 0 0 0 0 -0.0030127949588631964 -0.17678896467556626 0 -0.17678896467556626 -2.3883143001757396 0 0 0 0 -0.77870604683091671 -1244.0658963709072 0 -1244.0658963709072 -3094.8552442688087 0 0 0 0 -198.297426663019 -838.44764588018916 0 -838.44764588018916 -2280.4423005519711 0 0 0 0 -178.80344394803979 -1035.2695955404597 0 -1035.2695955404597 -3339.6490777611652 0 0 0 0 199.2453546605102 -2122.5149576506574 0 -2122.5149576506574 -2465.5721830997281 0 0 0 0 -44.575814921205165 -2403.3121204295421 0 -2403.3121204295421 -958.62912193180819 0 0 0 0 -296.05625680554658 -985.56068706969018 0 -985.56068706969018 -1484.2717701107904 0 0 0 0 5.4971264702037868 -27.340999942326334 0 -27.340999942326334 1.0042609842057573 0 0 0 0 -1223.6688884581672 -1354.3666028074986 0 -1354.3666028074986 -1495.0863975870852 0 0 0 0 435.3003965297039 -305.54149979107285 0 -305.54149979107285 -206.27552860618016 0 0 0 0 -0.87665122620265912 -22.934088672435337 0 -22.934088672435337 0.8404518690590379 0 0 0 0 65.294490916538052 -186.10197255756793 0 -186.10197255756793 253.92832973083296 0 0 0 0 -3.2481126457552136 -11.327028683829298 0 -11.327028683829298 0.76145980361939714 0 0 0 0 -1303.3483890950329 -640.04811916324422 0 -640.04811916324422 -228.48960371532303 0 0 0 0 -1118.5720571477432 -1055.7509842278996 0 -1055.7509842278996 -529.28090248403532 0 0 0 0 -1441.9149383527401 -1004.6855481576204 0 -1004.6855481576204 -466.22267860244392 0 0 0 0 -320.22067002498079 -467.09640212851446 0 -467.09640212851446 -496.7432971033486 0 0 0 0 13.091933229988513 -1.5831028114233163 0 -1.5831028114233163 -16.028969033533542 0 0 0 0 -544.27299821638735 -107.88370469473375 0 -107.88370469473375 -305.4209203146529 0 0 0 0 19.564783474489616 -7.8978464059338336 0 -7.8978464059338336 -9.637307832948153 0 0 0 0 -24.715544147925357 -29.662439505236875 0 -29.662439505236875 -66.29639081244386 0 0 0 0 5.5134192273788472 -15.977731810451616 0 -15.977731810451616 -14.957359091783697 0 0 0 0 -898.54283351975027 203.69685220829706 0 203.69685220829706 -1300.3015033871488 0 0 0 0 -838.26918475324055 -3.5727054830749694 0 -3.5727054830749694 -899.38873539968336 0 0 0 0 1.2939101777486712 3.353720587151372 0 3.353720587151372 -16.603989731336277 0 0 0 0 18.46189902930513 -7.4190223744153769 0 -7.4190223744153769 -9.1931268037942573 0 0 0 0 -340.90514694122248 200.62428594984522 0 200.62428594984522 -1936.3873986058024 0 0 0 0 -565.32134584413143 -180.75802776281489 0 -180.75802776281489 -2504.5828677984973 0 0 0 0 -359.12630114128115 396.71048925454306 0 396.71048925454306 -3470.1428202056049 0 0 0 0 12.254465574802396 -5.7696581416254276 0 -5.7696581416254276 -28.982260130938897 0 0 0 0 4.0013359363558152 2.6969569590277729 0 2.6969569590277729 -17.060113929296904 0 0 0 0 -1238.4179763553548 -317.47264024738433 0 -317.47264024738433 -1589.5347895587183 0 0 0 0 -1125.5240098543654 -91.021483716476268 0 -91.021483716476268 -1442.5422919615958 0 0 0 0 -1115.5944262449048 -408.52191135266185 0 -408.52191135266185 -2151.596126874967 0 0 0 0 -880.64820068748668 -70.021503500509425 0 -70.021503500509425 -1664.3822161600692 0 0 0 0 -1128.1572712871712 -115.72882853938791 0 -115.72882853938791 -1639.947551704714 0 0 0 0 21.66767035618949 -0.38590423898290283 0 -0.38590423898290283 -28.914660296749162 0 0 0 0 -1230.1249181694875 -1264.5022930265518 0 -1264.5022930265518 -421.15980814582872 0 0 0 0 24.816714543005446 -4.194569772241536 0 -4.194569772241536 -26.385115367225239 0 0 0 0 -913.29804585143575 -718.85310195181228 0 -718.85310195181228 -1768.7432878147592 0 0 0 0 -1941.8653527105198 -339.48457650459022 0 -339.48457650459022 -1669.1877473591012 0 0 0 0 -1327.2234969848869 -1205.5122124607456 0 -1205.5122124607456 -375.72188201111931 0 0 0 0 -1072.4836935753701 -541.15451046040835 0 -541.15451046040835 -664.00211423407382 0 0 0 0 -536.0524083917262 -613.0233026509286 0 -613.0233026509286 -1409.9903302447365 0 0 0 0 -952.84641877160175 -871.63701187406605 0 -871.63701187406605 -1194.7802393763195 0 0 0 0 -2028.9289901886077 -60.040708012285904 0 -60.040708012285904 -1481.4251943910303 0 0 0 0 -1320.9566557376966 -967.08995208911074 0 -967.08995208911074 -1387.4733602332271 0 0 0 0 -3691.2990520024177 -681.47142946208714 0 -681.47142946208714 -1090.61824572974 0 0 0 0 -2424.7908106425166 -1477.3741948214556 0 -1477.3741948214556 -2198.6266757605918 0 0 0 0 -2455.7602728982074 -956.12858505501265 0 -956.12858505501265 -1626.9174329324451 0 0 0 0 -1581.9948746808222 -577.92582332452002 0 -577.92582332452002 -1982.9258078897474 0 0 0 0 -967.62260884276839 -917.95339828449778 0 -917.95339828449778 -2032.9118469303648 0 0 0 0 -841.49862049691728 -559.69750908363494 0 -559.69750908363494 -1885.9476574906948 0 0 0 0 -1048.9212921495782 -351.4618807735751 0 -351.4618807735751 -1425.8004336966624 0 0 0 0 -793.10806514765136 -347.11627243550902 0 -347.11627243550902 -952.10334184354724 0 0 0 0 -1363.7488358351402 -358.65377843218812 0 -358.65377843218812 -1470.7954993519124 0 0 0 0 -555.97058056492824 -151.22687199262691 0 -151.22687199262691 -1138.4771266768626 0 0 0 0 -496.62875556951622 -803.75938686923291 0 -803.75938686923291 -964.7251353957472 0 0 0 0 -1255.2281266824866 -173.59164008539665 0 -173.59164008539665 -1011.7952030418637 0 0 0 0 218.30604932046845 -87.275298240292614 0 -87.275298240292614 -926.56671367050512 0 0 0 0 12.626755920145229 -13.663757894310606 0 -13.663757894310606 14.577276165477386 0 0 0 0 -1352.2282375112118 -210.72597135832439 0 -210.72597135832439 -292.99210674045389 0 0 0 0 -1233.4208115239544 150.5404842098651 0 150.5404842098651 -576.44275609249598 0 0 0 0 -635.03861687288736 -785.82150205478683 0 -785.82150205478683 -792.0524647140046 0 0 0 0 -13.771941435741006 -72.664380287376304 0 -72.664380287376304 31.140054013547399 0 0 0 0 42.590185971637879 -14.183342670585475 0 -14.183342670585475 -28.332959486195094 0 0 0 0 -414.53779390959244 -596.49480197297635 0 -596.49480197297635 -443.82149126314562 0 0 0 0 -1532.5636876892822 -625.48756928023067 0 -625.48756928023067 -1739.3183172542922 0 0 0 0 -948.61576774847572 31.181289272120921 0 31.181289272120921 -1225.8107814958348 0 0 0 0 -1258.950763930814 -76.066671553679043 0 -76.066671553679043 -1395.7341478246963 0 0 0 0 -1248.5844837301702 -72.009585615480319 0 -72.009585615480319 -1394.2804496303324 0 0 0 0 -755.24873171567742 -528.9480246440362 0 -528.9480246440362 -2355.9645694123064 0 0 0 0 -7.7978625730054318 -27.327586977822975 0 -27.327586977822975 0.43955026733694424 0 0 0 0 -24.128380974267309 -81.662122162162461 0 -81.662122162162461 13.237688252849182 0 0 0 0 -776.93949848838383 -62.916301554221718 0 -62.916301554221718 -1041.4157950550216 0 0 0 0 -10.324765305419085 -75.941871938014089 0 -75.941871938014089 12.23211990538087 0 0 0 0 -1122.2547389107876 69.325515926429716 0 69.325515926429716 -1843.7581191465724 0 0 0 0 -1316.9259565973334 -345.63123430252017 0 -345.63123430252017 -1149.3362159807111 0 0 0 0 -988.43289851446752 -117.83660830834924 0 -117.83660830834924 -1325.1414729990229 0 0 0 0 -5.4258180587754623 -19.0867119310509 0 -19.0867119310509 -0.66837099868109817 0 0 0 0 -1009.7946435421472 -825.77084002582706 0 -825.77084002582706 -1634.7271487034013 0 0 0 0 -1133.1281066909723 -496.05418167711468 0 -496.05418167711468 -355.88953030110861 0 0 0 0 -763.15333191916579 -611.6217567431886 0 -611.6217567431886 -3084.6976093496523 0 0 0 0 -914.99835593084572 -1067.8831994185603 0 -1067.8831994185603 -724.04632749882876 0 0 0 0 -838.12658115955128 -443.2261383915029 0 -443.2261383915029 -1187.4943449593666 0 0 0 0 -932.08269806559474 -330.20260159652116 0 -330.20260159652116 -531.60249046289391 0 0 0 0 -431.19140204459109 -768.866734763973 0 -768.866734763973 -1127.7082772479407 0 0 0 0 -615.5766878141003 -41.771830272089574 0 -41.771830272089574 -637.43474495781629 0 0 0 0 -1230.7309813602769 -227.84232616675581 0 -227.84232616675581 -575.40222924864065 0 0 0 0 -1184.6997553378751 52.358264778376906 0 52.358264778376906 -910.317950808776 0 0 0 0 -1188.4779476322874 -116.35790462809382 0 -116.35790462809382 -599.27420756650463 0 0 0 0 -1355.2698651673918 -257.06021528465226 0 -257.06021528465226 -707.23820940828591 0 0 0 0 -1256.77561652023 47.714711792597882 0 47.714711792597882 -1012.0317882297131 0 0 0 0 -1210.7512929347322 -302.32572914665752 0 -302.32572914665752 -873.93674550176002 0 0 0 0 -632.38730833993759 -94.699055214296095 0 -94.699055214296095 -825.89934851264843 0 0 0 0 -1278.0441784788563 690.08489335690683 0 690.08489335690683 -238.73899179377986 0 0 0 0 0.59372866228716248 -3.2586015154808123 0 -3.2586015154808123 0.72048198079978487 0 0 0 0 0.82303389929046489 1.0826555471143848 0 1.0826555471143848 0.77099004008494276 0 0 0 0 -368.0210296093137 7.4496918497679872 0 7.4496918497679872 105.51734685245174 0 0 0 0 -10.085551025518953 8.6202563604201288 0 8.6202563604201288 21.67473662909125 0 0 0 0 3.0148242499016646 -16.536806197772133 0 -16.536806197772133 1.8746031186666858 0 0 0 0 -1223.974885855132 -318.01177793946226 0 -318.01177793946226 -816.04277181879297 0 0 0 0 -1217.8690184180159 -477.77409148051447 0 -477.77409148051447 -1068.1011947456209 0 0 0 0 -15.84565992475558 1.9185875245178465 0 1.9185875245178465 18.695186392413724 0 0 0 0 -1164.1454584351595 -360.34650047590276 0 -360.34650047590276 -811.48953469471599 0 0 0 0 -1140.4049190366641 -197.83804040261748 0 -197.83804040261748 -671.00552126894763 0 0 0 0 -1.3252237423221231 -0.32880548379219476 0 -0.32880548379219476 4.9494827865721973 0 0 0 0 -1262.5663524605334 61.863948271013214 0 61.863948271013214 709.66867967986036 0 0 0 0 -1188.2018506354361 216.98174657534219 0 216.98174657534219 -1350.8092742244389 0 0 0 0 -942.97781755338656 -47.670455383460649 0 -47.670455383460649 -1254.6589794623083 0 0 0 0 -930.73275697507779 12.29262404612291 0 12.29262404612291 -1207.294853604355 0 0 0 0 -1348.0948613132787 101.44949796659785 0 101.44949796659785 -1034.0079352599159 0 0 0 0 -1235.7914005819766 1013.5134515070313 0 1013.5134515070313 -2233.4422508154548 0 0 0 0 -524.49740131004364 573.63400123104475 0 573.63400123104475 -2316.4709693206278 0 0 0 0 -741.50414080456903 -381.44863088272518 0 -381.44863088272518 -1478.8494447513949 0 0 0 0 -1317.4120611998915 -69.710999518900735 0 -69.710999518900735 -670.04273812099927 0 0 0 0 -1.0824590215869989 1.0103728275484656 0 1.0103728275484656 -0.69417335015669579 0 0 0 0 -473.16125787766941 -956.22044740599358 0 -956.22044740599358 -524.4297292285305 0 0 0 0 -1192.8256910628988 -890.11058812828196 0 -890.11058812828196 -135.74914791769859 0 0 0 0 -2.8317214764538789 1.2389947623096305 0 1.2389947623096305 2.5666867779661873 0 0 0 0 -1678.2453790147265 -890.36429103126568 0 -890.36429103126568 -135.40743356727239 0 0 0 0 -1500.1382203345784 -196.02274289622787 0 -196.02274289622787 -297.24655877255839 0 0 0 0 -840.80585476970009 -242.52590963016166 0 -242.52590963016166 -294.20770228508582 0 0 0 0 -714.83324821988208 -84.714711451174367 0 -84.714711451174367 -1032.7541730846115 0 0 0 0 -1313.6060849073838 156.34701546998508 0 156.34701546998508 -538.30613889369488 0 0 0 0 -225.98613240561099 -239.91926000438116 0 -239.91926000438116 -427.92406752851048 0 0 0 0 -6.02427372560566 -25.84504952980825 0 -25.84504952980825 4.1805035647833648 0 0 0 0 -136.17135250638239 -94.137828466194151 0 -94.137828466194151 -942.87648067547889 0 0 0 0 -238.64068996679271 -183.28974917055712 0 -183.28974917055712 -646.08409881566513 0 0 0 0 -267.33535589434541 -313.93007953172821 0 -313.93007953172821 -319.50370722121261 0 0 0 0 -197.17873409914318 -95.781556026614226 0 -95.781556026614226 -359.64020440259173 0 0 0 0 -268.30441469579819 -39.101392566128141 0 -39.101392566128141 -10.678705180926954 0 0 0 0 7.5230892784438055 -34.538785999731545 0 -34.538785999731545 -9.7909895218003129 0 0 0 0 4.1747102099089943 -4.7393427841941786 0 -4.7393427841941786 5.3663370526220877 0 0 0 0 -233.8819042150717 -179.31501553558377 0 -179.31501553558377 -366.90212951009426 0 0 0 0 -289.24630638337112 -110.32984109473364 0 -110.32984109473364 -391.14936216522665 0 0 0 0 7.2218301347798501 -31.52072719592087 0 -31.52072719592087 -8.9468514653595292 0 0 0 0 -292.31730790018628 -112.12775366831215 0 -112.12775366831215 -729.45720544495816 0 0 0 0 -1.9459087252865288 -7.3668916180956856 0 -7.3668916180956856 -3.462455445790293 0 0 0 0 -251.56449384981534 -56.021620186214022 0 -56.021620186214022 -349.04575084830822 0 0 0 0 -137.19212366476859 83.506647353506651 0 83.506647353506651 -728.88197200426293 0 0 0 0 -379.12383326379495 -41.104279013280163 0 -41.104279013280163 -404.41338694549961 0 0 0 0 -195.90040884396876 -233.92414750508124 0 -233.92414750508124 -634.4148153043634 0 0 0 0 10.670611819021246 -34.5480830685934 0 -34.5480830685934 -9.8624770004781368 0 0 0 0 -502.75405636637879 -136.8534461014516 0 -136.8534461014516 -1143.7137228738484 0 0 0 0 16.584459905802383 -42.703352380557732 0 -42.703352380557732 -12.252729513159675 0 0 0 0 -63.041655902547063 140.8548555556572 0 140.8548555556572 -1159.8133876074889 0 0 0 0 -181.8811644014495 -107.24153787234536 0 -107.24153787234536 -894.02308584151069 0 0 0 0 -2.8756501362736202 -34.653332085306459 0 -34.653332085306459 5.5682992984039785 0 0 0 0 -1451.4726203129248 209.10141280069547 0 209.10141280069547 -1076.5180718412521 0 0 0 0 -199.87536398787051 62.561697849974735 0 62.561697849974735 -856.95132731077956 0 0 0 0 -246.2362567660457 -62.659659673429815 0 -62.659659673429815 -1085.4167831243776 0 0 0 0 38.207993427768372 -35.474973287003088 0 -35.474973287003088 -6.4868408080374635 0 0 0 0 -1385.7549412093649 -255.67935345366823 0 -255.67935345366823 -821.39173552818829 0 0 0 0 1.4543688106024959 -48.037887387245917 0 -48.037887387245917 7.6869679175076158 0 0 0 0 250.95427960575034 -17.934815699787578 0 -17.934815699787578 -1020.858747268554 0 0 0 0 -6.0521043495537015 30.416097771621935 0 30.416097771621935 -1582.3787028012739 0 0 0 0 180.92830023852366 -42.258572279423788 0 -42.258572279423788 -950.15725341303914 0 0 0 0 3.9132410761218637 -10.719864202182009 0 -10.719864202182009 -3.0723129489863368 0 0 0 0 301.03972990755574 -54.859853603973534 0 -54.859853603973534 -1003.4633107056288 0 0 0 0 -605.93095996067859 -285.11807293488891 0 -285.11807293488891 -1483.4119062795216 0 0 0 0 5.6218176342149491 -30.270122622790225 0 -30.270122622790225 -9.3896820334937949 0 0 0 0 -286.31234724351089 -69.538908616487788 0 -69.538908616487788 -1322.8781610351157 0 0 0 0 -735.99197797250235 -140.06017576901468 0 -140.06017576901468 -1262.8427261496327 0 0 0 0 -669.98229537281441 9.6430379467710736 0 9.6430379467710736 -1401.8486391261522 0 0 0 0 -4.3544861469873837 -19.175661691595081 0 -19.175661691595081 7.9490168904467708 0 0 0 0 212.08473221998429 -371.18140851057251 0 -371.18140851057251 -2093.8230037198887 0 0 0 0 -2257.2551410561937 -383.72101341995767 0 -383.72101341995767 -3247.5166178103027 0 0 0 0 -1939.8694597725844 -1281.1926388417451 0 -1281.1926388417451 -2813.4111459962587 0 0 0 0 -12.268261854566347 -24.668993337852271 0 -24.668993337852271 10.491789549557389 0 0 0 0 -637.0536335206416 -348.01944356712193 0 -348.01944356712193 -548.66045821116131 0 0 0 0 -6.6997550663029983 -3.1725973984014217 0 -3.1725973984014217 14.535509991123089 0 0 0 0 -1181.2229720199393 -33.683142285723079 0 -33.683142285723079 -1137.7200022624334 0 0 0 0 -394.35736350108346 -9.4454677137750878 0 -9.4454677137750878 -1119.678930967475 0 0 0 0 -383.95841881263914 -104.2403208013194 0 -104.2403208013194 -760.23084369353728 0 0 0 0 -262.94008233037312 47.726588594543955 0 47.726588594543955 -1017.9701025730174 0 0 0 0 -201.02318847135757 -58.198481253645014 0 -58.198481253645014 -790.90392544424424 0 0 0 0 -17.52793519834276 -19.366649049654427 0 -19.366649049654427 8.5658042704036781 0 0 0 0 0.064479744247023518 -6.4880323031252942 0 -6.4880323031252942 13.852125451606145 0 0 0 0 -20.382249009620864 -29.001404984451028 0 -29.001404984451028 -8.7624488595902221 0 0 0 0 3.598171369450256 -25.22330025178001 0 -25.22330025178001 8.9479015864296372 0 0 0 0 -5.4551051605677117 -20.017220779693751 0 -20.017220779693751 -1.0330872952593142 0 0 0 0 -332.66470389772439 38.227442335438809 0 38.227442335438809 -198.12647274631627 0 0 0 0 -184.44898425579595 -112.88023169768871 0 -112.88023169768871 -271.79967401213457 0 0 0 0 -550.5699707318563 16.41205250404505 0 16.41205250404505 -221.48939377496049 0 0 0 0 -11.897812989544491 -30.34104780176736 0 -30.34104780176736 12.779642958459753 0 0 0 0 -192.21885370300151 -129.75132691837734 0 -129.75132691837734 -285.7779230811816 0 0 0 0 18.553964891502744 -11.324091864675324 0 -11.324091864675324 2.9367135609266137 0 0 0 0 -409.2213111435849 -118.56415690732774 0 -118.56415690732774 -152.66173145042103 0 0 0 0 -314.74975937849376 -151.15112905063165 0 -151.15112905063165 -243.90214296944532 0 0 0 0 -1.689637192478358 -6.0480947078199847 0 -6.0480947078199847 1.9373163231472685 0 0 0 0 -599.05092369575868 -317.78735554931745 0 -317.78735554931745 -651.20224343322752 0 0 0 0 -723.82155294220865 -263.72051604958619 0 -263.72051604958619 -529.6471088704966 0 0 0 0 -401.66796516302566 -451.96891586404172 0 -451.96891586404172 -662.14676515105202 0 0 0 0 -272.8151131405466 -23.356852022619222 0 -23.356852022619222 2.2027753459034329 0 0 0 0 -339.40632267278852 -134.32038524611119 0 -134.32038524611119 363.46214159940837 0 0 0 0 0.62682176570410775 2.1592393827851808 0 2.1592393827851808 -1.9132606450282119 0 0 0 0 0.00086254184134304523 -338.42328610184745 0 -338.42328610184745 -46.02415599613812 0 0 0 0 -379.56796655085054 -449.04643612637392 0 -449.04643612637392 -883.71167123972282 0 0 0 0 -0.26493973594915587 -598.28814301297143 0 -598.28814301297143 -1373.7629219199744 0 0 0 0 -0.71796697311219759 -795.47623414723239 0 -795.47623414723239 -742.45687086385442 0 0 0 0 -716.24209525668994 -564.88023760977694 0 -564.88023760977694 -676.31117791768702 0 0 0 0 -458.18750868795905 -606.96471916318569 0 -606.96471916318569 -669.77542328784557 0 0 0 0 -424.48177463171305 51.493737111741211 0 51.493737111741211 -3146.5108030316769 0 0 0 0 -1168.0193224647664 -37.029920215591119 0 -37.029920215591119 -1148.5768097017344 0 0 0 0 4.1069066869320636 -22.29030584809329 0 -22.29030584809329 -3.4480517615940114 0 0 0 0 -14.268790105949279 -0.56509339981181483 0 -0.56509339981181483 17.655143962481027 0 0 0 0 123.03604965590057 -1813.4599712807394 0 -1813.4599712807394 -2971.0257263556377 0 0 0 0 -494.50038747686267 -719.30040143293422 0 -719.30040143293422 32.993849314909312 0 0 0 0 1107.7410303598153 -83.738925007075522 0 -83.738925007075522 -4471.6217218713537 0 0 0 0 0.032007831187513602 -2.9964408386561274 0 -2.9964408386561274 6.395708899865312 0 0 0 0 0.33119005718987182 -1.781574623536855 0 -1.781574623536855 -0.65516197966675627 0 0 0 0 69.662899739057934 -79.360828927890282 0 -79.360828927890282 3.842810917500822 0 0 0 0 1090.1124973742408 145.69749421279994 0 145.69749421279994 -3169.4285007234866 0 0 0 0 -214.3204674628505 -833.75439162945804 0 -833.75439162945804 -866.71296732248811 0 0 0 0 629.68265156927737 -1049.5820022494868 0 -1049.5820022494868 -2070.6569172780546 0 0 0 0 156.00741078701685 -479.9776579290201 0 -479.9776579290201 -1903.9843324478752 0 0 0 0 111.72802476331708 36.728529989160961 0 36.728529989160961 -3181.1771855615189 0 0 0 0 -738.76645190491399 -767.02795814075398 0 -767.02795814075398 -836.40704905923485 0 0 0 0 24.399647762366072 -97.418257399956033 0 -97.418257399956033 10.529728493711143 0 0 0 0 -362.73224375832797 -104.76907137307535 0 -104.76907137307535 -569.93188282514893 0 0 0 0 400.45377052408003 -366.1444577806833 0 -366.1444577806833 -1913.6206103062759 0 0 0 0 -344.13869125631754 -1053.435700847469 0 -1053.435700847469 -920.43848801114291 0 0 0 0 -466.28973704847158 -818.7132568904799 0 -818.7132568904799 2218.6926224176641 0 0 0 0 106.30856390466215 -1149.8534381627269 0 -1149.8534381627269 -938.21608566048008 0 0 0 0 -336.44477608903253 -2681.1771750307098 0 -2681.1771750307098 1632.9428588452365 0 0 0 0 -415.67238514347991 -2607.7272777259896 0 -2607.7272777259896 1634.9735098202291 0 0 0 0 -106.13337427840452 -1904.3515581693282 0 -1904.3515581693282 261.1368012957646 0 0 0 0 694.19776237134647 -3012.4946789322112 0 -3012.4946789322112 775.80557366512676 0 0 0 0 333.28132115768312 -2157.43359358203 0 -2157.43359358203 78.125133388213726 0 0 0 0 152.05437653353147 -1260.7794738095909 0 -1260.7794738095909 -1203.7367883995591 0 0 0 0 1619.998944066072 -2280.4783025782272 0 -2280.4783025782272 -1110.0417433298135 0 0 0 0 118.90648370160488 -1878.8236995678344 0 -1878.8236995678344 -178.83409495921842 0 0 0 0 1057.0259134978478 -1767.8065483563969 0 -1767.8065483563969 -2164.2106895296283 0 0 0 0 571.67573846699088 -752.17949223645087 0 -752.17949223645087 -2437.5847724150135 0 0 0 0 508.59793218938285 -344.63421171869959 0 -344.63421171869959 -3232.6672429315222 0 0 0 0 97.410459227274259 -72.895222170601301 0 -72.895222170601301 -7.3806410425077917 0 0 0 0 390.5602629379523 -756.71476384270295 0 -756.71476384270295 -3570.0198843480157 0 0 0 0 915.33534868129937 -48.897196320906005 0 -48.897196320906005 -5051.1275779654152 0 0 0 0 776.02599155603821 -482.64333837298182 0 -482.64333837298182 -3265.9120715629069 0 0 0 0 -534.4773382734711 -1293.6675408478841 0 -1293.6675408478841 -3753.0804457205595 0 0 0 0 582.10161536035594 -1779.6138054365601 0 -1779.6138054365601 -2665.8828358874489 0 0 0 0 2.1153841431920171 13.980977664132951 0 13.980977664132951 -35.011673658017664 0 0 0 0 99.22596934892681 -109.02624836466914 0 -109.02624836466914 -27.165928539907327 0 0 0 0 99.145505594318536 -69.464198085560383 0 -69.464198085560383 -23.528593312352314 0 0 0 0 59.860259302891791 -98.297519734154776 0 -98.297519734154776 -29.775512803480524 0 0 0 0 87.664761435356922 -76.347134779163753 0 -76.347134779163753 0.52574707581061375 0 0 0 0 118.46750414591952 -69.302214258439562 0 -69.302214258439562 -33.423619622397382 0 0 0 0 87.664009439831716 -87.707389559833246 0 -87.707389559833246 -34.267519208999147 0 0 0 0 87.701444980383826 -55.578727421335749 0 -55.578727421335749 -38.893504561048758 0 0 0 0 82.492677982212626 -68.968072026851587 0 -68.968072026851587 -50.396343781332689 0 0 0 0 79.017393270009052 -82.349609285539827 0 -82.349609285539827 -58.960939425174729 0 0 0 0 73.924395034347981 -56.40007473744663 0 -56.40007473744663 -63.973355039233866 0 0 0 0 69.031872637292167 -105.12613346984037 0 -105.12613346984037 -40.871252315359015 0 0 0 0 69.48900490354572 -70.758577489152231 0 -70.758577489152231 -49.228540019081265 0 0 0 0 50.753835665964289 -97.802364709956237 0 -97.802364709956237 -59.238845950007089 0 0 0 0 45.416347917838721 -59.469254395160533 0 -59.469254395160533 -74.298738097997557 0 0 0 0 41.695513446655241 -90.353681841970683 0 -90.353681841970683 -48.529342229023314 0 0 0 0 49.875872847944265 -113.5687652944107 0 -113.5687652944107 -36.114973624678896 0 0 0 0 44.874249607033562 -114.79260296648135 0 -114.79260296648135 -35.596257906527171 0 0 0 0 59.87366784446899 -117.81291783315963 0 -117.81291783315963 -37.217655615131662 0 0 0 0 57.555063687235815 -110.59803219408059 0 -110.59803219408059 0.23325502068951209 0 0 0 0 48.690824976874865 -97.958267152572716 0 -97.958267152572716 -59.854153568725451 0 0 0 0 48.962860864237882 -94.28699864457667 0 -94.28699864457667 -20.789617607679247 0 0 0 0 24.391808311949717 -116.35551429778388 0 -116.35551429778388 -73.704733252237929 0 0 0 0 -6.7991528793427278 -126.59875678223943 0 -126.59875678223943 -49.715568851966964 0 0 0 0 69.234342932881717 -77.896350674720281 0 -77.896350674720281 -26.758908907857332 0 0 0 0 6.8567933883314254 -109.52122823618265 0 -109.52122823618265 -32.770518255816569 0 0 0 0 55.230104028224929 -71.595318958584016 0 -71.595318958584016 -4.6904471569773136 0 0 0 0 -1684.0147197334518 -596.6044831994268 0 -596.6044831994268 1029.9855029729151 0 0 0 0 60.269381737576623 -104.27433359052338 0 -104.27433359052338 -40.231701485216036 0 0 0 0 43.551560674335633 -105.03028339741968 0 -105.03028339741968 -34.329778882340179 0 0 0 0 -890.39004025435133 -456.46882360102609 0 -456.46882360102609 3431.6905376072955 0 0 0 0 1.2247750444356598 -0.27644572170058268 0 -0.27644572170058268 -2.8800718857464389 0 0 0 0 -468.89060245486326 -365.0847629540749 0 -365.0847629540749 -508.18803739802752 0 0 0 0 -540.72544787978404 -3382.0160382845861 0 -3382.0160382845861 -5144.4920182793721 0 0 0 0 -297.46323082380695 -2200.9937288024157 0 -2200.9937288024157 -621.97414889832726 0 0 0 0 687.5625997528914 -2222.9990883547634 0 -2222.9990883547634 -665.55042809442966 0 0 0 0 207.71460749953985 -1695.7924561032351 0 -1695.7924561032351 -488.34466383330437 0 0 0 0 1690.1600606997963 -442.25343494105255 0 -442.25343494105255 -4043.5927875600955 0 0 0 0 -327.02190192142734 -1020.2062070896445 0 -1020.2062070896445 -568.59094433150358 0 0 0 0 33.354744645897881 -978.586412162751 0 -978.586412162751 -1823.8897683105679 0 0 0 0 -946.54473250247247 -1217.9699160313885 0 -1217.9699160313885 81.400954809986615 0 0 0 0 4215.8535578811279 -3354.8331995691151 0 -3354.8331995691151 -1276.1865477698993 0 0 0 0 0.70928711256053134 -2.4192514977805644 0 -2.4192514977805644 2.2156317036758963 0 0 0 0 -578.20815125774971 -887.32228285912788 0 -887.32228285912788 -1010.2411026403879 0 0 0 0 2256.9149207367445 -3230.1647654981025 0 -3230.1647654981025 -1139.3857785456084 0 0 0 0 3877.7396016906278 -2317.0394589551488 0 -2317.0394589551488 -1379.1524641952274 0 0 0 0 3603.0342667067089 -2791.3735535567248 0 -2791.3735535567248 -1095.1370354502651 0 0 0 0 1531.9185973772546 -1655.0812753638384 0 -1655.0812753638384 -1308.508258188238 0 0 0 0 3255.6466376402968 -2342.0171131175011 0 -2342.0171131175011 -1906.4668397517944 0 0 0 0 2987.3693425796082 -3107.3682522345753 0 -3107.3682522345753 -1361.383340804178 0 0 0 0 1079.7362914359182 -2973.8017105716667 0 -2973.8017105716667 1338.8193447430695 0 0 0 0 -77.096628825160764 -55.996161360661176 0 -55.996161360661176 75.53509616347597 0 0 0 0 -54.784137388705858 -1190.4090848754158 0 -1190.4090848754158 -1296.811274734112 0 0 0 0 -147.040169707725 -525.51973313889266 0 -525.51973313889266 -723.55660734073172 0 0 0 0 -68.328522843747237 -61.221684406172059 0 -61.221684406172059 78.566221230217053 0 0 0 0 -898.84683263667102 411.85948313906192 0 411.85948313906192 908.36834019112575 0 0 0 0 490.33377502451185 1113.1320004073568 0 1113.1320004073568 1245.1925631312558 0 0 0 0 3764.426684629434 -555.39263500759444 0 -555.39263500759444 -978.33797778736698 0 0 0 0 679.4366466347019 -1921.3214480715594 0 -1921.3214480715594 -1582.497515469393 0 0 0 0 29.943026636848117 -63.855870376684159 0 -63.855870376684159 48.084102254245806 0 0 0 0 -1487.5579274716583 -1079.3123616681132 0 -1079.3123616681132 -941.73979226502161 0 0 0 0 -25.365061640401223 -26.869844198624889 0 -26.869844198624889 33.363059050251742 0 0 0 0 -717.72318701827317 -310.80897340370575 0 -310.80897340370575 -477.55199647347763 0 0 0 0 -720.00396712885413 -615.14945367291102 0 -615.14945367291102 2143.6498947392647 0 0 0 0 9186.9536276489962 -2200.4239773766549 0 -2200.4239773766549 -3432.1927902569005 0 0 0 0 19.323147406818833 -40.196249162379473 0 -40.196249162379473 38.634309223526408 0 0 0 0 4770.5243564311531 -3710.8395077252094 0 -3710.8395077252094 3234.3900594905936 0 0 0 0 76.738217125470896 -34.387464108596681 0 -34.387464108596681 6.0032483782704444 0 0 0 0 -2546.0631064561603 -3142.6914720492259 0 -3142.6914720492259 8954.5858534784638 0 0 0 0 -887.42693250403681 -4486.9445163301107 0 -4486.9445163301107 8915.7751446987168 0 0 0 0 35.864074283843365 -4.1693414103841846 0 -4.1693414103841846 1.60055513547013 0 0 0 0 32.523110373086666 -17.058653556967904 0 -17.058653556967904 7.3869496433193795 0 0 0 0 -1683.61615782648 -826.32035267676383 0 -826.32035267676383 193.98394076679324 0 0 0 0 -597.55928252098965 1133.7770031419805 0 1133.7770031419805 2182.0182215199466 0 0 0 0 4726.1733217790752 -5133.4831954762913 0 -5133.4831954762913 -2857.1893879950458 0 0 0 0 -515.70133564637217 -3487.705920846558 0 -3487.705920846558 4917.8847740272813 0 0 0 0 3019.3821634649235 -4128.5726469001011 0 -4128.5726469001011 1790.3420915281313 0 0 0 0 3392.6737230069202 228.48635689963709 0 228.48635689963709 -641.48725251007636 0 0 0 0 -1071.0752227503326 -1370.9578942000103 0 -1370.9578942000103 113.30630294625917 0 0 0 0 1199.0958084338054 -578.27599410755147 0 -578.27599410755147 -3181.9805561598496 0 0 0 0 35.815743951399782 -305.65092305382859 0 -305.65092305382859 -1001.0320628503632 0 0 0 0 -1479.2721142483206 250.77637670744662 0 250.77637670744662 898.90275520994282 0 0 0 0 23.7448231967428 -267.31840555126746 0 -267.31840555126746 -570.68397874586299 0 0 0 0 -1547.7897175069083 -464.24233991223355 0 -464.24233991223355 -2903.0872156994847 0 0 0 0 8.8403346709665698 -49.436445870011873 0 -49.436445870011873 25.587000810584751 0 0 0 0 -78.016924309039382 -80.586361367139645 0 -80.586361367139645 100.41887092408112 0 0 0 0 -506.88749383714821 -1116.999158217387 0 -1116.999158217387 -2334.4945631193987 0 0 0 0 255.60673667534138 -1437.7422190355783 0 -1437.7422190355783 -3103.5196090205227 0 0 0 0 -512.90598416217836 -1169.8651923803645 0 -1169.8651923803645 -2003.7580521831751 0 0 0 0 20.171332295092981 -47.443408343685107 0 -47.443408343685107 32.248756053093175 0 0 0 0 -432.64258304286341 19.191874736232876 0 19.191874736232876 -946.12162469747091 0 0 0 0 -634.3232093280094 113.78944006165693 0 113.78944006165693 -197.72605732891952 0 0 0 0 -335.41952189018775 -500.21244593119354 0 -500.21244593119354 -572.86075540373349 0 0 0 0 -1468.7442081869667 -167.54263661940695 0 -167.54263661940695 41.088395001997014 0 0 0 0 -94.336785615728616 -76.226586383652574 0 -76.226586383652574 100.15692588999998 0 0 0 0 -266.68584702452063 -434.61162633374624 0 -434.61162633374624 -1794.3466110008303 0 0 0 0 5.4811990103762014 -31.167984108073583 0 -31.167984108073583 27.439002563757839 0 0 0 0 -1125.520149932825 -787.52249648701945 0 -787.52249648701945 -1921.5491557936366 0 0 0 0 -1158.5515422609751 -527.44152156609016 0 -527.44152156609016 -1150.3152028348613 0 0 0 0 -1102.2422830138239 42.901895339116891 0 42.901895339116891 -1949.3152224245359 0 0 0 0 -1911.4316637041338 591.12886846324545 0 591.12886846324545 -732.18610062818198 0 0 0 0 -1.6882601485435202 9.143688795618564 0 9.143688795618564 1.8877852463270397 0 0 0 0 -462.94483160422533 -514.97090104983909 0 -514.97090104983909 -1920.3601349758028 0 0 0 0 -1921.0551250303106 189.44096645554328 0 189.44096645554328 -1506.4222318425273 0 0 0 0 -4.6310557831992583 1.0616503433803075 0 1.0616503433803075 4.2558441036136969 0 0 0 0 -1699.725065632927 140.01755106489418 0 140.01755106489418 -2121.2696006444935 0 0 0 0 -1424.1284397256386 -64.004301323922846 0 -64.004301323922846 -2174.2404950498294 0 0 0 0 -8.3986929314986014 7.0186412039324182 0 7.0186412039324182 -4.6606359632988301 0 0 0 0 -1559.8310494077159 -206.78544560247246 0 -206.78544560247246 -1905.5988761546105 0 0 0 0 9.8643967796988363 7.4879317706374593 0 7.4879317706374593 -12.74715894838328 0 0 0 0 -1381.080427519657 -196.77460073808834 0 -196.77460073808834 -2008.8599607791148 0 0 0 0 -1313.1245823818026 -673.34503073115775 0 -673.34503073115775 -1941.3169232348519 0 0 0 0 -36.75564727466184 -30.348277908605638 0 -30.348277908605638 37.054467851964084 0 0 0 0 -1631.3203805325466 -569.90712273839927 0 -569.90712273839927 -1926.8097012916405 0 0 0 0 -1358.3261508533906 -691.44376850003937 0 -691.44376850003937 -1944.0132442348404 0 0 0 0 13.766830770159459 -6.3830874285987846 0 -6.3830874285987846 -9.3581854174149903 0 0 0 0 -1632.9487565850141 -544.08903775341605 0 -544.08903775341605 -1817.4474542274479 0 0 0 0 -1503.0855804413441 -694.57743150819442 0 -694.57743150819442 -1830.8379367834841 0 0 0 0 -1813.5604630297312 -597.46790176117247 0 -597.46790176117247 -1846.0822391735965 0 0 0 0 -2142.8081153464736 -163.05196858724958 0 -163.05196858724958 -1858.133284195229 0 0 0 0 -881.67832572322732 -1186.0338976719388 0 -1186.0338976719388 -797.53584428087197 0 0 0 0 6.835945219408643 -1.4964077803734313 0 -1.4964077803734313 -9.3566425818038876 0 0 0 0 -1646.8852492990845 -616.54414522564434 0 -616.54414522564434 -836.75546502889756 0 0 0 0 1.0464449339839916 -0.35805901579537647 0 -0.35805901579537647 -1.243852746077335 0 0 0 0 -593.30082842857519 -1108.5717906505752 0 -1108.5717906505752 -1758.2224765832798 0 0 0 0 -898.79548281464668 -1508.0289845813595 0 -1508.0289845813595 -2129.673529819851 0 0 0 0 -176.16369181300979 -1259.5665155408315 0 -1259.5665155408315 -2115.6143421339566 0 0 0 0 -122.22348695628273 -91.910205574006369 0 -91.910205574006369 122.89011301362009 0 0 0 0 -1102.028630092158 -838.57775154070396 0 -838.57775154070396 -1954.0160931554874 0 0 0 0 -1366.0171833006607 -807.78998793670689 0 -807.78998793670689 -1788.132246742709 0 0 0 0 -1724.0290058697574 -519.04052180728468 0 -519.04052180728468 -1786.6887400653832 0 0 0 0 -1016.7316021794395 -827.3671064793989 0 -827.3671064793989 -1822.5436896880165 0 0 0 0 -1456.579656230344 -650.66529607266784 0 -650.66529607266784 -1803.497445562258 0 0 0 0 -1511.5658697662366 -904.30607332606178 0 -904.30607332606178 -1638.4585111069682 0 0 0 0 -918.69470679491496 -1445.8455881874588 0 -1445.8455881874588 -1679.119572596479 0 0 0 0 -103.61086253120492 -104.90943676791025 0 -104.90943676791025 131.25035255549565 0 0 0 0 -504.74903752009959 -639.64637952034991 0 -639.64637952034991 -491.99696619530368 0 0 0 0 -914.14010660856366 -1437.5354822911181 0 -1437.5354822911181 -1837.9935918553674 0 0 0 0 -5.6144944024488268 -35.894228608722159 0 -35.894228608722159 16.922923194160262 0 0 0 0 -977.33039748980082 -1312.0918690418976 0 -1312.0918690418976 -1820.3839612513293 0 0 0 0 -1246.1560589974324 -462.3977589225542 0 -462.3977589225542 304.32476854459946 0 0 0 0 -953.76907635110183 -176.64395456857983 0 -176.64395456857983 1425.0698270280845 0 0 0 0 -698.55528414631772 -292.16880063731605 0 -292.16880063731605 -563.78932579002503 0 0 0 0 -92.211355755687691 -1099.6483267874355 0 -1099.6483267874355 2413.8899837533827 0 0 0 0 46.971497642098683 -29.970716272925735 0 -29.970716272925735 4.1327333359686094 0 0 0 0 -1088.1031083350681 -2309.7120141611085 0 -2309.7120141611085 -228.6801381842115 0 0 0 0 -975.6274403568932 -313.53540295367469 0 -313.53540295367469 -527.91648089379669 0 0 0 0 -1317.2496086750616 -1368.1644510117567 0 -1368.1644510117567 -1788.6360098888945 0 0 0 0 -1505.1630336016751 -2237.0361843490155 0 -2237.0361843490155 -2647.1260711616196 0 0 0 0 -778.86106079379897 -1345.7189448405456 0 -1345.7189448405456 -2378.8956198426113 0 0 0 0 -1464.1102064603783 -4884.348053014498 0 -4884.348053014498 826.38127375511976 0 0 0 0 -423.15240588439337 -1556.7132822130334 0 -1556.7132822130334 -2677.5643949438108 0 0 0 0 179.24292629771298 -2317.1787528786354 0 -2317.1787528786354 512.05354132396678 0 0 0 0 21.556878607126578 -10.871803792376785 0 -10.871803792376785 1.7474786198568779 0 0 0 0 -252.26088178246573 -3109.1573016446082 0 -3109.1573016446082 2495.9545804750305 0 0 0 0 -56.692962777895445 -3467.8536534390396 0 -3467.8536534390396 2194.820311239655 0 0 0 0 522.3635780140612 -2474.3189974359238 0 -2474.3189974359238 1707.4753973816496 0 0 0 0 623.81342251113074 -1810.0806796698507 0 -1810.0806796698507 43.628347758247401 0 0 0 0 2157.3023768561325 -1885.4451183686415 0 -1885.4451183686415 -222.3839133569868 0 0 0 0 1150.3044767335741 -3625.5202465607072 0 -3625.5202465607072 1416.5369382399977 0 0 0 0 3618.622994347199 -813.13217349169645 0 -813.13217349169645 -1764.9271245285272 0 0 0 0 18.819343261713541 -16.706134324340631 0 -16.706134324340631 5.9233531008866791 0 0 0 0 4027.2676868816925 -2640.3820381561172 0 -2640.3820381561172 -660.53068564677596 0 0 0 0 1944.2387715400546 -3371.0156958777825 0 -3371.0156958777825 1289.3787721650078 0 0 0 0 768.00940182863997 -2180.170170854899 0 -2180.170170854899 543.60599740585167 0 0 0 0 648.67829987722871 -2294.0874582040751 0 -2294.0874582040751 1666.039119659843 0 0 0 0 991.21701504051453 -1959.8115038357137 0 -1959.8115038357137 584.75746301474828 0 0 0 0 970.34067640789362 -1832.4855065738479 0 -1832.4855065738479 -191.79593813234533 0 0 0 0 2410.3971093961845 -1298.0344171460501 0 -1298.0344171460501 -1117.4959585511824 0 0 0 0 1959.2273352178599 -1392.6368132054668 0 -1392.6368132054668 -1124.4158128409922 0 0 0 0 2237.1970541336486 -978.98902293591891 0 -978.98902293591891 -664.44240845245804 0 0 0 0 -63.170273589166754 -1803.5839205212915 0 -1803.5839205212915 -1340.0087456892434 0 0 0 0 2486.0103209971621 -1441.3479200715342 0 -1441.3479200715342 -1578.2023894206941 0 0 0 0 2989.1239843900403 -1061.2500158220864 0 -1061.2500158220864 -1390.7237828706056 0 0 0 0 2029.0548433793301 -1676.6018390910867 0 -1676.6018390910867 -113.59458694209025 0 0 0 0 1909.071056038767 -1491.1926927453387 0 -1491.1926927453387 -255.50564785554161 0 0 0 0 -573.50163118449564 481.962959870747 0 481.962959870747 1063.5676772846555 0 0 0 0 2728.3485541148693 -2261.5945153272733 0 -2261.5945153272733 231.64834583299307 0 0 0 0 2562.1410645080432 -1716.3364831958306 0 -1716.3364831958306 4222.6827070256695 0 0 0 0 3640.7897529553156 -2533.7377410047775 0 -2533.7377410047775 -1549.2351422905267 0 0 0 0 2200.4952468267147 -5733.9538716473908 0 -5733.9538716473908 9532.4004093130861 0 0 0 0 2948.5920535145051 -6078.1836970135882 0 -6078.1836970135882 4544.0390618140664 0 0 0 0 -9.2623877823124872 -11.428672271552969 0 -11.428672271552969 23.445818433042319 0 0 0 0 3669.19232337414 -3129.9753961093702 0 -3129.9753961093702 -10311.234154993508 0 0 0 0 825.49563030228455 -9412.1387792013593 0 -9412.1387792013593 10139.720094956232 0 0 0 0 20.198055819099267 -21.30701083855606 0 -21.30701083855606 -0.21064383144374976 0 0 0 0 1313.2914748216863 -2490.1833676400784 0 -2490.1833676400784 -2834.6065431624538 0 0 0 0 1177.58811384203 -434.57905587862479 0 -434.57905587862479 -2282.4818889277303 0 0 0 0 2462.722093921373 -1493.3486038867486 0 -1493.3486038867486 -2191.8605615341075 0 0 0 0 2703.8889814874929 -7774.8666838353092 0 -7774.8666838353092 -2106.6691462657182 0 0 0 0 1394.6247201974475 193.31292709391528 0 193.31292709391528 -7737.9920308836772 0 0 0 0 -1157.3321267024876 954.37623860803069 0 954.37623860803069 -3672.6748308833885 0 0 0 0 -1434.704888029104 -1938.5807464978643 0 -1938.5807464978643 -2831.8382815953919 0 0 0 0 925.89738133519131 6.7302608133140893 0 6.7302608133140893 -1230.3363431282523 0 0 0 0 -611.23213162146112 -1.8657694678017833 0 -1.8657694678017833 -90.947788886140188 0 0 0 0 1095.6415518779686 -1875.4438002014649 0 -1875.4438002014649 -3886.09565077773 0 0 0 0 793.02807462104829 -2289.6038809928859 0 -2289.6038809928859 -4237.3275564058749 0 0 0 0 41.63439307070928 -55.797003208055351 0 -55.797003208055351 -1.1511269815461969 0 0 0 0 17.187560004493662 -13.97194424064881 0 -13.97194424064881 11.284665288421778 0 0 0 0 -188.60198924934957 -4811.2053669005218 0 -4811.2053669005218 2195.6801638660072 0 0 0 0 -757.26210142916534 -549.15335040034552 0 -549.15335040034552 7603.868237757888 0 0 0 0 1.880870521376437 -0.098069143164877914 0 -0.098069143164877914 0.24171956390205196 0 0 0 0 1280.5865324133629 -925.70582998376995 0 -925.70582998376995 3085.6195762974821 0 0 0 0 428.76217063804506 -2355.0079803635272 0 -2355.0079803635272 483.93842390332065 0 0 0 0 485.97936384454079 -1659.1024228359711 0 -1659.1024228359711 709.07052359142472 0 0 0 0 287.94365066301543 -1023.6755412802122 0 -1023.6755412802122 -774.02166207199116 0 0 0 0 -928.3663963170402 -1998.0475968595056 0 -1998.0475968595056 975.89946790133399 0 0 0 0 -106.55325215175253 -1667.4956313109742 0 -1667.4956313109742 2660.5972856396984 0 0 0 0 501.68753423361886 -293.04477135086381 0 -293.04477135086381 1270.0689149485697 0 0 0 0 -456.9623787797691 -2150.664056432161 0 -2150.664056432161 912.00113807426897 0 0 0 0 40.61948664127263 -72.777701071733574 0 -72.777701071733574 -0.97266604238242915 0 0 0 0 853.89268331850326 -1578.4506019392102 0 -1578.4506019392102 -1640.2375866567506 0 0 0 0 330.73962922261126 -1491.2807190160675 0 -1491.2807190160675 1445.1067027353711 0 0 0 0 -438.88826321539091 -1655.6484494860815 0 -1655.6484494860815 1855.8295479548215 0 0 0 0 348.37193478876861 -1626.1469100747097 0 -1626.1469100747097 1298.7392873584758 0 0 0 0 2266.5225460589209 -1979.5372913820247 0 -1979.5372913820247 542.70431058868417 0 0 0 0 -404.73937772736099 -238.15558093665823 0 -238.15558093665823 -528.04501330683706 0 0 0 0 -3292.6061798987575 525.11200841561731 0 525.11200841561731 877.82519294809026 0 0 0 0 4.2998933539791793 2.0048742619572408 0 2.0048742619572408 -1.7998013596417906 0 0 0 0 2956.7757681548173 -3641.8789169114643 0 -3641.8789169114643 2082.0006037395797 0 0 0 0 254.94490246929854 -507.79011286281457 0 -507.79011286281457 -477.7126409914199 0 0 0 0 -43.481709575979039 -459.75614685342589 0 -459.75614685342589 -443.18542672741023 0 0 0 0 67.132778013638017 -60.378438241059939 0 -60.378438241059939 15.279344800484978 0 0 0 0 87.955964801277219 -56.661647005673643 0 -56.661647005673643 -1.3898566915399009 0 0 0 0 -616.00528228660187 -424.16263874331707 0 -424.16263874331707 -128.4324401769336 0 0 0 0 731.3935448357297 -1250.9868490815134 0 -1250.9868490815134 1473.8537554997638 0 0 0 0 14.202364474075829 -20.004883395631168 0 -20.004883395631168 13.734777683159209 0 0 0 0 -1060.0249713368685 -1558.1127686166328 0 -1558.1127686166328 -983.23963842163357 0 0 0 0 31.84890572121958 -44.176690515257448 0 -44.176690515257448 20.664389288829369 0 0 0 0 141.87987603461443 -1046.1771550432113 0 -1046.1771550432113 2401.013416288326 0 0 0 0 12.988629664381563 -10.031521745244802 0 -10.031521745244802 -30.800673953880658 0 0 0 0 -1823.0981650002068 -1114.766234541572 0 -1114.766234541572 -356.19140520334258 0 0 0 0 -1433.8517877630511 -2156.9204217563874 0 -2156.9204217563874 334.6850752290884 0 0 0 0 62.648601159792968 -37.359943544731735 0 -37.359943544731735 19.868782339381411 0 0 0 0 -417.86923131832737 -1333.246743105894 0 -1333.246743105894 -2358.9083999268414 0 0 0 0 146.46706181644035 -45.37133329727093 0 -45.37133329727093 -24.867506517083864 0 0 0 0 341.03510347522752 -4176.4121228954591 0 -4176.4121228954591 -1922.7202238015816 0 0 0 0 426.73551439549919 -2690.2885188438358 0 -2690.2885188438358 1244.8837774549556 0 0 0 0 453.02498894900782 -2670.119301772942 0 -2670.119301772942 -645.98302507213884 0 0 0 0 346.97627486883721 -3886.8153057766594 0 -3886.8153057766594 870.18901115068729 0 0 0 0 10.981480101192915 -17.858934470441753 0 -17.858934470441753 7.8698349450411769 0 0 0 0 1084.7978099773609 -3227.8888117573988 0 -3227.8888117573988 -5413.2205852958232 0 0 0 0 -1172.0089437294064 -899.66432544370241 0 -899.66432544370241 -2344.7910299126524 0 0 0 0 396.75791543273954 -1748.6893202149713 0 -1748.6893202149713 -1971.9922103305914 0 0 0 0 -310.30374938283057 -3298.0733141600913 0 -3298.0733141600913 2760.0586816887862 0 0 0 0 -617.15489434931078 -2647.3573644241915 0 -2647.3573644241915 -400.83808691798731 0 0 0 0 -754.10308831176371 -1606.2203391299863 0 -1606.2203391299863 -151.36862175932902 0 0 0 0 1038.4566347452928 -2586.9928600711082 0 -2586.9928600711082 -25.019894910011317 0 0 0 0 931.02591277679312 -2287.2666614316759 0 -2287.2666614316759 -786.0197070363065 0 0 0 0 432.83334115025355 -2403.8682997165852 0 -2403.8682997165852 -60.221347997903649 0 0 0 0 212.86781156947745 -798.16045691202362 0 -798.16045691202362 -6462.3481413194422 0 0 0 0 316.70191761741444 -1457.1873648928204 0 -1457.1873648928204 -3417.8446421277167 0 0 0 0 -434.67879027000163 -235.87805180407418 0 -235.87805180407418 -4227.1322679019195 0 0 0 0 392.04286769111479 22.133047695004411 0 22.133047695004411 -4423.6479224159957 0 0 0 0 -670.5145024483063 -949.57435564901584 0 -949.57435564901584 -4940.2635446665381 0 0 0 0 -1249.8785658362758 144.67115231444313 0 144.67115231444313 -4287.2558287815955 0 0 0 0 -1209.6468691597402 1500.9541604470205 0 1500.9541604470205 -8351.1646772057466 0 0 0 0 10.307975188545015 -10.347540584893594 0 -10.347540584893594 -12.543226872305489 0 0 0 0 -2693.5096533761534 132.68323055064548 0 132.68323055064548 -5092.3912439864525 0 0 0 0 -2906.6270665503762 367.47761449022255 0 367.47761449022255 -5305.1438877337632 0 0 0 0 8.8925696684382274 -1810.1180533126585 0 -1810.1180533126585 -3956.0919599263016 0 0 0 0 61.473113032130655 40.816592990966484 0 40.816592990966484 -42.491659814041 0 0 0 0 -148.96316932905029 -852.20493498320593 0 -852.20493498320593 -4146.0574547306533 0 0 0 0 -479.67734831490816 -1003.0420551767074 0 -1003.0420551767074 -2554.4536328605282 0 0 0 0 -1786.0855383499438 -1444.5334862325135 0 -1444.5334862325135 -4301.3303813239909 0 0 0 0 -984.51010479799879 -1647.8158389247537 0 -1647.8158389247537 -7069.3263739301983 0 0 0 0 381.11451099443002 -2743.1492543318645 0 -2743.1492543318645 -6533.3975265127556 0 0 0 0 -38.646268207486202 -161.80055554546743 0 -161.80055554546743 61.316564026194996 0 0 0 0 1105.1080005409895 -1393.0675570154272 0 -1393.0675570154272 -7311.9531860408897 0 0 0 0 -1000.7720492370718 -1929.3144791468239 0 -1929.3144791468239 -4721.949831127542 0 0 0 0 -101.18814517148712 -1603.3090009730749 0 -1603.3090009730749 -5024.1734620395982 0 0 0 0 -191.07292073954886 -1602.9059875966641 0 -1602.9059875966641 -5003.6397421114598 0 0 0 0 64.476403585916529 44.297973364266483 0 44.297973364266483 -45.75966393944001 0 0 0 0 -532.86779382880195 -1412.0994447578032 0 -1412.0994447578032 -4152.3813756294339 0 0 0 0 42.664651999220951 -13.976095433694354 0 -13.976095433694354 -100.4809285467054 0 0 0 0 9.5849061425130344 -14.993833932933263 0 -14.993833932933263 -9.2616701755075699 0 0 0 0 0.72324944061269036 -25.099222897520377 0 -25.099222897520377 -5.1443198573206388 0 0 0 0 -1595.2562960138312 -575.48991931085766 0 -575.48991931085766 88.339065607153316 0 0 0 0 2252.1239909498781 276.38218778825171 0 276.38218778825171 -6913.4028164065503 0 0 0 0 -2567.1954971869127 -40.270781594270375 0 -40.270781594270375 -165.05675193397929 0 0 0 0 307.3682897299127 -197.88047899789876 0 -197.88047899789876 -47.881890603293584 0 0 0 0 433.18649014472612 -181.41314784700262 0 -181.41314784700262 -186.83033606030222 0 0 0 0 39.883257595839396 -30.637505037389673 0 -30.637505037389673 9.9884829057561575 0 0 0 0 -2701.6669062927831 -3.4149455549486447 0 -3.4149455549486447 -7988.3007024690378 0 0 0 0 -12.546137922405933 -88.6430544700235 0 -88.6430544700235 43.411050425540324 0 0 0 0 5.2768434623724509 -10.518301272932007 0 -10.518301272932007 -2.2090088349967658 0 0 0 0 -1166.1276037724165 114.71575979253339 0 114.71575979253339 -125.65569138626597 0 0 0 0 35.017700620977848 -23.599176066594737 0 -23.599176066594737 -46.891479439454997 0 0 0 0 30.122038951925788 -6.0568748115908875 0 -6.0568748115908875 -70.426580683830252 0 0 0 0 37.022996836334642 -11.675089004613255 0 -11.675089004613255 -64.037402939959975 0 0 0 0 90.190420421247836 -40.874209092948149 0 -40.874209092948149 -52.174242195582337 0 0 0 0 53.784280756721273 -53.233431965545606 0 -53.233431965545606 -55.293476376325998 0 0 0 0 119.8105364961078 -56.207867786445618 0 -56.207867786445618 -3.4972293110773078 0 0 0 0 93.707140059254016 -50.765912464248686 0 -50.765912464248686 -19.382623480343682 0 0 0 0 111.7671888195182 -63.459375969014218 0 -63.459375969014218 -36.70518719319989 0 0 0 0 36.573850817556377 -21.634376481371874 0 -21.634376481371874 -67.708418250699651 0 0 0 0 13.272474719672203 -15.741611706145136 0 -15.741611706145136 10.4711538989215 0 0 0 0 -1988.2847557826649 -1126.5363466169711 0 -1126.5363466169711 -2745.7434483158522 0 0 0 0 -2137.138753982671 -1621.6593041263181 0 -1621.6593041263181 -2286.7012120545951 0 0 0 0 -2069.3579080339587 -1105.2737198426476 0 -1105.2737198426476 -2034.3741263191505 0 0 0 0 -2109.2703521993021 -1045.8165786907484 0 -1045.8165786907484 -2108.3758733982868 0 0 0 0 -2637.7262113063116 -845.00712445816589 0 -845.00712445816589 -1157.3663331726821 0 0 0 0 -1877.3745793357089 -681.80227509756423 0 -681.80227509756423 -1593.8665659234666 0 0 0 0 -2477.6958365660812 -1337.0382903650811 0 -1337.0382903650811 -1003.219722567861 0 0 0 0 -2191.7486499196102 -1686.4147837898126 0 -1686.4147837898126 -1719.3062006565706 0 0 0 0 -2217.0155303494448 -995.18540814665539 0 -995.18540814665539 -834.67699178689418 0 0 0 0 -2053.5164135918603 -2139.5338127670311 0 -2139.5338127670311 -502.55135386346319 0 0 0 0 -2077.6462870332343 -1066.8168376551785 0 -1066.8168376551785 1082.0682821636401 0 0 0 0 64.815389683148055 -168.16870191322687 0 -168.16870191322687 6.9968418709142099 0 0 0 0 -1924.9738169704342 -1372.4199424460858 0 -1372.4199424460858 -498.70471887791427 0 0 0 0 -1954.2029689730143 -45.544754850326626 0 -45.544754850326626 -8.8179214508127188 0 0 0 0 -2439.2499018853578 -1377.1906668496849 0 -1377.1906668496849 1972.7819196750497 0 0 0 0 -595.39056213267031 -576.75799186077165 0 -576.75799186077165 -70.908984694440733 0 0 0 0 -3609.5675143562548 -1300.0609164842267 0 -1300.0609164842267 -6818.4248647257391 0 0 0 0 8.9609129605403055 -118.77045818745265 0 -118.77045818745265 41.016157079293102 0 0 0 0 -1999.6997439372949 -1499.256701497588 0 -1499.256701497588 1715.4464445358753 0 0 0 0 -1.3242355478233172 -9.7447890607651573 0 -9.7447890607651573 -6.2564749998997637 0 0 0 0 -1886.4445526447994 -2102.4951222666568 0 -2102.4951222666568 -6157.0875443682835 0 0 0 0 -2044.0259774492285 -1185.4851502822244 0 -1185.4851502822244 -3386.5198281043413 0 0 0 0 -2957.2086140561441 -1923.4532331061819 0 -1923.4532331061819 -6859.3619981052088 0 0 0 0 19.179450092469487 3.8891379519156288 0 3.8891379519156288 -7.3163482551638026 0 0 0 0 -2719.0972299897949 -766.99114575309977 0 -766.99114575309977 -8266.432688670624 0 0 0 0 68.245528300242995 -32.597044240655393 0 -32.597044240655393 -8.7728329628115631 0 0 0 0 885.91939084498335 -206.81984354017345 0 -206.81984354017345 -5814.2169853334217 0 0 0 0 -216.37409173474589 -1304.8751067897801 0 -1304.8751067897801 -6790.9359525426089 0 0 0 0 -2815.5759664701582 -464.48369303512618 0 -464.48369303512618 -2254.6349663429073 0 0 0 0 -4195.7927509244437 -1816.6759090740866 0 -1816.6759090740866 -3495.213299182933 0 0 0 0 -1818.0504981258018 -898.57595137836233 0 -898.57595137836233 -2574.9534554408228 0 0 0 0 -911.04262670822118 418.07319571106837 0 418.07319571106837 -4683.0610094920548 0 0 0 0 -3681.9190342453085 509.2330050028304 0 509.2330050028304 -3531.4915135330648 0 0 0 0 12.531496522907767 8.6261804069662489 0 8.6261804069662489 -10.226693664603427 0 0 0 0 -1443.2514044207342 -20.003794701924562 0 -20.003794701924562 -4989.6679134393817 0 0 0 0 -1340.2853380967208 915.9315637398463 0 915.9315637398463 -2871.7008988931593 0 0 0 0 -2106.8608884622154 -0.3538641526106403 0 -0.3538641526106403 -811.8522997757641 0 0 0 0 -1.553100808129642 1.8055557107398776 0 1.8055557107398776 -0.80734400912792559 0 0 0 0 -1913.5012645160421 312.109937595058 0 312.109937595058 -2377.4390309297842 0 0 0 0 -1944.6048041362719 207.14375700396704 0 207.14375700396704 -2785.6544994406504 0 0 0 0 -1771.4869005908831 225.60125122008321 0 225.60125122008321 -2964.8642021854648 0 0 0 0 -1792.7976099863517 295.24592830058828 0 295.24592830058828 -2911.4786662668521 0 0 0 0 -1887.6296082594199 327.82815024146839 0 327.82815024146839 -2916.0155374723181 0 0 0 0 -1803.4636040398832 126.10312195687584 0 126.10312195687584 -2965.3056338978649 0 0 0 0 -1809.433353904263 79.176938193161504 0 79.176938193161504 -2787.2435064702295 0 0 0 0 -1486.4088258769668 12.356260871303675 0 12.356260871303675 -2994.3583677538554 0 0 0 0 -2026.7632565841695 -980.68167808672843 0 -980.68167808672843 -2632.9361921831514 0 0 0 0 -1773.7249731361326 -595.14286817367611 0 -595.14286817367611 -3677.3242551153398 0 0 0 0 -1777.7805288622096 -547.75290107863134 0 -547.75290107863134 -2567.4201748787309 0 0 0 0 -1553.808571095858 -711.46448728596715 0 -711.46448728596715 -2389.6651384018769 0 0 0 0 -1817.6335083365238 -462.62695083268409 0 -462.62695083268409 -2321.0551919080117 0 0 0 0 -1889.6036055454642 -271.52907145280187 0 -271.52907145280187 -2477.1995041550581 0 0 0 0 -2128.4112146460948 -365.54970692676397 0 -365.54970692676397 -2214.1970420504185 0 0 0 0 -1966.5614375498835 -36.582751032488886 0 -36.582751032488886 -2857.7195590270821 0 0 0 0 -2138.336862787598 264.78202118504851 0 264.78202118504851 -2713.7546733526615 0 0 0 0 -2347.8123284912199 38.4570714185611 0 38.4570714185611 -2569.467905311154 0 0 0 0 -2140.7418830399984 278.13389617616485 0 278.13389617616485 -2778.7434614093654 0 0 0 0 -2429.9613859212113 2.4422775757957425 0 2.4422775757957425 -2583.1718580941197 0 0 0 0 -2274.9375418664749 -226.50522525752967 0 -226.50522525752967 -2585.8762097453291 0 0 0 0 -2777.3696462774715 62.912977529191267 0 62.912977529191267 -2548.5410976611256 0 0 0 0 -2885.7499134450773 -298.3745264122299 0 -298.3745264122299 -2593.4306590107153 0 0 0 0 -3294.1426670131805 376.66990856096527 0 376.66990856096527 -2698.3421387401668 0 0 0 0 74.020430128786273 -60.192023499943637 0 -60.192023499943637 -74.121059040278539 0 0 0 0 -2276.5021217465328 -790.21928211287832 0 -790.21928211287832 -2118.4640658684439 0 0 0 0 -2699.2721658681203 -30.692553189472164 0 -30.692553189472164 -2515.2415848358214 0 0 0 0 -3164.6330232736573 324.44938559836373 0 324.44938559836373 -2559.5559148449465 0 0 0 0 -3393.5247094387851 -60.960770095283806 0 -60.960770095283806 -2484.961002318606 0 0 0 0 -3176.3592657320851 -392.13573238391928 0 -392.13573238391928 -2580.8876314707741 0 0 0 0 -2327.6812889531757 542.0264833514666 0 542.0264833514666 -2679.4132086535283 0 0 0 0 -2164.0821516750402 406.21017864844907 0 406.21017864844907 -2778.6295609719018 0 0 0 0 -2702.6102334415446 519.73001367227698 0 519.73001367227698 -2644.5909254833605 0 0 0 0 -2111.3639364739593 489.59928769856742 0 489.59928769856742 -2802.969116450724 0 0 0 0 -2455.0730445055306 344.6117253729135 0 344.6117253729135 -2598.5647184071277 0 0 0 0 -2438.6477852991502 336.21093193363049 0 336.21093193363049 -2710.5845039602427 0 0 0 0 -2156.9370436503559 436.56698335152032 0 436.56698335152032 -2774.968549512445 0 0 0 0 -2083.5275812552536 383.23296383349953 0 383.23296383349953 -2833.2511911789043 0 0 0 0 -1885.9393705058937 370.65111928522674 0 370.65111928522674 -2833.7181956781424 0 0 0 0 -1628.5124060504058 454.27806983288428 0 454.27806983288428 -2937.4070563577188 0 0 0 0 5.1503656857429192 -50.535245471779419 0 -50.535245471779419 -5.1582517256388885 0 0 0 0 -1764.5729152542008 364.35721347396611 0 364.35721347396611 -2907.9492108581762 0 0 0 0 -1666.2510267696316 255.8475985235782 0 255.8475985235782 -2968.1337950199195 0 0 0 0 22.579194154781746 -21.547892596112696 0 -21.547892596112696 -6.52523162546888 0 0 0 0 -1787.887951070355 -1060.6846124421972 0 -1060.6846124421972 -1830.8425163888096 0 0 0 0 -1834.1484704449285 499.33118515995011 0 499.33118515995011 -2832.0364575478816 0 0 0 0 -1802.3436565542906 583.4438839688155 0 583.4438839688155 -2791.0691045140338 0 0 0 0 -2232.9792587436714 -690.11949165900296 0 -690.11949165900296 -1888.8183289427761 0 0 0 0 -831.39448594077749 -1169.3777128500096 0 -1169.3777128500096 -2253.7784743450502 0 0 0 0 -4.355311959584764 -6.8733870600377909 0 -6.8733870600377909 7.0223987964587735 0 0 0 0 -2378.1230432839184 -628.13368218956748 0 -628.13368218956748 -1964.2888344624735 0 0 0 0 -1558.4998022497798 -727.83356135310851 0 -727.83356135310851 -2040.6143196979683 0 0 0 0 -1593.6282408457027 -1200.315444688207 0 -1200.315444688207 -1893.9909136370334 0 0 0 0 -994.73938273346448 -318.35002371811061 0 -318.35002371811061 -2186.3181783218679 0 0 0 0 -2446.766454189722 -1020.5641761574136 0 -1020.5641761574136 -2145.328129834641 0 0 0 0 10.52702724140709 -12.969307211075837 0 -12.969307211075837 -15.306516294116449 0 0 0 0 -3966.7965929720167 -1376.519343129291 0 -1376.519343129291 -1494.789150126122 0 0 0 0 -40.280036238362769 -179.36060676620602 0 -179.36060676620602 67.88170151036708 0 0 0 0 -126.49212506484037 -1264.3719671644676 0 -1264.3719671644676 -2273.0511496625222 0 0 0 0 -1292.5264875669091 -93.56620689287567 0 -93.56620689287567 -1424.0841608453782 0 0 0 0 -2214.7894429146454 307.37682531286077 0 307.37682531286077 13.640345838771168 0 0 0 0 429.78705611289479 179.85109562877187 0 179.85109562877187 341.9647361094394 0 0 0 0 -41.671683662260307 -84.141744862678181 0 -84.141744862678181 56.579389192455068 0 0 0 0 -5.0170131535560358 -49.284907345220745 0 -49.284907345220745 17.53361576315001 0 0 0 0 -2260.3399507811855 -119.20976182704294 0 -119.20976182704294 -444.22006899024848 0 0 0 0 -7.6396755031895225 -28.570387721720515 0 -28.570387721720515 56.026934735690432 0 0 0 0 -1411.7537928464435 -801.45598960168536 0 -801.45598960168536 -1402.8297527151153 0 0 0 0 -1509.2128757451787 -645.52915706045042 0 -645.52915706045042 -1425.9833236172635 0 0 0 0 -1133.5633756871484 -1160.9151831308736 0 -1160.9151831308736 -1278.1728157851321 0 0 0 0 -2361.8151409854154 -111.48582225740029 0 -111.48582225740029 -2167.3112954339595 0 0 0 0 15.12293197550866 -15.743531873261048 0 -15.743531873261048 5.3121931347100428 0 0 0 0 -1707.1617637763848 -342.08893492253264 0 -342.08893492253264 -1680.8572012777731 0 0 0 0 16.141385007360743 -24.400716784976595 0 -24.400716784976595 21.267270076529172 0 0 0 0 1891.3557599533742 -1292.7842920841376 0 -1292.7842920841376 -872.78505417119959 0 0 0 0 -3514.5630770241901 -278.53490994171625 0 -278.53490994171625 -650.53327579309553 0 0 0 0 137.17861458352127 -8.3433346139718196 0 -8.3433346139718196 -1312.7375515040185 0 0 0 0 -9.7971204850764479 -145.88501451486263 0 -145.88501451486263 47.394659693731228 0 0 0 0 96.994406060655223 -130.22840287301776 0 -130.22840287301776 45.920901062108086 0 0 0 0 -5.3342537133032124 -139.81403190843932 0 -139.81403190843932 123.89574821146608 0 0 0 0 162.418745212332 -201.94491944149621 0 -201.94491944149621 -43.197708930078868 0 0 0 0 1098.9941294477462 -1922.3282511392654 0 -1922.3282511392654 -243.06916888105116 0 0 0 0 -2665.9327444520045 -1159.6733335892122 0 -1159.6733335892122 1614.105688175674 0 0 0 0 -640.02467415940134 -2270.1321240984798 0 -2270.1321240984798 993.33013588042377 0 0 0 0 -1808.5764692981029 -2231.7099308785364 0 -2231.7099308785364 1167.1239483540121 0 0 0 0 -3047.0280157629459 -1037.9299588619415 0 -1037.9299588619415 341.52077059697331 0 0 0 0 -1134.6873656328391 -461.91794016531571 0 -461.91794016531571 -1354.6989593188991 0 0 0 0 121.76459356626128 -1130.1839845956783 0 -1130.1839845956783 -1301.1002649040456 0 0 0 0 -0.42223089004817904 -29.060068652878897 0 -29.060068652878897 0.090233244626386822 0 0 0 0 -3616.2654904330757 -2345.3560797380087 0 -2345.3560797380087 8925.3120462629176 0 0 0 0 463.86686063795696 -3.7672308951550804 0 -3.7672308951550804 2072.1096285160174 0 0 0 0 -2096.3767552016534 -653.87487048183539 0 -653.87487048183539 7181.211247284511 0 0 0 0 -1040.9885766691816 -1341.7200470316529 0 -1341.7200470316529 3480.9780680448639 0 0 0 0 -1018.7268701412322 -2346.8046338536651 0 -2346.8046338536651 2463.4096765224895 0 0 0 0 13.103201650405424 -66.307436526821803 0 -66.307436526821803 0.59411836919485239 0 0 0 0 -2899.957041811027 135.85734486819729 0 135.85734486819729 -1194.7412461330532 0 0 0 0 -1420.9756706330081 -1637.6394904217414 0 -1637.6394904217414 1149.1634473692757 0 0 0 0 -949.7486964166801 -819.91531591183229 0 -819.91531591183229 -2190.4648394139876 0 0 0 0 -3074.7436440746387 -2601.1885607532677 0 -2601.1885607532677 446.09159905838897 0 0 0 0 -1603.2195200341193 -3586.8903455100954 0 -3586.8903455100954 195.99565058608641 0 0 0 0 -1800.8444453138363 -4490.5161891085991 0 -4490.5161891085991 5424.8377768553764 0 0 0 0 -1327.7088856798582 -1422.2558864056627 0 -1422.2558864056627 1192.5663681689266 0 0 0 0 -3249.6023128774095 -2414.0342406403634 0 -2414.0342406403634 -1658.2860653089344 0 0 0 0 -3312.6932927075432 -1860.6347573233745 0 -1860.6347573233745 -1797.6191815765051 0 0 0 0 -3094.2686401046594 -1567.2160046847675 0 -1567.2160046847675 -1652.896478849274 0 0 0 0 -8.9332072834931679 -2.471288180263457 0 -2.471288180263457 7.3886270218929724 0 0 0 0 -3040.5744991149886 -1356.1034691303303 0 -1356.1034691303303 -1937.8488550192487 0 0 0 0 -2753.6596627196559 -1678.3986609181229 0 -1678.3986609181229 -1931.2107582669341 0 0 0 0 -3070.5368083205794 -1629.8369146155492 0 -1629.8369146155492 -1909.6101797761803 0 0 0 0 -2667.2662801105039 -1437.2142739398569 0 -1437.2142739398569 -1998.2653730686507 0 0 0 0 -3003.7924696012524 -1477.854524598024 0 -1477.854524598024 -1669.3867947452673 0 0 0 0 -3122.5934368394956 -1521.6531427149675 0 -1521.6531427149675 -1569.369850265175 0 0 0 0 -3058.1264386377588 -1182.4661719396863 0 -1182.4661719396863 -1540.7138320478207 0 0 0 0 -3068.4332295288696 -1249.9129521890268 0 -1249.9129521890268 -1948.64482687282 0 0 0 0 -3274.2153971725129 -914.33054971335878 0 -914.33054971335878 -2228.5462416661221 0 0 0 0 -3253.7063728422836 -1195.7882624415997 0 -1195.7882624415997 -1892.2673309890488 0 0 0 0 -3201.3239892858983 -1222.177781930146 0 -1222.177781930146 -1974.6253926097411 0 0 0 0 -3299.9537264768805 -1210.0943740784824 0 -1210.0943740784824 -1850.274576505366 0 0 0 0 -3478.7617848275768 -1014.4271314157813 0 -1014.4271314157813 -1968.6734777320748 0 0 0 0 -3197.4000291723005 -1221.8920812633896 0 -1221.8920812633896 -1883.0031192720999 0 0 0 0 -3052.6779231857818 -1359.4896155515144 0 -1359.4896155515144 -1907.4089465542693 0 0 0 0 -2989.5607370541202 -1184.424876209685 0 -1184.424876209685 -1925.0261248844181 0 0 0 0 -3334.5113149313274 -712.7682922782642 0 -712.7682922782642 -1628.0008542930213 0 0 0 0 -3010.2546664195515 -912.30571360624788 0 -912.30571360624788 -1715.1920251156698 0 0 0 0 -3340.9511413477776 -1156.710112207802 0 -1156.710112207802 -1862.704666958598 0 0 0 0 -2849.3788663839059 -248.38630275076594 0 -248.38630275076594 -1553.0578884183415 0 0 0 0 -2309.9917862822404 -537.60972319596658 0 -537.60972319596658 -1821.7154057541557 0 0 0 0 -3619.1808440808527 -84.145401010526257 0 -84.145401010526257 -2945.4908252099121 0 0 0 0 -3.0112506038715452 -59.082818035549394 0 -59.082818035549394 31.817010905773166 0 0 0 0 82.011674112471951 -68.373430647073576 0 -68.373430647073576 -69.462062737193875 0 0 0 0 70.282259223805255 -54.933726669913739 0 -54.933726669913739 -74.719753012583581 0 0 0 0 -3173.0790910633114 -1217.0219512516196 0 -1217.0219512516196 -2104.6499434681646 0 0 0 0 -3222.0326202222845 -1038.5290195186449 0 -1038.5290195186449 -2246.6755336499227 0 0 0 0 -4563.7210799202885 -1146.1169455492827 0 -1146.1169455492827 -2282.3723080650743 0 0 0 0 -3873.9786077766839 -85.479146876722098 0 -85.479146876722098 -2753.7866623071168 0 0 0 0 -4954.8594588796777 -311.15474524415913 0 -311.15474524415913 -2794.9850227687075 0 0 0 0 -4682.2937751747559 -334.74928895429366 0 -334.74928895429366 -3096.1279644887909 0 0 0 0 530.29373082617349 -1638.4587907295213 0 -1638.4587907295213 -2245.5568251134646 0 0 0 0 -18.022631354332319 -20.484985311818399 0 -20.484985311818399 12.245560296571128 0 0 0 0 248.95396829038327 -1678.7758497649465 0 -1678.7758497649465 -2212.7879124201063 0 0 0 0 -4868.7549727002279 -164.57417147577689 0 -164.57417147577689 -3251.3569528692715 0 0 0 0 -6010.3208946615696 -258.39601151483839 0 -258.39601151483839 -3201.7565475126166 0 0 0 0 -5967.2890189146265 -1140.601802013407 0 -1140.601802013407 -2997.9753871941648 0 0 0 0 -5141.4261706628386 -70.699781366214665 0 -70.699781366214665 -3086.0669694542157 0 0 0 0 -6.9234725634300407 -15.20710085889856 0 -15.20710085889856 2.6392279040355078 0 0 0 0 -6657.7583249810396 -754.49592027085964 0 -754.49592027085964 -2856.6567497416481 0 0 0 0 -8262.6714757166683 -550.8468511208157 0 -550.8468511208157 -2199.7237151116606 0 0 0 0 2585.7498698017675 -1073.961771871438 0 -1073.961771871438 -3076.7269717288727 0 0 0 0 -6472.5530580964405 -576.96938398610291 0 -576.96938398610291 -2887.311353232968 0 0 0 0 -7426.086201473373 -1845.4522345341957 0 -1845.4522345341957 -2439.0362972812072 0 0 0 0 -7068.6836264682443 398.66447010625052 0 398.66447010625052 -3023.8193872888078 0 0 0 0 25.990735011655978 -21.579501044505658 0 -21.579501044505658 -27.511510829587699 0 0 0 0 1896.6124029388247 -1293.9885193473237 0 -1293.9885193473237 -2784.8539569569039 0 0 0 0 -4171.8377970026013 -1302.4106864936127 0 -1302.4106864936127 -2318.7099048599193 0 0 0 0 -2878.9245754541662 -313.85417229409359 0 -313.85417229409359 -2561.7556605234804 0 0 0 0 -4218.9111633014181 -91.089481629653164 0 -91.089481629653164 -2383.8377420260076 0 0 0 0 73.737173783672233 -57.470585688641663 0 -57.470585688641663 -79.066972665262341 0 0 0 0 -2334.4213139717667 -542.31859280511708 0 -542.31859280511708 -2526.5969157400468 0 0 0 0 2275.5458237049902 -1400.833085982038 0 -1400.833085982038 -2964.4206448667592 0 0 0 0 -2996.018849765449 -1151.1661693553224 0 -1151.1661693553224 -1908.8009041286277 0 0 0 0 -2902.5891276277871 -1022.0004147497839 0 -1022.0004147497839 -1781.3418679768001 0 0 0 0 -5081.8861319559901 -1275.7094483649707 0 -1275.7094483649707 -1974.3588881730284 0 0 0 0 -2757.897559791174 -1197.4945893183103 0 -1197.4945893183103 -2546.4451780623749 0 0 0 0 -5243.2027044388187 -628.7461726576621 0 -628.7461726576621 -2668.482767281228 0 0 0 0 -5949.3828293128954 -2179.1318373008826 0 -2179.1318373008826 -2848.3656057644403 0 0 0 0 202.96995870347382 -1545.1402946152684 0 -1545.1402946152684 -863.47273553715058 0 0 0 0 -179.92407209293015 -1741.8681145862829 0 -1741.8681145862829 50.529626179643856 0 0 0 0 166.41599224079255 -1900.4953218790906 0 -1900.4953218790906 107.87268634573047 0 0 0 0 -477.87783352093356 -931.61359339988849 0 -931.61359339988849 -171.63272147232055 0 0 0 0 -407.10354434384499 -501.95298093417296 0 -501.95298093417296 1940.349118611548 0 0 0 0 -7.6955090365513001 -10.008803435773958 0 -10.008803435773958 -6.2072375245686828 0 0 0 0 -718.41551275076563 -647.22367760939323 0 -647.22367760939323 -169.41312565601766 0 0 0 0 -705.75474162742466 -736.57000967872227 0 -736.57000967872227 97.5456705903689 0 0 0 0 -7.1654007785045621 -21.330730476996226 0 -21.330730476996226 -28.57099907590511 0 0 0 0 -503.19684089692237 -816.86455500977627 0 -816.86455500977627 -483.76770416979707 0 0 0 0 -133.44890539708103 -1665.2576792672899 0 -1665.2576792672899 -1240.2304037034955 0 0 0 0 -531.03555479451825 -1419.9231633758809 0 -1419.9231633758809 -226.10195289057447 0 0 0 0 -529.93533232769914 -1339.3166611017277 0 -1339.3166611017277 -1588.6087015419998 0 0 0 0 -697.09189170040918 -850.88016587920902 0 -850.88016587920902 -742.89242953426765 0 0 0 0 73.375825289020298 -60.299553892215904 0 -60.299553892215904 -65.777097355190335 0 0 0 0 -714.2903482262268 -711.49438337623224 0 -711.49438337623224 -903.69452022468613 0 0 0 0 -1202.3081903737693 -139.66666185941358 0 -139.66666185941358 -1210.3847333329832 0 0 0 0 86.682888950590154 -71.148786133392804 0 -71.148786133392804 -78.063330289532459 0 0 0 0 -15.419822719561008 -57.897282823590672 0 -57.897282823590672 32.072025047554519 0 0 0 0 -493.41543607848871 -350.54522209759671 0 -350.54522209759671 -1396.7663111527945 0 0 0 0 -279.69912095012478 -265.39415585839015 0 -265.39415585839015 -1509.3824135512768 0 0 0 0 -492.92879667169927 -801.61520601621851 0 -801.61520601621851 -1932.3794812137057 0 0 0 0 -595.90398463568636 -634.91053439508687 0 -634.91053439508687 -2155.842649660417 0 0 0 0 -269.62593143164122 -1606.1834436463359 0 -1606.1834436463359 -2039.414227140187 0 0 0 0 164.80804000897479 -1326.6485786670582 0 -1326.6485786670582 -2335.4717094815578 0 0 0 0 258.83684046270355 -1728.9546964700658 0 -1728.9546964700658 -2020.696283911338 0 0 0 0 -894.77533365656018 -1312.5407451486499 0 -1312.5407451486499 -1811.0862965206302 0 0 0 0 -368.38192070174773 -1876.2011953872843 0 -1876.2011953872843 -1855.1788069019276 0 0 0 0 -277.70971035511275 -1639.1531076413078 0 -1639.1531076413078 -1468.9132795325932 0 0 0 0 -450.91885305230699 -1594.8288832559774 0 -1594.8288832559774 -1254.4021954213749 0 0 0 0 211.26352613273048 -1725.0570388495707 0 -1725.0570388495707 -1880.6386721630824 0 0 0 0 204.73433421625123 -1844.3821454458866 0 -1844.3821454458866 -2080.1910693816899 0 0 0 0 474.79397908354804 -1932.8968476338468 0 -1932.8968476338468 -1549.4372992478857 0 0 0 0 618.82141387505465 -2975.383682438267 0 -2975.383682438267 -77.803585615896736 0 0 0 0 7.0698535208885005 -2.6490957298943769 0 -2.6490957298943769 -5.9281333517566424 0 0 0 0 -471.40706676124501 -694.09626338420367 0 -694.09626338420367 -3272.1681552707014 0 0 0 0 -306.76658812843561 -1891.7264236014216 0 -1891.7264236014216 -424.41691922095197 0 0 0 0 13.915582392266629 -4.9946491794685883 0 -4.9946491794685883 -12.266879300399822 0 0 0 0 -479.27787154694306 -1815.7936352532724 0 -1815.7936352532724 -1408.7771161987948 0 0 0 0 -488.57788184846959 -1886.0778456076832 0 -1886.0778456076832 -1270.0764717745478 0 0 0 0 -252.01729788937519 -1942.7603152609126 0 -1942.7603152609126 -1261.0356155028776 0 0 0 0 -1188.9476704222297 -2048.240324321333 0 -2048.240324321333 -1059.9319218187011 0 0 0 0 -606.16198139558037 -1793.9559478963965 0 -1793.9559478963965 -1190.5815621740107 0 0 0 0 -423.23283837182316 -1625.7411846989585 0 -1625.7411846989585 -951.61929115932799 0 0 0 0 -226.60411428608859 -1889.0051710507096 0 -1889.0051710507096 -806.80559540601462 0 0 0 0 -401.0438087624334 -2129.1995873044789 0 -2129.1995873044789 -1125.4152456843913 0 0 0 0 69.888499952843631 -1722.1972746365645 0 -1722.1972746365645 -1031.2345545096468 0 0 0 0 -331.46383356033402 -1721.8115695903252 0 -1721.8115695903252 -1030.5693644619289 0 0 0 0 -11.424754940770878 -38.668716121888053 0 -38.668716121888053 6.6646718514658687 0 0 0 0 -4817.3565964603567 -951.52038790199276 0 -951.52038790199276 -1390.7984755038524 0 0 0 0 -1252.6193374820132 -174.86538394766012 0 -174.86538394766012 -1767.9266722649299 0 0 0 0 -131.54495009849506 -843.78536683023594 0 -843.78536683023594 -2805.6264049135025 0 0 0 0 -1469.6982596214743 -1550.1004082694258 0 -1550.1004082694258 -2661.5774336582326 0 0 0 0 56.897762153785152 -499.64721656123584 0 -499.64721656123584 -2358.0613692605984 0 0 0 0 -1606.2735247503988 -477.57820101624748 0 -477.57820101624748 -2470.1930227844387 0 0 0 0 -3114.7488837301453 -516.46941400061769 0 -516.46941400061769 -2402.3891275605274 0 0 0 0 -2652.973114768497 -1617.6048956637214 0 -1617.6048956637214 -2664.366477250609 0 0 0 0 -2604.7168739727822 -695.22045047113352 0 -695.22045047113352 -2468.4697977065589 0 0 0 0 1715.4217378951289 285.26931187659738 0 285.26931187659738 -2637.8351213327405 0 0 0 0 -5994.0035320933712 346.80818335093136 0 346.80818335093136 -3388.4223805596121 0 0 0 0 -4842.4708710522455 -660.05298194421812 0 -660.05298194421812 -3207.3181438222309 0 0 0 0 -5123.2372989953983 -69.793807897363877 0 -69.793807897363877 -3199.8220399285638 0 0 0 0 -5798.2715072038427 -606.18308749915423 0 -606.18308749915423 -3026.1589264736467 0 0 0 0 -5967.7990051943216 -345.20479698734925 0 -345.20479698734925 -3287.0916846400251 0 0 0 0 -9.0909228370472785 -11.002690153153473 0 -11.002690153153473 6.5354983543622609 0 0 0 0 -5644.4498774667418 -1905.068890102938 0 -1905.068890102938 -1152.5151529586474 0 0 0 0 -1191.1511840701514 -2228.6918860085116 0 -2228.6918860085116 -2028.5204673299822 0 0 0 0 -7459.3979147981445 -280.93034431483647 0 -280.93034431483647 -2541.6315169549016 0 0 0 0 2171.8768269385728 -2593.148528412441 0 -2593.148528412441 -1840.8977414901892 0 0 0 0 -145.03008372554928 -2540.1926644299501 0 -2540.1926644299501 -1339.0809518226197 0 0 0 0 -914.04101339780755 -1326.3087729412437 0 -1326.3087729412437 -1035.0941583127988 0 0 0 0 -1089.6275764215243 -3374.1309775211066 0 -3374.1309775211066 221.93914689109624 0 0 0 0 6.1798691910846912 -2.4366028231133541 0 -2.4366028231133541 -4.8516750431856721 0 0 0 0 -971.92227727522186 -2640.937114866736 0 -2640.937114866736 -1447.7478889301256 0 0 0 0 -1256.0005111678418 -956.65404621328128 0 -956.65404621328128 -2813.2567688830895 0 0 0 0 -2242.0725558874256 -1467.7871476911441 0 -1467.7871476911441 -1004.3337149115523 0 0 0 0 -3047.3821722145312 -557.55809644970395 0 -557.55809644970395 -1802.3989899278713 0 0 0 0 -11.907898580332919 -47.099094358856554 0 -47.099094358856554 8.1022205309321862 0 0 0 0 -1864.4276542474363 -629.86437446194577 0 -629.86437446194577 -1833.2585710437156 0 0 0 0 -3378.5778451387869 -626.066008505426 0 -626.066008505426 -1111.0246562369375 0 0 0 0 -10.917486716896232 -41.979109730838566 0 -41.979109730838566 7.222625884468755 0 0 0 0 275.40164165905298 -1585.9840147029172 0 -1585.9840147029172 -1028.765498408382 0 0 0 0 -4104.3044834017073 -806.28074198933109 0 -806.28074198933109 -838.0460897837911 0 0 0 0 -37.133360800760556 -1512.8470455074876 0 -1512.8470455074876 -410.84730122600013 0 0 0 0 -919.39067243265526 -2034.8360787708461 0 -2034.8360787708461 -837.40214738097893 0 0 0 0 -640.90265355944939 -2312.726463346276 0 -2312.726463346276 -577.44216673231131 0 0 0 0 -778.64777142881212 -1632.552901154897 0 -1632.552901154897 -321.44233279315085 0 0 0 0 318.23213573298199 -1575.9014614157059 0 -1575.9014614157059 -456.25574075907207 0 0 0 0 -399.36489163305669 -1944.2449467837341 0 -1944.2449467837341 -419.95308279324672 0 0 0 0 -301.86325504709657 -2038.6281781212019 0 -2038.6281781212019 -483.71482645864307 0 0 0 0 294.55082596197826 -1755.1408034539854 0 -1755.1408034539854 -999.08809148141881 0 0 0 0 303.4096125365013 -2297.0266604346652 0 -2297.0266604346652 -875.42949127166503 0 0 0 0 307.48127454028145 -1575.3280749190308 0 -1575.3280749190308 -738.63721044625345 0 0 0 0 318.24475185509596 -1387.0313703614188 0 -1387.0313703614188 -208.29907210069359 0 0 0 0 -451.43075668623533 -2935.3795739251218 0 -2935.3795739251218 -224.86710805269104 0 0 0 0 578.66702213080498 -1148.1454498754465 0 -1148.1454498754465 -1117.6546482561316 0 0 0 0 -1904.0485618110724 -1372.8118853529159 0 -1372.8118853529159 -957.09269334794226 0 0 0 0 -1868.5632028133423 -1423.4418446732016 0 -1423.4418446732016 -1697.8490993899068 0 0 0 0 4026.0590466317085 -2420.8489600884536 0 -2420.8489600884536 -1099.2512791399349 0 0 0 0 -7480.2685047666137 -1670.7240950263599 0 -1670.7240950263599 -111.09914538576413 0 0 0 0 -5.4836490651207548 -18.334002450893706 0 -18.334002450893706 3.1588375197685536 0 0 0 0 598.93074480008181 -1861.6785736884613 0 -1861.6785736884613 -458.92726638364547 0 0 0 0 1329.1684243648815 -669.51122723769004 0 -669.51122723769004 -380.24328773182435 0 0 0 0 416.5533643284034 -3539.4189116039524 0 -3539.4189116039524 462.72812447034107 0 0 0 0 -2723.264922767542 -603.2991583318144 0 -603.2991583318144 -1447.3704685803677 0 0 0 0 -7.3885921282752776 -2.9644378730910006 0 -2.9644378730910006 9.107425841019662 0 0 0 0 -674.83460804606875 -2129.0298765099433 0 -2129.0298765099433 356.76974050395074 0 0 0 0 -223.67101795335111 -2221.7996171316481 0 -2221.7996171316481 -835.88452233236308 0 0 0 0 -150.08121571212905 -2516.2205132255349 0 -2516.2205132255349 -571.8452403647243 0 0 0 0 -611.17206022603204 -2653.6046123976739 0 -2653.6046123976739 -313.0209744030999 0 0 0 0 -757.7688352246405 -2350.1444001594609 0 -2350.1444001594609 -498.04109342419542 0 0 0 0 -537.96327773435223 -2110.9884960923864 0 -2110.9884960923864 -395.38417627516174 0 0 0 0 -621.05662293062051 -2418.5641873601162 0 -2418.5641873601162 -1176.5999229261301 0 0 0 0 -1064.8713880966443 -2460.7319804297713 0 -2460.7319804297713 -513.45555506311575 0 0 0 0 -740.13433089078171 -2468.5861985539032 0 -2468.5861985539032 -650.16769607942842 0 0 0 0 -800.84782835740498 -2387.5395925761186 0 -2387.5395925761186 -472.79660116674495 0 0 0 0 -1445.5680756966649 -3148.6145432407848 0 -3148.6145432407848 -1223.2385940684107 0 0 0 0 -378.28592561514415 -2374.0880380172312 0 -2374.0880380172312 -1013.7600004358683 0 0 0 0 -202.82914969920603 -2237.3628324106758 0 -2237.3628324106758 -1048.3048269659466 0 0 0 0 -191.38721417114448 -2732.4339450541365 0 -2732.4339450541365 -520.20488987030694 0 0 0 0 -16.482178810182958 -5.6662122392748699 0 -5.6662122392748699 18.839276409012342 0 0 0 0 -1595.3393592226967 -1858.9881459553508 0 -1858.9881459553508 -2177.3340577435511 0 0 0 0 -1246.9053382167367 -1629.9137473274968 0 -1629.9137473274968 -2131.8354424670788 0 0 0 0 -1621.1914484230765 -2135.8907501489339 0 -2135.8907501489339 -1185.1836439991239 0 0 0 0 -1177.819307065176 -1769.9574363101019 0 -1769.9574363101019 -2114.2866909157819 0 0 0 0 -1432.8676529238292 -1680.0019339078281 0 -1680.0019339078281 -2082.7619398310499 0 0 0 0 -1415.7402843675045 -1857.6301056129014 0 -1857.6301056129014 -2414.4818973615911 0 0 0 0 -1681.379650629664 -1380.4182584473629 0 -1380.4182584473629 -2351.7491712484771 0 0 0 0 -1087.0032742909134 -1588.763499190467 0 -1588.763499190467 -2318.973569447684 0 0 0 0 -981.63961231149733 -1385.8833644908846 0 -1385.8833644908846 -2174.470915810085 0 0 0 0 -989.8897086577017 -1881.412965501595 0 -1881.412965501595 -1018.0920150029415 0 0 0 0 -1455.6927528695887 -520.03986952058585 0 -520.03986952058585 -1192.3624549585584 0 0 0 0 -587.11691125970538 -1688.3567907431025 0 -1688.3567907431025 -2282.2406291792158 0 0 0 0 -24.828042791431976 -6.1964037472851317 0 -6.1964037472851317 24.735331068950103 0 0 0 0 -1129.2660861138907 -1097.3637584360501 0 -1097.3637584360501 -2283.708420247538 0 0 0 0 -2232.2731670835456 -1844.7524604257633 0 -1844.7524604257633 -1079.7495434065058 0 0 0 0 -527.52010911644356 -1705.3860322875535 0 -1705.3860322875535 -1686.9365396284556 0 0 0 0 -15.902279359981243 -12.261099318000845 0 -12.261099318000845 28.767143063230264 0 0 0 0 -1623.2525550749524 -2482.9115802530432 0 -2482.9115802530432 -1410.354010045121 0 0 0 0 12.742991567221789 -16.91906002111179 0 -16.91906002111179 -5.0948468306515906 0 0 0 0 42.804536156330322 -52.073419379749609 0 -52.073419379749609 -6.2478050714356641 0 0 0 0 -1682.9862750200809 -1528.5448175513338 0 -1528.5448175513338 -1031.3430485989302 0 0 0 0 98.300765797014719 34.682533211476766 0 34.682533211476766 -123.62790364709508 0 0 0 0 -300.16195306612644 -251.52129125837746 0 -251.52129125837746 -36.234724289373844 0 0 0 0 166.42465346571123 -124.7310264680782 0 -124.7310264680782 -283.2585806424795 0 0 0 0 -858.85663644905799 -1220.0264129517309 0 -1220.0264129517309 -524.87932790681953 0 0 0 0 -198.84136285573913 -285.17495482386585 0 -285.17495482386585 -364.93672609689202 0 0 0 0 58.830949006043106 -67.176302158747504 0 -67.176302158747504 -2.829517594031671 0 0 0 0 -444.15442756888297 -628.98178285672839 0 -628.98178285672839 -763.07335297425743 0 0 0 0 -400.50783123554038 -1187.1560438628499 0 -1187.1560438628499 -482.49179216570337 0 0 0 0 2447.4340009818516 -1787.3054910595456 0 -1787.3054910595456 -1667.4585026441091 0 0 0 0 -6.0188979078652913 -10.266696014525905 0 -10.266696014525905 5.576946184540617 0 0 0 0 1023.9046435519413 -1207.0013007256384 0 -1207.0013007256384 -969.05682654135308 0 0 0 0 -14.263682136376485 -22.395882603494641 0 -22.395882603494641 12.236979621195673 0 0 0 0 -2384.3320938304387 -422.6770953901796 0 -422.6770953901796 -761.08066200568283 0 0 0 0 217.29509267372487 -1289.2031875159882 0 -1289.2031875159882 -1225.2917986847388 0 0 0 0 -537.4172179867528 -982.78966495778877 0 -982.78966495778877 -1594.3304223981249 0 0 0 0 -529.8042178069918 -902.10127373313298 0 -902.10127373313298 -1215.4553184499634 0 0 0 0 -4110.4914424522576 -230.08093709193508 0 -230.08093709193508 -1065.8037617698938 0 0 0 0 479.76167733867078 -1310.0092139264307 0 -1310.0092139264307 257.55290760162461 0 0 0 0 -11.495605256553972 -1385.7960820481603 0 -1385.7960820481603 2179.7155367017003 0 0 0 0 -838.60051547471085 1413.7868374723184 0 1413.7868374723184 4255.4188743390187 0 0 0 0 -8.6531438234058768 -10.169096045693593 0 -10.169096045693593 7.8447378187176184 0 0 0 0 -894.45695598858219 -2701.6373945558298 0 -2701.6373945558298 -1339.2837257801216 0 0 0 0 -201.04471525464214 -2834.5886303194548 0 -2834.5886303194548 -4236.3804177595739 0 0 0 0 204.61182178039144 -1101.3060449471614 0 -1101.3060449471614 57.493879277288215 0 0 0 0 1572.9256211717511 -2417.0621570136555 0 -2417.0621570136555 -705.86796794029215 0 0 0 0 4792.3814287540263 -163.79047488663491 0 -163.79047488663491 -455.80523160008306 0 0 0 0 8.8486841267015492 -11.161848845042208 0 -11.161848845042208 -5.5189115196160969 0 0 0 0 -4462.0822674724805 -3528.5568785243231 0 -3528.5568785243231 -1012.5871857017646 0 0 0 0 1131.5830719218757 -824.13940058771186 0 -824.13940058771186 -273.86445891336825 0 0 0 0 1444.509041661091 -467.6047072433812 0 -467.6047072433812 108.56441907034605 0 0 0 0 1378.4086562229095 -1298.978857654085 0 -1298.978857654085 81.116237346766866 0 0 0 0 941.14167270145117 -1752.8899000901729 0 -1752.8899000901729 -171.34581323520615 0 0 0 0 931.6205722975983 -1788.3938958449289 0 -1788.3938958449289 708.59849314107851 0 0 0 0 593.38780281522122 -1225.116286176737 0 -1225.116286176737 104.26809959105503 0 0 0 0 9.2189086451680495 3.5276605058378436 0 3.5276605058378436 27.72522510110079 0 0 0 0 323.45475456428176 -518.10525735457486 0 -518.10525735457486 106.36514723213168 0 0 0 0 671.0875145644095 -1128.5915477741637 0 -1128.5915477741637 216.82524591981201 0 0 0 0 -132.5471391470237 -229.70389379918197 0 -229.70389379918197 -461.20741787402585 0 0 0 0 -13.015041244689147 -7.0911586012052368 0 -7.0911586012052368 18.956441823610646 0 0 0 0 9.8151325776499547 -8.8401664971091378 0 -8.8401664971091378 3.9331037912291436 0 0 0 0 -67.214900241513533 -1021.1789473076078 0 -1021.1789473076078 1340.104873210119 0 0 0 0 -241.90465968895478 -289.94560915163311 0 -289.94560915163311 280.86938899011875 0 0 0 0 1200.8722848577245 -2338.9573214805905 0 -2338.9573214805905 -754.5887797612595 0 0 0 0 859.83674073227667 246.36982744107081 0 246.36982744107081 -1076.8217927274673 0 0 0 0 1657.4901369819872 -1161.2444909339865 0 -1161.2444909339865 275.41215566730534 0 0 0 0 -1376.8918545412507 -2082.9369376622753 0 -2082.9369376622753 -241.99682893320278 0 0 0 0 -1371.0554598060553 -115.01560874590359 0 -115.01560874590359 1035.1917387089488 0 0 0 0 -959.02948499866852 -365.50964416165516 0 -365.50964416165516 -235.99619137971604 0 0 0 0 10.715081741180001 -14.264974341246756 0 -14.264974341246756 11.141605832416161 0 0 0 0 -798.50812840658182 -651.41654996907164 0 -651.41654996907164 -589.31270180046704 0 0 0 0 -763.55394018675361 -517.86192955775186 0 -517.86192955775186 -188.79321047861595 0 0 0 0 -944.88056454314938 -662.01484304101905 0 -662.01484304101905 -113.34353948732678 0 0 0 0 -548.62488548882902 -379.48160766204455 0 -379.48160766204455 -61.047102786236792 0 0 0 0 -730.92245241137425 -572.8338528470631 0 -572.8338528470631 -99.836448817898145 0 0 0 0 -471.89828812008636 -705.52105028913502 0 -705.52105028913502 -99.783729552582372 0 0 0 0 -729.51438864734882 -682.59410557719093 0 -682.59410557719093 -308.42890914746386 0 0 0 0 -639.41524013741036 -496.30140145481346 0 -496.30140145481346 -360.14332413033117 0 0 0 0 -938.73925071066697 -462.87448071861945 0 -462.87448071861945 -515.93366601056186 0 0 0 0 -548.32957902814451 -674.51349034083978 0 -674.51349034083978 -526.50061242670199 0 0 0 0 -1243.1669172891234 -883.92078314962419 0 -883.92078314962419 -378.00564983266304 0 0 0 0 12.013824736184858 -23.717774340094586 0 -23.717774340094586 30.03451454380928 0 0 0 0 -1260.0188006019998 951.36730829792214 0 951.36730829792214 936.7163876233426 0 0 0 0 -724.91313812656881 -1095.0994390959459 0 -1095.0994390959459 -255.82074614393787 0 0 0 0 4.553818210235768 -10.516492741169181 0 -10.516492741169181 15.865570539015607 0 0 0 0 -573.27017207477911 -734.947288533971 0 -734.947288533971 -706.2926490027312 0 0 0 0 -520.38240333442263 -874.29816862146617 0 -874.29816862146617 -404.23689182891394 0 0 0 0 -728.15281236746523 -1028.334207194137 0 -1028.334207194137 1057.2334299710637 0 0 0 0 -597.46978694490826 -988.11957293848536 0 -988.11957293848536 34.745392525277566 0 0 0 0 1091.4098097673559 1193.0660733546028 0 1193.0660733546028 104.66934106343251 0 0 0 0 -691.90731738986506 621.85742576373741 0 621.85742576373741 2829.3968861988396 0 0 0 0 -726.45682272158592 25.143528291227994 0 25.143528291227994 2269.9891035965338 0 0 0 0 -214.07841536655451 -136.05730604432756 0 -136.05730604432756 2035.3694036500237 0 0 0 0 -21.697483769970056 -24.955560815278773 0 -24.955560815278773 22.590979791176295 0 0 0 0 -2174.6494288353351 -1200.2714064483334 0 -1200.2714064483334 -977.05786265787174 0 0 0 0 -1357.3970132640461 355.60255992216844 0 355.60255992216844 2270.0919601040096 0 0 0 0 -1180.2924497058848 105.29742370927852 0 105.29742370927852 2270.4300738275342 0 0 0 0 -251.2734830975387 -113.16680486199766 0 -113.16680486199766 -47.797396814821695 0 0 0 0 -2631.1272553641247 81.272524893476657 0 81.272524893476657 724.8913055559824 0 0 0 0 -138.346765775932 -155.94584008222591 0 -155.94584008222591 -37.379027383933135 0 0 0 0 -937.82945506630494 -81.670761671106447 0 -81.670761671106447 562.94879889226286 0 0 0 0 -924.16803733812412 -118.83024885985651 0 -118.83024885985651 491.71095669781789 0 0 0 0 -947.11494435369968 -92.961105729526025 0 -92.961105729526025 563.07832728506764 0 0 0 0 -938.81616649151692 -93.045543542000814 0 -93.045543542000814 532.02110543771414 0 0 0 0 -956.78774988325313 -129.09387665055692 0 -129.09387665055692 566.84282601618906 0 0 0 0 -988.28423473353905 -249.92515590800031 0 -249.92515590800031 465.56136305615655 0 0 0 0 -959.56594059354393 -288.75074810039951 0 -288.75074810039951 353.57430076977471 0 0 0 0 -953.75688704369531 -187.13592317907023 0 -187.13592317907023 387.53907084331149 0 0 0 0 -670.65630799428209 42.206853743160536 0 42.206853743160536 702.92510422156192 0 0 0 0 -771.58953895766172 -87.244569873131695 0 -87.244569873131695 546.37782678747317 0 0 0 0 -902.92055230244296 -5.0405118370108539 0 -5.0405118370108539 643.65498776282448 0 0 0 0 -989.72551475818909 -275.07848422095412 0 -275.07848422095412 647.21424756965803 0 0 0 0 -961.63206176571839 -129.55354445337434 0 -129.55354445337434 1367.369135062967 0 0 0 0 -904.13410201690931 -689.85649096468114 0 -689.85649096468114 138.58131498494186 0 0 0 0 -1012.5667801284217 -864.47779925599752 0 -864.47779925599752 338.34171775207096 0 0 0 0 -812.97788976444281 -1049.672906516993 0 -1049.672906516993 991.36235344727174 0 0 0 0 -855.54512731575232 -916.55335921510414 0 -916.55335921510414 -413.64696051782084 0 0 0 0 -681.37103713814577 363.85338345976197 0 363.85338345976197 -753.41727240287582 0 0 0 0 -945.39175815642375 -210.35005593420647 0 -210.35005593420647 376.71869553654687 0 0 0 0 -1447.3280697587579 -791.15937276430486 0 -791.15937276430486 -147.85726700768282 0 0 0 0 -532.79422299878206 -773.80240706611949 0 -773.80240706611949 -323.71446204037056 0 0 0 0 -596.08016037824564 -912.33852337126882 0 -912.33852337126882 -331.2469171096418 0 0 0 0 -751.8134368615556 -619.67273910894073 0 -619.67273910894073 -879.92430635388882 0 0 0 0 8.8152350587054258 -65.695904033721774 0 -65.695904033721774 -10.628411824397936 0 0 0 0 -155.99297951934204 -165.41947672694732 0 -165.41947672694732 -23.032835672755027 0 0 0 0 -126.94200293115136 -164.45308442072565 0 -164.45308442072565 -35.958083390476531 0 0 0 0 33.263996688445928 -150.02870578434187 0 -150.02870578434187 -34.735866947538767 0 0 0 0 16.828380064005017 -125.424511735084 0 -125.424511735084 -20.474431077124716 0 0 0 0 -142.38397542553867 -174.59795702349584 0 -174.59795702349584 -20.796490903267113 0 0 0 0 63.009360152672343 -117.64348780065976 0 -117.64348780065976 19.733837909246603 0 0 0 0 -96.866214840876637 -154.50026925365091 0 -154.50026925365091 -42.46700550820151 0 0 0 0 35.711679747990274 -215.66718922551445 0 -215.66718922551445 -210.26262693143872 0 0 0 0 45.783628224765991 -124.09885778052575 0 -124.09885778052575 -30.329422567410234 0 0 0 0 -444.12300100005814 -433.71292125317996 0 -433.71292125317996 -207.61958467299701 0 0 0 0 -566.99112098641854 -677.55383650184376 0 -677.55383650184376 219.4294914766715 0 0 0 0 91.285433240352631 -217.4510369498345 0 -217.4510369498345 -22.396431869978471 0 0 0 0 -183.38023422358674 -338.93044765380182 0 -338.93044765380182 174.49913557514083 0 0 0 0 -277.03534267426585 -329.21505518147023 0 -329.21505518147023 329.76576854953601 0 0 0 0 -392.124347381181 -471.45926994892943 0 -471.45926994892943 -268.915847896591 0 0 0 0 -71.248007105206639 -65.774159454677743 0 -65.774159454677743 13.764330134242314 0 0 0 0 -294.77403660037544 -433.40552008687337 0 -433.40552008687337 171.64199839747744 0 0 0 0 -301.49792975270975 -488.40723980541225 0 -488.40723980541225 -172.17466987031548 0 0 0 0 41.39919675787678 -109.61433158086584 0 -109.61433158086584 92.947505393327447 0 0 0 0 353.15169321633584 -244.32177306039011 0 -244.32177306039011 -185.41934340068838 0 0 0 0 183.57458554545883 -355.53658034519322 0 -355.53658034519322 -69.072382176818792 0 0 0 0 14.418781853164546 -214.89928502627663 0 -214.89928502627663 -102.05496799445245 0 0 0 0 82.963408308820362 -121.90409244149123 0 -121.90409244149123 -305.28545557327743 0 0 0 0 -223.79922182163864 -391.28618380500848 0 -391.28618380500848 -261.32209559868443 0 0 0 0 -129.31353222984035 -455.09219142350412 0 -455.09219142350412 -255.61191627418157 0 0 0 0 -508.29429921440897 -392.92307153284492 0 -392.92307153284492 -412.49890304780638 0 0 0 0 -310.75336140429135 -653.43723544517798 0 -653.43723544517798 -619.47362321834953 0 0 0 0 -500.00308290026805 -491.45931414442339 0 -491.45931414442339 -886.94457584551128 0 0 0 0 -481.94268979200569 -426.46453592526086 0 -426.46453592526086 -651.53314151614177 0 0 0 0 0.89616181072335621 -6.5594646348304337 0 -6.5594646348304337 -4.8339625418508021 0 0 0 0 -38.001870210267953 -237.38934298175445 0 -237.38934298175445 -672.51005539277321 0 0 0 0 -120.29488953885448 -79.113028029700217 0 -79.113028029700217 -66.287730207579443 0 0 0 0 3.0442583417059836 0.60468475998362692 0 0.60468475998362692 -8.7781317001885526 0 0 0 0 -79.330188594354695 -206.0091968220986 0 -206.0091968220986 -249.77787797010387 0 0 0 0 7.6814802142983467 -57.80794902615645 0 -57.80794902615645 8.1615390993365295 0 0 0 0 -1317.4720026202558 -1068.1455169458914 0 -1068.1455169458914 -1088.2780438829504 0 0 0 0 -845.49072637595236 -930.82062237911305 0 -930.82062237911305 -1216.3629622526059 0 0 0 0 -789.32678340323037 -689.28172549470037 0 -689.28172549470037 -572.41590070628445 0 0 0 0 -780.59448734021862 -349.66573940066519 0 -349.66573940066519 -848.69392747826714 0 0 0 0 -775.75681977499335 -401.01201656990088 0 -401.01201656990088 -561.01899065751059 0 0 0 0 -857.64945574112789 -1024.3801405067497 0 -1024.3801405067497 -2267.889499394958 0 0 0 0 0.47387401962390641 -3.5202966735462979 0 -3.5202966735462979 -0.94924395661096383 0 0 0 0 -832.16722377591941 -540.61236558799283 0 -540.61236558799283 -1532.4623598806356 0 0 0 0 -626.8022658189293 -529.04711267949097 0 -529.04711267949097 770.21906020411188 0 0 0 0 -558.24044682554086 -473.72165837409193 0 -473.72165837409193 -317.01457983013097 0 0 0 0 -95.679965149938653 44.94646526526958 0 44.94646526526958 587.72988552601601 0 0 0 0 -0.7285423707864993 -1.514001468899437 0 -1.514001468899437 1.9526469185525031 0 0 0 0 44.969738557003438 -198.6931875452392 0 -198.6931875452392 -89.926307947462192 0 0 0 0 -125.60968336810765 -428.90430825562362 0 -428.90430825562362 304.41622216222095 0 0 0 0 -132.91413822803588 -350.03861859637982 0 -350.03861859637982 -271.42053500523616 0 0 0 0 -259.48191628979112 -80.79476551629341 0 -80.79476551629341 67.940354177706467 0 0 0 0 -131.39413700281875 -82.349440035683074 0 -82.349440035683074 -27.858375677727963 0 0 0 0 17.401300457069588 -56.510305337779329 0 -56.510305337779329 4.7169757394466103 0 0 0 0 16.844737998599157 -46.381647698566667 0 -46.381647698566667 68.909992295710254 0 0 0 0 4.2427786963119161 -3.1172522311351827 0 -3.1172522311351827 -8.433544551255423 0 0 0 0 -141.84810211783042 -58.680222195915121 0 -58.680222195915121 98.194980906591809 0 0 0 0 -202.01805118657649 -120.49231674656039 0 -120.49231674656039 33.230648373014446 0 0 0 0 -95.736735748621868 -136.51015523718888 0 -136.51015523718888 -53.889433523516345 0 0 0 0 -78.31344624979829 -214.10237742548634 0 -214.10237742548634 174.03618292689134 0 0 0 0 -100.44372734312492 -148.95545710840088 0 -148.95545710840088 -43.264361186138558 0 0 0 0 4.1218931243245152 -63.779728757400605 0 -63.779728757400605 -13.102610533187061 0 0 0 0 21.656160509185611 -43.829428154630733 0 -43.829428154630733 22.094545083442021 0 0 0 0 -0.07411120861524978 -175.32205193618847 0 -175.32205193618847 -115.37668058599957 0 0 0 0 7.805602807987178 -42.618345721952664 0 -42.618345721952664 18.245063093245449 0 0 0 0 4.6157370365835959 -71.24712118440948 0 -71.24712118440948 -32.82779288538768 0 0 0 0 -59.205652051663492 -258.97507898186814 0 -258.97507898186814 -280.00268221907754 0 0 0 0 -46.683005478640553 -205.15379224178469 0 -205.15379224178469 -90.302384194147635 0 0 0 0 -4.7529539654196924 -141.60309013559572 0 -141.60309013559572 -200.55921428171132 0 0 0 0 -11.042096254474018 -167.39138731030835 0 -167.39138731030835 -230.52926801804279 0 0 0 0 -13.568099893702311 -157.50002705010411 0 -157.50002705010411 -263.83263764466756 0 0 0 0 50.918539306119783 -55.905401847150642 0 -55.905401847150642 -55.125976376813924 0 0 0 0 41.944222748473521 -40.53509589209537 0 -40.53509589209537 25.230354227253329 0 0 0 0 30.650841035734629 -61.064408893162181 0 -61.064408893162181 -56.078481758300768 0 0 0 0 15.021807879718835 -52.956348404815799 0 -52.956348404815799 -43.604888739311718 0 0 0 0 63.105127635764802 -36.633261682934972 0 -36.633261682934972 -45.119851331539394 0 0 0 0 29.95676285133959 -46.209416500356383 0 -46.209416500356383 -42.556762411830277 0 0 0 0 41.074165682883176 -71.933337581014712 0 -71.933337581014712 -56.767657103249803 0 0 0 0 78.016667884490744 -64.332280563527092 0 -64.332280563527092 -55.577826474949688 0 0 0 0 -639.65832304202377 -217.04301859469479 0 -217.04301859469479 -89.116008738434175 0 0 0 0 16.814961792828399 -42.424939047483349 0 -42.424939047483349 0.50292551000165986 0 0 0 0 -1068.2687005644984 -470.79666986349184 0 -470.79666986349184 80.892775594797968 0 0 0 0 3.6853654548332671 -22.803156287925503 0 -22.803156287925503 10.394681539306447 0 0 0 0 25.359754728235202 -16.684746078924263 0 -16.684746078924263 -28.967270641718642 0 0 0 0 199.90485126096155 -594.19314606431908 0 -594.19314606431908 -275.23905952368477 0 0 0 0 271.58048570426399 -589.85545319399898 0 -589.85545319399898 -562.07523637681152 0 0 0 0 -751.7938268867365 -219.40221696803746 0 -219.40221696803746 -79.034119702693715 0 0 0 0 34.817620357624691 -158.98426935797306 0 -158.98426935797306 -18.3540632369386 0 0 0 0 -1085.8335724158524 -394.09615659238443 0 -394.09615659238443 -744.10374634683831 0 0 0 0 -1519.3901841394254 -347.48814220383065 0 -347.48814220383065 -333.99823205169378 0 0 0 0 -736.70042439810277 376.53946672460734 0 376.53946672460734 -306.05044323311449 0 0 0 0 -2144.5350068335119 -611.37604470869337 0 -611.37604470869337 -353.3945437172988 0 0 0 0 -1599.0834413621706 -34.696780174293963 0 -34.696780174293963 78.888702832842682 0 0 0 0 -2094.2597181052515 -866.89916543398795 0 -866.89916543398795 -556.7257393218606 0 0 0 0 -1776.746873750852 -786.22462743243705 0 -786.22462743243705 -733.89066543367517 0 0 0 0 -2353.9328540835854 -894.1147603894259 0 -894.1147603894259 -678.31314297916833 0 0 0 0 -1998.0171111216282 -991.30217237763554 0 -991.30217237763554 -940.59622150340874 0 0 0 0 -1.8800724538134088 -8.1950370873098564 0 -8.1950370873098564 0.29844735098969011 0 0 0 0 -2289.9663168888346 -1045.6055956550517 0 -1045.6055956550517 -858.21473407254234 0 0 0 0 -2507.5403206365481 -1143.4437906892053 0 -1143.4437906892053 -1110.1898823095544 0 0 0 0 -2386.7080637214831 -1295.6965390935566 0 -1295.6965390935566 -978.60183829878224 0 0 0 0 -2089.8161504980217 -1004.873721900105 0 -1004.873721900105 -1023.6289461100041 0 0 0 0 -2707.8430111837483 -1226.1873007386421 0 -1226.1873007386421 -1000.1620668655087 0 0 0 0 -3128.2966240510632 -795.17307015250481 0 -795.17307015250481 -1019.7997430577352 0 0 0 0 -3299.5059691721699 -1033.1697879161438 0 -1033.1697879161438 -1240.7858685926767 0 0 0 0 -2458.5648440789173 -931.59930908138631 0 -931.59930908138631 -618.38825694080879 0 0 0 0 -2559.9984382783778 -1272.4241664825804 0 -1272.4241664825804 -1017.0799848873139 0 0 0 0 -2528.9798140584408 -633.5894646082088 0 -633.5894646082088 -839.82142593712888 0 0 0 0 -1754.432017464449 -1003.0858908746122 0 -1003.0858908746122 -1011.803940826394 0 0 0 0 -1417.844945459743 -418.47750895619538 0 -418.47750895619538 -706.46923823638645 0 0 0 0 -2068.269871455248 -1158.7864153782684 0 -1158.7864153782684 -1122.3468952366675 0 0 0 0 -2102.9553435815196 -1303.1463066174874 0 -1303.1463066174874 -1424.95873120529 0 0 0 0 -1493.7072639683029 -325.41341443802958 0 -325.41341443802958 -632.92435989524893 0 0 0 0 -1138.8818065155501 -506.52290742273976 0 -506.52290742273976 -682.11222139363235 0 0 0 0 -1115.6586894707254 -128.39217024114464 0 -128.39217024114464 -186.09829618867661 0 0 0 0 -3888.1042452248093 -285.4997898334841 0 -285.4997898334841 -1117.0150806689094 0 0 0 0 -3711.2788074404298 -1361.0097589810612 0 -1361.0097589810612 -662.7087626748762 0 0 0 0 -2810.4620413679222 -1839.2413812935411 0 -1839.2413812935411 -1186.857935007476 0 0 0 0 -2877.8593380250823 -1041.1043443074195 0 -1041.1043443074195 -504.33582987189584 0 0 0 0 -1788.5652225572539 -461.45153945961647 0 -461.45153945961647 -916.98901473994192 0 0 0 0 -1315.4487528490426 -987.29892089758505 0 -987.29892089758505 -926.90058128269447 0 0 0 0 -1013.5547058143202 111.60208530485397 0 111.60208530485397 -82.607162902451819 0 0 0 0 -573.1318451101688 106.25809395300166 0 106.25809395300166 -696.90951348392991 0 0 0 0 -1418.4967364334516 -696.8559564785246 0 -696.8559564785246 -825.72224342276604 0 0 0 0 160.44173556541136 -231.630510428462 0 -231.630510428462 -1014.1743606001655 0 0 0 0 -402.25326917304665 797.12282313282412 0 797.12282313282412 -209.92263988105697 0 0 0 0 -887.93439314451098 -79.890431538849953 0 -79.890431538849953 547.72779873972468 0 0 0 0 -25.330045248039454 -30.477271543400505 0 -30.477271543400505 19.154386228845738 0 0 0 0 -26.430947343269509 151.0143925976372 0 151.0143925976372 -136.81111998778397 0 0 0 0 -972.02556076663677 540.38908109451586 0 540.38908109451586 640.31212191972736 0 0 0 0 -909.82625204778196 -88.397356138520536 0 -88.397356138520536 539.23726892389823 0 0 0 0 -956.99105051658989 149.5968374156364 0 149.5968374156364 240.12652794290625 0 0 0 0 -845.43768696166444 61.232300067378674 0 61.232300067378674 -306.31377483440156 0 0 0 0 -518.13244759121153 -467.48750221720547 0 -467.48750221720547 254.54846723830997 0 0 0 0 -859.03339554613558 -171.62722088383453 0 -171.62722088383453 655.78693678577838 0 0 0 0 -926.03964304330293 -69.637170283865998 0 -69.637170283865998 570.1980610769242 0 0 0 0 -947.98823505017208 -79.586337487082346 0 -79.586337487082346 577.10657707162318 0 0 0 0 17.440356317548705 -158.26172355558975 0 -158.26172355558975 -17.339693605055743 0 0 0 0 -319.22514288816456 -156.51426000613674 0 -156.51426000613674 -29.950124598239199 0 0 0 0 -2381.3340040503058 -262.56693632366978 0 -262.56693632366978 -95.326960324804531 0 0 0 0 -18.052283597911124 -21.115720876242023 0 -21.115720876242023 5.4265844171750359 0 0 0 0 -81.336314254874935 -102.44911393720352 0 -102.44911393720352 36.77843154378256 0 0 0 0 -120.3959817257355 -156.35343735421424 0 -156.35343735421424 29.211786726245748 0 0 0 0 -748.50829555316545 -72.076637641917841 0 -72.076637641917841 40.012643945839955 0 0 0 0 -541.65185012815709 421.90394563716836 0 421.90394563716836 33.427080408968322 0 0 0 0 34.907909338219781 -168.73013798200489 0 -168.73013798200489 -40.841621479977007 0 0 0 0 -653.27500729918393 -218.0324151025834 0 -218.0324151025834 -55.791853694488964 0 0 0 0 -1.6708452696634095 -14.798512841501285 0 -14.798512841501285 0.86850203152539507 0 0 0 0 -40.03587725904049 -239.84427105852319 0 -239.84427105852319 -620.62151716928929 0 0 0 0 -239.20399321558216 127.66465209991293 0 127.66465209991293 -802.35125307868293 0 0 0 0 -908.65269815688225 -150.12218952288822 0 -150.12218952288822 -633.9102278864375 0 0 0 0 -1311.5710432179694 -586.48745598545793 0 -586.48745598545793 -529.89228390039352 0 0 0 0 -452.59107779439 -462.33603442025924 0 -462.33603442025924 -633.03277869155863 0 0 0 0 -784.23603385521847 -150.70943828571853 0 -150.70943828571853 -382.89041837549303 0 0 0 0 -751.72799276114529 -309.47588742592052 0 -309.47588742592052 -749.01532013817632 0 0 0 0 -527.86443972718189 -390.80140463034331 0 -390.80140463034331 -158.04712993872454 0 0 0 0 
</DataArray>
<DataArray type="Float64" Name="cross_section_updated" format="ascii">
1 1 1 0.012813902804227251 1 1 1 1 1 0.0099998231681385427 1 1 1 1 1 1 1 1 1 1 0.021537029798145858 1 1 1 0.017697739764202365 1 1 1 1 1 0.010000013103319355 1 0.01031742334250195 1 1 1 1 1 1 1 1 1 0.0099999803939394491 1 1 1 1 0.010827669394704859 1 1 1 1 0.012531529907900171 0.009999534803262114 1 1 0.014109812171799213 0.013526312870291983 1 0.009999243385682588 1 1 1 1 0.010952281723548181 0.010000254710976618 1 0.0099999874247551357 1 0.010000043542304105 1 0.017770699677680871 0.011574880422913464 1 1 1 1 1 0.013157117384001958 0.012959637144076254 1 1 0.011761752418494975 1 0.011021825907456366 1 1 1 0.010549346064822017 1 1 1 1 1 1 1 1 0.0099995538125043082 1 1 1 1 1 0.010599687363993998 1 0.010000206057560156 1 1 1 1 1 0.010000116985985817 1 0.0099999822366534583 1 1 1 1 1 0.010000179232054505 1 1 1 1 0.010000155381214924 1 1 1 1 0.0099997468347708465 1 1 1 1 1 1 1 0.010000091758555915 1 1 1 1 1 1 1 1 1 1 1 1 1 0.0099998616586367411 0.009999919263468382 1 1 1 1 1 0.010829364407143436 1 1 1 0.010000402556820831 1 1 1 1 0.010000046824118876 1 1 1 0.0099998466374835917 1 0.010000163167773456 1 1 1 0.010044879154802747 1 0.0099998332293742866 1 1 0.010118053105356904 1 1 1 0.010000028843844842 1 1 0.014785250888849934 1 0.0099995893714145793 1 1 0.0099999477060895674 1 1 0.010847114925018997 0.011057666149046541 0.010000797006541542 1 1 1 1 1 1 1 1 1 1 1 1 0.0099999190313197206 1 0.015155473454709913 1 0.010000107653262057 1 1 1 1 1 1 1 0.0099992110690770783 1 1 1 1 1 1 0.011138148668559979 1 1 0.010797455404888787 0.010000782165987127 0.010000709501424669 1 0.009999856872167992 1 1 0.011173108328569818 0.013161611876359544 1 0.012547590463781622 1 1 1 1 1 1 1 1 1 1 1 1 1 1 1 1 1 1 1 1 1 1 1 1 1 1 0.013401746716597527 1 1 1 0.013726236701240414 0.012136249624038767 1 1 1 0.012361558806922322 1 1 1 1 0.010105159572948792 1 1 1 0.010956015914875571 1 1 1 1 1 1 0.010000150286203636 1 1 1 1 1 0.010000255968371362 1 1 1 0.010000290642245203 1 1 0.010008937594691777 1 1 1 1 1 1 1 1 0.010000543857035764 1 1 1 0.010000252878497123 1 1 1 1 0.010000011768983311 1 1 0.010000343557173642 0.0099999499353423393 1 0.010000394093141948 1 0.009999893675597081 1 1 0.0099991663940991529 1 1 1 1 1 0.010566607550329551 0.0099997464240697415 1 0.014608683317110467 1 1 1 0.010000822328488729 1 1 1 0.010939688917907066 1 1 1 1 0.010000004664796567 0.01059107209023156 1 1 1 1 0.0099996191832772002 1 1 1 0.01025500723795829 1 1 1 0.011736195250570937 0.011206309889514123 1 1 1 0.0099995215667135831 1 1 0.0100028960834809 1 0.010000005650710145 1 0.010530095902175997 1 1 1 1 1 1 1 1 1 1 0.010000054126635682 1 1 1 1 1 0.010000147787819293 1 0.017788804158037325 0.010000058525515502 1 1 1 0.010317610434527377 1 1 1 0.0099999428581319383 0.01000001311804222 1 0.0099999932783518819 1 1 0.014734883931680725 0.0099992094101483617 1 1 1 1 1 1 1 0.010015972733531754 1 1 0.010000086404676228 1 1 1 1 0.010000476636620348 1 0.010000007320509929 1 0.0099990830069157793 1 0.010000052839167418 0.0099998347561958412 1 1 1 1 1 1 0.0099998701928790124 1 1 1 1 1 1 1 1 1 1 1 1 1 1 1 1 1 0.0099999645633168308 1 1 1 1 1 1 1 1 0.0099999338488016634 1 0.010775088696602486 1 1 1 0.0099999238196382956 1 1 1 0.011293807832619081 1 0.0099997318735207397 1 1 1 1 1 1 1 0.010000251309346495 0.010000054658877273 1 0.012633413357940673 1 0.010000056936922054 1 1 1 1 1 1 1 0.010000037007544899 1 1 1 1 1 1 1 1 1 1 1 1 1 1 1 1 1 1 1 1 1 1 1 1 1 1 1 1 1 1 1 1 1 1 1 0.010051056081386615 1 1 1 1 1 0.010127739725862124 1 1 1 0.0099998927031894353 1 1 1 1 0.010784822925654858 1 0.010000375250340386 1 1 1 1 1 0.01000000099669732 1 1 0.010000297609092653 1 1 0.009999937377919571 1 1 1 0.01000020736468523 0.0099999704963212518 1 1 1 1 0.0099998403481956211 1 0.0099999751114783139 1 1 1 1 1 1 1 0.0099999623111853217 1 1 1 1 1 1 1 1 1 1 1 1 1 1 1 1 1 1 1 0.010281130475315599 1 1 0.010000137281179114 1 1 0.010009540561221518 1 1 1 1 1 1 1 1 1 1 1 1 1 1 1 1 1 1 1 1 1 1 1 1 1 0.010000290537109408 1 1 1 1 0.0099997867709849253 1 1 1 1 0.0099999339602150003 1 1 0.0099999824242172283 1 1 1 1 1 1 1 1 1 1 1 1 1 0.010034188913060745 1 0.010227589353343058 1 1 1 1 1 1 1 1 1 1 1 1 1 1 1 1 1 1 1 1 1 1 1 0.0099999914382129934 1 1 1 1 1 1 1 1 1 1 1 1 0.010000018344311606 1 1 1 1 1 1 1 1 1 0.0099996400335026769 0.010000077241746324 1 1 0.0099999964056708274 1 1 1 1 1 1 1 1 1 1 1 1 1 1 0.010087538821316779 1 1 0.010332523690347303 1 1 0.0099999562457436658 1 1 1 1 1 1 1 1 1 1 1 1 1 1 1 1 1 1 0.0099999517065976484 1 1 1 1 1 1 0.010031114313614503 0.013535592787608179 1 1 1 0.010000114631661013 1 1 0.0099999621323539067 1 1 1 1 1 1 1 1 1 1 1 0.010396061208681272 1 1 1 1 1 1 1 1 1 1 1 1 1 1 1 1 0.010000147109493131 1 1 1 0.010000201558703625 1 1 1 1 1 1 1 1 1 1 1 1 1 1 1 1 1 1 1 1 1 0.010000042691036264 1 1 1 0.010000011231364729 1 1 1 0.0099999138091314069 1 1 0.010000047856602655 1 0.011013587815696127 0.0099997103809384355 1 1 1 0.010000076903261206 0.0099999882860429407 1 0.010000164432858383 1 1 0.0099999287565837036 1 0.010000586760926307 0.0099999078937566196 1 0.010000095745919958 1 0.010000065426675149 1 1 1 1 1 0.010000084156144021 1 0.0099999468636208094 1 1 1 0.0099999531507443395 1 1 1 1 1 1 1 1 1 1 0.010616769680641722 1 1 1 1 1 1 1 1 1 1 1 1 1 1 1 1 0.0099998295350597413 1 1 1 1 1 1 1 1 1 0.01645427245367552 1 1 1 1 0.014958157755041444 1 1 1 1 1 1 1 1 1 1 1 1 0.0099998996374375745 1 1 0.010000324759801081 1 1 1 1 1 1 0.0099997905184574902 1 1 0.0099999394708726735 1 1 1 1 0.013844067053053901 1 1 1 1 1 1 1 1 1 1 1 0.0099998939643009543 1 1 1 0.011697673819825552 1 1 0.010000503149297291 1 1 0.010000350396757687 0.0099999903672815579 0.0099998482809532611 1 0.010000141344249348 1 1 1 0.010248827565029303 1 1 1 0.01762026166139917 1 1 1 1 1 1 0.017965936960845558 1 1 1 1 0.011320786231976514 1 1 1 1 1 1 1 1 1 0.010040843130723894 0.010000448824921329 1 1 1 1 0.0099998883369822739 0.010000198668467662 1 1 0.0099997240928240087 0.010000033549848729 1 1 0.0099996865509943498 0.010000344064381004 1 1 1 1 1 0.0099999854380548852 1 1 1 0.0099998671270580125 0.010000079157709091 1 1 1 0.010000326452265194 1 1 1 0.01155111281543942 1 1 0.010190575889917159 0.010000344848269709 0.0099998986255435702 1 1 1 1 1 1 1 1 1 1 0.010198482256298236 1 0.010000181486216465 1 1 0.0099999131457251256 1 0.010000159223894189 1 1 1 1 1 1 1 1 1 1 1 1 0.010000086375927086 1 1 1 0.0099998895205945064 1 1 1 1 1 0.01061516780249728 1 1 1 1 1 1 1 1 1 1 1 0.010000043746395224 1 1 1 1 1 1 1 0.010000044574602872 1 1 0.0099996617587559036 1 1 1 0.010022317190122719 1 1 1 1 1 1 1 1 1 1 1 1 1 1 1 1 1 1 1 1 1 1 1 1 1 1 1 0.010223115156709033 1 1 1 1 0.01000047843621824 1 0.0099998096113225032 0.018596845623069631 1 1 1 1 1 1 1 0.029807963257858922 0.0099996911819919005 1 1 1 1 1 1 1 1 1 0.010000257870749004 1 1 0.031837858430186682 0.011613499330282133 1 0.0099999944654606265 1 1 1 1 1 1 1 1 1 0.010063286613059417 1 1 1 1 1 1 1 1 1 1 1 1 0.0099997331285481619 1 1 1 0.0099999725391005916 0.010000347723638316 1 1 1 1 1 1 0.009999990691878834 1 0.010107530658512984 1 1 1 1 1 1 1 1 0.0099999677555562341 1 1 1 1 1 1 1 1 1 1 1 1 1 1 1 1 1 1 1 1 1 0.01000010130595385 1 1 1 1 0.010000180249601771 1 1 1 0.0099999253909663771 0.009999838356180589 0.0099999600478926556 1 0.009999851975786879 1 1 0.011037219294380084 1 0.010000061687910386 1 1 0.012586535506445062 1 0.0099999987367955928 1 1 0.0100002015944348 1 1 1 0.0099998539561269514 1 1 1 1 1 1 1 1 1 1 1 1 1 0.0099997660741815014 1 1 0.0099998744035119866 1 1 1 1 1 1 1 0.0099998400780913627 1 1 1 1 1 1 1 1 1 1 1 1 1 1 1 1 0.0099999405071441207 1 0.010000196474312169 1 0.010439534068065734 1 1 1 1 1 1 1 1 1 0.010076331081009656 0.01010846516727925 1 1 1 0.010147613708121955 0.0099994701696236102 1 0.0100005308700673 1 1 1 0.010000047520745382 1 1 1 1 1 0.010000548906666698 0.0099992399075927302 1 1 1 0.0099997845687630135 1 1 1 0.010448120328256543 1 1 1 1 1 0.011228809369296412 1 0.0099998922024378354 1 1 0.010000006575866034 1 1 1 1 0.010000867043663637 1 1 1 1 1 1 0.0099994446964051797 1 0.0099997703610319004 1 1 0.015408735524444904 0.010000196791787243 1 1 1 0.010000047180948671 1 1 1 1 0.0099997938965620398 1 0.012305854684201034 1 1 1 1 0.010799592683170378 1 1 1 1 1 1 1 1 1 1 1 0.010000083678807649 1 1 1 1 1 1 1 1 1 1 1 1 1 1 1 1 1 1 1 1 1 1 1 1 1 1 1 1 1 1 1 1 1 1 1 1 1 1 1 0.010000076962369471 1 1 1 1 1 1 1 1 1 1 1 1 1 1 1 1 0.012581859036700808 1 1 1 1 1 1 0.010068830251106529 1 0.009999794164389262 1 1 0.010000025979147805 1 1 1 1 1 0.010000091584257294 1 1 1 1 1 1 1 1 1 1 1 1 0.010000063457759575 1 1 1 1 1 1 0.010000196310440782 1 1 1 1 0.0099999269784841627 1 1 1 1 1 1 0.010000132041173254 1 1 1 0.0099996234887792836 0.0100001933241201 1 1 0.0099999277606683708 1 1 1 1 1 1 1 1 1 1 1 1 1 1 1 0.0099999467259409593 1 0.0099999453584659823 1 1 0.010000052320514952 0.009999166629839646 0.010000305140500289 1 1 1 0.010000189562099304 1 1 1 1 0.010000168314314944 1 1 0.010058816672821378 1 1 1 1 1 1 1 1 1 0.009999917213969577 1 0.010000162277965871 1 1 0.010000196131100501 1 1 1 1 1 1 1 1 1 1 1 1 1 0.010000070863240571 1 1 1 1 1 1 1 1 1 1 1 1 1 1 1 1 1 1 1 1 1 1 1 1 1 1 1 1 1 1 1 1 1 1 1 1 1 1 1 1 1 1 1 1 1 1 1 1 0.010000085134286312 1 0.010000081472977861 1 1 1 1 1 1 1 1 1 1 1 1 1 1 1 1 1 0.010000135577329807 1 1 1 1 0.010021673177721013 1 1 1 1 1 1 1 1 1 1 1 1 1 1 1 1 0.010290607888745473 1 1 1 1 1 0.010000077873732164 1 1 1 1 0.010000137692389452 1 1 1 1 1 1 1 1 1 1 1 1 1 1 1 1 1 1 1 1 1 1 1 1 1 1 1 0.010000112781605149 1 1 1 1 1 1 1 1 0.010290582977961177 1 1 1 1 1 1 1 1 1 1 1 1 1 1 1 1 1 1 0.0099999605341083014 1 1 1 1 1 1 1 1 1 1 1 1 0.013766552229034782 1 1 1 1 0.010000189324508546 1 1 1 1 1 1 1 1 1 1 1 1 1 1 1 1 1 1 1 1 1 1 0.010000044271733236 1 1 1 1 1 1 0.010000237802280895 1 1 1 1 1 0.010000010045491857 1 1 1 1 1 1 1 0.010000023804439987 1 1 1 1 1 0.0099999705401961 1 1 1 1 1 1 1 1 1 1 1 0.01000010427557183 1 1 1 1 1 1 0.012758716761951837 1 0.017588599083619618 1 0.010000477938752706 1 1 0.020152660701247996 1 1 1 1 1 1 1 0.010000233035381277 1 1 1 1 1 0.010000650689144117 1 1 1 1 1 1 0.011588455494212696 0.010000153488510945 1 0.0099999415133570062 1 0.0099997990363222197 1 0.0099997865635767878 1 1 1 0.0099998669303265758 0.0099997001039210283 1 0.0099999365657800644 1 1 1 1 0.009999913853847046 1 1 0.010000057325485229 0.0099997282029968791 1 0.0099998299765856145 0.010000245915887107 1 1 1 1 1 1 0.010000028592382694 1 1 1 1 1 1 1 1 1 1 1 1 1 1 1 0.01000006353281742 1 1 1 1 1 1 1 1 1 1 1 1 1 1 0.010000018837334756 1 1 1 1 1 1 1 1 1 1 1 1 1 1 1 1 1 1 1 1 1 1 0.010181394573738843 1 1 1 0.0099999950328947627 1 1 1 1 1 1 1 1 1 1 1 1 1 1 1 1 1 1 1 1 1 1 1 1 1 1 0.0099999467977670096 1 1 1 1 1 1 1 1 1 1 1 1 1 0.010584804701509569 1 1 0.010000120354305742 1 1 0.017330537016191049 1 1 0.009999876735887642 1 1 1 1 1 1 0.016074172719574766 1 1 1 1 1 1 1 1 1 1 0.010011469612439426 1 1 1 1 1 1 1 1 1 1 0.010000003723534821 1 1 1 1 1 1 1 1 1 1 1 1 1 1 1 1 1 1 1 1 1 1 1 1 1 0.010000124977308093 1 1 1 1 1 1 1 1 0.010479057155421278 1 1 1 1 1 1 0.010000128546937138 1 1 1 1 1 1 1 1 1 1 1 1 1 1 1 1 1 0.010000003569629044 1 1 1 1 1 1 1 1 1 1 1 1 1 1 1 1 1 1 1 1 1 1 1 1 1 1 1 1 1 1 1 1 1 1 1 1 1 1 1 1 1 1 1 1 1 0.010000837853803774 1 1 1 1 1 1 1 1 1 1 1 1 1 1 1 1 1 1 1 1 1 1 1 1 1 1 1 1 1 1 1 1 1 1 1 1 1 1 1 1 1 1 1 1 1 1 1 1 1 1 1 1 1 1 0.010000053858479095 1 1 1 1 1 1 1 1 1 1 1 1 1 1 0.010000206695307875 0.009999918829792051 1 1 1 1 1 1 1 0.0099999433394185339 1 1 1 1 1 0.013502109941432278 1 1 0.010000023032393879 1 0.0099996309034890082 1 0.0099999429801868323 1 1 1 1 0.010000418377142767 0.014421127541668117 1 0.0099989968021751488 1 1 0.010001162717595588 1 1 0.010000532534911391 0.010000756284350593 0.010000705948263139 1 1 0.010000013428020741 1 0.0099999870719518821 1 1 1 1 1 1 1 1 1 1 1 1 1 1 1 1 1 1 0.01273945595322243 1 1 1 1 1 0.010000207071856974 1 1 1 1 1 1 1 1 1 1 0.0099984950117812943 1 1 1 1 1 1 1 0.0099997160239614115 1 0.010000061938724325 1 1 0.010589307509005021 1 1 1 0.010000029077769583 1 1 1 0.010000109959375544 1 1 1 0.0099998286269945575 1 0.01000006637326651 1 1 0.010000016721738031 1 0.0099999837356028048 0.011444825597771133 0.010000146402662407 1 1 1 1 0.0099998186066759653 1 0.010000011458770216 1 1 1 1 1 0.0099999049879460206 1 1 1 1 0.010000004447239069 1 0.0099999366613775162 1 1 1 1 1 1 1 1 1 0.010000213574102312 1 0.010000076985499092 1 1 1 1 0.009999986951141732 1 1 1 0.0099999742038438862 0.0099997383977394119 1 1 0.0099997595375067305 1 1 0.010000020871575427 1 1 1 1 1 0.0099999521309257072 1 1 0.0099999204553435448 1 1 1 1 1 1 0.0099997149472456689 1 0.010659075263575303 0.0099999910805602301 0.0099999472614761987 1 1 1 1 0.0099999761241696232 1 1 1 1 1 1 1 1 1 1 1 1 1 1 1 1 1 1 1 1 1 1 1 1 1 1 1 1 1 1 1 1 1 1 1 1 1 1 1 1 1 1 1 1 1 1 1 1 1 1 1 0.0099998118217118157 1 1 0.0099994963879583305 1 1 1 1 1 0.0099997173572552098 1 1 1 1 1 1 1 1 1 1 1 0.010000070773723061 1 1 0.014095870554754857 1 0.0099999486906032498 1 1 1 1 0.0099998254419126319 1 1 0.0099998807624061183 1 1 1 0.010000059321352138 0.0099998715095887675 1 0.013549118152436736 1 0.0099995277870553734 1 0.0099999187258416403 0.012843820678582309 1 0.015579058485324549 1 1 1 0.0099994327768450353 1 1 1 1 1 0.010000055491007704 1 1 0.010000135478709024 0.0099999872100228586 1 0.010040269520852935 1 1 1 1 1 1 1 1 1 0.0099995558993501918 1 1 0.010000631317580461 1 1 0.0099999265486056046 1 1 0.0099999989953937704 0.014164560543690153 0.013033136482628972 1 1 0.010000250714368811 1 1 0.011846818432646173 1 0.010000178419234959 0.010000216049252324 1 1 0.0099999584359087099 1 1 0.0099999599682318273 0.010000191668578854 1 1 1 1 0.011289519035189596 1 1 1 1 0.010000184894572665 1 1 1 1 1 1 1 1 1 1 1 0.0099994701947510884 1 1 1 1 1 1 0.0099997240962181946 1 0.01000001568954131 1 1 1 0.010000053169964128 1 0.0099998761055634169 1 1 1 0.010683065723667708 1 1 1 1 1 1 1 0.010010712183742108 1 1 1 0.010000016194313231 1 1 1 0.01190871276020572 1 1 1 1 1 1 1 1 1 1 1 1 1 1 1 1 1 1 1 1 1 1 1 1 1 1 1 1 1 1 0.010000260753585719 1 1 1 1 0.010000123757957724 1 1 0.0099999396693121537 1 1 1 1 1 1 0.010000107079133749 1 1 1 0.009999956344609609 1 1 1 1 1 1 1 1 1 1 0.0099998501020477984 1 0.0099996734054926401 0.022199477896198402 1 1 1 0.016920039140247395 1 1 1 1 1 1 1 1 1 0.00999978277169245 1 1 1 1 1 0.010000133933425937 1 1 1 1 0.0099998476793278744 1 1 1 0.010000043929899784 0.009999968555459076 1 1 1 1 0.010000053627869453 1 1 1 1 1 1 0.013570795586808062 1 1 1 1 1 1 1 1 1 1 1 0.011165320994812196 1 1 1 1 0.00999877075233108 0.012259133214986277 1 1 1 1 1 0.0099999721927670603 1 0.01015749910651048 1 1 0.011843097964952969 1 0.010001142104056601 1 1 1 1 0.010000736706007936 1 1 0.0099990703413766549 1 1 1 0.01000047083030859 1 1 1 1 1 1 1 1 1 1 1 1 1 1 1 1 1 1 1 0.010000023544622247 1 0.012454886218433407 1 1 1 1 1 1 1 1 1 1 1 1 1 1 1 1 1 1 1 1 1 1 1 1 1 1 1 1 1 1 1 1 1 1 1 0.014545073400214365 0.012030626499796174 1 1 1 1 1 1 1 1 1 0.010000036723509464 1 1 1 1 1 1 1 0.0099997293850400196 1 1 1 1 1 1 1 1 1 1 1 1 1 1 1 1 1 1 1 1 1 1 1 1 1 1 1 1 1 0.012566874500383587 1 1 1 1 1 1 1 1 0.011325997255695434 1 1 1 0.0099999591777829785 1 1 1 0.01093593916576717 1 0.012961773495492476 1 1 1 1 1 1 0.0099999302930871906 1 1 1 1 1 1 1 1 1 1 0.010000068757265931 0.0099998758494899906 1 1 0.011384251320875394 1 1 1 1 0.0099999745118747388 1 1 0.0099998565750528332 1 0.011958340393143949 1 1 1 1 1 1 1 0.011783084912935303 0.0099999797305134405 1 1 1 1 1 1 1 1 1 1 1 1 1 1 1 1 1 1 1 1 1 1 1 0.010000098504527689 1 1 1 1 1 1 0.010032642849395472 1 1 1 1 1 1 0.010000210312270406 1 1 1 1 1 1 1 1 1 1 1 1 1 1 0.010000009509332684 0.0099999935006453641 1 1 1 1 1 0.0099998920953826217 1 1 1 1 1 1 1 0.0099999564179642925 1 1 1 0.023308042084974147 1 1 1 1 1 1 1 1 0.0099979467110341974 1 0.010001342527261245 0.009999779667586816 1 1 1 1 0.010000083352394062 1 0.0099995440707738859 0.01000390484389144 0.0099991010776492861 1 1 1 1 0.016910804196651516 1 1 0.010176806490703074 1 1 0.010969574019689947 1 1 1 1 1 1 1 1 1 1 1 1 1 1 1 1 1 1 0.01000007765972883 1 1 1 1 1 1 0.0099999973261488476 1 1 1 1 1 1 1 1 1 1 0.010900964543641341 1 1 1 1 1 1 0.010025889461383879 1 1 1 1 1 1 1 1 1 1 1 1 1 1 1 0.010265789336962268 1 1 1 1 1 1 0.0099998760426156727 1 1 1 1 1 1 1 0.010000093055701114 1 1 0.010000082586790214 1 1 1 1 0.01095401445204619 0.011402144384172426 1 1 1 1 1 1 1 1 1 0.010062571977278063 1 1 1 1 1 1 1 1 1 1 1 1 1 1 0.010000124717607382 1 1 1 1 1 1 1 1 1 1 1 1 1 0.010000126399520026 1 1 1 1 1 1 1 1 1 1 1 0.01000000460311902 1 0.0099999168018268733 1 0.010000062108848896 1 1 1 1 1 0.010000116880071602 1 1 1 1 1 1 1 1 1 1 0.010000256705604272 0.0099998952393628854 1 1 0.0099999877457854613 1 0.0099999583913932821 1 1 1 1 1 1 1 1 1 1 1 1 1 1 1 1 1 1 1 1 0.0099998119313649946 1 1 0.011933161592652512 1 1 1 1 1 1 1 1 1 1 1 0.010000140169760599 1 0.010998883954660055 1 1 1 1 1 1 1 1 0.0099997600965587973 1 1 1 1 1 1 1 0.01000001638097487 1 1 0.0100001035669959 1 1 1 1 1 1 0.010000005056548357 1 1 1 0.0099997471314791329 1 1 0.010000090290400526 1 0.010000080584639845 1 0.0099999390719786533 1 1 1 0.0099999959290666199 1 1 1 1 1 1 1 1 0.010000026070515353 1 1 0.0099998938319052575 0.010000089426958696 1 1 0.0099999706284011978 1 1 0.010000065875714857 1 1 1 1 1 1 1 1 1 1 1 1 1 1 1 1 1 1 1 1 0.010000036857707409 1 1 1 1 1 1 0.010304436222240329 1 1 1 1 0.010000116940012894 1 1 1 1 1 1 0.010000055006205778 1 1 1 1 1 1 1 1 1 1 1 1 1 1 1 1 1 1 1 1 1 1 1 1 1 1 1 1 1 1 1 1 1 1 1 1 1 1 1 1 1 0.0099999552497307825 1 1 1 1 1 0.010000004000879324 1 1 1 1 1 0.017425044062184661 0.0099999963360509602 1 1 1 1 1 1 1 1 1 1 1 1 1 0.011159477183284094 1 1 0.013347032467140987 1 1 1 1 1 1 1 1 1 1 1 1 0.014464503475121036 1 1 0.010000165878500729 1 1 1 1 1 1 1 1 1 1 1 1 1 1 1 1 1 1 1 1 1 1 1 1 1 1 1 1 1 1 1 1 1 1 1 1 1 0.010000060822422524 1 1 1 1 1 1 1 1 1 1 1 1 1 1 1 1 1 1 1 1 1 1 1 1 1 1 1 1 1 1 1 1 1 1 1 1 1 1 1 1 1 1 1 1 1 1 1 1 1 1 1 1 1 1 1 1 1 1 1 1 1 1 1 1 1 1 1 1 1 0.010088620178900422 1 1 1 1 0.011114969282443415 1 1 1 1 1 1 1 1 1 1 1 1 1 1 1 1 1 1 1 1 0.010000026754784824 1 1 1 1 1 1 1 1 1 1 1 1 1 1 1 1 1 1 0.010067821618598332 1 1 1 1 0.0099999196112829508 1 1 1 1 1 1 0.010149013273174043 0.024970324168379666 1 1 1 1 1 1 0.010000159625609031 1 1 1 1 0.01000020312599173 0.0099997145999918911 1 1 1 1 0.01124019412452658 1 1 1 1 0.010000061772715198 0.010000159748050481 0.0099997606301249833 1 1 1 1 1 0.010000103842165917 1 1 1 1 0.0099999102420513034 1 1 1 1 1 1 1 1 1 1 1 0.012935539378348073 1 1 0.010429756806686499 1 1 1 1 1 1 1 1 1 1 1 1 1 1 1 0.010097608138153722 1 1 1 1 1 1 1 1 1 0.01000000096306055 1 1 0.010000030280470994 0.0099999465026710792 1 1 1 1 1 1 0.010000028800066507 1 1 1 0.010400457227768486 1 1 1 0.0099999912026612417 1 1 1 0.009999995348868522 1 1 1 0.010000065107752545 0.010000024978122801 1 1 0.009999965881722004 1 1 1 1 0.010457754101192488 1 1 1 0.010525478174048529 1 0.010000046696568621 1 1 1 0.01002613212469528 0.022857179669919882 1 1 1 1 1 1 1 0.010611893717178404 1 1 1 0.010000000203759789 0.010000069726139389 1 0.013737148873154907 1 1 0.0099999078812802455 1 1 1 1 1 1 1 1 1 0.012999896303370643 0.010290759117690597 1 1 1 1 1 0.010840028695993719 1 1 1 0.0099999796941220853 1 1 0.010261180889103921 1 1 1 1 1 1 1 0.010000005357223091 1 1 1 1 0.015539618924496984 0.0099999749162429513 1 1 0.0099999898485561498 1 1 1 1 0.010000026370125798 1 1 1 1 1 1 0.010213770040753939 1 1 1 1 1 1 1 1 0.010020659039448064 1 1 1 1 1 1 1 1 1 1 1 1 0.010538137592075468 1 1 1 1 1 1 1 1 1 1 1 1 1 1 1 1 1 1 1 1 1 1 1 1 1 0.020943340436229738 1 1 1 0.010000243551492059 1 1 1 1 1 0.019969633626824995 1 0.01000010015761725 1 1 1 1 1 1 1 1 1 1 1 1 1 1 1 1 1 1 1 1 1 1 0.0099998771325560676 1 1 1 1 0.0099999174188293277 1 1 1 1 0.010000043557481242 1 1 1 1 1 1 1 0.010000127314378146 1 1 1 1 1 1 1 1 1 1 1 1 1 1 1 1 1 1 0.01014665848751968 1 0.010000083756896913 1 1 1 1 1 0.010000055296640963 1 1 1 1 1 1 1 0.0099999142275382022 1 1 1 1 1 1 1 1 1 1 1 1 1 1 1 1 1 1 1 1 1 1 1 1 1 1 1 1 1 1 1 1 1 1 1 1 1 1 1 1 1 0.0099999891632673032 1 1 1 1 1 1 1 1 1 0.0099998281534670157 1 1 0.010050000386447811 1 1 1 1 1 1 0.0099992818874771409 1 0.0099993905127042874 1 0.010000673959657938 0.010000023238986404 0.010000338381805064 1 0.010000281063950088 1 0.0099999739365424951 0.0099999149268278215 1 0.010000000106722588 1 1 1 1 1 1 1 1 1 1 1 1 1 1 1 1 1 1 0.0099999501403310112 1 1 1 1 1 1 1 1 1 1 1 1 1 0.009999967714875671 1 1 1 1 1 1 1 1 1 1 0.010000289426077329 0.010000024709742358 1 1 1 0.0099999746905386766 0.0099999986162460884 1 1 0.0099997420454032079 1 1 1 1 1 1 1 1 0.009999820162268528 1 1 0.013641904195503131 1 1 0.017230339974161471 1 1 1 1 1 1 1 1 1 1 1 1 1 1 1 1 1 1 1 1 1 1 1 1 1 1 1 1 1 1 1 1 1 1 1 1 1 1 1 1 1 1 1 1 0.01000006193380713 1 1 1 1 1 1 1 1 1 0.0099999894680954937 1 1 1 0.0099999787428080127 1 1 1 1 1 1 1 1 1 1 1 1 1 1 1 1 1 1 1 1 1 1 1 1 1 1 1 1 1 1 1 0.0099999166073542946 1 1 1 1 1 1 0.0099999901436844396 1 1 1 1 1 1 1 1 1 1 1 0.0099997929552709738 1 0.010756027299204621 1 1 1 1 1 1 1 1 1 1 0.011359330725030418 1 1 0.0099999692677446295 1 1 1 1 1 1 1 1 1 1 1 1 1 1 1 1 1 1 1 1 1 1 0.018682503564372691 1 1 1 1 0.010485700819085243 1 1 1 1 1 1 0.010000348400822374 1 1 1 1 1 1 1 1 1 1 1 1 1 1 1 1 1 1 1 1 1 1 1 1 1 0.0099998736304322943 1 1 1 1 0.0099999983269356066 1 1 1 1 0.019963287643746323 1 1 0.0099999905232045754 0.010000060532116311 1 1 1 1 1 1 1 0.013150888509708109 1 1 1 0.017967388879878039 1 1 1 0.015644527765662372 1 1 1 1 1 1 0.0099998662510288917 1 1 1 1 0.013055633213745303 1 1 1 1 0.014382737652446525 1 1 0.010000118502394795 1 0.0099997525135022865 0.010000015037916685 1 1 1 1 1 1 1 1 1 1 1 1 0.010000136407950451 0.010199795769428081 1 1 1 0.01000004949200195 1 1 1 1 1 1 1 1 1 1 0.010079172028135977 1 1 1 1 1 1 0.010004441650457455 1 1 1 1 1 1 1 1 1 1 1 1 1 1 1 1 1 1 1 1 1 1 1 1 1 1 1 1 0.010634160703896485 1 1 1 1 1 1 1 1 0.01013010568495111 1 1 0.0099999904537447747 1 1 1 1 1 0.011521614078941242 1 1 0.013295269641514611 1 1 1 1 1 1 0.010983170477056055 1 1 1 1 1 1 1 1 1 1 1 1 1 1 1 1 0.010204889810381972 1 1 1 0.010200670908108021 1 1 1 1 1 1 1 1 1 1 1 1 1 1 1 1 1 1 1 1 1 1 1 0.010858789610929662 1 0.010857505471666071 1 1 1 1 1 1 1 1 1 1 1 1 1 1 1 1 1 1 1 1 1 1 1 1 1 1 0.0099998872145560056 1 1 1 0.010000030954265972 0.010000091153871113 1 1 1 1 1 1 1 1 1 1 1 1 0.010974292942005776 1 1 1 0.010000000565420594 1 1 1 0.0099999505853063941 1 1 1 0.0099999572516051554 1 1 1 1 1 1 1 1 0.0099997950982485175 1 1 0.013831839774682934 1 1 1 1 1 1 0.010000009051140991 1 1 1 1 1 1 1 1 0.013737000686687068 1 0.010454501137511993 0.01000025257920255 0.010000031413645472 1 0.0099991782097967399 1 1 0.009999996070005953 1 1 1 1 1 1 1 1 1 0.010000147194622964 0.010461729424253989 1 1 1 0.0099997248417602047 1 0.0110513796084774 1 1 1 1 1 1 1 0.012841461827925366 1 1 1 1 1 1 1 1 1 1 1 1 1 0.0099999458753167961 1 1 0.010000097467318107 1 1 0.010244935757611701 1 1 1 1 1 1 1 1 1 1 1 1 1 0.010000131901848772 1 1 1 1 1 1 1 1 1 1 1 1 0.010000095449385897 1 1 1 1 1 1 1 1 1 1 1 1 1 1 0.010000046959238252 1 0.009999915649726623 1 1 1 1 1 1 1 1 1 1 1 1 1 1 1 1 1 1 1 1 0.010000023212095907 1 1 1 0.010121018163214509 1 1 1 0.010000102997022208 1 1 1 1 0.010000086450145582 1 1 1 0.0099999418438556954 1 0.01033055575485823 1 0.0099999593429409318 0.010418503811266713 1 1 1 1 1 1 1 0.010923496051955896 1 1 1 1 1 1 0.010430934290351412 0.011872284337620234 1 1 1 1 1 1 1 1 1 1 1 1 1 1 1 1 1 1 1 1 1 1 1 1 1 1 1 1 1 1 1 1 1 1 1 1 1 1 1 1 1 1 1 1 1 1 1 1 1 1 1 1 1 1 1 1 1 1 1 1 1 1 1 1 1 1 1 1 1 1 1 1 1 1 1 1 1 1 1 1 1 1 1 1 1 1 1 1 1 1 1 1 1 1 1 1 1 1 1 1 1 1 1 1 1 1 1 1 1 1 1 1 1 1 1 1 1 1 1 1 1 1 1 1 1 1 1 1 1 1 1 1 1 1 1 0.0099999809295182873 0.0099997583326432299 1 1 1 0.0099999588965623276 1 0.0099997983799062738 1 1 1 0.010000105780510903 1 1 1 1 1 1 1 0.010044464814738736 1 1 1 1 0.01002457586500451 1 1 1 1 1 1 0.010000151383707313 0.0099997024554648456 1 1 1 1 1 1 1 1 1 1 1 1 0.0099997488002487242 1 1 1 1 1 1 1 1 0.010000062835230739 1 1 1 1 1 1 1 1 1 1 1 1 1 0.01333484909715324 0.021975741942616887 1 1 1 1 1 0.0099998036088684017 1 1 1 1 1 1 1 1 0.010000195550301547 0.015969177439505329 1 1 1 1 1 1 1 0.01000029432930845 1 1 1 1 1 1 1 1 1 1 1 1 1 1 1 1 1 1 1 1 1 1 1 1 1 1 1 1 1 1 1 1 1 1 1 1 1 1 1 1 1 1 1 1 1 1 1 1 1 1 1 1 1 1 1 1 1 1 1 1 1 1 1 1 1 0.0099998242384422287 1 1 1 1 0.010000016910168198 0.011307929341612746 1 1 0.010000399912929524 1 0.0099997493493365047 0.010000021474593786 1 1 1 1 1 1 1 0.011032480448329642 1 1 1 1 1 1 1 0.010000047167896681 1 1 0.010231640449809044 0.0099998236441214278 1 1 1 1 1 1 1 1 1 1 1 1 1 1 0.01006363127774465 1 1 1 1 0.010215370613603933 1 1 1 1 0.010157100900517115 1 1 1 1 1 0.01258239643426249 1 1 0.012755377363010273 1 1 1 1 1 1 1 1 1 1 1 1 0.028948556958110355 1 1 0.032637339155215724 1 1 1 1 1 1 0.010000186566094561 1 1 1 0.010146240646797998 1 1 1 1 0.010989370989523066 1 1 1 1 1 0.010000023574066139 1 1 1 1 1 1 1 1 1 1 0.010592339203482147 1 1 1 1 1 1 1 1 1 1 1 1 1 0.010360312138770721 1 1 1 1 1 1 1 1 1 0.010516154922184814 1 1 1 1 1 1 1 1 1 1 1 1 1 1 1 0.010363110408647291 1 1 1 0.010158604450723897 1 1 1 1 1 1 1 1 1 1 1 1 1 1 1 1 1 0.010794367131894645 1 1 0.010061099380989062 1 0.012315209182862651 1 0.017179765087152889 1 0.010016073719163387 1 1 1 0.014266100639814988 1 1 0.010000673035965243 1 1 0.01000003856574252 1 1 1 1 1 0.009999913427103279 1 1 0.010000088183735874 1 1 1 1 1 1 1 0.010000080031774782 0.0099996204649035244 1 1 1 1 1 1 1 0.010478956252189085 1 1 1 1 1 1 1 1 1 1 1 1 1 1 1 1 1 1 1 1 1 1 1 1 1 1 1 1 1 1 1 1 1 1 1 1 1 1 1 1 1 1 1 1 1 1 1 1 1 1 1 1 1 1 1 1 1 1 1 1 1 1 1 1 1 1 1 1 1 1 1 1 1 1 1 1 1 1 1 1 1 1 1 1 1 1 1 1 1 1 1 1 1 1 1 1 0.010000358771364012 1 1 1 1 1 0.010225938297679496 1 1 1 1 1 1 1 1 1 1 1 1 0.0099999253432491234 1 1 1 1 1 1 0.011238757285115772 1 1 1 1 1 1 0.012677501198884507 1 1 1 0.010834084889954916 1 1 1 1 1 1 1 1 1 1 1 0.011235585167170339 1 1 1 0.012474342452286102 1 1 1 1 1 1 1 1 1 1 1 0.015289422490145414 1 1 1 0.016585324316542596 1 1 1 0.017197926989086343 1 1 1 1 1 1 1 1 1 1 1 1 1 1 0.0099997325309257781 1 1 1 0.0099999933728273215 1 1 0.01021497943759124 1 1 1 1 1 1 1 1 1 1 1 1 1 1 1 1 1 1 1 1 1 1 1 1 1 1 1 1 1 1 1 1 1 1 1 1 1 1 1 1 1 1 1 1 1 1 1 1 1 1 1 1 1 1 1 1 0.010000063268546244 1 1 1 1 0.010000107642721315 1 1 1 1 0.010000000588868935 1 1 1 1 1 1 1 1 1 1 1 1 1 1 1 1 1 1 1 1 1 1 1 1 1 1 1 1 1 1 1 1 1 1 1 1 1 1 1 1 1 1 1 1 1 1 1 1 1 1 1 1 1 1 1 1 1 1 1 1 1 1 0.0099999676916402644 1 1 0.01207297741325903 1 1 1 0.010286667987609899 1 1 0.010000000523193572 1 1 1 0.010000078680151151 0.013865194764716406 1 1 1 1 1 1 0.011896653259783474 1 0.016314841612601001 0.010115960944752384 1 1 1 1 0.0099999780394105162 1 1 1 1 1 1 1 1 1 1 0.010000115883212479 1 1 1 1 1 1 0.016419414060771152 1 0.010595951340377345 1 1 1 1 1 1 0.014096954229944994 1 1 1 1 1 1 1 1 1 1 1 1 1 1 1 1 1 1 0.010000006668232492 1 1 1 1 1 1 1 1 1 1 1 1 1 1 1 1 1 1 0.0099999036379686199 1 1 1 1 0.010068401836044016 1 1 1 0.010000048596032377 1 1 1 1 1 1 0.010000355153148371 1 1 1 0.010000201639643514 1 1 0.010246864238900942 1 1 1 1 1 1 1 1 1 1 1 1 0.010000328082484669 1 0.0099998167951202803 1 1 1 1 1 1 1 1 1 0.010000033057262894 1 1 1 1 1 1 1 0.026157649239681724 0.010010162929674351 1 1 0.01035274603881201 0.023189977988770358 1 1 0.0099998134756001111 0.011479537439102188 1 0.016198775645947985 0.0099996826241662944 1 1 1 0.011785742604768112 1 1 1 1 1 0.0099999279624639961 0.010000002793253826 1 1 1 1 1 1 1 1 1 1 1 1 1 1 1 1 1 0.012352866771815262 1 1 1 1 1 1 1 1 1 1 1 0.011897724581926046 1 1 1 1 0.010000063199764804 1 1 1 0.010352063514795565 1 1 1 1 1 1 1 1 0.010271296716948685 1 1 1 0.010000224125168954 1 1 1 1 1 1 1 1 1 1 1 1 1 1 1 1 1 1 1 1 1 1 1 1 1 1 1 1 0.010000006149695406 1 1 0.010278616887790951 1 1 1 1 0.0099999975939247567 1 1 1 1 1 1 0.0099997468583988957 1 1 1 1 1 1 1 1 1 1 1 1 1 0.010000025127750084 1 1 1 1 1 1 1 1 1 1 1 1 1 1 1 1 1 1 1 1 0.009999999637486906 1 1 1 1 0.01012546927014869 1 1 0.010000183977838421 0.0099999711633366409 1 1 1 1 1 0.0099997962961371721 1 1 1 1 1 1 1 1 1 1 1 0.009999770340400076 1 1 1 1 1 1 0.0099999101130090629 1 1 1 1 1 1 1 1 1 1 1 1 1 1 1 1 1 1 0.010000028520145008 0.010000170308828176 1 1 1 1 1 1 1 1 1 1 1 1 1 1 1 1 0.010471568145926159 1 1 0.011141498465994645 1 1 1 1 1 1 1 1 1 1 1 1 1 1 1 1 1 1 1 1 1 0.010000128097541253 1 1 0.0099999408247157771 1 1 1 0.0099999163034209613 1 1 1 1 1 0.0099999199402036314 0.015827776650211345 1 1 1 1 0.010545008443495226 1 1 0.009999906059563959 1 1 1 1 1 1 1 1 1 0.0099997799856455117 1 0.010000269444016606 1 1 1 1 1 1 1 1 1 0.010000291616796438 1 1 1 1 1 0.010098134762251579 1 1 1 1 1 1 1 1 1 1 1 0.0099996203123378855 1 1 1 1 0.012997190639069572 0.0099998277569726506 1 1 1 1 1 1 1 1 1 1 0.010966971442357802 1 1 1 1 1 0.010464949183351772 1 1 1 0.010000069764654795 1 1 1 1 1 1 1 1 1 1 1 1 1 1 1 1 1 1 1 1 1 0.010000197381180576 1 1 0.01022214269581421 0.010952385747255858 1 1 1 0.010285754008725221 1 1 0.0099999638685918137 1 1 1 1 1 1 1 1 1 1 1 1 1 1 0.01000002178361052 1 1 1 0.010000000897305007 1 1 1 1 1 1 1 1 1 1 1 1 1 1 1 1 1 0.010925383622462842 1 0.011738711566102403 1 1 1 1 1 1 1 1 1 1 1 1 1 1 1 1 0.0099998062141444834 1 1 1 0.0099998689961304336 1 1 1 0.010000009560101109 0.010000017746583517 0.009999944009674324 1 1 0.019220403489420612 1 1 1 1 0.018373068965107375 1 1 1 0.010264787922756771 1 1 1 1 1 1 0.010000219242338706 1 1 1 1 1 1 1 1 1 0.0099995691109679256 1 1 1 1 1 1 1 1 0.0099999656460778349 1 1 1 1 1 1 1 1 1 1 1 0.009999979284642236 1 1 0.010000054921695319 1 1 0.0099999151525639943 1 1 1 0.0099999982915170982 1 1 1 1 1 1 1 1 1 1 1 1 1 1 1 1 1 0.010000011458181987 1 1 0.010446026620322558 0.0099999899655222532 1 0.011160756593982168 1 1 1 1 0.013161191755602042 1 1 1 1 1 1 1 1 1 1 1 1 1 1 1 1 1 1 0.011454581802517103 1 1 1 1 1 1 1 1 1 1 1 1 1 1 1 1 1 1 1 1 1 1 1 1 1 1 1 1 1 1 1 1 1 1 1 1 1 1 1 1 0.0099999792281930677 1 1 1 1 1 1 1 0.010000037019914055 1 1 0.010000095938423183 1 1 1 1 1 1 1 1 1 1 1 1 1 1 1 1 1 1 1 1 1 0.010000043782166235 1 1 1 1 1 1 1 0.010552773713753769 1 1 1 1 1 0.010000078445367169 1 1 1 1 1 1 1 1 1 1 1 0.010000336251642013 1 1 0.010209530314948666 1 1 1 1 1 1 1 0.010935009122405016 1 1 1 1 1 1 1 1 1 1 1 1 1 0.01139866348869038 1 1 1 1 1 1 1 1 1 1 0.010000027124950827 1 1 1 1 1 1 1 1 1 1 0.0099999962680446617 1 0.010000244359760692 1 1 1 1 1 0.0099998158919401576 1 1 1 1 1 0.010000223327631053 1 1 1 0.0099997881612809321 1 1 0.010978069822774748 1 0.010000050254104541 1 1 1 1 1 1 1 1 1 1 1 1 1 1 1 1 1 1 1 1 0.0099998654576743101 1 0.010000044451659622 1 1 1 1 1 1 1 1 1 1 1 1 1 1 1 0.0099999148960008191 1 1 0.0099998309733214125 1 1 1 1 1 1 1 1 1 0.010000375997295091 1 1 1 1 0.0099997854034052612 1 1 1 0.014440792682540579 1 1 1 0.010000015731101111 1 1 0.010793860234480732 0.014641742062572715 1 1 1 0.010260908063526602 1 1 0.010014809127520109 1 1 0.009999982148683105 1 0.01285724341281444 1 1 1 1 1 0.010644685032730097 1 1 1 0.010000037062307912 1 1 1 0.0104158007810218 1 0.010000000258668257 1 1 0.0099999627465517035 1 1 1 1 1 1 0.009999938285339266 1 1 1 1 0.010000037234133126 1 1 1 0.00999973826902327 1 0.010000256855677202 1 1 1 1 1 1 1 1 0.010000071615300234 1 1 1 1 1 1 1 1 1 1 1 1 1 1 1 1 1 1 1 0.0099998280406305082 1 1 1 1 0.0109262959554281 1 1 1 0.010521960303904204 1 1 1 0.01142361438673492 1 1 1 1 1 1 1 1 0.01014995796498238 1 1 1 1 1 1 1 1 1 1 0.017002184170167384 1 1 1 1 0.025908171245765173 1 1 1 1 1 0.01000004388240279 1 0.01000009865344826 1 1 1 1 1 1 1 1 1 1 1 1 1 1 1 1 1 1 1 1 1 1 0.010000326527983149 1 0.010799555150837475 0.011202874831496505 1 1 1 1 1 1 1 1 1 1 1 1 1 1 1 0.0099999961287378508 1 1 1 1 1 0.010802219078370241 1 1 1 1 1 1 0.011434278368385975 1 1 1 1 1 1 1 1 1 1 1 1 1 1 0.010632059290015735 1 1 1 1 1 1 1 1 1 1 1 1 1 1 1 1 1 1 1 1 1 1 1 0.010319191993279811 0.010000013734553625 1 1 1 0.015126020711000601 0.0099999048106417278 1 1 1 1 1 1 1 1 1 1 1 0.012464122302727018 1 1 1 1 1 1 1 1 0.0099999215040674702 1 1 0.010056489824533596 1 1 0.0099999677524141174 1 1 1 1 1 1 1 1 1 1 1 0.011424474150807572 1 1 1 1 1 1 1 1 1 1 1 1 1 0.011664684856779212 1 1 1 1 0.011084094759646734 1 1 1 1 1 0.010000023498350594 1 1 1 1 1 1 1 1 1 1 1 1 1 1 1 1 1 1 1 1 1 1 1 1 1 1 1 1 1 1 1 1 1 1 1 1 1 1 1 1 1 1 1 1 1 1 1 1 1 1 1 1 1 1 1 1 1 1 1 1 1 1 1 1 1 1 1 1 1 1 1 1 1 1 1 1 1 1 1 1 1 1 1 1 1 1 1 1 1 1 1 1 1 1 1 1 1 1 1 1 1 1 1 1 1 1 1 1 1 1 1 1 1 1 1 1 1 1 1 1 1 1 1 1 1 1 1 1 1 1 1 1 1 1 1 1 1 1 1 1 1 1 1 1 1 1 1 1 1 0.010325968850913671 1 1 1 1 1 1 1 1 1 1 1 1 1 1 1 1 1 1 1 1 1 1 1 1 1 1 1 1 1 1 1 1 1 0.012690673375696911 1 1 1 1 0.010047367349065237 0.0099999614177894505 1 1 1 1 1 1 1 1 1 0.010144213036772709 1 1 1 1 1 1 1 0.01000011392631505 1 1 1 1 1 1 1 1 1 1 1 1 1 1 1 1 1 1 1 1 1 1 1 1 1 1 1 1 1 1 1 1 0.009999996046571126 1 0.0099999585358858875 1 1 1 1 1 0.016615642021373327 0.010763891408019623 1 1 1 1 1 1 1 1 1 1 0.0099999864944990829 1 1 1 0.010638135343002224 1 1 1 1 1 1 1 1 1 1 1 1 0.010000027832582713 1 1 1 1 0.010242356901057632 1 1 1 1 1 1 1 1 1 1 1 1 1 1 1 1 1 1 0.0099999673269650091 1 0.010000007166347569 1 1 0.0099998309219888684 1 1 1 1 0.010000001350751124 1 0.0099998653647564023 1 1 1 1 1 1 1 1 1 1 1 0.0099999854306817709 1 1 1 1 1 0.011201558846011629 0.010729855052392975 1 1 1 1 1 0.010000005815596449 1 1 1 1 1 1 1 1 1 1 1 1 1 1 1 1 1 1 0.013822943674667874 1 1 0.010921042957526189 1 1 0.019376866180956159 1 1 1 1 1 1 1 1 0.0099999999457603683 0.010249855464311772 1 1 0.01595966808860403 1 1 1 1 1 1 1 1 1 1 1 1 1 1 1 1 1 1 1 1 1 1 1 1 1 1 1 1 1 1 0.0099999697155629882 1 1 0.0099999623150608882 1 1 0.0099998098508144243 1 0.010000012274462455 1 1 0.01000003814188948 1 1 0.010061030209399396 1 0.0099998814052527155 1 1 1 1 1 1 1 1 1 1 0.0099999647958103691 1 1 1 1 1 1 1 1 0.010000039126456008 1 1 1 1 1 0.010000121899304791 0.010000189576033477 1 1 1 0.017435786976240718 1 1 0.013923070635150544 1 1 1 1 1 0.009999950716463861 1 1 1 0.010110536396830268 1 1 1 1 1 1 1 0.016289809127764322 1 1 0.0099998377431954437 0.010000132054485876 1 1 1 1 1 0.0099998801052523789 1 1 1 1 1 0.011507280656805337 1 1 1 1 1 1 0.010000058805088995 1 1 0.013803799529492762 1 1 1 1 0.0099999973846386075 1 1 1 1 0.010000092240059821 1 1 1 0.010000131537612367 1 1 1 1 1 1 0.010000083994494695 1 1 1 1 1 1 1 1 1 1 1 1 1 1 1 1 1 1 1 1 1 0.010000019241450851 1 0.010000044978867591 0.010000000477826412 1 1 1 0.010355787868991842 1 1 1 1 1 1 1 1 1 0.010000007386220013 1 1 1 0.010000017152312815 1 1 1 1 1 1 1 1 1 1 1 0.010000083331365338 1 1 1 0.010000039698975054 1 1 1 1 1 1 1 1 1 1 1 1 1 1 1 1 1 1 1 1 1 1 1 1 1 1 1 0.010069532700184979 1 1 1 1 1 1 1 1 1 1 1 1 0.0099999718235421406 1 1 1 1 1 1 1 0.0099998460058395508 1 1 0.010000148566855535 1 1 1 1 1 1 1 1 0.010000057165985086 0.01013050976942409 1 1 0.012285562244070347 1 0.0099999428813979455 1 1 1 1 1 1 1 1 1 1 1 1 1 1 1 1 1 0.0099998725954591403 1 1 1 0.0099998516836860424 1 0.0099998226388867059 1 1 1 1 0.010000124095866023 1 0.010000078678342364 1 1 1 1 1 1 1 1 1 1 1 1 1 1 1 1 1 1 1 1 1 1 1 1 1 1 1 1 0.010000182162014717 1 1 1 0.010000071331533751 1 1 1 1 0.010343921473519972 1 1 1 1 1 1 1 1 1 1 1 1 1 1 1 1 1 1 1 1 1 1 1 1 1 1 1 1 1 1 1 1 1 1 1 1 1 1 1 1 1 1 1 1 1 1 1 1 1 1 1 1 1 1 1 1 1 1 1 1 1 1 1 1 1 1 1 1 1 1 1 1 1 1 1 1 1 1 1 1 1 1 1 1 1 1 1 1 1 1 1 1 1 1 1 1 1 1 1 1 1 1 1 1 1 1 1 1 1 1 1 1 1 1 1 1 1 1 1 1 1 1 1 1 1 1 1 1 1 1 1 1 1 1 1 1 1 1 1 1 1 1 1 1 1 1 1 1 1 1 1 1 1 1 1 0.010000225354687434 1 1 1 1 1 1 1 1 1 1 1 1 1 1 1 1 1 1 1 1 1 1 1 1 1 1 1 1 1 1 1 1 1 1 1 1 1 1 1 0.009999671234272263 1 1 1 1 1 1 1 1 1 1 1 1 1 0.010000013935915973 1 1 1 1 0.010000085863729136 0.010000128362469267 1 1 1 0.0099998486465973195 1 1 1 1 1 1 1 1 1 1 1 1 1 1 1 1 0.031019475793116667 1 1 1 1 1 1 1 1 1 1 1 1 1 0.010345762932814457 1 1 1 1 1 1 1 0.010107761505482987 0.02101050941585476 1 1 1 1 1 1 1 1 0.02750057504237001 0.0099999533621904571 1 1 1 1 1 1 1 1 1 1 1 0.010219373732686863 1 1 1 0.010000224899511899 1 1 0.013347479525318782 1 1 0.0099999399247981471 1 1 1 1 1 1 1 1 1 1 1 0.010000104441300865 0.010000056118756796 1 1 1 0.0099997500054119001 1 1 1 1 1 1 1 1 0.0099999906142816813 1 1 1 1 0.010929769139437065 0.010000209180849021 1 1 1 1 1 1 1 1 1 0.010000182442459244 1 1 1 1 1 0.010777988377747684 1 1 0.015535597492462984 1 1 1 1 1 1 0.0099999918683848412 1 0.015629306329119956 1 1 1 1 1 1 1 1 0.0099998720192561088 1 0.0100000615089888 1 1 1 1 1 1 1 1 1 1 1 0.010296655813999961 1 1 1 1 1 1 1 1 1 1 1 1 0.012841948204529011 1 1 1 1 1 1 1 1 1 1 1 1 1 1 0.0099998748772941251 1 1 1 1 0.010345754801199293 1 1 1 1 1 0.010000074488773124 1 1 1 1 1 1 1 1 1 0.010000041977255198 1 1 1 1 1 1 0.010514725615881165 1 1 1 1 1 1 0.0099999723724192441 1 1 1 1 1 1 1 1 1 1 1 1 1 1 1 1 1 1 1 0.010179972396263233 1 0.010207749524007374 1 1 1 1 1 1 1 1 1 1 1 1 1 1 1 1 1 1 0.0099997798304373164 1 1 1 1 1 1 1 0.012371680756502582 1 1 1 1 1 1 1 1 1 1 1 1 1 0.012151256222257349 0.01451444433824655 1 1 1 1 1 1 1 1 1 1 1 1 1 1 1 1 1 1 1 1 1 1 1 1 1 1 0.010318858045507619 1 1 1 1 1 0.010144616937297714 1 1 1 1 1 1 1 1 1 1 1 1 1 1 1 1 1 1 1 1 1 1 1 0.010000084682546151 1 1 1 1 1 1 1 1 0.010000009394010106 1 1 1 1 1 1 1 1 1 0.0099999801510864753 1 1 0.010000072410014244 1 1 1 1 1 1 1 0.010000190782360278 1 1 1 1 0.012032641533116636 1 1 1 1 0.026328239195695949 1 1 1 1 1 1 1 1 0.010888955418364998 1 0.0099998289261161791 1 1 0.010525350092817088 1 0.012200071763223729 1 1 1 1 0.010895931547379728 1 1 1 0.018078297102004953 1 1 1 0.010000023962980893 1 1 1 0.010503263186124602 1 1 1 1 1 1 1 1 1 1 1 1 0.0099999485625295037 1 1 1 1 1 0.0099999567847523438 1 1 1 1 1 1 1 1 1 1 1 1 1 1 1 1 1 0.01000006430624481 1 1 1 1 1 1 1 1 1 1 0.014292107177773676 1 1 1 1 1 0.017098388294606713 1 1 1 0.010000188756739466 1 1 1 1 1 1 1 1 1 1 1 1 1 1 1 1 0.012704460757777959 1 1 0.0099998494326776852 1 1 1 0.020793237681307357 1 1 1 1 0.010776905498328038 1 1 1 1 0.014611098535459693 0.012068483610428244 1 1 1 0.0099999778654700569 1 1 0.009999904748605383 1 1 1 1 0.020558974911861368 1 1 1 1 1 1 1 1 1 1 1 1 1 1 1 1 1 1 1 1 1 1 1 1 1 1 1 1 1 1 1 1 1 1 1 1 1 1 1 1 1 1 1 1 1 1 1 1 1 1 1 1 1 1 1 1 1 1 1 1 1 1 1 1 1 1 1 1 1 1 1 1 1 1 0.010141766514081605 1 0.010116547985600717 1 1 1 1 1 0.031918445682985096 1 1 1 1 0.028934249658308923 1 1 1 1 1 1 1 1 1 0.031680851894290471 1 1 1 1 1 1 1 1 1 1 1 1 1 1 1 1 1 0.011449466434371912 1 1 1 1 1 1 1 1 1 1 1 1 1 1 1 1 1 1 1 1 1 1 1 1 1 1 1 1 1 1 1 1 1 1 1 1 1 0.012931354808619237 1 1 1 1 1 1 1 0.0099998898584969104 1 1 0.009999976994897887 1 1 1 1 1 1 1 1 1 1 1 1 1 1 0.0099999564903807889 1 1 1 0.011269490064395125 1 1 1 1 1 0.012937693224731225 1 1 1 1 1 1 0.010000162901586448 1 1 1 1 1 0.010000087646883472 1 0.010000132442373034 1 1 1 1 1 1 1 1 1 1 1 0.01000009886437201 1 1 1 1 1 1 0.0099998543439913309 1 1 1 1 0.0099999271963929909 1 0.0099998915063597687 1 0.0099998056841760288 1 1 1 0.010000045314103402 1 1 1 1 1 1 1 1 1 1 1 1 1 0.010000037055543136 1 1 1 1 0.012496372917952012 1 1 1 1 1 1 1 1 1 1 1 0.017897487690715773 1 0.009999608651247778 1 1 1 0.016372297693851949 1 1 1 1 0.018225707223852264 1 1 1 1 1 1 0.0099999684214529608 0.017944135792017084 1 1 1 1 1 1 1 1 1 1 1 1 1 1 1 0.010000180873656887 1 1 1 1 1 0.0099993480953109726 0.018975329348387894 1 1 1 0.010000535019287791 1 0.010000008388401732 1 1 1 1 1 0.022902355333819405 1 1 0.010000203364807374 1 1 1 1 1 0.022810113891492539 1 1 1 0.010000003993997898 1 1 0.011403476902050125 1 0.010000329045832822 1 1 1 1 1 0.017906964975611207 1 1 1 1 1 1 1 1 1 0.010000108009440196 1 1 1 1 1 1 1 1 1 1 1 1 0.0099997932694780439 1 1 1 1 1 1 1 1 1 0.0099999405972966762 1 1 1 1 1 1 1 1 1 1 1 1 1 1 1 1 1 0.010215258742010437 1 1 1 0.01031864470994405 1 1 1 1 1 1 1 1 1 1 1 1 1 1 1 1 1 1 1 1 1 1 1 1 1 1 1 1 1 1 1 1 1 1 1 0.010383734752663583 1 1 1 0.011450330113814161 1 1 1 1 1 1 0.010844880006422274 1 0.013272477592195249 1 1 1 0.010597306738785471 1 1 1 1 1 1 1 1 0.010024534993562297 1 1 1 1 1 1 1 1 1 1 1 1 1 1 1 1 1 0.010347301686644102 1 1 1 1 1 1 1 0.01042801546787888 1 1 0.010000182689983664 1 1 1 1 1 1 0.0099999648936317589 1 0.011080328861813805 1 1 0.01110237957640278 1 1 0.027829854796672292 1 0.01000002742855876 0.0099996826180022771 1 1 1 1 0.021836604223007955 1 1 1 1 1 1 1 1 1 1 1 0.023027250008332674 0.0099999298089022554 1 1 1 0.011429290737879483 1 1 1 0.010166064503723078 0.010449830669796233 1 1 1 1 1 1 1 1 1 0.0099999492844534809 1 1 1 1 1 1 1 1 1 1 1 1 0.012808790395364186 0.0099999197216592717 1 0.0099998841511435826 1 1 0.0099999147245228293 1 1 1 0.011060543989991289 0.0099999874710797708 0.010678074976836101 1 1 1 1 0.010000012287830116 1 1 0.016109838586287617 1 1 1 0.011049265626132315 1 1 1 1 1 1 1 0.011902922068289681 1 1 1 0.011177053813575618 1 1 1 1 1 1 0.010530765213183616 1 1 1 1 1 1 1 1 1 1 0.01656133654437681 1 1 1 1 1 1 1 1 1 1 1 1 1 1 1 1 1 1 1 1 1 1 1 1 1 1 1 1 1 0.013791944513203092 1 1 1 0.010591456281229671 1 1 0.010000050551754135 1 0.010000126579168017 1 0.010000214141748686 0.017318387419716724 1 1 1 1 1 1 1 1 1 1 1 1 0.010276506983207786 0.0099997788145982022 1 1 1 1 1 1 1 1 1 1 1 1 1 1 1 1 1 1 1 1 1 1 1 1 1 0.0099999828033188153 1 1 1 1 1 1 1 1 1 1 1 1 1 1 1 1 0.010000008094300706 1 1 0.010000020536662831 1 1 1 1 1 1 1 1 1 1 0.010000022802786789 1 0.01001763380519631 1 1 1 0.01000024251748851 1 1 1 1 1 0.010187941486253186 1 1 0.0099998649840314716 1 1 1 1 1 1 1 1 1 1 1 1 1 1 1 1 1 1 1 1 1 1 1 1 1 1 1 1 1 1 1 1 1 1 1 1 1 1 1 1 1 1 1 1 1 1 1 1 1 1 1 1 1 1 0.0099998955013896312 1 1 1 0.0099998595663261317 1 1 1 1 1 1 1 1 1 1 1 1 1 1 1 1 1 1 1 1 1 1 1 1 1 1 1 1 1 1 1 0.02156242167692228 1 1 0.0099999871491431927 1 0.010303769030981194 1 1 1 0.011268430003677006 1 1 1 1 0.013304697632645959 1 1 1 1 1 1 1 1 1 0.010000055435273989 1 1 1 1 1 1 1 0.012167978924468421 1 0.010000167374125787 1 1 1 1 0.010000155562943563 1 1 0.0099997572015792929 1 1 1 1 0.010000045058953275 1 1 1 0.012365776357903299 1 1 1 1 1 1 1 1 1 1 1 1 0.010735914007411675 1 1 1 1 1 1 1 1 1 1 1 1 1 1 1 1 1 1 1 1 1 1 1 1 1 1 1 0.010000046929128058 1 1 1 1 1 1 1 0.0099999845126577842 0.01087173362303466 1 1 1 1 1 1 1 1 1 1 1 1 1 1 1 1 1 1 1 1 1 1 1 1 1 1 1 1 1 1 1 1 1 1 1 1 1 1 1 1 1 1 1 1 1 1 1 0.010007184951776292 1 1 1 1 1 0.010000064287886315 1 1 0.010000106368401346 1 1 1 1 1 0.0099998469838480861 1 0.0099998201092634867 1 1 1 1 1 1 1 1 1 0.0099998896845651802 1 1 1 1 0.010000154934998083 1 0.010000114417801693 1 1 1 1 1 1 0.010000100067764896 1 1 1 1 1 0.010070912577219988 1 1 1 1 1 1 1 1 1 1 1 1 1 1 1 1 1 1 1 1 1 1 1 1 1 1 1 1 1 1 1 1 1 1 1 1 1 0.013906139921405075 1 1 1 1 1 0.010027561436364345 1 1 1 0.020754843924109194 1 1 1 1 1 1 1 0.0099999966782033725 1 0.015579829095331704 0.01000004029537508 1 1 1 1 1 1 1 1 1 1 1 1 1 1 1 1 1 1 1 1 1 1 1 1 1 1 1 1 0.010000086941954311 1 1 0.010347022197116543 1 1 0.010000019618663029 1 1 1 0.010000168845686865 1 1 1 1 1 1 1 1 1 1 1 1 1 1 1 1 1 1 1 1 1 1 1 1 1 1 1 1 0.01102620289216466 1 1 0.010000004901468365 1 1 0.011060239776104 1 1 0.011523086624935175 1 0.010000000094363026 1 0.0099999999412113058 1 1 1 0.009999999701505051 1 1 1 0.010000001260206656 1 1 0.01166065093181836 1 1 1 1 0.010835891780319691 1 1 0.010000005137777435 0.011910852091117106 1 1 1 1 1 1 1 1 1 1 1 1 0.0099999964363410854 1 0.010000005542766838 1 1 0.0099999964440921005 1 1 0.010000002254473186 1 1 1 1 0.010000028197107304 1 0.0099998974096985327 1 1 1 1 0.010000000152912004 1 1 0.010000119950370139 0.013087421849379617 1 1 1 1 1 1 1 1 0.009999841102745561 1 0.010000025710979625 1 0.023815171691268851 1 1 1 1 0.023599697889923416 1 1 1 0.010000121711573367 1 0.01000004726136414 1 1 1 1 1 1 1 1 1 1 1 1 1 1 1 1 1 1 1 1 1 1 1 1 1 1 1 0.01100296649371587 1 1 1 1 1 1 0.0099999999687770957 1 1 1 1 1 1 1 1 1 1 1 1 1 1 1 1 1 1 1 1 1 1 1 1 1 1 1 1 1 1 1 1 1 1 1 1 1 1 1 0.010000239000223378 1 1 1 1 0.0099996993966274816 1 1 0.009999957657358071 1 1 1 1 0.010016977244136659 1 1 1 1 1 1 0.010000087079301938 1 1 1 1 1 1 1 1 0.032577706211306658 1 0.032703380150870598 1 1 1 1 1 0.0099997386541750607 1 0.025600600588940634 1 1 1 1 1 0.022166670946425118 1 1 1 1 1 1 1 1 1 1 0.0099999783992520651 1 1 1 1 1 1 1 1 1 1 1 1 1 1 1 1 1 1 0.0099999680534881806 1 1 0.010000017901849637 1 1 1 1 1 1 1 1 1 0.0099999877053326969 1 1 1 1 1 1 1 1 1 1 1 1 1 1 1 1 0.010233954062940059 1 1 1 1 0.010416971692149585 1 1 0.010183024868933459 1 1 1 1 1 1 0.010000140073745535 1 1 1 1 1 1 0.010000058170012951 1 1 1 1 1 1 1 1 0.01000000723972392 1 1 1 1 1 1 1 1 1 1 1 0.0099999888862948375 1 1 1 1 1 1 0.010000223298126833 1 1 0.010000096073365465 1 1 1 1 1 1 1 1 1 1 1 1 1 1 1 1 1 1 1 1 1 1 1 1 1 1 1 1 1 1 1 1 1 1 1 1 1 1 1 1 1 1 1 1 1 1 1 1 1 1 1 1 1 1 1 1 1 1 1 1 0.0099999247330755797 1 1 1 1 1 1 1 1 1 1 0.010000007234474776 1 1 1 1 1 1 1 1 1 1 1 1 1 1 1 1 1 1 1 1 1 1 1 1 1 0.0099997162624498957 1 0.01196418368831443 1 1 1 1 1 1 1 1 1 1 0.009999880732646807 1 1 1 0.0099999716122948952 1 1 1 1 1 1 1 1 1 1 1 1 1 1 1 1 1 1 1 1 1 0.010000308680126246 0.012894314414174553 1 1 1 0.014169200322503583 1 1 0.016420365496205517 1 1 0.015294639758469702 1 1 1 1 1 0.010000001997062457 1 1 0.018239861941904537 1 0.0099998778389889884 1 1 1 1 1 1 1 1 1 1 0.010000021421066764 1 1 0.009999928946654052 1 1 1 1 1 1 1 0.010000420847330349 1 1 1 0.0099998362092508473 1 1 1 1 1 0.010000048276275762 1 0.012297080760781773 1 1 1 1 1 1 1 1 1 0.010000357351864903 1 1 1 1 0.010000016546699322 0.010183263158375129 1 1 1 1 1 1 1 1 1 1 1 1 1 1 1 1 1 1 1 0.0099998976063578777 1 1 1 1 0.0099998610964418411 1 1 1 1 1 1 0.0099996966262449177 1 1 1 1 1 0.0099999208531948228 1 1 0.01146265212002967 0.010218891211877031 1 1 1 1 1 0.0099997320803730701 1 1 0.023234869591286851 0.010000389353038638 1 1 1 1 1 1 1 1 1 0.0099999974355776903 0.0099997258471216308 1 1 1 1 0.0099993967028959192 1 1 0.0099998103266746262 0.010000116334354223 1 0.0099999036691487964 0.010000902768761082 1 1 0.0099999686366378498 1 0.010000016236618767 0.009999942731199217 1 1 1 1 0.010000063943845674 1 1 1 1 1 1 1 1 0.010000298536999739 1 1 1 1 1 1 1 1 1 1 1 1 1 1 1 1 1 1 1 1 1 1 0.010000161384295261 0.0099999485348136116 1 1 1 1 1 1 1 1 1 1 1 1 1 0.010000008077074473 1 1 1 1 1 1 1 1 1 0.0099998876062640518 1 1 1 1 1 1 0.010000489382604401 1 1 0.010000032749924176 1 0.0099997089114720258 1 1 1 1 0.010196629943504558 1 0.01000069618452553 1 0.010957061379452904 1 1 0.010000019229214285 0.0099999505226878102 1 1 1 0.0099998834176785525 0.010000194300440655 1 1 1 1 1 0.0099998260731457636 1 0.0099999474277228384 1 1 1 1 1 1 1 1 1 1 1 1 1 1 1 1 1 1 1 1 1 0.010000425081411682 1 1 1 0.011928509444843348 0.0099995820402272485 1 1 1 1 1 1 0.010000290406241993 0.0099998363857475726 1 0.0099997930645701737 1 1 1 0.010000272039808897 1 1 1 1 1 1 1 1 1 1 1 1 1 1 1 1 0.010000288018684148 0.0099997380643301673 1 0.01112155669290868 0.010000154193201501 1 1 0.010000186656952723 1 1 0.010000062319553221 1 1 1 1 1 1 1 1 1 0.010000123388876153 1 1 0.010000020454555059 1 1 1 1 1 1 0.010000075975971875 1 1 1 1 1 0.010000501395391232 0.010000098864904113 1 1 0.010000019468669562 1 0.010000369780042616 1 1 1 1 0.009999768363508096 1 0.010000114480530521 1 1 0.0099997460601470838 1 1 1 0.013139244574991625 1 0.0099999341141855901 1 1 1 0.0099998937771744872 1 1 0.0099998594110569175 1 1 1 0.010000141991624075 1 1 1 0.0099994173508401191 1 0.010000543209662004 1 1 1 1 1 0.010000030535717071 0.010000089540956408 1 0.011046681763737243 0.0099999093250496759 1 1 1 0.0099999044707587987 1 0.0099999268872041774 1 1 0.010000035494415742 1 1 1 1 1 0.010000062630390327 1 1 1 1 1 1 1 1 0.0099995184170197232 0.010000539800262977 1 1 1 0.010000078177534295 0.0099999374930730481 0.016617578350561608 1 1 1 1 1 1 0.012410454868988166 1 1 1 1 1 1 1 1 1 1 1 1 1 1 1 1 0.020700006204550432 1 1 1 1 1 0.010000047046130427 1 1 1 1 1 1 1 1 1 1 1 1 1 1 1 1 1 1 1 1 1 1 1 0.013808046688657956 1 0.015122759102766649 1 1 1 1 0.010090627568149636 1 1 1 1 1 1 1 1 1 1 0.0099999972936053554 1 1 1 1 1 1 1 1 0.01000007712793358 1 1 0.0099997014596165962 1 1 1 1 0.018122953628732341 1 0.010499226607999693 1 1 1 0.016315150211393369 1 0.017663389972649986 1 1 0.013585136730565488 0.014107385391586128 1 1 1 1 1 1 1 1 1 1 1 1 0.00999998354252098 0.0099995688564166636 1 1 1 0.015890593330451678 1 1 1 1 0.010000147021997917 1 0.010000238637711267 1 1 1 1 0.010000237330318858 1 1 0.010000382070839295 1 1 0.010000140148666542 1 0.0099999763145843454 1 1 0.009999438929643549 1 1 0.0099998354717331234 1 1 1 1 1 0.0100001295510041 1 0.010000027060654282 1 1 1 0.0099997647018615146 1 1 1 1 1 1 1 0.010000076509712168 1 1 0.014147835853637384 1 1 1 1 1 0.015565418471697359 1 1 1 1 1 1 1 1 0.012634275456928223 1 1 1 1 1 1 1 0.012911687867463056 1 1 1 1 1 1 1 1 1 1 1 1 1 1 1 1 1 1 1 1 0.011360824198117802 1 1 0.01205068211301751 1 1 1 1 1 1 1 1 1 1 1 0.014244352516875475 0.010000167324240156 1 1 0.010073423142859042 1 1 1 1 1 1 1 1 0.014167561335248473 1 1 1 1 1 1 1 0.01004245604296972 1 1 1 1 0.020821351257294757 1 1 0.010000138009687139 1 0.015057736388667781 1 0.010000296042241919 1 1 0.010000274850594452 1 0.019143119278137721 1 1 1 1 0.01186234253220776 1 1 1 1 1 1 1 1 1 1 1 1 1 1 1 1 0.010000096847922418 1 1 1 0.010000417187344931 1 1 1 1 1 0.0099999371873336212 1 1 1 1 0.010000259050669097 1 1 0.011157043842576118 0.010000264589273068 1 1 1 0.043305911531372532 1 0.0099999950433775735 1 0.0099998566421011549 0.010000006996349316 1 1 1 1 1 1 0.022700010233025619 1 1 1 0.010000022411165342 1 1 1 1 1 1 1 1 1 1 1 0.01474593124594405 1 1 1 1 1 0.012556246822260272 1 0.01000014467921639 1 1 1 0.010000088994843025 1 0.0099997794166156902 1 1 1 1 1 1 1 0.0099998743768312456 1 1 1 0.0099999477258120549 1 1 1 1 1 1 1 1 1 1 1 1 1 1 1 1 1 1 1 1 1 1 1 1 0.010000212618714532 1 1 1 1 1 1 1 1 1 1 1 1 1 1 1 0.012669924211351836 1 1 0.010000127408124363 1 1 1 1 1 0.010000123888456365 1 1 1 1 1 0.0099998549413559314 1 0.0099997858316704363 1 1 1 1 0.0099999449000548885 1 1 0.012411221660507721 1 1 1 1 0.0099995008806460783 1 0.010000080623409817 1 1 1 1 0.009999969161562686 0.016948706914399383 0.034027925775456165 1 1 1 1 1 1 1 0.010000038466230684 1 1 1 1 1 0.011406677606233026 1 1 1 1 1 1 1 1 1 1 0.010616668200049318 1 1 1 1 1 1 1 1 1 1 1 1 1 1 1 1 1 1 1 1 1 1 0.0099997697359638336 0.010000028343294592 0.010000098446019387 1 1 1 1 1 1 1 0.0099998788734997155 1 1 1 1 1 0.010000086733055736 1 1 1 1 1 1 0.010000330730231318 1 1 1 1 0.010000192902146925 1 1 1 1 1 1 1 1 1 1 1 1 1 0.010250579834817187 1 1 0.010323559556654326 1 1 1 1 1 0.010000009176565357 1 1 0.010000036313227049 0.0099999147165965065 1 1 1 1 1 1 1 1 1 1 1 1 1 1 1 0.0099999154081220482 1 1 0.009999847179341213 1 1 1 1 1 1 1 1 1 1 0.010000059948948658 1 1 1 1 1 1 1 1 1 1 1 1 1 1 1 0.0099999753999423027 1 1 1 1 1 1 1 0.0099999317712191685 1 1 1 1 0.0099999822791166943 1 1 0.0099998818131629696 1 1 1 1 1 1 1 1 1 1 1 1 1 1 1 1 1 1 1 0.0099998727499392096 1 1 1 1 0.0100000551789029 1 1 1 1 1 1 1 1 1 1 1 1 1 1 0.010000015487448215 1 1 1 1 1 1 1 1 1 1 1 1 0.010000138766839035 1 1 1 0.010000136801426548 1 0.011018871767227005 0.013985318561111229 1 1 1 1 1 1 0.015638240252098728 1 1 1 0.010000014390535827 1 0.0099999247932105496 1 1 1 1 1 1 1 1 0.010000054469526957 1 1 1 1 1 0.010498118710433268 1 1 1 1 1 1 1 0.012415409227104825 1 1 1 0.010000122589522353 0.011611180661483226 1 1 1 1 1 1 1 1 0.012434992024347218 1 1 1 1 1 1 1 1 1 1 1 0.014639572829929299 1 1 0.012204580805582071 1 1 1 1 1 1 1 1 0.010000151560213815 1 1 1 1 1 1 1 1 1 1 1 1 1 1 1 1 1 1 1 1 1 1 1 1 1 1 1 1 1 0.010000065884188726 1 1 0.010159340720430886 0.0099999068945868814 1 0.0250464925601507 1 1 0.010000096602936021 1 1 0.013047223180921802 1 1 1 0.010121787468346459 1 1 1 1 1 1 1 1 1 1 1 1 1 0.009999926864902281 1 1 0.0099995165928791277 1 0.010000321586714829 1 1 1 1 1 1 0.009999985753975732 1 1 1 1 0.010109582526890142 1 1 1 1 1 0.011629978692036061 1 0.010407174658905755 1 1 1 1 1 0.01000003713253432 0.015035982576427034 1 0.012677294100182576 1 1 1 1 1 1 1 0.016640850367148907 1 1 1 1 1 1 1 1 1 0.011494590892960396 1 1 1 1 0.011987758530096584 1 1 1 1 1 1 1 1 1 0.010000132145421718 1 1 1 1 1 1 1 1 1 1 1 1 1 1 1 1 1 1 1 1 1 1 1 1 1 1 1 1 1 0.010000220970639514 1 1 1 1 1 1 1 1 1 0.012046238777081518 1 1 0.010465515064388279 0.0099996842549908496 0.010000325406382541 1 1 0.010000594034296033 1 0.010033241144716957 1 1 1 1 1 1 1 1 
</DataArray>
</CellData>
</Piece>
</UnstructuredGrid>
</VTKFile>
