<?xml version="1.0"?>
<VTKFile type="UnstructuredGrid" version="0.1" byte_order="LittleEndian">
<UnstructuredGrid>
<Piece NumberOfPoints="31289" NumberOfCells="10959">
<Points>
<DataArray type="Float64" NumberOfComponents="3" format="ascii">
-0.5 -0.5 0 -0.47708618652662871 -0.46239393797071388 0 -0.43528190217005341 -0.5 0 -0.44701404067921269 -0.46247847983248952 0 -0.47708618652662871 -0.46239393797071388 0 -0.43528190217005341 -0.5 0 -0.45844489789806481 -0.44333674887457031 0 -0.44025389856215069 -0.43061278999638541 0 -0.43714447226761061 -0.44850065882031448 0 -0.44701404067921269 -0.46247847983248952 0 -0.45844489789806481 -0.44333674887457031 0 -0.43714447226761061 -0.44850065882031448 0 -0.44701404067921269 -0.46247847983248952 0 -0.45844489789806481 -0.44333674887457031 0 -0.47708618652662871 -0.46239393797071388 0 -0.5 -0.5 0 -0.47708618652662871 -0.46239393797071388 0 -0.50000000000000144 -0.43757139339756551 0 -0.47708618652662871 -0.46239393797071388 0 -0.50000000000000144 -0.43757139339756551 0 -0.47965750386917733 -0.4300725943028153 0 -0.45844489789806481 -0.44333674887457031 0 -0.47708618652662871 -0.46239393797071388 0 -0.47965750386917733 -0.4300725943028153 0 -0.50000000000000144 -0.43757139339756551 0 -0.5 -0.41656268729837942 0 -0.47965750386917733 -0.4300725943028153 0 -0.50000000000000144 -0.43757139339756551 0 -0.47965750386917733 -0.4300725943028153 0 -0.5 -0.41656268729837942 0 -0.4821882631358877 -0.40754401514498839 0 -0.47965750386917733 -0.4300725943028153 0 -0.5 -0.41656268729837942 0 -0.4821882631358877 -0.40754401514498839 0 -0.5 -0.39555398119919338 0 -0.4821882631358877 -0.40754401514498839 0 -0.4706516500111087 -0.4160100422244653 0 -0.461880283290029 -0.39986143219671649 0 -0.4821882631358877 -0.40754401514498839 0 -0.4706516500111087 -0.4160100422244653 0 -0.47965750386917733 -0.4300725943028153 0 -0.4706516500111087 -0.4160100422244653 0 -0.47965750386917733 -0.4300725943028153 0 -0.45931500773835299 -0.42257379520806548 0 -0.47965750386917733 -0.4300725943028153 0 -0.45931500773835299 -0.42257379520806548 0 -0.48094014164501148 -0.38720335364836089 0 -0.49999999999999539 -0.37454527510000729 0 -0.48094014164501148 -0.38720335364836089 0 -0.49999999999999539 -0.37454527510000729 0 -0.48220091977756763 -0.36593963372664517 0 -0.5 -0.39555398119919338 0 -0.48094014164501148 -0.38720335364836089 0 -0.49999999999999539 -0.37454527510000729 0 -0.4821882631358877 -0.40754401514498839 0 -0.5 -0.39555398119919338 0 -0.48094014164501148 -0.38720335364836089 0 -0.48094014164501148 -0.38720335364836089 0 -0.461880283290029 -0.39986143219671649 0 -0.4821882631358877 -0.40754401514498839 0 -0.48094014164501148 -0.38720335364836089 0 -0.461880283290029 -0.39986143219671649 0 -0.48094014164501148 -0.38720335364836089 0 -0.46748973539803662 -0.38069978415109978 0 -0.461880283290029 -0.39986143219671649 0 -0.48094014164501148 -0.38720335364836089 0 -0.46748973539803662 -0.38069978415109978 0 -0.48220091977756763 -0.36593963372664517 0 -0.46748973539803662 -0.38069978415109978 0 -0.461880283290029 -0.39986143219671649 0 -0.45119533048312782 -0.38698892209819802 0 -0.45119533048312782 -0.38698892209819802 0 -0.46397892833050852 -0.36417820465512479 0 -0.46748973539803662 -0.38069978415109978 0 -0.45119533048312782 -0.38698892209819802 0 -0.46397892833050852 -0.36417820465512479 0 -0.461880283290029 -0.39986143219671649 0 -0.45119533048312782 -0.38698892209819802 0 -0.44282042493504581 -0.41251951074507132 0 -0.45119533048312782 -0.38698892209819802 0 -0.44282042493504581 -0.41251951074507132 0 -0.43841173263574701 -0.40979963954127119 0 -0.45119533048312782 -0.38698892209819802 0 -0.43841173263574701 -0.40979963954127119 0 -0.461880283290029 -0.39986143219671649 0 -0.44282042493504581 -0.41251951074507132 0 -0.43936272043470059 -0.3953451377335605 0 -0.45119533048312782 -0.38698892209819802 0 -0.43841173263574701 -0.40979963954127119 0 -0.45119533048312782 -0.38698892209819802 0 -0.43965051101676822 -0.37583845931705329 0 -0.46397892833050852 -0.36417820465512479 0 -0.43936272043470059 -0.3953451377335605 0 -0.45119533048312782 -0.38698892209819802 0 -0.43965051101676822 -0.37583845931705329 0 -0.45844489789806481 -0.44333674887457031 0 -0.47965750386917733 -0.4300725943028153 0 -0.45931500773835299 -0.42257379520806548 0 -0.461880283290029 -0.39986143219671649 0 -0.45710026342879218 -0.41265837327333488 0 -0.44282042493504581 -0.41251951074507132 0 -0.4706516500111087 -0.4160100422244653 0 -0.45931500773835299 -0.42257379520806548 0 -0.45710026342879218 -0.41265837327333488 0 -0.4706516500111087 -0.4160100422244653 0 -0.461880283290029 -0.39986143219671649 0 -0.45710026342879218 -0.41265837327333488 0 -0.45931500773835299 -0.42257379520806548 0 -0.45710026342879218 -0.41265837327333488 0 -0.44792775152636721 -0.41567039304328729 0 -0.45931500773835299 -0.42257379520806548 0 -0.43897251160752859 -0.41507499611331627 0 -0.45931500773835299 -0.42257379520806548 0 -0.44792775152636721 -0.41567039304328729 0 -0.43897251160752859 -0.41507499611331627 0 -0.44792775152636721 -0.41567039304328729 0 -0.44282042493504581 -0.41251951074507132 0 -0.45710026342879218 -0.41265837327333488 0 -0.44792775152636721 -0.41567039304328729 0 -0.44282042493504581 -0.41251951074507132 0 -0.44282042493504581 -0.41251951074507132 0 -0.43841173263574701 -0.40979963954127119 0 -0.43841173263574701 -0.40979963954127119 0 -0.43897251160752859 -0.41507499611331627 0 -0.43605751269967868 -0.41400044798359042 0 -0.44282042493504581 -0.41251951074507132 0 -0.43841173263574701 -0.40979963954127119 0 -0.43897251160752859 -0.41507499611331627 0 -0.44282042493504581 -0.41251951074507132 0 -0.43897251160752859 -0.41507499611331627 0 -0.44792775152636721 -0.41567039304328729 0 -0.44282042493504581 -0.41251951074507132 0 -0.43897251160752859 -0.41507499611331627 0 -0.43897251160752859 -0.41507499611331627 0 -0.44025389856215069 -0.43061278999638541 0 -0.43337020159624251 -0.41879561558773087 0 -0.43897251160752859 -0.41507499611331627 0 -0.43605751269967868 -0.41400044798359042 0 -0.45844489789806481 -0.44333674887457031 0 -0.45931500773835299 -0.42257379520806548 0 -0.44025389856215069 -0.43061278999638541 0 -0.45931500773835299 -0.42257379520806548 0 -0.43897251160752859 -0.41507499611331627 0 -0.44025389856215069 -0.43061278999638541 0 -0.43337020159624251 -0.41879561558773087 0 -0.41394138836998651 -0.43169872532437809 0 -0.42824949786670002 -0.42793286531029029 0 -0.43337020159624251 -0.41879561558773087 0 -0.41394138836998651 -0.43169872532437809 0 -0.44025389856215069 -0.43061278999638541 0 -0.42824949786670002 -0.42793286531029029 0 -0.42591282465618951 -0.4379918130008994 0 -0.42824949786670002 -0.42793286531029029 0 -0.41394138836998651 -0.43169872532437809 0 -0.42591282465618951 -0.4379918130008994 0 -0.44025389856215069 -0.43061278999638541 0 -0.42824949786670002 -0.42793286531029029 0 -0.43337020159624251 -0.41879561558773087 0 -0.42824949786670002 -0.42793286531029029 0 -0.43337020159624251 -0.41879561558773087 0 -0.43605751269967868 -0.41400044798359042 0 -0.42446110959708527 -0.4077419548087709 0 -0.40923191197255471 -0.40411179965080668 0 -0.43605751269967868 -0.41400044798359042 0 -0.40923191197255471 -0.40411179965080668 0 -0.43337020159624251 -0.41879561558773087 0 -0.43605751269967868 -0.41400044798359042 0 -0.40923191197255471 -0.40411179965080668 0 -0.43337020159624251 -0.41879561558773087 0 -0.43605751269967868 -0.41400044798359042 0 -0.43897251160752859 -0.41507499611331627 0 -0.43337020159624251 -0.41879561558773087 0 -0.43897251160752859 -0.41507499611331627 0 -0.43337020159624251 -0.41879561558773087 0 -0.43605751269967868 -0.41400044798359042 0 -0.43841173263574701 -0.40979963954127119 0 -0.43605751269967868 -0.41400044798359042 0 -0.42446110959708527 -0.4077419548087709 0 -0.43841173263574701 -0.40979963954127119 0 -0.42446110959708527 -0.4077419548087709 0 -0.42687118421011611 -0.40267988538107469 0 -0.43841173263574701 -0.40979963954127119 0 -0.43605751269967868 -0.41400044798359042 0 -0.41394138836998651 -0.43169872532437809 0 -0.40923191197255471 -0.40411179965080668 0 -0.41394138836998651 -0.43169872532437809 0 -0.40923191197255471 -0.40411179965080668 0 -0.40416212188568251 -0.41837863162551769 0 -0.43337020159624251 -0.41879561558773087 0 -0.41394138836998651 -0.43169872532437809 0 -0.40923191197255471 -0.40411179965080668 0 -0.41394138836998651 -0.43169872532437809 0 -0.40024399779695491 -0.4265596591745543 0 -0.40854045096584901 -0.4376219659572258 0 -0.41394138836998651 -0.43169872532437809 0 -0.41524316932694277 -0.4393242300455385 0 -0.40854045096584901 -0.4376219659572258 0 -0.41394138836998651 -0.43169872532437809 0 -0.42591282465618951 -0.4379918130008994 0 -0.41524316932694277 -0.4393242300455385 0 -0.41394138836998651 -0.43169872532437809 0 -0.41524316932694277 -0.4393242300455385 0 -0.43965051101676822 -0.37583845931705329 0 -0.42687118421011611 -0.40267988538107469 0 -0.43965051101676822 -0.37583845931705329 0 -0.42687118421011611 -0.40267988538107469 0 -0.42019869924829673 -0.37802384934638261 0 -0.43936272043470059 -0.3953451377335605 0 -0.43965051101676822 -0.37583845931705329 0 -0.42687118421011611 -0.40267988538107469 0 -0.43936272043470059 -0.3953451377335605 0 -0.43841173263574701 -0.40979963954127119 0 -0.42687118421011611 -0.40267988538107469 0 -0.43841173263574701 -0.40979963954127119 0 -0.42687118421011611 -0.40267988538107469 0 -0.42446110959708527 -0.4077419548087709 0 -0.42687118421011611 -0.40267988538107469 0 -0.42687118421011611 -0.40267988538107469 0 -0.40923191197255471 -0.40411179965080668 0 -0.40688224324131839 -0.39034803247671812 0 -0.42446110959708527 -0.4077419548087709 0 -0.42687118421011611 -0.40267988538107469 0 -0.40923191197255471 -0.40411179965080668 0 -0.42687118421011611 -0.40267988538107469 0 -0.40688224324131839 -0.39034803247671812 0 -0.40923191197255471 -0.40411179965080668 0 -0.40688224324131839 -0.39034803247671812 0 -0.42019869924829673 -0.37802384934638261 0 -0.40688224324131839 -0.39034803247671812 0 -0.4031831810692052 -0.36867985865178299 0 -0.42687118421011611 -0.40267988538107469 0 -0.42019869924829673 -0.37802384934638261 0 -0.40688224324131839 -0.39034803247671812 0 -0.40688224324131839 -0.39034803247671812 0 -0.38648963264358421 -0.37776714214242563 0 -0.40688224324131839 -0.39034803247671812 0 -0.38648963264358421 -0.37776714214242563 0 -0.4031831810692052 -0.36867985865178299 0 -0.40688224324131839 -0.39034803247671812 0 -0.38520182727377611 -0.39525365479841978 0 -0.38648963264358421 -0.37776714214242563 0 -0.40688224324131839 -0.39034803247671812 0 -0.4031831810692052 -0.36867985865178299 0 -0.40923191197255471 -0.40411179965080668 0 -0.38520182727377611 -0.39525365479841978 0 -0.40923191197255471 -0.40411179965080668 0 -0.38520182727377611 -0.39525365479841978 0 -0.39323118940323332 -0.41114434235233172 0 -0.40923191197255471 -0.40411179965080668 0 -0.40688224324131839 -0.39034803247671812 0 -0.38520182727377611 -0.39525365479841978 0 -0.38520182727377611 -0.39525365479841978 0 -0.39323118940323332 -0.41114434235233172 0 -0.37655125659495559 -0.40866676282623621 0 -0.37538524216521041 -0.39491039698146763 0 -0.38520182727377611 -0.39525365479841978 0 -0.37655125659495559 -0.40866676282623621 0 -0.38648963264358421 -0.37776714214242563 0 -0.37184173069830528 -0.36873035663045051 0 -0.36708068492909879 -0.37961301774618739 0 -0.37538524216521041 -0.39491039698146763 0 -0.38520182727377611 -0.39525365479841978 0 -0.38648963264358421 -0.37776714214242563 0 -0.40024399779695491 -0.4265596591745543 0 -0.37672467286396422 -0.43572093306238707 0 -0.40195756749835759 -0.43974087645744148 0 -0.40024399779695491 -0.4265596591745543 0 -0.40195756749835759 -0.43974087645744148 0 -0.40854045096584901 -0.4376219659572258 0 -0.41394138836998651 -0.43169872532437809 0 -0.40024399779695491 -0.4265596591745543 0 -0.40416212188568251 -0.41837863162551769 0 -0.40024399779695491 -0.4265596591745543 0 -0.39323118940323332 -0.41114434235233172 0 -0.38346020412361459 -0.42099437836236658 0 -0.40923191197255471 -0.40411179965080668 0 -0.40416212188568251 -0.41837863162551769 0 -0.39323118940323332 -0.41114434235233172 0 -0.40024399779695491 -0.4265596591745543 0 -0.40416212188568251 -0.41837863162551769 0 -0.39323118940323332 -0.41114434235233172 0 -0.39323118940323332 -0.41114434235233172 0 -0.38346020412361459 -0.42099437836236658 0 -0.37655125659495559 -0.40866676282623621 0 -0.38346020412361459 -0.42099437836236658 0 -0.37655125659495559 -0.40866676282623621 0 -0.3670967740476328 -0.42467268516214068 0 -0.40024399779695491 -0.4265596591745543 0 -0.37672467286396422 -0.43572093306238707 0 -0.40024399779695491 -0.4265596591745543 0 -0.38346020412361459 -0.42099437836236658 0 -0.37672467286396422 -0.43572093306238707 0 -0.38346020412361459 -0.42099437836236658 0 -0.37672467286396422 -0.43572093306238707 0 -0.3670967740476328 -0.42467268516214068 0 -0.37672467286396422 -0.43572093306238707 0 -0.39963989721622012 -0.45034192792397221 0 -0.38562322376063202 -0.46106787232921143 0 -0.37672467286396422 -0.43572093306238707 0 -0.39963989721622012 -0.45034192792397221 0 -0.40195756749835759 -0.43974087645744148 0 -0.39963989721622012 -0.45034192792397221 0 -0.40929597552593638 -0.44605807308957951 0 -0.40847579359401748 -0.45812913563639041 0 -0.39963989721622012 -0.45034192792397221 0 -0.40195756749835759 -0.43974087645744148 0 -0.40929597552593638 -0.44605807308957951 0 -0.38562322376063202 -0.46106787232921143 0 -0.40888575290713147 -0.47611222776105999 0 -0.40847579359401748 -0.45812913563639041 0 -0.39963989721622012 -0.45034192792397221 0 -0.38562322376063202 -0.46106787232921143 0 -0.40847579359401748 -0.45812913563639041 0 -0.38562322376063202 -0.46106787232921143 0 -0.38853798223370128 -0.5 0 -0.40888575290713147 -0.47611222776105999 0 -0.38562322376063202 -0.46106787232921143 0 -0.38853798223370128 -0.5 0 -0.36663526258591772 -0.48051013415456878 0 -0.44701404067921269 -0.46247847983248952 0 -0.43528190217005341 -0.5 0 -0.42630015792484582 -0.46600406392344762 0 -0.40888575290713147 -0.47611222776105999 0 -0.43528190217005341 -0.5 0 -0.42630015792484582 -0.46600406392344762 0 -0.38853798223370128 -0.5 0 -0.40888575290713147 -0.47611222776105999 0 -0.43528190217005341 -0.5 0 -0.44701404067921269 -0.46247847983248952 0 -0.42630015792484582 -0.46600406392344762 0 -0.43714447226761061 -0.44850065882031448 0 -0.42630015792484582 -0.46600406392344762 0 -0.43714447226761061 -0.44850065882031448 0 -0.42064452154374632 -0.44988160850848963 0 -0.43714447226761061 -0.44850065882031448 0 -0.42591282465618951 -0.4379918130008994 0 -0.42064452154374632 -0.44988160850848963 0 -0.44025389856215069 -0.43061278999638541 0 -0.43714447226761061 -0.44850065882031448 0 -0.42591282465618951 -0.4379918130008994 0 -0.42591282465618951 -0.4379918130008994 0 -0.42064452154374632 -0.44988160850848963 0 -0.41524316932694277 -0.4393242300455385 0 -0.42064452154374632 -0.44988160850848963 0 -0.41524316932694277 -0.4393242300455385 0 -0.40929597552593638 -0.44605807308957951 0 -0.40195756749835759 -0.43974087645744148 0 -0.40854045096584901 -0.4376219659572258 0 -0.40929597552593638 -0.44605807308957951 0 -0.41524316932694277 -0.4393242300455385 0 -0.40854045096584901 -0.4376219659572258 0 -0.40929597552593638 -0.44605807308957951 0 -0.42064452154374632 -0.44988160850848963 0 -0.40929597552593638 -0.44605807308957951 0 -0.40847579359401748 -0.45812913563639041 0 -0.42630015792484582 -0.46600406392344762 0 -0.42064452154374632 -0.44988160850848963 0 -0.40847579359401748 -0.45812913563639041 0 -0.40888575290713147 -0.47611222776105999 0 -0.42630015792484582 -0.46600406392344762 0 -0.40847579359401748 -0.45812913563639041 0 -0.43971517947492827 -0.27195461474019272 0 -0.43679565123876007 -0.25153719175576511 0 -0.44966305529728051 -0.26022123032170952 0 -0.43971517947492827 -0.27195461474019272 0 -0.43679565123876007 -0.25153719175576511 0 -0.44966305529728051 -0.26022123032170952 0 -0.43679565123876007 -0.25153719175576511 0 -0.45165784991548819 -0.24613605356540649 0 -0.43971517947492827 -0.27195461474019272 0 -0.44833647917474351 -0.28097699792222608 0 -0.45263311204797702 -0.27247163423083992 0 -0.44966305529728051 -0.26022123032170952 0 -0.43971517947492827 -0.27195461474019272 0 -0.45263311204797702 -0.27247163423083992 0 -0.44833647917474351 -0.28097699792222608 0 -0.45263311204797702 -0.27247163423083992 0 -0.46557622938055621 -0.28204057038975439 0 -0.44966305529728051 -0.26022123032170952 0 -0.45263311204797702 -0.27247163423083992 0 -0.4598746169123768 -0.26716475778031679 0 -0.4598746169123768 -0.26716475778031679 0 -0.47660182090794628 -0.27206530285811248 0 -0.46557622938055621 -0.28204057038975439 0 -0.45263311204797702 -0.27247163423083992 0 -0.4598746169123768 -0.26716475778031679 0 -0.46557622938055621 -0.28204057038975439 0 -0.4598746169123768 -0.26716475778031679 0 -0.46028954896004942 -0.25343879599630659 0 -0.47660182090794628 -0.27206530285811248 0 -0.44966305529728051 -0.26022123032170952 0 -0.4598746169123768 -0.26716475778031679 0 -0.46028954896004942 -0.25343879599630659 0 -0.44966305529728051 -0.26022123032170952 0 -0.46028954896004942 -0.25343879599630659 0 -0.45165784991548819 -0.24613605356540649 0 -0.49590866617644802 -0.2576750274662496 0 -0.47660182090794628 -0.27206530285811248 0 -0.47521515037916889 -0.24881642459123701 0 -0.46028954896004942 -0.25343879599630659 0 -0.47660182090794628 -0.27206530285811248 0 -0.47521515037916889 -0.24881642459123701 0 -0.47660182090794628 -0.27206530285811248 0 -0.47521515037916889 -0.24881642459123701 0 -0.49590866617644802 -0.2576750274662496 0 -0.47521515037916889 -0.24881642459123701 0 -0.50000000000000222 -0.25942646989521639 0 -0.49590866617644802 -0.2576750274662496 0 -0.48694857880658438 -0.27649460429561851 0 -0.50000000000000222 -0.25942646989521639 0 -0.49590866617644802 -0.2576750274662496 0 -0.50000000000000222 -0.25942646989521639 0 -0.49590866617644802 -0.2576750274662496 0 -0.50000000000000222 -0.24908167697214789 0 -0.49590866617644802 -0.2576750274662496 0 -0.50000000000000222 -0.24908167697214789 0 -0.49590866617644802 -0.2576750274662496 0 -0.48694857880658438 -0.27649460429561851 0 -0.47660182090794628 -0.27206530285811248 0 -0.49590866617644802 -0.2576750274662496 0 -0.48694857880658438 -0.27649460429561851 0 -0.50000000000000222 -0.25942646989521639 0 -0.48694857880658438 -0.27649460429561851 0 -0.5 -0.28820617119641417 0 -0.48694857880658438 -0.27649460429561851 0 -0.47798849143672162 -0.29531418112498792 0 -0.48694857880658438 -0.27649460429561851 0 -0.47660182090794628 -0.27206530285811248 0 -0.47798849143672162 -0.29531418112498792 0 -0.47660182090794628 -0.27206530285811248 0 -0.47798849143672162 -0.29531418112498792 0 -0.46557622938055621 -0.28204057038975439 0 -0.47660182090794628 -0.27206530285811248 0 -0.47798849143672162 -0.29531418112498792 0 -0.47308263135914819 -0.29487503805275028 0 -0.47798849143672162 -0.29531418112498792 0 -0.46557622938055621 -0.28204057038975439 0 -0.47798849143672162 -0.29531418112498792 0 -0.5 -0.28820617119641417 0 -0.48934528141343131 -0.30484055586947179 0 -0.48694857880658438 -0.27649460429561851 0 -0.47798849143672162 -0.29531418112498792 0 -0.5 -0.28820617119641417 0 -0.5 -0.28820617119641417 0 -0.48934528141343131 -0.30484055586947179 0 -0.5 -0.31698587249761201 0 -0.47798849143672162 -0.29531418112498792 0 -0.46520916463006973 -0.32215560718900932 0 -0.47308263135914819 -0.29487503805275028 0 -0.47798849143672162 -0.29531418112498792 0 -0.46520916463006973 -0.32215560718900932 0 -0.47798849143672162 -0.29531418112498792 0 -0.48934528141343131 -0.30484055586947179 0 -0.47939263421700451 -0.3188559986588736 0 -0.47798849143672162 -0.29531418112498792 0 -0.46520916463006973 -0.32215560718900932 0 -0.47939263421700451 -0.3188559986588736 0 -0.47798849143672162 -0.29531418112498792 0 -0.47939263421700451 -0.3188559986588736 0 -0.47308263135914819 -0.29487503805275028 0 -0.45283445122697991 -0.3096461017682906 0 -0.46520916463006973 -0.32215560718900932 0 -0.47308263135914819 -0.29487503805275028 0 -0.45708403614081639 -0.29346688259344611 0 -0.45283445122697991 -0.3096461017682906 0 -0.47308263135914819 -0.29487503805275028 0 -0.45283445122697991 -0.3096461017682906 0 -0.47308263135914819 -0.29487503805275028 0 -0.46557622938055621 -0.28204057038975439 0 -0.45708403614081639 -0.29346688259344611 0 -0.44833647917474351 -0.28097699792222608 0 -0.46557622938055621 -0.28204057038975439 0 -0.45708403614081639 -0.29346688259344611 0 -0.44833647917474351 -0.28097699792222608 0 -0.45708403614081639 -0.29346688259344611 0 -0.44269834556250859 -0.29295516312808789 0 -0.44833647917474351 -0.28097699792222608 0 -0.44269834556250859 -0.29295516312808789 0 -0.42316538041005097 -0.27874313401433459 0 -0.45708403614081639 -0.29346688259344611 0 -0.44269834556250859 -0.29295516312808789 0 -0.45283445122697991 -0.3096461017682906 0 -0.45283445122697991 -0.3096461017682906 0 -0.4325862710948114 -0.32441716548383093 0 -0.432071380859952 -0.30194269934214241 0 -0.44269834556250859 -0.29295516312808789 0 -0.45283445122697991 -0.3096461017682906 0 -0.432071380859952 -0.30194269934214241 0 -0.45283445122697991 -0.3096461017682906 0 -0.4325862710948114 -0.32441716548383093 0 -0.45283445122697991 -0.3096461017682906 0 -0.44788864282399699 -0.32892741429495709 0 -0.4325862710948114 -0.32441716548383093 0 -0.44788864282399699 -0.32892741429495709 0 -0.45242983782341889 -0.34899703325303127 0 -0.43638348934470528 -0.33942116378062331 0 -0.44788864282399699 -0.32892741429495709 0 -0.43638348934470528 -0.33942116378062331 0 -0.4325862710948114 -0.32441716548383093 0 -0.44788864282399699 -0.32892741429495709 0 -0.46520916463006973 -0.32215560718900932 0 -0.45242983782341889 -0.34899703325303127 0 -0.46641263850654979 -0.34234934078000001 0 -0.46520916463006973 -0.32215560718900932 0 -0.47368273557086238 -0.33504837159078282 0 -0.46641263850654979 -0.34234934078000001 0 -0.46520916463006973 -0.32215560718900932 0 -0.45242983782341889 -0.34899703325303127 0 -0.46520916463006973 -0.32215560718900932 0 -0.45242983782341889 -0.34899703325303127 0 -0.45283445122697991 -0.3096461017682906 0 -0.44788864282399699 -0.32892741429495709 0 -0.46520916463006973 -0.32215560718900932 0 -0.46520916463006973 -0.32215560718900932 0 -0.47939263421700451 -0.3188559986588736 0 -0.47368273557086238 -0.33504837159078282 0 -0.48934528141343131 -0.30484055586947179 0 -0.47939263421700451 -0.3188559986588736 0 -0.5 -0.31698587249761201 0 -0.47939263421700451 -0.3188559986588736 0 -0.5 -0.31698587249761201 0 -0.49079148956224589 -0.32998890180279411 0 -0.47939263421700451 -0.3188559986588736 0 -0.49079148956224589 -0.32998890180279411 0 -0.48499731619865621 -0.33317281025112477 0 -0.49079148956224589 -0.32998890180279411 0 -0.48900836401808828 -0.34144852435007228 0 -0.5 -0.34576557379880968 0 -0.5 -0.31698587249761201 0 -0.49079148956224589 -0.32998890180279411 0 -0.5 -0.34576557379880968 0 -0.49079148956224589 -0.32998890180279411 0 -0.48499731619865621 -0.33317281025112477 0 -0.48900836401808828 -0.34144852435007228 0 -0.48499731619865621 -0.33317281025112477 0 -0.48900836401808828 -0.34144852435007228 0 -0.48079677699728601 -0.34239781619275939 0 -0.47939263421700451 -0.3188559986588736 0 -0.48079677699728601 -0.34239781619275939 0 -0.47939263421700451 -0.3188559986588736 0 -0.48499731619865621 -0.33317281025112477 0 -0.48079677699728601 -0.34239781619275939 0 -0.47939263421700451 -0.3188559986588736 0 -0.48079677699728601 -0.34239781619275939 0 -0.47368273557086238 -0.33504837159078282 0 -0.48079677699728601 -0.34239781619275939 0 -0.47676252617788928 -0.34136748721205151 0 -0.47368273557086238 -0.33504837159078282 0 -0.46641263850654979 -0.34234934078000001 0 -0.47676252617788928 -0.34136748721205151 0 -0.47368273557086238 -0.33504837159078282 0 -0.48079677699728601 -0.34239781619275939 0 -0.48220091977756763 -0.36593963372664517 0 -0.47676252617788928 -0.34136748721205151 0 -0.46397892833050852 -0.36417820465512479 0 -0.47676252617788928 -0.34136748721205151 0 -0.47582520437753728 -0.35377155173693531 0 -0.46397892833050852 -0.36417820465512479 0 -0.46641263850654979 -0.34234934078000001 0 -0.47676252617788928 -0.34136748721205151 0 -0.46397892833050852 -0.36417820465512479 0 -0.48079677699728601 -0.34239781619275939 0 -0.48870475449649142 -0.35373893142214419 0 -0.48220091977756763 -0.36593963372664517 0 -0.48079677699728601 -0.34239781619275939 0 -0.47582520437753728 -0.35377155173693531 0 -0.48220091977756763 -0.36593963372664517 0 -0.48079677699728601 -0.34239781619275939 0 -0.47676252617788928 -0.34136748721205151 0 -0.47582520437753728 -0.35377155173693531 0 -0.48900836401808828 -0.34144852435007228 0 -0.48079677699728601 -0.34239781619275939 0 -0.48870475449649142 -0.35373893142214419 0 -0.48870475449649142 -0.35373893142214419 0 -0.5 -0.34576557379880968 0 -0.49999999999999539 -0.37454527510000729 0 -0.48900836401808828 -0.34144852435007228 0 -0.48870475449649142 -0.35373893142214419 0 -0.5 -0.34576557379880968 0 -0.48870475449649142 -0.35373893142214419 0 -0.49999999999999539 -0.37454527510000729 0 -0.48220091977756763 -0.36593963372664517 0 -0.47582520437753728 -0.35377155173693531 0 -0.48220091977756763 -0.36593963372664517 0 -0.46397892833050852 -0.36417820465512479 0 -0.46748973539803662 -0.38069978415109978 0 -0.48220091977756763 -0.36593963372664517 0 -0.46397892833050852 -0.36417820465512479 0 -0.46641263850654979 -0.34234934078000001 0 -0.46397892833050852 -0.36417820465512479 0 -0.45242983782341889 -0.34899703325303127 0 -0.45242983782341889 -0.34899703325303127 0 -0.43057707604080969 -0.35376774511109438 0 -0.43638348934470528 -0.33942116378062331 0 -0.43965051101676822 -0.37583845931705329 0 -0.46397892833050852 -0.36417820465512479 0 -0.45242983782341889 -0.34899703325303127 0 -0.43965051101676822 -0.37583845931705329 0 -0.45242983782341889 -0.34899703325303127 0 -0.43057707604080969 -0.35376774511109438 0 -0.43965051101676822 -0.37583845931705329 0 -0.45242983782341889 -0.34899703325303127 0 -0.43965051101676822 -0.37583845931705329 0 -0.427266608784026 -0.36827122446398508 0 -0.43057707604080969 -0.35376774511109438 0 -0.43965051101676822 -0.37583845931705329 0 -0.42019869924829673 -0.37802384934638261 0 -0.427266608784026 -0.36827122446398508 0 -0.427266608784026 -0.36827122446398508 0 -0.43057707604080969 -0.35376774511109438 0 -0.41688012855500739 -0.3612238018814386 0 -0.43057707604080969 -0.35376774511109438 0 -0.41233809096264312 -0.33918822919937119 0 -0.43638348934470528 -0.33942116378062331 0 -0.43057707604080969 -0.35376774511109438 0 -0.41688012855500739 -0.3612238018814386 0 -0.41688012855500739 -0.3612238018814386 0 -0.40110737775060551 -0.356520326034863 0 -0.41233809096264312 -0.33918822919937119 0 -0.43057707604080969 -0.35376774511109438 0 -0.41688012855500739 -0.3612238018814386 0 -0.41233809096264312 -0.33918822919937119 0 -0.41688012855500739 -0.3612238018814386 0 -0.4031831810692052 -0.36867985865178299 0 -0.42019869924829673 -0.37802384934638261 0 -0.41688012855500739 -0.3612238018814386 0 -0.4031831810692052 -0.36867985865178299 0 -0.41688012855500739 -0.3612238018814386 0 -0.4031831810692052 -0.36867985865178299 0 -0.40110737775060551 -0.356520326034863 0 -0.42019869924829673 -0.37802384934638261 0 -0.427266608784026 -0.36827122446398508 0 -0.41688012855500739 -0.3612238018814386 0 -0.38648963264358421 -0.37776714214242563 0 -0.4031831810692052 -0.36867985865178299 0 -0.38648963264358421 -0.37776714214242563 0 -0.4031831810692052 -0.36867985865178299 0 -0.39380644738048293 -0.36458763866961319 0 -0.4031831810692052 -0.36867985865178299 0 -0.39380644738048293 -0.36458763866961319 0 -0.40110737775060551 -0.356520326034863 0 -0.4031831810692052 -0.36867985865178299 0 -0.40110737775060551 -0.356520326034863 0 -0.39380644738048293 -0.36458763866961319 0 -0.38616213460854548 -0.36601157360408348 0 -0.39208991083047462 -0.35395929291491152 0 -0.38648963264358421 -0.37776714214242563 0 -0.39380644738048293 -0.36458763866961319 0 -0.38616213460854548 -0.36601157360408348 0 -0.39208991083047462 -0.35395929291491152 0 -0.37184173069830528 -0.36873035663045051 0 -0.38616213460854548 -0.36601157360408348 0 -0.39208991083047462 -0.35395929291491152 0 -0.37184173069830528 -0.36873035663045051 0 -0.37509701351624641 -0.36188658461496248 0 -0.39208991083047462 -0.35395929291491152 0 -0.37184173069830528 -0.36873035663045051 0 -0.38648963264358421 -0.37776714214242563 0 -0.38616213460854548 -0.36601157360408348 0 -0.37184173069830528 -0.36873035663045051 0 -0.38648963264358421 -0.37776714214242563 0 -0.37184173069830528 -0.36873035663045051 0 -0.37509701351624641 -0.36188658461496248 0 -0.37901623410453539 -0.35547069402569992 0 -0.39208991083047462 -0.35395929291491152 0 -0.38338555291851217 -0.34473639537787842 0 -0.39208991083047462 -0.35395929291491152 0 -0.3943836198411857 -0.33826945601182362 0 -0.37503708695831212 -0.34896342047841461 0 -0.38338555291851217 -0.34473639537787842 0 -0.36964495568326999 -0.34083111858565762 0 -0.38238219620295849 -0.35078245069922609 0 -0.37503708695831212 -0.34896342047841461 0 -0.38338555291851217 -0.34473639537787842 0 -0.38238219620295849 -0.35078245069922609 0 -0.37503708695831212 -0.34896342047841461 0 -0.37901623410453539 -0.35547069402569992 0 -0.37503708695831212 -0.34896342047841461 0 -0.37901623410453539 -0.35547069402569992 0 -0.37180742385222382 -0.35691129522353671 0 -0.37509701351624641 -0.36188658461496248 0 -0.37901623410453539 -0.35547069402569992 0 -0.37180742385222382 -0.35691129522353671 0 -0.38238219620295849 -0.35078245069922609 0 -0.37901623410453539 -0.35547069402569992 0 -0.39208991083047462 -0.35395929291491152 0 -0.38238219620295849 -0.35078245069922609 0 -0.38338555291851217 -0.34473639537787842 0 -0.39208991083047462 -0.35395929291491152 0 -0.39208991083047462 -0.35395929291491152 0 -0.3943836198411857 -0.33826945601182362 0 -0.41233809096264312 -0.33918822919937119 0 -0.39208991083047462 -0.35395929291491152 0 -0.40110737775060551 -0.356520326034863 0 -0.41233809096264312 -0.33918822919937119 0 -0.39208991083047462 -0.35395929291491152 0 -0.41233809096264312 -0.33918822919937119 0 -0.39380644738048293 -0.36458763866961319 0 -0.39208991083047462 -0.35395929291491152 0 -0.40110737775060551 -0.356520326034863 0 -0.3943836198411857 -0.33826945601182362 0 -0.40278994642111893 -0.32776057259367908 0 -0.41233809096264312 -0.33918822919937119 0 -0.3943836198411857 -0.33826945601182362 0 -0.39308277912219858 -0.32660613025733581 0 -0.40278994642111893 -0.32776057259367908 0 -0.38338555291851217 -0.34473639537787842 0 -0.3943836198411857 -0.33826945601182362 0 -0.38119629317181758 -0.33224500524708689 0 -0.3943836198411857 -0.33826945601182362 0 -0.38119629317181758 -0.33224500524708689 0 -0.39308277912219858 -0.32660613025733581 0 -0.38338555291851217 -0.34473639537787842 0 -0.38119629317181758 -0.33224500524708689 0 -0.36964495568326999 -0.34083111858565762 0 -0.38119629317181758 -0.33224500524708689 0 -0.38567884900521349 -0.31424962364730152 0 -0.39308277912219858 -0.32660613025733581 0 -0.38119629317181758 -0.33224500524708689 0 -0.38567884900521349 -0.31424962364730152 0 -0.36735188129011509 -0.32548540044173102 0 -0.38567884900521349 -0.31424962364730152 0 -0.39308277912219858 -0.32660613025733581 0 -0.39969929410026978 -0.31775341585629108 0 -0.38567884900521349 -0.31424962364730152 0 -0.39969929410026978 -0.31775341585629108 0 -0.39455165370551831 -0.30764117648825479 0 -0.39308277912219858 -0.32660613025733581 0 -0.40278994642111893 -0.32776057259367908 0 -0.39969929410026978 -0.31775341585629108 0 -0.40278994642111893 -0.32776057259367908 0 -0.39969929410026978 -0.31775341585629108 0 -0.41444594807929691 -0.31698563164357368 0 -0.39969929410026978 -0.31775341585629108 0 -0.41444594807929691 -0.31698563164357368 0 -0.40376599172731331 -0.30421035789635908 0 -0.40278994642111893 -0.32776057259367908 0 -0.41444594807929691 -0.31698563164357368 0 -0.41233809096264312 -0.33918822919937119 0 -0.41444594807929691 -0.31698563164357368 0 -0.41233809096264312 -0.33918822919937119 0 -0.4325862710948114 -0.32441716548383093 0 -0.41233809096264312 -0.33918822919937119 0 -0.43638348934470528 -0.33942116378062331 0 -0.4325862710948114 -0.32441716548383093 0 -0.41233809096264312 -0.33918822919937119 0 -0.4325862710948114 -0.32441716548383093 0 -0.41444594807929691 -0.31698563164357368 0 -0.4325862710948114 -0.32441716548383093 0 -0.432071380859952 -0.30194269934214241 0 -0.44269834556250859 -0.29295516312808789 0 -0.432071380859952 -0.30194269934214241 0 -0.42316538041005097 -0.27874313401433459 0 -0.432071380859952 -0.30194269934214241 0 -0.41620476831758257 -0.30087440320284542 0 -0.42316538041005097 -0.27874313401433459 0 -0.41620476831758257 -0.30087440320284542 0 -0.40576855247903992 -0.2912248765958092 0 -0.42316538041005097 -0.27874313401433459 0 -0.40576855247903992 -0.2912248765958092 0 -0.39799428164535872 -0.27650927010644172 0 -0.42316538041005097 -0.27874313401433459 0 -0.41444594807929691 -0.31698563164357368 0 -0.41620476831758257 -0.30087440320284542 0 -0.40376599172731331 -0.30421035789635908 0 -0.41444594807929691 -0.31698563164357368 0 -0.432071380859952 -0.30194269934214241 0 -0.41620476831758257 -0.30087440320284542 0 -0.41620476831758257 -0.30087440320284542 0 -0.40376599172731331 -0.30421035789635908 0 -0.40576855247903992 -0.2912248765958092 0 -0.39969929410026978 -0.31775341585629108 0 -0.40376599172731331 -0.30421035789635908 0 -0.39455165370551831 -0.30764117648825479 0 -0.40376599172731331 -0.30421035789635908 0 -0.39632444748424839 -0.30171554231554171 0 -0.39746587815414008 -0.29467492472239359 0 -0.39632444748424839 -0.30171554231554171 0 -0.39455165370551831 -0.30764117648825479 0 -0.38966866660245603 -0.29915161155970948 0 -0.40376599172731331 -0.30421035789635908 0 -0.39632444748424839 -0.30171554231554171 0 -0.39455165370551831 -0.30764117648825479 0 -0.39632444748424839 -0.30171554231554171 0 -0.38966866660245603 -0.29915161155970948 0 -0.39746587815414008 -0.29467492472239359 0 -0.38529543500294572 -0.29827028959951341 0 -0.36997963428683528 -0.29464163430963591 0 -0.37054127154319327 -0.31041265061668588 0 -0.38567884900521349 -0.31424962364730152 0 -0.39455165370551831 -0.30764117648825479 0 -0.38966866660245603 -0.29915161155970948 0 -0.38966866660245603 -0.29915161155970948 0 -0.37054127154319327 -0.31041265061668588 0 -0.38567884900521349 -0.31424962364730152 0 -0.38966866660245603 -0.29915161155970948 0 -0.37054127154319327 -0.31041265061668588 0 -0.38966866660245603 -0.29915161155970948 0 -0.38529543500294572 -0.29827028959951341 0 -0.37054127154319327 -0.31041265061668588 0 -0.38966866660245603 -0.29915161155970948 0 -0.38529543500294572 -0.29827028959951341 0 -0.38958824558673982 -0.29336537564777693 0 -0.37608044012673891 -0.28600848170689658 0 -0.38455230422373282 -0.28797152977956092 0 -0.38242986344794572 -0.27512797196036037 0 -0.38529543500294572 -0.29827028959951341 0 -0.37608044012673891 -0.28600848170689658 0 -0.38455230422373282 -0.28797152977956092 0 -0.38529543500294572 -0.29827028959951341 0 -0.37608044012673891 -0.28600848170689658 0 -0.36997963428683528 -0.29464163430963591 0 -0.38529543500294572 -0.29827028959951341 0 -0.37608044012673891 -0.28600848170689658 0 -0.38529543500294572 -0.29827028959951341 0 -0.38958824558673982 -0.29336537564777693 0 -0.38455230422373282 -0.28797152977956092 0 -0.38958824558673982 -0.29336537564777693 0 -0.38455230422373282 -0.28797152977956092 0 -0.39255035094655488 -0.28643151517215709 0 -0.38455230422373282 -0.28797152977956092 0 -0.39255035094655488 -0.28643151517215709 0 -0.38242986344794572 -0.27512797196036037 0 -0.38966866660245603 -0.29915161155970948 0 -0.38958824558673982 -0.29336537564777693 0 -0.39746587815414008 -0.29467492472239359 0 -0.38958824558673982 -0.29336537564777693 0 -0.39255035094655488 -0.28643151517215709 0 -0.39746587815414008 -0.29467492472239359 0 -0.40376599172731331 -0.30421035789635908 0 -0.39746587815414008 -0.29467492472239359 0 -0.40576855247903992 -0.2912248765958092 0 -0.39255035094655488 -0.28643151517215709 0 -0.39746587815414008 -0.29467492472239359 0 -0.40576855247903992 -0.2912248765958092 0 -0.39255035094655488 -0.28643151517215709 0 -0.40576855247903992 -0.2912248765958092 0 -0.39799428164535872 -0.27650927010644172 0 -0.40576855247903992 -0.2912248765958092 0 -0.39799428164535872 -0.27650927010644172 0 -0.39799428164535872 -0.27650927010644172 0 -0.40256302033732982 -0.25955602753683121 0 -0.41209731734520061 -0.26744388833845673 0 -0.39255035094655488 -0.28643151517215709 0 -0.39799428164535872 -0.27650927010644172 0 -0.38242986344794572 -0.27512797196036037 0 -0.39799428164535872 -0.27650927010644172 0 -0.38242986344794572 -0.27512797196036037 0 -0.38582138283104922 -0.25346767654499403 0 -0.39799428164535872 -0.27650927010644172 0 -0.38242986344794572 -0.27512797196036037 0 -0.38242986344794572 -0.27512797196036037 0 -0.37596028659224001 -0.26445086201787021 0 -0.36686544525053277 -0.27374667381427931 0 -0.37608044012673891 -0.28600848170689658 0 -0.38242986344794572 -0.27512797196036037 0 -0.36686544525053277 -0.27374667381427931 0 -0.38582138283104922 -0.25346767654499403 0 -0.37596028659224001 -0.26445086201787021 0 -0.36872445483943223 -0.25546112575184732 0 -0.38242986344794572 -0.27512797196036037 0 -0.38582138283104922 -0.25346767654499403 0 -0.37596028659224001 -0.26445086201787021 0 -0.39799428164535872 -0.27650927010644172 0 -0.38582138283104922 -0.25346767654499403 0 -0.38582138283104922 -0.25346767654499403 0 -0.40256302033732982 -0.25955602753683121 0 -0.40382692193229541 -0.24427961944825829 0 -0.39799428164535872 -0.27650927010644172 0 -0.38582138283104922 -0.25346767654499403 0 -0.40256302033732982 -0.25955602753683121 0 -0.41307519793274522 -0.25607968324600561 0 -0.42654723820534818 -0.2634200789661349 0 -0.42141652743145608 -0.24373293179399319 0 -0.40256302033732982 -0.25955602753683121 0 -0.41307519793274522 -0.25607968324600561 0 -0.40382692193229541 -0.24427961944825829 0 -0.41307519793274522 -0.25607968324600561 0 -0.41209731734520061 -0.26744388833845673 0 -0.42654723820534818 -0.2634200789661349 0 -0.40256302033732982 -0.25955602753683121 0 -0.41307519793274522 -0.25607968324600561 0 -0.41209731734520061 -0.26744388833845673 0 -0.39799428164535872 -0.27650927010644172 0 -0.42316538041005097 -0.27874313401433459 0 -0.39799428164535872 -0.27650927010644172 0 -0.41209731734520061 -0.26744388833845673 0 -0.42316538041005097 -0.27874313401433459 0 -0.41209731734520061 -0.26744388833845673 0 -0.42316538041005097 -0.27874313401433459 0 -0.42654723820534818 -0.2634200789661349 0 -0.44833647917474351 -0.28097699792222608 0 -0.42316538041005097 -0.27874313401433459 0 -0.43971517947492827 -0.27195461474019272 0 -0.42316538041005097 -0.27874313401433459 0 -0.42654723820534818 -0.2634200789661349 0 -0.43971517947492827 -0.27195461474019272 0 -0.44833647917474351 -0.28097699792222608 0 -0.42316538041005097 -0.27874313401433459 0 -0.43971517947492827 -0.27195461474019272 0 -0.43679565123876007 -0.25153719175576511 0 -0.42654723820534818 -0.2634200789661349 0 -0.43679565123876007 -0.25153719175576511 0 -0.42654723820534818 -0.2634200789661349 0 -0.42141652743145608 -0.24373293179399319 0 -0.31304893188711502 -0.25662415588864612 0 -0.32299088113707741 -0.26985293019331991 0 -0.32255225243677937 -0.2484995408870776 0 -0.32299088113707741 -0.26985293019331991 0 -0.33558998382955912 -0.25522013354807987 0 -0.32255225243677937 -0.2484995408870776 0 -0.32299088113707741 -0.26985293019331991 0 -0.31688030687465579 -0.28504950865964551 0 -0.30105359908034979 -0.26790605838283932 0 -0.32299088113707741 -0.26985293019331991 0 -0.3392400122153798 -0.28668863269408662 0 -0.31688030687465579 -0.28504950865964551 0 -0.32299088113707741 -0.26985293019331991 0 -0.34492816319380509 -0.27179980200379877 0 -0.3392400122153798 -0.28668863269408662 0 -0.32299088113707741 -0.26985293019331991 0 -0.34492816319380509 -0.27179980200379877 0 -0.32299088113707741 -0.26985293019331991 0 -0.33558998382955912 -0.25522013354807987 0 -0.34492816319380509 -0.27179980200379877 0 -0.33558998382955912 -0.25522013354807987 0 -0.35144802254355512 -0.25323168949016089 0 -0.34492816319380509 -0.27179980200379877 0 -0.35144802254355512 -0.25323168949016089 0 -0.36686544525053277 -0.27374667381427931 0 -0.35144802254355512 -0.25323168949016089 0 -0.36872445483943223 -0.25546112575184732 0 -0.36686544525053277 -0.27374667381427931 0 -0.37596028659224001 -0.26445086201787021 0 -0.36872445483943223 -0.25546112575184732 0 -0.36686544525053277 -0.27374667381427931 0 -0.38242986344794572 -0.27512797196036037 0 -0.36686544525053277 -0.27374667381427931 0 -0.37608044012673891 -0.28600848170689658 0 -0.36686544525053277 -0.27374667381427931 0 -0.36686544525053277 -0.27374667381427931 0 -0.34492816319380509 -0.27179980200379877 0 -0.36348747576314289 -0.28512991474449062 0 -0.36686544525053277 -0.27374667381427931 0 -0.34492816319380509 -0.27179980200379877 0 -0.35144802254355512 -0.25323168949016089 0 -0.36686544525053277 -0.27374667381427931 0 -0.34492816319380509 -0.27179980200379877 0 -0.35410816537007839 -0.29292755663958381 0 -0.34752906735727368 -0.30681024783069483 0 -0.3392400122153798 -0.28668863269408662 0 -0.34492816319380509 -0.27179980200379877 0 -0.35410816537007839 -0.29292755663958381 0 -0.3392400122153798 -0.28668863269408662 0 -0.34492816319380509 -0.27179980200379877 0 -0.35410816537007839 -0.29292755663958381 0 -0.36348747576314289 -0.28512991474449062 0 -0.35410816537007839 -0.29292755663958381 0 -0.36348747576314289 -0.28512991474449062 0 -0.36997963428683528 -0.29464163430963591 0 -0.37608044012673891 -0.28600848170689658 0 -0.36348747576314289 -0.28512991474449062 0 -0.36997963428683528 -0.29464163430963591 0 -0.37608044012673891 -0.28600848170689658 0 -0.36686544525053277 -0.27374667381427931 0 -0.36348747576314289 -0.28512991474449062 0 -0.35410816537007839 -0.29292755663958381 0 -0.36997963428683528 -0.29464163430963591 0 -0.37054127154319327 -0.31041265061668588 0 -0.35410816537007839 -0.29292755663958381 0 -0.37054127154319327 -0.31041265061668588 0 -0.34752906735727368 -0.30681024783069483 0 -0.34752906735727368 -0.30681024783069483 0 -0.33146727316324859 -0.29890893888143211 0 -0.3392400122153798 -0.28668863269408662 0 -0.34752906735727368 -0.30681024783069483 0 -0.33146727316324859 -0.29890893888143211 0 -0.330233474658226 -0.31449876398204468 0 -0.33146727316324859 -0.29890893888143211 0 -0.3392400122153798 -0.28668863269408662 0 -0.31688030687465579 -0.28504950865964551 0 -0.33146727316324859 -0.29890893888143211 0 -0.31688030687465579 -0.28504950865964551 0 -0.30976351524251972 -0.30295663019941099 0 -0.33146727316324859 -0.29890893888143211 0 -0.330233474658226 -0.31449876398204468 0 -0.30976351524251972 -0.30295663019941099 0 -0.33228648142466838 -0.33293472873063951 0 -0.330233474658226 -0.31449876398204468 0 -0.3089406342777154 -0.32370834857642999 0 -0.330233474658226 -0.31449876398204468 0 -0.3089406342777154 -0.32370834857642999 0 -0.30976351524251972 -0.30295663019941099 0 -0.33228648142466838 -0.33293472873063951 0 -0.3089406342777154 -0.32370834857642999 0 -0.31455690313789009 -0.34337281885909238 0 -0.33228648142466838 -0.33293472873063951 0 -0.33363789083757289 -0.35006162315281042 0 -0.31455690313789009 -0.34337281885909238 0 -0.33228648142466838 -0.33293472873063951 0 -0.31455690313789009 -0.34337281885909238 0 -0.33228648142466838 -0.33293472873063951 0 -0.3089406342777154 -0.32370834857642999 0 -0.33228648142466838 -0.33293472873063951 0 -0.35404461712114987 -0.34153363842618628 0 -0.33363789083757289 -0.35006162315281042 0 -0.33228648142466838 -0.33293472873063951 0 -0.35404461712114987 -0.34153363842618628 0 -0.33228648142466838 -0.33293472873063951 0 -0.330233474658226 -0.31449876398204468 0 -0.35141387648393058 -0.32167368967366222 0 -0.33228648142466838 -0.33293472873063951 0 -0.35141387648393058 -0.32167368967366222 0 -0.34752906735727368 -0.30681024783069483 0 -0.330233474658226 -0.31449876398204468 0 -0.35141387648393058 -0.32167368967366222 0 -0.37054127154319327 -0.31041265061668588 0 -0.34752906735727368 -0.30681024783069483 0 -0.35141387648393058 -0.32167368967366222 0 -0.38567884900521349 -0.31424962364730152 0 -0.37054127154319327 -0.31041265061668588 0 -0.36735188129011509 -0.32548540044173102 0 -0.37054127154319327 -0.31041265061668588 0 -0.35141387648393058 -0.32167368967366222 0 -0.37054127154319327 -0.31041265061668588 0 -0.35141387648393058 -0.32167368967366222 0 -0.36735188129011509 -0.32548540044173102 0 -0.36735188129011509 -0.32548540044173102 0 -0.36964495568326999 -0.34083111858565762 0 -0.35404461712114987 -0.34153363842618628 0 -0.38119629317181758 -0.33224500524708689 0 -0.36735188129011509 -0.32548540044173102 0 -0.36964495568326999 -0.34083111858565762 0 -0.35141387648393058 -0.32167368967366222 0 -0.36735188129011509 -0.32548540044173102 0 -0.35404461712114987 -0.34153363842618628 0 -0.33228648142466838 -0.33293472873063951 0 -0.35141387648393058 -0.32167368967366222 0 -0.35404461712114987 -0.34153363842618628 0 -0.35404461712114987 -0.34153363842618628 0 -0.36312897952449702 -0.35406133188092043 0 -0.3500144774101297 -0.36209917825432197 0 -0.35404461712114987 -0.34153363842618628 0 -0.3500144774101297 -0.36209917825432197 0 -0.33363789083757289 -0.35006162315281042 0 -0.36964495568326999 -0.34083111858565762 0 -0.35404461712114987 -0.34153363842618628 0 -0.36312897952449702 -0.35406133188092043 0 -0.36312897952449702 -0.35406133188092043 0 -0.37180742385222382 -0.35691129522353671 0 -0.3671380720855742 -0.36064607594678849 0 -0.37503708695831212 -0.34896342047841461 0 -0.36312897952449702 -0.35406133188092043 0 -0.37180742385222382 -0.35691129522353671 0 -0.37503708695831212 -0.34896342047841461 0 -0.36964495568326999 -0.34083111858565762 0 -0.36312897952449702 -0.35406133188092043 0 -0.37184173069830528 -0.36873035663045051 0 -0.35821570436625921 -0.3717100555091486 0 -0.35238934985229592 -0.38292088412575431 0 -0.3702034327408078 -0.36771963527923351 0 -0.37184173069830528 -0.36873035663045051 0 -0.3702034327408078 -0.36771963527923351 0 -0.37184173069830528 -0.36873035663045051 0 -0.37194395480271691 -0.36534312891177068 0 -0.37509701351624641 -0.36188658461496248 0 -0.37194395480271691 -0.36534312891177068 0 -0.37063364225550821 -0.36303593912243648 0 -0.37509701351624641 -0.36188658461496248 0 -0.37184173069830528 -0.36873035663045051 0 -0.37194395480271691 -0.36534312891177068 0 -0.37509701351624641 -0.36188658461496248 0 -0.37180742385222382 -0.35691129522353671 0 -0.37063364225550821 -0.36303593912243648 0 -0.37180742385222382 -0.35691129522353671 0 -0.37063364225550821 -0.36303593912243648 0 -0.3671380720855742 -0.36064607594678849 0 -0.37063364225550821 -0.36303593912243648 0 -0.36778445281556632 -0.36449286556333238 0 -0.3671380720855742 -0.36064607594678849 0 -0.3702034327408078 -0.36771963527923351 0 -0.37194395480271691 -0.36534312891177068 0 -0.37063364225550821 -0.36303593912243648 0 -0.3702034327408078 -0.36771963527923351 0 -0.37063364225550821 -0.36303593912243648 0 -0.36778445281556632 -0.36449286556333238 0 -0.36312897952449702 -0.35406133188092043 0 -0.3671380720855742 -0.36064607594678849 0 -0.36316266418037502 -0.36656981190487109 0 -0.36778445281556632 -0.36449286556333238 0 -0.3671380720855742 -0.36064607594678849 0 -0.36316266418037502 -0.36656981190487109 0 -0.3702034327408078 -0.36771963527923351 0 -0.36778445281556632 -0.36449286556333238 0 -0.36316266418037502 -0.36656981190487109 0 -0.3702034327408078 -0.36771963527923351 0 -0.37184173069830528 -0.36873035663045051 0 -0.35821570436625921 -0.3717100555091486 0 -0.3702034327408078 -0.36771963527923351 0 -0.36316266418037502 -0.36656981190487109 0 -0.35821570436625921 -0.3717100555091486 0 -0.36312897952449702 -0.35406133188092043 0 -0.36316266418037502 -0.36656981190487109 0 -0.3500144774101297 -0.36209917825432197 0 -0.36316266418037502 -0.36656981190487109 0 -0.35821570436625921 -0.3717100555091486 0 -0.3500144774101297 -0.36209917825432197 0 -0.35821570436625921 -0.3717100555091486 0 -0.3500144774101297 -0.36209917825432197 0 -0.34364091487211451 -0.3730010214386093 0 -0.3500144774101297 -0.36209917825432197 0 -0.34364091487211451 -0.3730010214386093 0 -0.33262186543227062 -0.36419496003732388 0 -0.33149237835499551 -0.37478985988545088 0 -0.33262186543227062 -0.36419496003732388 0 -0.32130526027472539 -0.37085452177287298 0 -0.34364091487211451 -0.3730010214386093 0 -0.33149237835499551 -0.37478985988545088 0 -0.33262186543227062 -0.36419496003732388 0 -0.3500144774101297 -0.36209917825432197 0 -0.33262186543227062 -0.36419496003732388 0 -0.33363789083757289 -0.35006162315281042 0 -0.33262186543227062 -0.36419496003732388 0 -0.33363789083757289 -0.35006162315281042 0 -0.31817030169505162 -0.35671338676352438 0 -0.31455690313789009 -0.34337281885909238 0 -0.33363789083757289 -0.35006162315281042 0 -0.31817030169505162 -0.35671338676352438 0 -0.31817030169505162 -0.35671338676352438 0 -0.32130526027472539 -0.37085452177287298 0 -0.30908617577154179 -0.36595573307030937 0 -0.32130526027472539 -0.37085452177287298 0 -0.30908617577154179 -0.36595573307030937 0 -0.31238663693909707 -0.38006794578566849 0 -0.33262186543227062 -0.36419496003732388 0 -0.31817030169505162 -0.35671338676352438 0 -0.32130526027472539 -0.37085452177287298 0 -0.30908617577154179 -0.36595573307030937 0 -0.28690420588145932 -0.35965303385285402 0 -0.29854433706712258 -0.38533490665850451 0 -0.30908617577154179 -0.36595573307030937 0 -0.29682732485111207 -0.35381090898754602 0 -0.28690420588145932 -0.35965303385285402 0 -0.30908617577154179 -0.36595573307030937 0 -0.29682732485111207 -0.35381090898754602 0 -0.31817030169505162 -0.35671338676352438 0 -0.30908617577154179 -0.36595573307030937 0 -0.29682732485111207 -0.35381090898754602 0 -0.31455690313789009 -0.34337281885909238 0 -0.31817030169505162 -0.35671338676352438 0 -0.29682732485111207 -0.35381090898754602 0 -0.31455690313789009 -0.34337281885909238 0 -0.29682732485111207 -0.35381090898754602 0 -0.29974900880000632 -0.33891091581680888 0 -0.31455690313789009 -0.34337281885909238 0 -0.29682732485111207 -0.35381090898754602 0 -0.29682732485111207 -0.35381090898754602 0 -0.28690420588145932 -0.35965303385285402 0 -0.28541930104192731 -0.3425089979688174 0 -0.29682732485111207 -0.35381090898754602 0 -0.28690420588145932 -0.35965303385285402 0 -0.28690420588145932 -0.35965303385285402 0 -0.28045774155710101 -0.34543006040147128 0 -0.28541930104192731 -0.3425089979688174 0 -0.29682732485111207 -0.35381090898754602 0 -0.28541930104192731 -0.3425089979688174 0 -0.29682732485111207 -0.35381090898754602 0 -0.28541930104192731 -0.3425089979688174 0 -0.29974900880000632 -0.33891091581680888 0 -0.28690420588145932 -0.35965303385285402 0 -0.28045774155710101 -0.34543006040147128 0 -0.28690420588145932 -0.35965303385285402 0 -0.27643336920281719 -0.35639066184731122 0 -0.28045774155710101 -0.34543006040147128 0 -0.28690420588145932 -0.35965303385285402 0 -0.2740333322454358 -0.36723061617724267 0 -0.28559909992850829 -0.37630100565561347 0 -0.28690420588145932 -0.35965303385285402 0 -0.29854433706712258 -0.38533490665850451 0 -0.28559909992850829 -0.37630100565561347 0 -0.28690420588145932 -0.35965303385285402 0 -0.29854433706712258 -0.38533490665850451 0 -0.2740333322454358 -0.36723061617724267 0 -0.28559909992850829 -0.37630100565561347 0 -0.26775278850054418 -0.37547471232218482 0 -0.28690420588145932 -0.35965303385285402 0 -0.2740333322454358 -0.36723061617724267 0 -0.28690420588145932 -0.35965303385285402 0 -0.2740333322454358 -0.36723061617724267 0 -0.27643336920281719 -0.35639066184731122 0 -0.2740333322454358 -0.36723061617724267 0 -0.25502208631673778 -0.37046984160592461 0 -0.26433819712727358 -0.35324893695767678 0 -0.2740333322454358 -0.36723061617724267 0 -0.25502208631673778 -0.37046984160592461 0 -0.26775278850054418 -0.37547471232218482 0 -0.25502208631673778 -0.37046984160592461 0 -0.26433819712727358 -0.35324893695767678 0 -0.24806155899641619 -0.35409162412368378 0 -0.26433819712727358 -0.35324893695767678 0 -0.26563628452792959 -0.33989790226188432 0 -0.24984893629784419 -0.33960350302217851 0 -0.26433819712727358 -0.35324893695767678 0 -0.24806155899641619 -0.35409162412368378 0 -0.24984893629784419 -0.33960350302217851 0 -0.26433819712727358 -0.35324893695767678 0 -0.27643336920281719 -0.35639066184731122 0 -0.28045774155710101 -0.34543006040147128 0 -0.26433819712727358 -0.35324893695767678 0 -0.28045774155710101 -0.34543006040147128 0 -0.26563628452792959 -0.33989790226188432 0 -0.2740333322454358 -0.36723061617724267 0 -0.26433819712727358 -0.35324893695767678 0 -0.27643336920281719 -0.35639066184731122 0 -0.27401127723274238 -0.33120708695008871 0 -0.28541930104192731 -0.3425089979688174 0 -0.28045774155710101 -0.34543006040147128 0 -0.27401127723274238 -0.33120708695008871 0 -0.28541930104192731 -0.3425089979688174 0 -0.28045774155710101 -0.34543006040147128 0 -0.27401127723274238 -0.33120708695008871 0 -0.27401127723274238 -0.33120708695008871 0 -0.26563628452792959 -0.33989790226188432 0 -0.25952527042468582 -0.32999992397800643 0 -0.28045774155710101 -0.34543006040147128 0 -0.27401127723274238 -0.33120708695008871 0 -0.26563628452792959 -0.33989790226188432 0 -0.26563628452792959 -0.33989790226188432 0 -0.25952527042468582 -0.32999992397800643 0 -0.24984893629784419 -0.33960350302217851 0 -0.25952527042468582 -0.32999992397800643 0 -0.25000812288062252 -0.32359785332291641 0 -0.24984893629784419 -0.33960350302217851 0 -0.25000812288062252 -0.32359785332291641 0 -0.25801919228258918 -0.31536375385982762 0 -0.24226855000465849 -0.31371142063638757 0 -0.27401127723274238 -0.33120708695008871 0 -0.25952527042468582 -0.32999992397800643 0 -0.25801919228258918 -0.31536375385982762 0 -0.27401127723274238 -0.33120708695008871 0 -0.25801919228258918 -0.31536375385982762 0 -0.26224893998381232 -0.30525558826800442 0 -0.25952527042468582 -0.32999992397800643 0 -0.25000812288062252 -0.32359785332291641 0 -0.25801919228258918 -0.31536375385982762 0 -0.27401127723274238 -0.33120708695008871 0 -0.28559478713076308 -0.3144819684222192 0 -0.26224893998381232 -0.30525558826800442 0 -0.27401127723274238 -0.33120708695008871 0 -0.26224893998381232 -0.30525558826800442 0 -0.27401127723274238 -0.33120708695008871 0 -0.25801919228258918 -0.31536375385982762 0 -0.28559478713076308 -0.3144819684222192 0 -0.29074300169663081 -0.33016346354687298 0 -0.3089406342777154 -0.32370834857642999 0 -0.27401127723274238 -0.33120708695008871 0 -0.28559478713076308 -0.3144819684222192 0 -0.29074300169663081 -0.33016346354687298 0 -0.27401127723274238 -0.33120708695008871 0 -0.28541930104192731 -0.3425089979688174 0 -0.29074300169663081 -0.33016346354687298 0 -0.28541930104192731 -0.3425089979688174 0 -0.29074300169663081 -0.33016346354687298 0 -0.29974900880000632 -0.33891091581680888 0 -0.29074300169663081 -0.33016346354687298 0 -0.29974900880000632 -0.33891091581680888 0 -0.3089406342777154 -0.32370834857642999 0 -0.31455690313789009 -0.34337281885909238 0 -0.29974900880000632 -0.33891091581680888 0 -0.3089406342777154 -0.32370834857642999 0 -0.28559478713076308 -0.3144819684222192 0 -0.3089406342777154 -0.32370834857642999 0 -0.30976351524251972 -0.30295663019941099 0 -0.28559478713076308 -0.3144819684222192 0 -0.3089406342777154 -0.32370834857642999 0 -0.30976351524251972 -0.30295663019941099 0 -0.2985652233200119 -0.283052878263792 0 -0.29304020461094682 -0.29843000332437508 0 -0.31688030687465579 -0.28504950865964551 0 -0.30976351524251972 -0.30295663019941099 0 -0.2985652233200119 -0.283052878263792 0 -0.2985652233200119 -0.283052878263792 0 -0.2787187942565752 -0.2883090697088776 0 -0.28972117788116969 -0.27474421053497522 0 -0.2985652233200119 -0.283052878263792 0 -0.29304020461094682 -0.29843000332437508 0 -0.2787187942565752 -0.2883090697088776 0 -0.28559478713076308 -0.3144819684222192 0 -0.30976351524251972 -0.30295663019941099 0 -0.29304020461094682 -0.29843000332437508 0 -0.28559478713076308 -0.3144819684222192 0 -0.29304020461094682 -0.29843000332437508 0 -0.2787187942565752 -0.2883090697088776 0 -0.28559478713076308 -0.3144819684222192 0 -0.26224893998381232 -0.30525558826800442 0 -0.28559478713076308 -0.3144819684222192 0 -0.26224893998381232 -0.30525558826800442 0 -0.2787187942565752 -0.2883090697088776 0 -0.25801919228258918 -0.31536375385982762 0 -0.26224893998381232 -0.30525558826800442 0 -0.24202710733243671 -0.29952042076956581 0 -0.25801919228258918 -0.31536375385982762 0 -0.24202710733243671 -0.29952042076956581 0 -0.26224893998381232 -0.30525558826800442 0 -0.25063975713542552 -0.27964199744720908 0 -0.26224893998381232 -0.30525558826800442 0 -0.26600165098037548 -0.28067300121688121 0 -0.25063975713542552 -0.27964199744720908 0 -0.26224893998381232 -0.30525558826800442 0 -0.2787187942565752 -0.2883090697088776 0 -0.26600165098037548 -0.28067300121688121 0 -0.2787187942565752 -0.2883090697088776 0 -0.26600165098037548 -0.28067300121688121 0 -0.27981812086880509 -0.26602146968105062 0 -0.26600165098037548 -0.28067300121688121 0 -0.27981812086880509 -0.26602146968105062 0 -0.25858264265726072 -0.2641368809792603 0 -0.26600165098037548 -0.28067300121688121 0 -0.25063975713542552 -0.27964199744720908 0 -0.25858264265726072 -0.2641368809792603 0 -0.25183174931301627 -0.25323133939372139 0 -0.25858264265726072 -0.2641368809792603 0 -0.26455855558509339 -0.25482313094172437 0 -0.27981812086880509 -0.26602146968105062 0 -0.25858264265726072 -0.2641368809792603 0 -0.27981812086880509 -0.26602146968105062 0 -0.25858264265726072 -0.2641368809792603 0 -0.26455855558509339 -0.25482313094172437 0 -0.26455855558509339 -0.25482313094172437 0 -0.27679012331568009 -0.25358160228448118 0 -0.27393455652497478 -0.24318408461259691 0 -0.27981812086880509 -0.26602146968105062 0 -0.26455855558509339 -0.25482313094172437 0 -0.27679012331568009 -0.25358160228448118 0 -0.27981812086880509 -0.26602146968105062 0 -0.28884926028384728 -0.25029772390255278 0 -0.30105359908034979 -0.26790605838283932 0 -0.27981812086880509 -0.26602146968105062 0 -0.27679012331568009 -0.25358160228448118 0 -0.28884926028384728 -0.25029772390255278 0 -0.2787187942565752 -0.2883090697088776 0 -0.27981812086880509 -0.26602146968105062 0 -0.28972117788116969 -0.27474421053497522 0 -0.27981812086880509 -0.26602146968105062 0 -0.28972117788116969 -0.27474421053497522 0 -0.30105359908034979 -0.26790605838283932 0 -0.27981812086880509 -0.26602146968105062 0 -0.30105359908034979 -0.26790605838283932 0 -0.2985652233200119 -0.283052878263792 0 -0.28972117788116969 -0.27474421053497522 0 -0.30105359908034979 -0.26790605838283932 0 -0.31688030687465579 -0.28504950865964551 0 -0.2985652233200119 -0.283052878263792 0 -0.30105359908034979 -0.26790605838283932 0 -0.32299088113707741 -0.26985293019331991 0 -0.30105359908034979 -0.26790605838283932 0 -0.2985652233200119 -0.283052878263792 0 -0.30105359908034979 -0.26790605838283932 0 -0.31304893188711502 -0.25662415588864612 0 -0.32299088113707741 -0.26985293019331991 0 -0.30105359908034979 -0.26790605838283932 0 -0.28884926028384728 -0.25029772390255278 0 -0.30105359908034979 -0.26790605838283932 0 -0.30559899489425357 -0.2402380940913478 0 -0.30105359908034979 -0.26790605838283932 0 -0.30559899489425357 -0.2402380940913478 0 -0.31304893188711502 -0.25662415588864612 0 -0.30105359908034979 -0.26790605838283932 0 -0.30559899489425357 -0.2402380940913478 0 -0.32968602299798327 -0.45404348083805268 0 -0.34003045522030217 -0.47686662504002397 0 -0.35422353471865259 -0.46606416317662602 0 -0.32968602299798327 -0.45404348083805268 0 -0.34003045522030217 -0.47686662504002397 0 -0.32968602299798327 -0.45404348083805268 0 -0.32764308497463218 -0.45483924835353667 0 -0.33404351251138298 -0.47317167512745761 0 -0.32968602299798327 -0.45404348083805268 0 -0.33404351251138298 -0.47317167512745761 0 -0.34003045522030217 -0.47686662504002397 0 -0.32968602299798327 -0.45404348083805268 0 -0.32764308497463218 -0.45483924835353667 0 -0.32968602299798327 -0.45404348083805268 0 -0.33618874191539722 -0.43759213636539401 0 -0.3532053479309738 -0.44488220695022002 0 -0.32968602299798327 -0.45404348083805268 0 -0.33618874191539722 -0.43759213636539401 0 -0.31993524562538478 -0.43253013015110392 0 -0.32968602299798327 -0.45404348083805268 0 -0.3532053479309738 -0.44488220695022002 0 -0.32968602299798327 -0.45404348083805268 0 -0.31993524562538478 -0.43253013015110392 0 -0.32968602299798327 -0.45404348083805268 0 -0.32764308497463218 -0.45483924835353667 0 -0.31993524562538478 -0.43253013015110392 0 -0.31618068603643479 -0.45388909843431507 0 -0.32764308497463218 -0.45483924835353667 0 -0.31993524562538478 -0.43253013015110392 0 -0.31618068603643479 -0.45388909843431507 0 -0.32764308497463218 -0.45483924835353667 0 -0.33404351251138298 -0.47317167512745761 0 -0.31618068603643479 -0.45388909843431507 0 -0.33404351251138298 -0.47317167512745761 0 -0.31618068603643479 -0.45388909843431507 0 -0.32167740600143069 -0.47132765271792648 0 -0.33404351251138298 -0.47317167512745761 0 -0.31618068603643479 -0.45388909843431507 0 -0.32167740600143069 -0.47132765271792648 0 -0.31238606239099698 -0.47403835425553648 0 -0.32409936306690779 -0.4842114830543971 0 -0.32167740600143069 -0.47132765271792648 0 -0.31238606239099698 -0.47403835425553648 0 -0.32409936306690779 -0.4842114830543971 0 -0.32167740600143069 -0.47132765271792648 0 -0.33404351251138298 -0.47317167512745761 0 -0.32915031568487968 -0.49819306054793228 0 -0.30792574392713651 -0.49669635185387162 0 -0.32990928000830982 -0.5 0 -0.32915031568487968 -0.49819306054793228 0 -0.30930306262906798 -0.50000000000000011 0 -0.32409936306690779 -0.4842114830543971 0 -0.30792574392713651 -0.49669635185387162 0 -0.31238606239099698 -0.47403835425553648 0 -0.32409936306690779 -0.4842114830543971 0 -0.32915031568487968 -0.49819306054793228 0 -0.30792574392713651 -0.49669635185387162 0 -0.32915031568487968 -0.49819306054793228 0 -0.30792574392713651 -0.49669635185387162 0 -0.30930306262906798 -0.50000000000000011 0 -0.32990928000830982 -0.5 0 -0.32915031568487968 -0.49819306054793228 0 -0.35037488744262291 -0.4996897692419946 0 -0.32915031568487968 -0.49819306054793228 0 -0.33559798062420793 -0.48804388913136731 0 -0.35037488744262291 -0.4996897692419946 0 -0.32915031568487968 -0.49819306054793228 0 -0.35037488744262291 -0.4996897692419946 0 -0.33559798062420793 -0.48804388913136731 0 -0.34003045522030217 -0.47686662504002397 0 -0.35037488744262291 -0.4996897692419946 0 -0.32409936306690779 -0.4842114830543971 0 -0.32915031568487968 -0.49819306054793228 0 -0.33559798062420793 -0.48804388913136731 0 -0.32409936306690779 -0.4842114830543971 0 -0.33559798062420793 -0.48804388913136731 0 -0.33404351251138298 -0.47317167512745761 0 -0.33559798062420793 -0.48804388913136731 0 -0.33404351251138298 -0.47317167512745761 0 -0.34003045522030217 -0.47686662504002397 0 -0.35359557493064281 -0.4853659359036378 0 -0.36663526258591772 -0.48051013415456878 0 -0.35422353471865259 -0.46606416317662602 0 -0.38853798223370128 -0.5 0 -0.35477421712573959 -0.50000000000000011 0 -0.36663526258591772 -0.48051013415456878 0 -0.38562322376063202 -0.46106787232921143 0 -0.36663526258591772 -0.48051013415456878 0 -0.35422353471865259 -0.46606416317662602 0 -0.34003045522030217 -0.47686662504002397 0 -0.35359557493064281 -0.4853659359036378 0 -0.35422353471865259 -0.46606416317662602 0 -0.34003045522030217 -0.47686662504002397 0 -0.35037488744262291 -0.4996897692419946 0 -0.35359557493064281 -0.4853659359036378 0 -0.35477421712573959 -0.50000000000000011 0 -0.36663526258591772 -0.48051013415456878 0 -0.34003045522030217 -0.47686662504002397 0 -0.35037488744262291 -0.4996897692419946 0 -0.35359557493064281 -0.4853659359036378 0 -0.35037488744262291 -0.4996897692419946 0 -0.35359557493064281 -0.4853659359036378 0 -0.35477421712573959 -0.50000000000000011 0 -0.37672467286396422 -0.43572093306238707 0 -0.38562322376063202 -0.46106787232921143 0 -0.3532053479309738 -0.44488220695022002 0 -0.38562322376063202 -0.46106787232921143 0 -0.35422353471865259 -0.46606416317662602 0 -0.3532053479309738 -0.44488220695022002 0 -0.32968602299798327 -0.45404348083805268 0 -0.35422353471865259 -0.46606416317662602 0 -0.3532053479309738 -0.44488220695022002 0 -0.37672467286396422 -0.43572093306238707 0 -0.3532053479309738 -0.44488220695022002 0 -0.37672467286396422 -0.43572093306238707 0 -0.3532053479309738 -0.44488220695022002 0 -0.3670967740476328 -0.42467268516214068 0 -0.37655125659495559 -0.40866676282623621 0 -0.36070844057677248 -0.41277016543157391 0 -0.36623132187455032 -0.40201227496340258 0 -0.37655125659495559 -0.40866676282623621 0 -0.3670967740476328 -0.42467268516214068 0 -0.36070844057677248 -0.41277016543157391 0 -0.36070844057677248 -0.41277016543157391 0 -0.36623132187455032 -0.40201227496340258 0 -0.35503784604468458 -0.40449476848449539 0 -0.3670967740476328 -0.42467268516214068 0 -0.36070844057677248 -0.41277016543157391 0 -0.35193072219551652 -0.42500166434006081 0 -0.34685039991062838 -0.41282793044597949 0 -0.35503784604468458 -0.40449476848449539 0 -0.33841471223478792 -0.40393715821128362 0 -0.36070844057677248 -0.41277016543157391 0 -0.34685039991062838 -0.41282793044597949 0 -0.35193072219551652 -0.42500166434006081 0 -0.36070844057677248 -0.41277016543157391 0 -0.34685039991062838 -0.41282793044597949 0 -0.35503784604468458 -0.40449476848449539 0 -0.34685039991062838 -0.41282793044597949 0 -0.35193072219551652 -0.42500166434006081 0 -0.33680050835736303 -0.42411183640345568 0 -0.3532053479309738 -0.44488220695022002 0 -0.3670967740476328 -0.42467268516214068 0 -0.35193072219551652 -0.42500166434006081 0 -0.33618874191539722 -0.43759213636539401 0 -0.3532053479309738 -0.44488220695022002 0 -0.35193072219551652 -0.42500166434006081 0 -0.37184173069830528 -0.36873035663045051 0 -0.35238934985229592 -0.38292088412575431 0 -0.37184173069830528 -0.36873035663045051 0 -0.36708068492909879 -0.37961301774618739 0 -0.35238934985229592 -0.38292088412575431 0 -0.37538524216521041 -0.39491039698146763 0 -0.38648963264358421 -0.37776714214242563 0 -0.36245217243918582 -0.39085215017685421 0 -0.38648963264358421 -0.37776714214242563 0 -0.36708068492909879 -0.37961301774618739 0 -0.36245217243918582 -0.39085215017685421 0 -0.38648963264358421 -0.37776714214242563 0 -0.36245217243918582 -0.39085215017685421 0 -0.36708068492909879 -0.37961301774618739 0 -0.36245217243918582 -0.39085215017685421 0 -0.35238934985229592 -0.38292088412575431 0 -0.37538524216521041 -0.39491039698146763 0 -0.36245217243918582 -0.39085215017685421 0 -0.36623132187455032 -0.40201227496340258 0 -0.37538524216521041 -0.39491039698146763 0 -0.37655125659495559 -0.40866676282623621 0 -0.36623132187455032 -0.40201227496340258 0 -0.36245217243918582 -0.39085215017685421 0 -0.36623132187455032 -0.40201227496340258 0 -0.35503784604468458 -0.40449476848449539 0 -0.36245217243918582 -0.39085215017685421 0 -0.33841471223478792 -0.40393715821128362 0 -0.36245217243918582 -0.39085215017685421 0 -0.35503784604468458 -0.40449476848449539 0 -0.33841471223478792 -0.40393715821128362 0 -0.36245217243918582 -0.39085215017685421 0 -0.35238934985229592 -0.38292088412575431 0 -0.33841471223478792 -0.40393715821128362 0 -0.34364091487211451 -0.3730010214386093 0 -0.35238934985229592 -0.38292088412575431 0 -0.33709571940868788 -0.38229751274161999 0 -0.35821570436625921 -0.3717100555091486 0 -0.34364091487211451 -0.3730010214386093 0 -0.35238934985229592 -0.38292088412575431 0 -0.35238934985229592 -0.38292088412575431 0 -0.33709571940868788 -0.38229751274161999 0 -0.3329369690062855 -0.3971114116210569 0 -0.35238934985229592 -0.38292088412575431 0 -0.3329369690062855 -0.3971114116210569 0 -0.33149237835499551 -0.37478985988545088 0 -0.33709571940868788 -0.38229751274161999 0 -0.32407420345539589 -0.38340524509496071 0 -0.34364091487211451 -0.3730010214386093 0 -0.33149237835499551 -0.37478985988545088 0 -0.33709571940868788 -0.38229751274161999 0 -0.33709571940868788 -0.38229751274161999 0 -0.3329369690062855 -0.3971114116210569 0 -0.32407420345539589 -0.38340524509496071 0 -0.35238934985229592 -0.38292088412575431 0 -0.3329369690062855 -0.3971114116210569 0 -0.33841471223478792 -0.40393715821128362 0 -0.3329369690062855 -0.3971114116210569 0 -0.33841471223478792 -0.40393715821128362 0 -0.33296562534602192 -0.40559127124863797 0 -0.3329369690062855 -0.3971114116210569 0 -0.33296562534602192 -0.40559127124863797 0 -0.3261192288134816 -0.40819358012388912 0 -0.3329369690062855 -0.3971114116210569 0 -0.31712933585409081 -0.39721101227955768 0 -0.32407420345539589 -0.38340524509496071 0 -0.3329369690062855 -0.3971114116210569 0 -0.3261192288134816 -0.40819358012388912 0 -0.31348458816027508 -0.41130193911635943 0 -0.3329369690062855 -0.3971114116210569 0 -0.31348458816027508 -0.41130193911635943 0 -0.3329369690062855 -0.3971114116210569 0 -0.31712933585409081 -0.39721101227955768 0 -0.31348458816027508 -0.41130193911635943 0 -0.31712933585409081 -0.39721101227955768 0 -0.31018446825278601 -0.41101677946415499 0 -0.31712933585409081 -0.39721101227955768 0 -0.32407420345539589 -0.38340524509496071 0 -0.31238663693909707 -0.38006794578566849 0 -0.31712933585409081 -0.39721101227955768 0 -0.32407420345539589 -0.38340524509496071 0 -0.32130526027472539 -0.37085452177287298 0 -0.32407420345539589 -0.38340524509496071 0 -0.31238663693909707 -0.38006794578566849 0 -0.33149237835499551 -0.37478985988545088 0 -0.32130526027472539 -0.37085452177287298 0 -0.32407420345539589 -0.38340524509496071 0 -0.33618874191539722 -0.43759213636539401 0 -0.35193072219551652 -0.42500166434006081 0 -0.33680050835736303 -0.42411183640345568 0 -0.33618874191539722 -0.43759213636539401 0 -0.33680050835736303 -0.42411183640345568 0 -0.31993524562538478 -0.43253013015110392 0 -0.34685039991062838 -0.41282793044597949 0 -0.33680050835736303 -0.42411183640345568 0 -0.33439159132953278 -0.41312293503832248 0 -0.34685039991062838 -0.41282793044597949 0 -0.33841471223478792 -0.40393715821128362 0 -0.33439159132953278 -0.41312293503832248 0 -0.33841471223478792 -0.40393715821128362 0 -0.33296562534602192 -0.40559127124863797 0 -0.33439159132953278 -0.41312293503832248 0 -0.33296562534602192 -0.40559127124863797 0 -0.33439159132953278 -0.41312293503832248 0 -0.3261192288134816 -0.40819358012388912 0 -0.33680050835736303 -0.42411183640345568 0 -0.33439159132953278 -0.41312293503832248 0 -0.32237222814894262 -0.42019541556099771 0 -0.32237222814894262 -0.42019541556099771 0 -0.31993524562538478 -0.43253013015110392 0 -0.31018446825278601 -0.41101677946415499 0 -0.31993524562538478 -0.43253013015110392 0 -0.31018446825278601 -0.41101677946415499 0 -0.33439159132953278 -0.41312293503832248 0 -0.32237222814894262 -0.42019541556099771 0 -0.3261192288134816 -0.40819358012388912 0 -0.32237222814894262 -0.42019541556099771 0 -0.3261192288134816 -0.40819358012388912 0 -0.31348458816027508 -0.41130193911635943 0 -0.31712933585409081 -0.39721101227955768 0 -0.31348458816027508 -0.41130193911635943 0 -0.31018446825278601 -0.41101677946415499 0 -0.32237222814894262 -0.42019541556099771 0 -0.31348458816027508 -0.41130193911635943 0 -0.31018446825278601 -0.41101677946415499 0 -0.33680050835736303 -0.42411183640345568 0 -0.32237222814894262 -0.42019541556099771 0 -0.31993524562538478 -0.43253013015110392 0 -0.29831785956148599 -0.43460652174117331 0 -0.31018446825278601 -0.41101677946415499 0 -0.31993524562538478 -0.43253013015110392 0 -0.29831785956148599 -0.43460652174117331 0 -0.31018446825278601 -0.41101677946415499 0 -0.31018446825278601 -0.41101677946415499 0 -0.29523690648206002 -0.4139618317518069 0 -0.28994434805808161 -0.40007778410985939 0 -0.29831785956148599 -0.43460652174117331 0 -0.31018446825278601 -0.41101677946415499 0 -0.29523690648206002 -0.4139618317518069 0 -0.29523690648206002 -0.4139618317518069 0 -0.28399908122844247 -0.40735612530852111 0 -0.28994434805808161 -0.40007778410985939 0 -0.29523690648206002 -0.4139618317518069 0 -0.28399908122844247 -0.40735612530852111 0 -0.28316599650500263 -0.41825037777703578 0 -0.28399908122844247 -0.40735612530852111 0 -0.28316599650500263 -0.41825037777703578 0 -0.27732248258790942 -0.40505307040615868 0 -0.29831785956148599 -0.43460652174117331 0 -0.29523690648206002 -0.4139618317518069 0 -0.28316599650500263 -0.41825037777703578 0 -0.29831785956148599 -0.43460652174117331 0 -0.28316599650500263 -0.41825037777703578 0 -0.27921947322287788 -0.42784125109814852 0 -0.29831785956148599 -0.43460652174117331 0 -0.28316599650500263 -0.41825037777703578 0 -0.30908617577154179 -0.36595573307030937 0 -0.31238663693909707 -0.38006794578566849 0 -0.29854433706712258 -0.38533490665850451 0 -0.31712933585409081 -0.39721101227955768 0 -0.31238663693909707 -0.38006794578566849 0 -0.29854433706712258 -0.38533490665850451 0 -0.31018446825278601 -0.41101677946415499 0 -0.29854433706712258 -0.38533490665850451 0 -0.28994434805808161 -0.40007778410985939 0 -0.31712933585409081 -0.39721101227955768 0 -0.31018446825278601 -0.41101677946415499 0 -0.29854433706712258 -0.38533490665850451 0 -0.31018446825278601 -0.41101677946415499 0 -0.29854433706712258 -0.38533490665850451 0 -0.28399908122844247 -0.40735612530852111 0 -0.28994434805808161 -0.40007778410985939 0 -0.27896807090637549 -0.3999890384886246 0 -0.28994434805808161 -0.40007778410985939 0 -0.27635308082895049 -0.39203765707879901 0 -0.27896807090637549 -0.3999890384886246 0 -0.28994434805808161 -0.40007778410985939 0 -0.28761021647066581 -0.38843783837569412 0 -0.27635308082895049 -0.39203765707879901 0 -0.29854433706712258 -0.38533490665850451 0 -0.28994434805808161 -0.40007778410985939 0 -0.28761021647066581 -0.38843783837569412 0 -0.28761021647066581 -0.38843783837569412 0 -0.28559909992850829 -0.37630100565561347 0 -0.27635308082895049 -0.39203765707879901 0 -0.29854433706712258 -0.38533490665850451 0 -0.28761021647066581 -0.38843783837569412 0 -0.28559909992850829 -0.37630100565561347 0 -0.28559909992850829 -0.37630100565561347 0 -0.26775278850054418 -0.37547471232218482 0 -0.26431642864763821 -0.38736763003445229 0 -0.28559909992850829 -0.37630100565561347 0 -0.26431642864763821 -0.38736763003445229 0 -0.28559909992850829 -0.37630100565561347 0 -0.27635308082895049 -0.39203765707879901 0 -0.26431642864763821 -0.38736763003445229 0 -0.26684220287190352 -0.39578427918709091 0 -0.27635308082895049 -0.39203765707879901 0 -0.26431642864763821 -0.38736763003445229 0 -0.26684220287190352 -0.39578427918709091 0 -0.27246513085120788 -0.39777557664371299 0 -0.27635308082895049 -0.39203765707879901 0 -0.27246513085120788 -0.39777557664371299 0 -0.27635308082895049 -0.39203765707879901 0 -0.27896807090637549 -0.3999890384886246 0 -0.27246513085120788 -0.39777557664371299 0 -0.27896807090637549 -0.3999890384886246 0 -0.27732248258790942 -0.40505307040615868 0 -0.28399908122844247 -0.40735612530852111 0 -0.27896807090637549 -0.3999890384886246 0 -0.27732248258790942 -0.40505307040615868 0 -0.27246513085120788 -0.39777557664371299 0 -0.27732248258790942 -0.40505307040615868 0 -0.26801413344851838 -0.40189423381289902 0 -0.27732248258790942 -0.40505307040615868 0 -0.26801413344851838 -0.40189423381289902 0 -0.26922116800396972 -0.40319720433771522 0 -0.26684220287190352 -0.39578427918709091 0 -0.27246513085120788 -0.39777557664371299 0 -0.26801413344851838 -0.40189423381289902 0 -0.26741027930966521 -0.40343918485043112 0 -0.26718717530801189 -0.40489678951323183 0 -0.26541774795709189 -0.40358406427514498 0 -0.26801413344851838 -0.40189423381289902 0 -0.26741027930966521 -0.40343918485043112 0 -0.26541774795709189 -0.40358406427514498 0 -0.26718717530801189 -0.40489678951323183 0 -0.26541774795709189 -0.40358406427514498 0 -0.26579673602816278 -0.40745708167846162 0 -0.26718717530801189 -0.40489678951323183 0 -0.26922116800396972 -0.40319720433771522 0 -0.26815112401931279 -0.40676597590520658 0 -0.26741027930966521 -0.40343918485043112 0 -0.26718717530801189 -0.40489678951323183 0 -0.26922116800396972 -0.40319720433771522 0 -0.26801413344851838 -0.40189423381289902 0 -0.26922116800396972 -0.40319720433771522 0 -0.26801413344851838 -0.40189423381289902 0 -0.26741027930966521 -0.40343918485043112 0 -0.26922116800396972 -0.40319720433771522 0 -0.26024974352377289 -0.39870474188666027 0 -0.24964570182666629 -0.40814511268572118 0 -0.24303375736676799 -0.39843425441329122 0 -0.26431642864763821 -0.38736763003445229 0 -0.24303375736676799 -0.39843425441329122 0 -0.26024974352377289 -0.39870474188666027 0 -0.26431642864763821 -0.38736763003445229 0 -0.24303375736676799 -0.39843425441329122 0 -0.26273341407491879 -0.40521072206327691 0 -0.26024974352377289 -0.39870474188666027 0 -0.2587280708475117 -0.40757389566636648 0 -0.26273341407491879 -0.40521072206327691 0 -0.26541774795709189 -0.40358406427514498 0 -0.26024974352377289 -0.39870474188666027 0 -0.26273341407491879 -0.40521072206327691 0 -0.26541774795709189 -0.40358406427514498 0 -0.26579673602816278 -0.40745708167846162 0 -0.26684220287190352 -0.39578427918709091 0 -0.26801413344851838 -0.40189423381289902 0 -0.26024974352377289 -0.39870474188666027 0 -0.26801413344851838 -0.40189423381289902 0 -0.26541774795709189 -0.40358406427514498 0 -0.26024974352377289 -0.39870474188666027 0 -0.26024974352377289 -0.39870474188666027 0 -0.2587280708475117 -0.40757389566636648 0 -0.24964570182666629 -0.40814511268572118 0 -0.26684220287190352 -0.39578427918709091 0 -0.26024974352377289 -0.39870474188666027 0 -0.26431642864763821 -0.38736763003445229 0 -0.25502208631673778 -0.37046984160592461 0 -0.26775278850054418 -0.37547471232218482 0 -0.26431642864763821 -0.38736763003445229 0 -0.25502208631673778 -0.37046984160592461 0 -0.26431642864763821 -0.38736763003445229 0 -0.23972787977742041 -0.37997719280721443 0 -0.27031540355612899 -0.42643044428106369 0 -0.27921947322287788 -0.42784125109814852 0 -0.27012663276272869 -0.42000948881288269 0 -0.27031540355612899 -0.42643044428106369 0 -0.27012663276272869 -0.42000948881288269 0 -0.26588359551087942 -0.42126978214597238 0 -0.27031540355612899 -0.42643044428106369 0 -0.26588359551087942 -0.42126978214597238 0 -0.2642478931545385 -0.42691614738648381 0 -0.27031540355612899 -0.42643044428106369 0 -0.26747167296306718 -0.43226408253396531 0 -0.2642478931545385 -0.42691614738648381 0 -0.26747167296306718 -0.43226408253396531 0 -0.26419700787828471 -0.43710942294100258 0 -0.26966335741812297 -0.4393194769841553 0 -0.26747167296306718 -0.43226408253396531 0 -0.27269025380295919 -0.43355621558520679 0 -0.26966335741812297 -0.4393194769841553 0 -0.27031540355612899 -0.42643044428106369 0 -0.26747167296306718 -0.43226408253396531 0 -0.27269025380295919 -0.43355621558520679 0 -0.27269025380295919 -0.43355621558520679 0 -0.27921947322287788 -0.42784125109814852 0 -0.27678136185459928 -0.44192582302870148 0 -0.27031540355612899 -0.42643044428106369 0 -0.27269025380295919 -0.43355621558520679 0 -0.27921947322287788 -0.42784125109814852 0 -0.27921947322287788 -0.42784125109814852 0 -0.26918172875727642 -0.41031715911553951 0 -0.27012663276272869 -0.42000948881288269 0 -0.26922116800396972 -0.40319720433771522 0 -0.27921947322287788 -0.42784125109814852 0 -0.26922116800396972 -0.40319720433771522 0 -0.27921947322287788 -0.42784125109814852 0 -0.26918172875727642 -0.41031715911553951 0 -0.28316599650500263 -0.41825037777703578 0 -0.26922116800396972 -0.40319720433771522 0 -0.27921947322287788 -0.42784125109814852 0 -0.28316599650500263 -0.41825037777703578 0 -0.27732248258790942 -0.40505307040615868 0 -0.26922116800396972 -0.40319720433771522 0 -0.28316599650500263 -0.41825037777703578 0 -0.26922116800396972 -0.40319720433771522 0 -0.26918172875727642 -0.41031715911553951 0 -0.2654795299553559 -0.41576407794643749 0 -0.26471278544528393 -0.41097225014342509 0 -0.26922116800396972 -0.40319720433771522 0 -0.26918172875727642 -0.41031715911553951 0 -0.26815112401931279 -0.40676597590520658 0 -0.26918172875727642 -0.41031715911553951 0 -0.26579673602816278 -0.40745708167846162 0 -0.26471278544528393 -0.41097225014342509 0 -0.26718717530801189 -0.40489678951323183 0 -0.26579673602816278 -0.40745708167846162 0 -0.26815112401931279 -0.40676597590520658 0 -0.26918172875727642 -0.41031715911553951 0 -0.26579673602816278 -0.40745708167846162 0 -0.26815112401931279 -0.40676597590520658 0 -0.26918172875727642 -0.41031715911553951 0 -0.27012663276272869 -0.42000948881288269 0 -0.2654795299553559 -0.41576407794643749 0 -0.27012663276272869 -0.42000948881288269 0 -0.26588359551087942 -0.42126978214597238 0 -0.2654795299553559 -0.41576407794643749 0 -0.26588359551087942 -0.42126978214597238 0 -0.26038840349451148 -0.41641687605255662 0 -0.26169713358225388 -0.4226617133620828 0 -0.2654795299553559 -0.41576407794643749 0 -0.26038840349451148 -0.41641687605255662 0 -0.26084571052082339 -0.41223079315162769 0 -0.26588359551087942 -0.42126978214597238 0 -0.2654795299553559 -0.41576407794643749 0 -0.26038840349451148 -0.41641687605255662 0 -0.26038840349451148 -0.41641687605255662 0 -0.25688094482846158 -0.42113013754475392 0 -0.26169713358225388 -0.4226617133620828 0 -0.26038840349451148 -0.41641687605255662 0 -0.25688094482846158 -0.42113013754475392 0 -0.25661847593191572 -0.41670217604662652 0 -0.26273341407491879 -0.40521072206327691 0 -0.26579673602816278 -0.40745708167846162 0 -0.26256334338334009 -0.40868894854063148 0 -0.26579673602816278 -0.40745708167846162 0 -0.26256334338334009 -0.40868894854063148 0 -0.26471278544528393 -0.41097225014342509 0 -0.2654795299553559 -0.41576407794643749 0 -0.26471278544528393 -0.41097225014342509 0 -0.26084571052082339 -0.41223079315162769 0 -0.26256334338334009 -0.40868894854063148 0 -0.26471278544528393 -0.41097225014342509 0 -0.26084571052082339 -0.41223079315162769 0 -0.26084571052082339 -0.41223079315162769 0 -0.2587280708475117 -0.40757389566636648 0 -0.25573468470989741 -0.41291337166599518 0 -0.26038840349451148 -0.41641687605255662 0 -0.26084571052082339 -0.41223079315162769 0 -0.25573468470989741 -0.41291337166599518 0 -0.26256334338334009 -0.40868894854063148 0 -0.26084571052082339 -0.41223079315162769 0 -0.2587280708475117 -0.40757389566636648 0 -0.26273341407491879 -0.40521072206327691 0 -0.26256334338334009 -0.40868894854063148 0 -0.2587280708475117 -0.40757389566636648 0 -0.2587280708475117 -0.40757389566636648 0 -0.25573468470989741 -0.41291337166599518 0 -0.24964570182666629 -0.40814511268572118 0 -0.25573468470989741 -0.41291337166599518 0 -0.24964570182666629 -0.40814511268572118 0 -0.24828241886159561 -0.41561032267268577 0 -0.25688094482846158 -0.42113013754475392 0 -0.25661847593191572 -0.41670217604662652 0 -0.25323317580359661 -0.41786520312668007 0 -0.25688094482846158 -0.42113013754475392 0 -0.25323317580359661 -0.41786520312668007 0 -0.25263207676121158 -0.42141739799526112 0 -0.26038840349451148 -0.41641687605255662 0 -0.25573468470989741 -0.41291337166599518 0 -0.25661847593191572 -0.41670217604662652 0 -0.25573468470989741 -0.41291337166599518 0 -0.25661847593191572 -0.41670217604662652 0 -0.25323317580359661 -0.41786520312668007 0 -0.25573468470989741 -0.41291337166599518 0 -0.25323317580359661 -0.41786520312668007 0 -0.24828241886159561 -0.41561032267268577 0 -0.25323317580359661 -0.41786520312668007 0 -0.25263207676121158 -0.42141739799526112 0 -0.24902998740157409 -0.42148343350333928 0 -0.25323317580359661 -0.41786520312668007 0 -0.24828241886159561 -0.41561032267268577 0 -0.24902998740157409 -0.42148343350333928 0 -0.25263207676121158 -0.42141739799526112 0 -0.25336296977315392 -0.42494517404374033 0 -0.24902998740157409 -0.42148343350333928 0 -0.25336296977315392 -0.42494517404374033 0 -0.25049177342546058 -0.42853898560029702 0 -0.24902998740157409 -0.42148343350333928 0 -0.25336296977315392 -0.42494517404374033 0 -0.25049177342546058 -0.42853898560029702 0 -0.25605680583367779 -0.43149392063678937 0 -0.25336296977315392 -0.42494517404374033 0 -0.25849924219664039 -0.42667338237833058 0 -0.25605680583367779 -0.43149392063678937 0 -0.25688094482846158 -0.42113013754475392 0 -0.25336296977315392 -0.42494517404374033 0 -0.25849924219664039 -0.42667338237833058 0 -0.25688094482846158 -0.42113013754475392 0 -0.25263207676121158 -0.42141739799526112 0 -0.25336296977315392 -0.42494517404374033 0 -0.25688094482846158 -0.42113013754475392 0 -0.26169713358225388 -0.4226617133620828 0 -0.25849924219664039 -0.42667338237833058 0 -0.26169713358225388 -0.4226617133620828 0 -0.25849924219664039 -0.42667338237833058 0 -0.2642478931545385 -0.42691614738648381 0 -0.25849924219664039 -0.42667338237833058 0 -0.2642478931545385 -0.42691614738648381 0 -0.26162031111826112 -0.43219747961748811 0 -0.26588359551087942 -0.42126978214597238 0 -0.26169713358225388 -0.4226617133620828 0 -0.2642478931545385 -0.42691614738648381 0 -0.26747167296306718 -0.43226408253396531 0 -0.26419700787828471 -0.43710942294100258 0 -0.26162031111826112 -0.43219747961748811 0 -0.26747167296306718 -0.43226408253396531 0 -0.2642478931545385 -0.42691614738648381 0 -0.26162031111826112 -0.43219747961748811 0 -0.25849924219664039 -0.42667338237833058 0 -0.26162031111826112 -0.43219747961748811 0 -0.25605680583367779 -0.43149392063678937 0 -0.26162031111826112 -0.43219747961748811 0 -0.25605680583367779 -0.43149392063678937 0 -0.25830259974543712 -0.43772971466675747 0 -0.26419700787828471 -0.43710942294100258 0 -0.26162031111826112 -0.43219747961748811 0 -0.25830259974543712 -0.43772971466675747 0 -0.25605680583367779 -0.43149392063678937 0 -0.25292658809945501 -0.43588477792555491 0 -0.25830259974543712 -0.43772971466675747 0 -0.25605680583367779 -0.43149392063678937 0 -0.25292658809945501 -0.43588477792555491 0 -0.24912289905584681 -0.43293050389483573 0 -0.25049177342546058 -0.42853898560029702 0 -0.25605680583367779 -0.43149392063678937 0 -0.24912289905584681 -0.43293050389483573 0 -0.25292658809945501 -0.43588477792555491 0 -0.24831172502054669 -0.43768138713989241 0 -0.24912289905584681 -0.43293050389483573 0 -0.25221773966791988 -0.44068468846492048 0 -0.25768586574652469 -0.44498516376257041 0 -0.25168665835373538 -0.44930711998497341 0 -0.25292658809945501 -0.43588477792555491 0 -0.25221773966791988 -0.44068468846492048 0 -0.24831172502054669 -0.43768138713989241 0 -0.25221773966791988 -0.44068468846492048 0 -0.25768586574652469 -0.44498516376257041 0 -0.25830259974543712 -0.43772971466675747 0 -0.25292658809945501 -0.43588477792555491 0 -0.25221773966791988 -0.44068468846492048 0 -0.25830259974543712 -0.43772971466675747 0 -0.25168665835373538 -0.44930711998497341 0 -0.25820908449030672 -0.45058773350448772 0 -0.25612169028923443 -0.45651405920451249 0 -0.25768586574652469 -0.44498516376257041 0 -0.25168665835373538 -0.44930711998497341 0 -0.25820908449030672 -0.45058773350448772 0 -0.25768586574652469 -0.44498516376257041 0 -0.26249097572703739 -0.44833722257869202 0 -0.26386010238233337 -0.44301882369455359 0 -0.25768586574652469 -0.44498516376257041 0 -0.25820908449030672 -0.45058773350448772 0 -0.26249097572703739 -0.44833722257869202 0 -0.25820908449030672 -0.45058773350448772 0 -0.26249097572703739 -0.44833722257869202 0 -0.26299610451995781 -0.45370331260838798 0 -0.26249097572703739 -0.44833722257869202 0 -0.26299610451995781 -0.45370331260838798 0 -0.26939590798385521 -0.4489504902836115 0 -0.26249097572703739 -0.44833722257869202 0 -0.26386010238233337 -0.44301882369455359 0 -0.26939590798385521 -0.4489504902836115 0 -0.26419700787828471 -0.43710942294100258 0 -0.26386010238233337 -0.44301882369455359 0 -0.25830259974543712 -0.43772971466675747 0 -0.25768586574652469 -0.44498516376257041 0 -0.26386010238233337 -0.44301882369455359 0 -0.25830259974543712 -0.43772971466675747 0 -0.25099926856484078 -0.46587042481483859 0 -0.25622926896538978 -0.46294867190850741 0 -0.25787164684216141 -0.4698916388048367 0 -0.25099926856484078 -0.46587042481483859 0 -0.25622926896538978 -0.46294867190850741 0 -0.24953836278579511 -0.45850268705689878 0 -0.25168665835373538 -0.44930711998497341 0 -0.25612169028923443 -0.45651405920451249 0 -0.24953836278579511 -0.45850268705689878 0 -0.25622926896538978 -0.46294867190850741 0 -0.25612169028923443 -0.45651405920451249 0 -0.24953836278579511 -0.45850268705689878 0 -0.25612169028923443 -0.45651405920451249 0 -0.26299610451995781 -0.45370331260838798 0 -0.26344512189843328 -0.46169886870288668 0 -0.26299610451995781 -0.45370331260838798 0 -0.26344512189843328 -0.46169886870288668 0 -0.26843216869536157 -0.45534713544188637 0 -0.25820908449030672 -0.45058773350448772 0 -0.25612169028923443 -0.45651405920451249 0 -0.26299610451995781 -0.45370331260838798 0 -0.25622926896538978 -0.46294867190850741 0 -0.25612169028923443 -0.45651405920451249 0 -0.26344512189843328 -0.46169886870288668 0 -0.26344512189843328 -0.46169886870288668 0 -0.25787164684216141 -0.4698916388048367 0 -0.26511163678270522 -0.46916858964369568 0 -0.25622926896538978 -0.46294867190850741 0 -0.26344512189843328 -0.46169886870288668 0 -0.25787164684216141 -0.4698916388048367 0 -0.26344512189843328 -0.46169886870288668 0 -0.26795422510995259 -0.46487868333236138 0 -0.26511163678270522 -0.46916858964369568 0 -0.26795422510995259 -0.46487868333236138 0 -0.27479631385037601 -0.46415126929273742 0 -0.27228912401389882 -0.46876951614699008 0 -0.26795422510995259 -0.46487868333236138 0 -0.27228912401389882 -0.46876951614699008 0 -0.26511163678270522 -0.46916858964369568 0 -0.26344512189843328 -0.46169886870288668 0 -0.26795422510995259 -0.46487868333236138 0 -0.27114570770239121 -0.46084159980333039 0 -0.26795422510995259 -0.46487868333236138 0 -0.27114570770239121 -0.46084159980333039 0 -0.27479631385037601 -0.46415126929273742 0 -0.27114570770239121 -0.46084159980333039 0 -0.26843216869536157 -0.45534713544188637 0 -0.27727192031815662 -0.45352054183411589 0 -0.26344512189843328 -0.46169886870288668 0 -0.27114570770239121 -0.46084159980333039 0 -0.26843216869536157 -0.45534713544188637 0 -0.27727192031815662 -0.45352054183411589 0 -0.27826151943199012 -0.46016946217584631 0 -0.28591246514794671 -0.45926732118884522 0 -0.27114570770239121 -0.46084159980333039 0 -0.27727192031815662 -0.45352054183411589 0 -0.27826151943199012 -0.46016946217584631 0 -0.27114570770239121 -0.46084159980333039 0 -0.27826151943199012 -0.46016946217584631 0 -0.27479631385037601 -0.46415126929273742 0 -0.27826151943199012 -0.46016946217584631 0 -0.27479631385037601 -0.46415126929273742 0 -0.27973566511705072 -0.46604582804110167 0 -0.27479631385037601 -0.46415126929273742 0 -0.27973566511705072 -0.46604582804110167 0 -0.27228912401389882 -0.46876951614699008 0 -0.27269025380295919 -0.43355621558520679 0 -0.26966335741812297 -0.4393194769841553 0 -0.27678136185459928 -0.44192582302870148 0 -0.26386010238233337 -0.44301882369455359 0 -0.26966335741812297 -0.4393194769841553 0 -0.26939590798385521 -0.4489504902836115 0 -0.26966335741812297 -0.4393194769841553 0 -0.26939590798385521 -0.4489504902836115 0 -0.27678136185459928 -0.44192582302870148 0 -0.26419700787828471 -0.43710942294100258 0 -0.26386010238233337 -0.44301882369455359 0 -0.26966335741812297 -0.4393194769841553 0 -0.26843216869536157 -0.45534713544188637 0 -0.27727192031815662 -0.45352054183411589 0 -0.26939590798385521 -0.4489504902836115 0 -0.26299610451995781 -0.45370331260838798 0 -0.26843216869536157 -0.45534713544188637 0 -0.26939590798385521 -0.4489504902836115 0 -0.27727192031815662 -0.45352054183411589 0 -0.27678136185459928 -0.44192582302870148 0 -0.28941688592071663 -0.452300850395849 0 -0.27727192031815662 -0.45352054183411589 0 -0.26939590798385521 -0.4489504902836115 0 -0.27678136185459928 -0.44192582302870148 0 -0.27921947322287788 -0.42784125109814852 0 -0.28941688592071663 -0.452300850395849 0 -0.29831785956148599 -0.43460652174117331 0 -0.28941688592071663 -0.452300850395849 0 -0.30239384786559392 -0.45991864581438008 0 -0.29831785956148599 -0.43460652174117331 0 -0.27921947322287788 -0.42784125109814852 0 -0.28941688592071663 -0.452300850395849 0 -0.29831785956148599 -0.43460652174117331 0 -0.28941688592071663 -0.452300850395849 0 -0.27921947322287788 -0.42784125109814852 0 -0.27678136185459928 -0.44192582302870148 0 -0.28941688592071663 -0.452300850395849 0 -0.28941688592071663 -0.452300850395849 0 -0.28591246514794671 -0.45926732118884522 0 -0.28902667969277318 -0.46859241467421248 0 -0.28941688592071663 -0.452300850395849 0 -0.28902667969277318 -0.46859241467421248 0 -0.29867131492392601 -0.47449860112486059 0 -0.27727192031815662 -0.45352054183411589 0 -0.28941688592071663 -0.452300850395849 0 -0.28591246514794671 -0.45926732118884522 0 -0.28941688592071663 -0.452300850395849 0 -0.30239384786559392 -0.45991864581438008 0 -0.29867131492392601 -0.47449860112486059 0 -0.28941688592071663 -0.452300850395849 0 -0.29867131492392601 -0.47449860112486059 0 -0.28941688592071663 -0.452300850395849 0 -0.28591246514794671 -0.45926732118884522 0 -0.27973566511705072 -0.46604582804110167 0 -0.28591246514794671 -0.45926732118884522 0 -0.28902667969277318 -0.46859241467421248 0 -0.27826151943199012 -0.46016946217584631 0 -0.27973566511705072 -0.46604582804110167 0 -0.28591246514794671 -0.45926732118884522 0 -0.31618068603643479 -0.45388909843431507 0 -0.30239384786559392 -0.45991864581438008 0 -0.31238606239099698 -0.47403835425553648 0 -0.31618068603643479 -0.45388909843431507 0 -0.29831785956148599 -0.43460652174117331 0 -0.30239384786559392 -0.45991864581438008 0 -0.31618068603643479 -0.45388909843431507 0 -0.31993524562538478 -0.43253013015110392 0 -0.29831785956148599 -0.43460652174117331 0 -0.31618068603643479 -0.45388909843431507 0 -0.29831785956148599 -0.43460652174117331 0 -0.30792574392713651 -0.49669635185387162 0 -0.30930306262906798 -0.50000000000000011 0 -0.28007025190903739 -0.5 0 -0.30792574392713651 -0.49669635185387162 0 -0.29867131492392601 -0.47449860112486059 0 -0.29180793212442402 -0.48443917249542878 0 -0.30792574392713651 -0.49669635185387162 0 -0.29867131492392601 -0.47449860112486059 0 -0.30792574392713651 -0.49669635185387162 0 -0.30930306262906798 -0.50000000000000011 0 -0.30792574392713651 -0.49669635185387162 0 -0.31238606239099698 -0.47403835425553648 0 -0.29867131492392601 -0.47449860112486059 0 -0.30239384786559392 -0.45991864581438008 0 -0.31238606239099698 -0.47403835425553648 0 -0.29867131492392601 -0.47449860112486059 0 -0.29867131492392601 -0.47449860112486059 0 -0.28520644495549319 -0.4772965356552597 0 -0.29180793212442402 -0.48443917249542878 0 -0.28902667969277318 -0.46859241467421248 0 -0.29867131492392601 -0.47449860112486059 0 -0.28520644495549319 -0.4772965356552597 0 -0.28902667969277318 -0.46859241467421248 0 -0.28520644495549319 -0.4772965356552597 0 -0.27867614510289967 -0.47317664482622529 0 -0.27973566511705072 -0.46604582804110167 0 -0.28902667969277318 -0.46859241467421248 0 -0.27867614510289967 -0.47317664482622529 0 -0.28520644495549319 -0.4772965356552597 0 -0.2826663652353158 -0.48396701068877451 0 -0.29180793212442402 -0.48443917249542878 0 -0.28520644495549319 -0.4772965356552597 0 -0.2826663652353158 -0.48396701068877451 0 -0.27830761816829402 -0.47928221381899633 0 -0.28849037643791109 -0.48981445447821281 0 -0.28077386509734892 -0.49478166289955422 0 -0.27927797580533242 -0.48918807445343432 0 -0.30792574392713651 -0.49669635185387162 0 -0.28077386509734892 -0.49478166289955422 0 -0.28007025190903739 -0.5 0 -0.30792574392713651 -0.49669635185387162 0 -0.28077386509734892 -0.49478166289955422 0 -0.2826663652353158 -0.48396701068877451 0 -0.28849037643791109 -0.48981445447821281 0 -0.27927797580533242 -0.48918807445343432 0 -0.30792574392713651 -0.49669635185387162 0 -0.28849037643791109 -0.48981445447821281 0 -0.29180793212442402 -0.48443917249542878 0 -0.30792574392713651 -0.49669635185387162 0 -0.28849037643791109 -0.48981445447821281 0 -0.28077386509734892 -0.49478166289955422 0 -0.2826663652353158 -0.48396701068877451 0 -0.28849037643791109 -0.48981445447821281 0 -0.29180793212442402 -0.48443917249542878 0 -0.28077386509734892 -0.49478166289955422 0 -0.25362198626756138 -0.49286697394523771 0 -0.28077386509734892 -0.49478166289955422 0 -0.27230241861972793 -0.49069298896785168 0 -0.25362198626756138 -0.49286697394523771 0 -0.28077386509734892 -0.49478166289955422 0 -0.28007025190903739 -0.5 0 -0.25362198626756138 -0.49286697394523771 0 -0.28077386509734892 -0.49478166289955422 0 -0.27927797580533242 -0.48918807445343432 0 -0.27230241861972793 -0.49069298896785168 0 -0.2826663652353158 -0.48396701068877451 0 -0.27927797580533242 -0.48918807445343432 0 -0.27650801699757821 -0.48533365794956179 0 -0.27927797580533242 -0.48918807445343432 0 -0.27650801699757821 -0.48533365794956179 0 -0.27230241861972793 -0.49069298896785168 0 -0.27230241861972793 -0.49069298896785168 0 -0.26833821627000393 -0.48838926667326599 0 -0.2632204227122994 -0.48892173032095759 0 -0.27230241861972793 -0.49069298896785168 0 -0.27026712634239319 -0.48518417752589632 0 -0.26833821627000393 -0.48838926667326599 0 -0.27650801699757821 -0.48533365794956179 0 -0.27230241861972793 -0.49069298896785168 0 -0.27026712634239319 -0.48518417752589632 0 -0.27026712634239319 -0.48518417752589632 0 -0.26833821627000393 -0.48838926667326599 0 -0.26432706437787429 -0.48477644652987278 0 -0.27973566511705072 -0.46604582804110167 0 -0.27867614510289967 -0.47317664482622529 0 -0.27228912401389882 -0.46876951614699008 0 -0.27867614510289967 -0.47317664482622529 0 -0.2731731658743965 -0.47555298627683029 0 -0.27228912401389882 -0.46876951614699008 0 -0.27867614510289967 -0.47317664482622529 0 -0.27830761816829402 -0.47928221381899633 0 -0.2731731658743965 -0.47555298627683029 0 -0.27830761816829402 -0.47928221381899633 0 -0.27338670528656461 -0.48141998565619132 0 -0.2731731658743965 -0.47555298627683029 0 -0.28520644495549319 -0.4772965356552597 0 -0.27867614510289967 -0.47317664482622529 0 -0.27830761816829402 -0.47928221381899633 0 -0.2826663652353158 -0.48396701068877451 0 -0.27650801699757821 -0.48533365794956179 0 -0.27830761816829402 -0.47928221381899633 0 -0.27650801699757821 -0.48533365794956179 0 -0.27830761816829402 -0.47928221381899633 0 -0.27338670528656461 -0.48141998565619132 0 -0.27650801699757821 -0.48533365794956179 0 -0.27026712634239319 -0.48518417752589632 0 -0.27338670528656461 -0.48141998565619132 0 -0.27026712634239319 -0.48518417752589632 0 -0.27338670528656461 -0.48141998565619132 0 -0.26687553714050383 -0.48017491743015561 0 -0.27026712634239319 -0.48518417752589632 0 -0.26687553714050383 -0.48017491743015561 0 -0.26432706437787429 -0.48477644652987278 0 -0.27338670528656461 -0.48141998565619132 0 -0.26687553714050383 -0.48017491743015561 0 -0.2731731658743965 -0.47555298627683029 0 -0.26687553714050383 -0.48017491743015561 0 -0.26794528090858982 -0.47342681056166253 0 -0.26287890586578272 -0.47383519794000828 0 -0.26687553714050383 -0.48017491743015561 0 -0.2731731658743965 -0.47555298627683029 0 -0.26794528090858982 -0.47342681056166253 0 -0.26794528090858982 -0.47342681056166253 0 -0.27228912401389882 -0.46876951614699008 0 -0.26511163678270522 -0.46916858964369568 0 -0.2731731658743965 -0.47555298627683029 0 -0.26794528090858982 -0.47342681056166253 0 -0.27228912401389882 -0.46876951614699008 0 -0.25787164684216141 -0.4698916388048367 0 -0.26287890586578272 -0.47383519794000828 0 -0.25947986029977638 -0.47827637548065449 0 -0.26794528090858982 -0.47342681056166253 0 -0.26511163678270522 -0.46916858964369568 0 -0.26287890586578272 -0.47383519794000828 0 -0.25787164684216141 -0.4698916388048367 0 -0.26511163678270522 -0.46916858964369568 0 -0.26287890586578272 -0.47383519794000828 0 -0.26687553714050383 -0.48017491743015561 0 -0.26287890586578272 -0.47383519794000828 0 -0.25947986029977638 -0.47827637548065449 0 -0.26687553714050383 -0.48017491743015561 0 -0.25947986029977638 -0.47827637548065449 0 -0.26432706437787429 -0.48477644652987278 0 -0.25947986029977638 -0.47827637548065449 0 -0.26432706437787429 -0.48477644652987278 0 -0.25869898204009661 -0.48601599865535677 0 -0.25947986029977638 -0.47827637548065449 0 -0.25532533559338011 -0.48189298088143789 0 -0.25869898204009661 -0.48601599865535677 0 -0.25532533559338011 -0.48189298088143789 0 -0.25869898204009661 -0.48601599865535677 0 -0.25284455130101552 -0.48501415885176408 0 -0.25532533559338011 -0.48189298088143789 0 -0.25067793624442841 -0.48115785678283701 0 -0.25284455130101552 -0.48501415885176408 0 -0.25067793624442841 -0.48115785678283701 0 -0.25358247978107762 -0.47666820909549629 0 -0.24779503972556849 -0.47653161618181028 0 -0.25532533559338011 -0.48189298088143789 0 -0.25067793624442841 -0.48115785678283701 0 -0.25358247978107762 -0.47666820909549629 0 -0.25947986029977638 -0.47827637548065449 0 -0.25532533559338011 -0.48189298088143789 0 -0.25358247978107762 -0.47666820909549629 0 -0.25787164684216141 -0.4698916388048367 0 -0.25947986029977638 -0.47827637548065449 0 -0.25358247978107762 -0.47666820909549629 0 -0.25358247978107762 -0.47666820909549629 0 -0.25204031368053098 -0.47137169073070773 0 -0.24779503972556849 -0.47653161618181028 0 -0.25099926856484078 -0.46587042481483859 0 -0.25787164684216141 -0.4698916388048367 0 -0.25204031368053098 -0.47137169073070773 0 -0.25787164684216141 -0.4698916388048367 0 -0.25358247978107762 -0.47666820909549629 0 -0.25204031368053098 -0.47137169073070773 0 -0.27230241861972793 -0.49069298896785168 0 -0.2632204227122994 -0.48892173032095759 0 -0.25362198626756138 -0.49286697394523771 0 -0.28007025190903739 -0.5 0 -0.25083744118900703 -0.5 0 -0.25362198626756138 -0.49286697394523771 0 -0.2632204227122994 -0.48892173032095759 0 -0.25869898204009661 -0.48601599865535677 0 -0.25362198626756138 -0.49286697394523771 0 -0.26833821627000393 -0.48838926667326599 0 -0.2632204227122994 -0.48892173032095759 0 -0.26432706437787429 -0.48477644652987278 0 -0.2632204227122994 -0.48892173032095759 0 -0.26432706437787429 -0.48477644652987278 0 -0.25869898204009661 -0.48601599865535677 0 -0.25869898204009661 -0.48601599865535677 0 -0.25284455130101552 -0.48501415885176408 0 -0.25362198626756138 -0.49286697394523771 0 -0.25284455130101552 -0.48501415885176408 0 -0.25362198626756138 -0.49286697394523771 0 -0.24589851635961149 -0.48313698399395111 0 -0.25362198626756138 -0.49286697394523771 0 -0.22647010743777379 -0.4909522849909212 0 -0.25083744118900703 -0.5 0 -0.25362198626756138 -0.49286697394523771 0 -0.22647010743777379 -0.4909522849909212 0 -0.25362198626756138 -0.49286697394523771 0 -0.23810035437567481 -0.48688527316970981 0 -0.22647010743777379 -0.4909522849909212 0 -0.25362198626756138 -0.49286697394523771 0 -0.23810035437567481 -0.48688527316970981 0 -0.24589851635961149 -0.48313698399395111 0 -0.25067793624442841 -0.48115785678283701 0 -0.25284455130101552 -0.48501415885176408 0 -0.24589851635961149 -0.48313698399395111 0 -0.25067793624442841 -0.48115785678283701 0 -0.24589851635961149 -0.48313698399395111 0 -0.24779503972556849 -0.47653161618181028 0 -0.24589851635961149 -0.48313698399395111 0 -0.24779503972556849 -0.47653161618181028 0 -0.2412483338985062 -0.47597067976986418 0 -0.25099926856484078 -0.46587042481483859 0 -0.25204031368053098 -0.47137169073070773 0 -0.2462466665846624 -0.47094349302231159 0 -0.25204031368053098 -0.47137169073070773 0 -0.2462466665846624 -0.47094349302231159 0 -0.24779503972556849 -0.47653161618181028 0 -0.2462466665846624 -0.47094349302231159 0 -0.24779503972556849 -0.47653161618181028 0 -0.2412483338985062 -0.47597067976986418 0 -0.2462466665846624 -0.47094349302231159 0 -0.24018461858784451 -0.47014439997267882 0 -0.24490831160539031 -0.46555103867398667 0 -0.2462466665846624 -0.47094349302231159 0 -0.24018461858784451 -0.47014439997267882 0 -0.2412483338985062 -0.47597067976986418 0 -0.24018461858784451 -0.47014439997267882 0 -0.2344025542569618 -0.47341338992515702 0 -0.23610551222415191 -0.46491479008651038 0 -0.24018461858784451 -0.47014439997267882 0 -0.2412483338985062 -0.47597067976986418 0 -0.2344025542569618 -0.47341338992515702 0 -0.24589851635961149 -0.48313698399395111 0 -0.2412483338985062 -0.47597067976986418 0 -0.23634799702437559 -0.48080787260596042 0 -0.23810035437567481 -0.48688527316970981 0 -0.24589851635961149 -0.48313698399395111 0 -0.23634799702437559 -0.48080787260596042 0 -0.2412483338985062 -0.47597067976986418 0 -0.2344025542569618 -0.47341338992515702 0 -0.23634799702437559 -0.48080787260596042 0 -0.23810035437567481 -0.48688527316970981 0 -0.23634799702437559 -0.48080787260596042 0 -0.23200211623897149 -0.48453981909312899 0 -0.2344025542569618 -0.47341338992515702 0 -0.23634799702437559 -0.48080787260596042 0 -0.2270900061180619 -0.4795138456059248 0 -0.23634799702437559 -0.48080787260596042 0 -0.2270900061180619 -0.4795138456059248 0 -0.23200211623897149 -0.48453981909312899 0 -0.2344025542569618 -0.47341338992515702 0 -0.2270900061180619 -0.4795138456059248 0 -0.2258168198591271 -0.46865255741690298 0 -0.2344025542569618 -0.47341338992515702 0 -0.23610551222415191 -0.46491479008651038 0 -0.2258168198591271 -0.46865255741690298 0 -0.2258168198591271 -0.46865255741690298 0 -0.21458792612132621 -0.46677319980545467 0 -0.21863971360023171 -0.4738949663257751 0 -0.2270900061180619 -0.4795138456059248 0 -0.2258168198591271 -0.46865255741690298 0 -0.21863971360023171 -0.4738949663257751 0 -0.2270900061180619 -0.4795138456059248 0 -0.2175303844594163 -0.48047973775279118 0 -0.21863971360023171 -0.4738949663257751 0 -0.2270900061180619 -0.4795138456059248 0 -0.22647010743777379 -0.4909522849909212 0 -0.2175303844594163 -0.48047973775279118 0 -0.25083744118900703 -0.5 0 -0.22160463046897641 -0.5 0 -0.22647010743777379 -0.4909522849909212 0 -0.2270900061180619 -0.4795138456059248 0 -0.22647010743777379 -0.4909522849909212 0 -0.23200211623897149 -0.48453981909312899 0 -0.23810035437567481 -0.48688527316970981 0 -0.22647010743777379 -0.4909522849909212 0 -0.23200211623897149 -0.48453981909312899 0 -0.2398472276343909 -0.44119446445037619 0 -0.23369464566500281 -0.4424872409135126 0 -0.2379849829943495 -0.43607436018741452 0 -0.2398472276343909 -0.44119446445037619 0 -0.23856346236127099 -0.44725365686818208 0 -0.23369464566500281 -0.4424872409135126 0 -0.2398472276343909 -0.44119446445037619 0 -0.24580791961123941 -0.44336836079646369 0 -0.23856346236127099 -0.44725365686818208 0 -0.2398472276343909 -0.44119446445037619 0 -0.24318512754009189 -0.43678870348630822 0 -0.2379849829943495 -0.43607436018741452 0 -0.2398472276343909 -0.44119446445037619 0 -0.24580791961123941 -0.44336836079646369 0 -0.24318512754009189 -0.43678870348630822 0 -0.25221773966791988 -0.44068468846492048 0 -0.25168665835373538 -0.44930711998497341 0 -0.24580791961123941 -0.44336836079646369 0 -0.24831172502054669 -0.43768138713989241 0 -0.24580791961123941 -0.44336836079646369 0 -0.24318512754009189 -0.43678870348630822 0 -0.25221773966791988 -0.44068468846492048 0 -0.24831172502054669 -0.43768138713989241 0 -0.24580791961123941 -0.44336836079646369 0 -0.25168665835373538 -0.44930711998497341 0 -0.24580791961123941 -0.44336836079646369 0 -0.24437673518776601 -0.45221095990104138 0 -0.24580791961123941 -0.44336836079646369 0 -0.24437673518776601 -0.45221095990104138 0 -0.23856346236127099 -0.44725365686818208 0 -0.23856346236127099 -0.44725365686818208 0 -0.23738553024046249 -0.45542001504710272 0 -0.23235228977317141 -0.45065481094219961 0 -0.23856346236127099 -0.44725365686818208 0 -0.23235228977317141 -0.45065481094219961 0 -0.23369464566500281 -0.4424872409135126 0 -0.24437673518776601 -0.45221095990104138 0 -0.23856346236127099 -0.44725365686818208 0 -0.23738553024046249 -0.45542001504710272 0 -0.23738553024046249 -0.45542001504710272 0 -0.24298125205784629 -0.45937965525775942 0 -0.23610551222415191 -0.46491479008651038 0 -0.23738553024046249 -0.45542001504710272 0 -0.23610551222415191 -0.46491479008651038 0 -0.23049435522272951 -0.45924952148013942 0 -0.24437673518776601 -0.45221095990104138 0 -0.23738553024046249 -0.45542001504710272 0 -0.24298125205784629 -0.45937965525775942 0 -0.25168665835373538 -0.44930711998497341 0 -0.24437673518776601 -0.45221095990104138 0 -0.24953836278579511 -0.45850268705689878 0 -0.24437673518776601 -0.45221095990104138 0 -0.24953836278579511 -0.45850268705689878 0 -0.24298125205784629 -0.45937965525775942 0 -0.24953836278579511 -0.45850268705689878 0 -0.24298125205784629 -0.45937965525775942 0 -0.24490831160539031 -0.46555103867398667 0 -0.25099926856484078 -0.46587042481483859 0 -0.24953836278579511 -0.45850268705689878 0 -0.24490831160539031 -0.46555103867398667 0 -0.25099926856484078 -0.46587042481483859 0 -0.2462466665846624 -0.47094349302231159 0 -0.24490831160539031 -0.46555103867398667 0 -0.24298125205784629 -0.45937965525775942 0 -0.24490831160539031 -0.46555103867398667 0 -0.23610551222415191 -0.46491479008651038 0 -0.24018461858784451 -0.47014439997267882 0 -0.24490831160539031 -0.46555103867398667 0 -0.23610551222415191 -0.46491479008651038 0 -0.23610551222415191 -0.46491479008651038 0 -0.2258168198591271 -0.46865255741690298 0 -0.23049435522272951 -0.45924952148013942 0 -0.2258168198591271 -0.46865255741690298 0 -0.22089978495547599 -0.45933006042714458 0 -0.23049435522272951 -0.45924952148013942 0 -0.2258168198591271 -0.46865255741690298 0 -0.22089978495547599 -0.45933006042714458 0 -0.21458792612132621 -0.46677319980545467 0 -0.22089978495547599 -0.45933006042714458 0 -0.2258267329248777 -0.45363934385263288 0 -0.23049435522272951 -0.45924952148013942 0 -0.22089978495547599 -0.45933006042714458 0 -0.2258267329248777 -0.45363934385263288 0 -0.21782483299979929 -0.45080689230339471 0 -0.2258267329248777 -0.45363934385263288 0 -0.23049435522272951 -0.45924952148013942 0 -0.23235228977317141 -0.45065481094219961 0 -0.23738553024046249 -0.45542001504710272 0 -0.23049435522272951 -0.45924952148013942 0 -0.23235228977317141 -0.45065481094219961 0 -0.23235228977317141 -0.45065481094219961 0 -0.2267340356879432 -0.44635328638733579 0 -0.23369464566500281 -0.4424872409135126 0 -0.2258267329248777 -0.45363934385263288 0 -0.23235228977317141 -0.45065481094219961 0 -0.2267340356879432 -0.44635328638733579 0 -0.2258267329248777 -0.45363934385263288 0 -0.2267340356879432 -0.44635328638733579 0 -0.21782483299979929 -0.45080689230339471 0 -0.2267340356879432 -0.44635328638733579 0 -0.2199031750779363 -0.44291668304217829 0 -0.21782483299979929 -0.45080689230339471 0 -0.2267340356879432 -0.44635328638733579 0 -0.2199031750779363 -0.44291668304217829 0 -0.2270601133402948 -0.44041960131629732 0 -0.2199031750779363 -0.44291668304217829 0 -0.2270601133402948 -0.44041960131629732 0 -0.2184661524256831 -0.43445896310792259 0 -0.2267340356879432 -0.44635328638733579 0 -0.2270601133402948 -0.44041960131629732 0 -0.23369464566500281 -0.4424872409135126 0 -0.23369464566500281 -0.4424872409135126 0 -0.23067405446560851 -0.4359910378798546 0 -0.2379849829943495 -0.43607436018741452 0 -0.2270601133402948 -0.44041960131629732 0 -0.23369464566500281 -0.4424872409135126 0 -0.23067405446560851 -0.4359910378798546 0 -0.20966728115973149 -0.44423638082663403 0 -0.1994797739584078 -0.43928579133588769 0 -0.20741724449972429 -0.43014591302299898 0 -0.2199031750779363 -0.44291668304217829 0 -0.20966728115973149 -0.44423638082663403 0 -0.2184661524256831 -0.43445896310792259 0 -0.2199031750779363 -0.44291668304217829 0 -0.20966728115973149 -0.44423638082663403 0 -0.21782483299979929 -0.45080689230339471 0 -0.20966728115973149 -0.44423638082663403 0 -0.21782483299979929 -0.45080689230339471 0 -0.2108480426049964 -0.45685884770434321 0 -0.20966728115973149 -0.44423638082663403 0 -0.2004322392816808 -0.45258700976371907 0 -0.1994797739584078 -0.43928579133588769 0 -0.20966728115973149 -0.44423638082663403 0 -0.2108480426049964 -0.45685884770434321 0 -0.2004322392816808 -0.45258700976371907 0 -0.2108480426049964 -0.45685884770434321 0 -0.2034299648688625 -0.46495477426686482 0 -0.2004322392816808 -0.45258700976371907 0 -0.22089978495547599 -0.45933006042714458 0 -0.21782483299979929 -0.45080689230339471 0 -0.2108480426049964 -0.45685884770434321 0 -0.22089978495547599 -0.45933006042714458 0 -0.2108480426049964 -0.45685884770434321 0 -0.21458792612132621 -0.46677319980545467 0 -0.21458792612132621 -0.46677319980545467 0 -0.2034299648688625 -0.46495477426686482 0 -0.20817343144322681 -0.47405549104780148 0 -0.2108480426049964 -0.45685884770434321 0 -0.21458792612132621 -0.46677319980545467 0 -0.2034299648688625 -0.46495477426686482 0 -0.18961561149011019 -0.46382309570802932 0 -0.2004322392816808 -0.45258700976371907 0 -0.1879138647407658 -0.44512604685544771 0 -0.2034299648688625 -0.46495477426686482 0 -0.18961561149011019 -0.46382309570802932 0 -0.19911901032463389 -0.47558017669403718 0 -0.2034299648688625 -0.46495477426686482 0 -0.18961561149011019 -0.46382309570802932 0 -0.2004322392816808 -0.45258700976371907 0 -0.2004322392816808 -0.45258700976371907 0 -0.1879138647407658 -0.44512604685544771 0 -0.1994797739584078 -0.43928579133588769 0 -0.22160463046897641 -0.5 0 -0.1923718197489459 -0.5 0 -0.19931822860798629 -0.48903759603660468 0 -0.22647010743777379 -0.4909522849909212 0 -0.2175303844594163 -0.48047973775279118 0 -0.20943887608352099 -0.4825583786034669 0 -0.22647010743777379 -0.4909522849909212 0 -0.20943887608352099 -0.4825583786034669 0 -0.19931822860798629 -0.48903759603660468 0 -0.22647010743777379 -0.4909522849909212 0 -0.19931822860798629 -0.48903759603660468 0 -0.22160463046897641 -0.5 0 -0.22647010743777379 -0.4909522849909212 0 -0.19931822860798629 -0.48903759603660468 0 -0.2175303844594163 -0.48047973775279118 0 -0.20817343144322681 -0.47405549104780148 0 -0.20943887608352099 -0.4825583786034669 0 -0.2175303844594163 -0.48047973775279118 0 -0.21863971360023171 -0.4738949663257751 0 -0.20817343144322681 -0.47405549104780148 0 -0.21458792612132621 -0.46677319980545467 0 -0.21863971360023171 -0.4738949663257751 0 -0.20817343144322681 -0.47405549104780148 0 -0.2034299648688625 -0.46495477426686482 0 -0.20817343144322681 -0.47405549104780148 0 -0.19911901032463389 -0.47558017669403718 0 -0.20817343144322681 -0.47405549104780148 0 -0.20943887608352099 -0.4825583786034669 0 -0.19911901032463389 -0.47558017669403718 0 -0.20943887608352099 -0.4825583786034669 0 -0.19911901032463389 -0.47558017669403718 0 -0.19931822860798629 -0.48903759603660468 0 -0.18961561149011019 -0.46382309570802932 0 -0.19911901032463389 -0.47558017669403718 0 -0.18644634038181279 -0.47770842125386631 0 -0.19911901032463389 -0.47558017669403718 0 -0.19931822860798629 -0.48903759603660468 0 -0.18644634038181279 -0.47770842125386631 0 -0.1923718197489459 -0.5 0 -0.19931822860798629 -0.48903759603660468 0 -0.17216634977819861 -0.48712290708228823 0 -0.1923718197489459 -0.5 0 -0.17216634977819861 -0.48712290708228823 0 -0.16313900902891529 -0.5 0 -0.19931822860798629 -0.48903759603660468 0 -0.17216634977819861 -0.48712290708228823 0 -0.19931822860798629 -0.48903759603660468 0 -0.17216634977819861 -0.48712290708228823 0 -0.18644634038181279 -0.47770842125386631 0 -0.17216634977819861 -0.48712290708228823 0 -0.14501447094841069 -0.48520821812797171 0 -0.17216634977819861 -0.48712290708228823 0 -0.16313900902891529 -0.5 0 -0.15759390132529821 -0.49638211826365453 0 -0.17216634977819861 -0.48712290708228823 0 -0.15759390132529821 -0.49638211826365453 0 -0.14501447094841069 -0.48520821812797171 0 -0.17216634977819861 -0.48712290708228823 0 -0.1596238129287286 -0.47387059620263 0 -0.17415190127292429 -0.47010355881431493 0 -0.17216634977819861 -0.48712290708228823 0 -0.1596238129287286 -0.47387059620263 0 -0.14501447094841069 -0.48520821812797171 0 -0.17216634977819861 -0.48712290708228823 0 -0.17415190127292429 -0.47010355881431493 0 -0.18644634038181279 -0.47770842125386631 0 -0.18961561149011019 -0.46382309570802932 0 -0.17415190127292429 -0.47010355881431493 0 -0.18644634038181279 -0.47770842125386631 0 -0.18961561149011019 -0.46382309570802932 0 -0.17415190127292429 -0.47010355881431493 0 -0.17639698886426661 -0.45276951415804878 0 -0.18961561149011019 -0.46382309570802932 0 -0.1879138647407658 -0.44512604685544771 0 -0.17639698886426661 -0.45276951415804878 0 -0.1879138647407658 -0.44512604685544771 0 -0.17639698886426661 -0.45276951415804878 0 -0.1699258652139585 -0.43644910559933681 0 -0.1611386360883971 -0.46093157664574058 0 -0.1419494918453014 -0.44913629500458918 0 -0.1699258652139585 -0.43644910559933681 0 -0.17639698886426661 -0.45276951415804878 0 -0.1611386360883971 -0.46093157664574058 0 -0.1699258652139585 -0.43644910559933681 0 -0.17415190127292429 -0.47010355881431493 0 -0.17639698886426661 -0.45276951415804878 0 -0.1611386360883971 -0.46093157664574058 0 -0.1596238129287286 -0.47387059620263 0 -0.17415190127292429 -0.47010355881431493 0 -0.1611386360883971 -0.46093157664574058 0 -0.1611386360883971 -0.46093157664574058 0 -0.14552588378797771 -0.46722665501705202 0 -0.1419494918453014 -0.44913629500458918 0 -0.1596238129287286 -0.47387059620263 0 -0.1611386360883971 -0.46093157664574058 0 -0.14552588378797771 -0.46722665501705202 0 -0.1419494918453014 -0.44913629500458918 0 -0.14311924873420639 -0.43038409604029559 0 -0.1699258652139585 -0.43644910559933681 0 -0.1419494918453014 -0.44913629500458918 0 -0.14311924873420639 -0.43038409604029559 0 -0.1203361908116909 -0.43716881444021349 0 -0.1419494918453014 -0.44913629500458918 0 -0.1232951009969586 -0.45239827473452299 0 -0.1203361908116909 -0.43716881444021349 0 -0.14552588378797771 -0.46722665501705202 0 -0.1419494918453014 -0.44913629500458918 0 -0.13119730871565741 -0.46194778976005529 0 -0.1419494918453014 -0.44913629500458918 0 -0.13119730871565741 -0.46194778976005529 0 -0.1232951009969586 -0.45239827473452299 0 -0.14552588378797771 -0.46722665501705202 0 -0.13119730871565741 -0.46194778976005529 0 -0.13393920755880789 -0.47524129757944772 0 -0.13119730871565741 -0.46194778976005529 0 -0.13393920755880789 -0.47524129757944772 0 -0.1183973795028396 -0.47300833646912632 0 -0.13393920755880789 -0.47524129757944772 0 -0.12867647572260771 -0.48888488130770291 0 -0.14501447094841069 -0.48520821812797171 0 -0.13393920755880789 -0.47524129757944772 0 -0.12867647572260771 -0.48888488130770291 0 -0.1183973795028396 -0.47300833646912632 0 -0.15759390132529821 -0.49638211826365453 0 -0.13390619830888459 -0.5 0 -0.12867647572260771 -0.48888488130770291 0 -0.16313900902891529 -0.5 0 -0.15759390132529821 -0.49638211826365453 0 -0.13390619830888459 -0.5 0 -0.15759390132529821 -0.49638211826365453 0 -0.12867647572260771 -0.48888488130770291 0 -0.14501447094841069 -0.48520821812797171 0 -0.15759390132529821 -0.49638211826365453 0 -0.12867647572260771 -0.48888488130770291 0 -0.14552588378797771 -0.46722665501705202 0 -0.13393920755880789 -0.47524129757944772 0 -0.14501447094841069 -0.48520821812797171 0 -0.1596238129287286 -0.47387059620263 0 -0.14552588378797771 -0.46722665501705202 0 -0.14501447094841069 -0.48520821812797171 0 -0.14285690380796029 -0.39995811132332021 0 -0.14777436511552181 -0.3825035878221002 0 -0.1602032690084339 -0.3959327202995464 0 -0.14285690380796029 -0.39995811132332021 0 -0.15094806664923149 -0.41522426735234252 0 -0.1602032690084339 -0.3959327202995464 0 -0.14285690380796029 -0.39995811132332021 0 -0.14777436511552181 -0.3825035878221002 0 -0.13383121376363721 -0.38918255906366961 0 -0.13383121376363721 -0.38918255906366961 0 -0.1297199030083227 -0.37342445177070321 0 -0.1202503665325841 -0.38751838661000998 0 -0.14777436511552181 -0.3825035878221002 0 -0.13383121376363721 -0.38918255906366961 0 -0.1297199030083227 -0.37342445177070321 0 -0.14285690380796029 -0.39995811132332021 0 -0.1278343803984657 -0.39934862123476128 0 -0.1295444514800311 -0.41630540438514207 0 -0.13383121376363721 -0.38918255906366961 0 -0.1278343803984657 -0.39934862123476128 0 -0.1202503665325841 -0.38751838661000998 0 -0.14285690380796029 -0.39995811132332021 0 -0.13383121376363721 -0.38918255906366961 0 -0.1278343803984657 -0.39934862123476128 0 -0.14311924873420639 -0.43038409604029559 0 -0.1203361908116909 -0.43716881444021349 0 -0.1295444514800311 -0.41630540438514207 0 -0.14311924873420639 -0.43038409604029559 0 -0.1203361908116909 -0.43716881444021349 0 -0.14311924873420639 -0.43038409604029559 0 -0.15094806664923149 -0.41522426735234252 0 -0.1699258652139585 -0.43644910559933681 0 -0.14285690380796029 -0.39995811132332021 0 -0.1295444514800311 -0.41630540438514207 0 -0.15094806664923149 -0.41522426735234252 0 -0.1295444514800311 -0.41630540438514207 0 -0.14311924873420639 -0.43038409604029559 0 -0.15094806664923149 -0.41522426735234252 0 -0.15094806664923149 -0.41522426735234252 0 -0.16681885472739461 -0.41104227124222942 0 -0.1699258652139585 -0.43644910559933681 0 -0.15094806664923149 -0.41522426735234252 0 -0.16681885472739461 -0.41104227124222942 0 -0.1602032690084339 -0.3959327202995464 0 -0.1879138647407658 -0.44512604685544771 0 -0.1699258652139585 -0.43644910559933681 0 -0.19053049304853131 -0.42573505219402269 0 -0.1699258652139585 -0.43644910559933681 0 -0.1826648673806032 -0.4119491711111905 0 -0.19053049304853131 -0.42573505219402269 0 -0.1699258652139585 -0.43644910559933681 0 -0.19053049304853131 -0.42573505219402269 0 -0.16681885472739461 -0.41104227124222942 0 -0.1826648673806032 -0.4119491711111905 0 -0.1882891237846018 -0.39710712528589909 0 -0.16681885472739461 -0.41104227124222942 0 -0.1699258652139585 -0.43644910559933681 0 -0.1826648673806032 -0.4119491711111905 0 -0.1602032690084339 -0.3959327202995464 0 -0.16544312668609851 -0.37919325178309221 0 -0.1882891237846018 -0.39710712528589909 0 -0.16681885472739461 -0.41104227124222942 0 -0.1602032690084339 -0.3959327202995464 0 -0.1882891237846018 -0.39710712528589909 0 -0.14777436511552181 -0.3825035878221002 0 -0.1602032690084339 -0.3959327202995464 0 -0.16544312668609851 -0.37919325178309221 0 -0.16544312668609851 -0.37919325178309221 0 -0.1882891237846018 -0.39710712528589909 0 -0.1933018665620953 -0.37328198294316689 0 -0.16544312668609851 -0.37919325178309221 0 -0.1882891237846018 -0.39710712528589909 0 -0.1882891237846018 -0.39710712528589909 0 -0.20752647632399701 -0.39139143086764799 0 -0.1933018665620953 -0.37328198294316689 0 -0.20752647632399701 -0.39139143086764799 0 -0.1933018665620953 -0.37328198294316689 0 -0.1882891237846018 -0.39710712528589909 0 -0.20752647632399701 -0.39139143086764799 0 -0.21113512088310379 -0.41502099878870791 0 -0.1882891237846018 -0.39710712528589909 0 -0.21113512088310379 -0.41502099878870791 0 -0.20752647632399701 -0.39139143086764799 0 -0.21113512088310379 -0.41502099878870791 0 -0.22175108608589791 -0.40950087879212982 0 -0.20752647632399701 -0.39139143086764799 0 -0.22175108608589791 -0.40950087879212982 0 -0.2259439203489397 -0.39156619375664742 0 -0.20752647632399701 -0.39139143086764799 0 -0.22175108608589791 -0.40950087879212982 0 -0.20752647632399701 -0.39139143086764799 0 -0.21892957427652121 -0.37598611099184859 0 -0.2259439203489397 -0.39156619375664742 0 -0.20752647632399701 -0.39139143086764799 0 -0.21892957427652121 -0.37598611099184859 0 -0.1933018665620953 -0.37328198294316689 0 -0.19053049304853131 -0.42573505219402269 0 -0.21113512088310379 -0.41502099878870791 0 -0.20741724449972429 -0.43014591302299898 0 -0.1994797739584078 -0.43928579133588769 0 -0.19053049304853131 -0.42573505219402269 0 -0.20741724449972429 -0.43014591302299898 0 -0.1879138647407658 -0.44512604685544771 0 -0.1994797739584078 -0.43928579133588769 0 -0.19053049304853131 -0.42573505219402269 0 -0.1882891237846018 -0.39710712528589909 0 -0.19315490127421001 -0.41245308684495507 0 -0.21113512088310379 -0.41502099878870791 0 -0.19053049304853131 -0.42573505219402269 0 -0.19315490127421001 -0.41245308684495507 0 -0.21113512088310379 -0.41502099878870791 0 -0.19053049304853131 -0.42573505219402269 0 -0.21113512088310379 -0.41502099878870791 0 -0.1826648673806032 -0.4119491711111905 0 -0.19053049304853131 -0.42573505219402269 0 -0.19315490127421001 -0.41245308684495507 0 -0.1826648673806032 -0.4119491711111905 0 -0.1882891237846018 -0.39710712528589909 0 -0.19315490127421001 -0.41245308684495507 0 -0.21113512088310379 -0.41502099878870791 0 -0.22175108608589791 -0.40950087879212982 0 -0.21113512088310379 -0.41502099878870791 0 -0.2245600519387273 -0.42554767948806033 0 -0.21113512088310379 -0.41502099878870791 0 -0.21539464243680961 -0.42629338860192251 0 -0.2245600519387273 -0.42554767948806033 0 -0.21113512088310379 -0.41502099878870791 0 -0.21539464243680961 -0.42629338860192251 0 -0.20741724449972429 -0.43014591302299898 0 -0.20966728115973149 -0.44423638082663403 0 -0.2184661524256831 -0.43445896310792259 0 -0.20741724449972429 -0.43014591302299898 0 -0.21539464243680961 -0.42629338860192251 0 -0.2184661524256831 -0.43445896310792259 0 -0.20741724449972429 -0.43014591302299898 0 -0.23067405446560851 -0.4359910378798546 0 -0.2245600519387273 -0.42554767948806033 0 -0.2379849829943495 -0.43607436018741452 0 -0.23067405446560851 -0.4359910378798546 0 -0.2257178006310408 -0.43395071407390751 0 -0.2245600519387273 -0.42554767948806033 0 -0.2245600519387273 -0.42554767948806033 0 -0.2379849829943495 -0.43607436018741452 0 -0.2270601133402948 -0.44041960131629732 0 -0.23067405446560851 -0.4359910378798546 0 -0.2257178006310408 -0.43395071407390751 0 -0.2184661524256831 -0.43445896310792259 0 -0.2257178006310408 -0.43395071407390751 0 -0.2245600519387273 -0.42554767948806033 0 -0.2270601133402948 -0.44041960131629732 0 -0.2184661524256831 -0.43445896310792259 0 -0.2257178006310408 -0.43395071407390751 0 -0.21539464243680961 -0.42629338860192251 0 -0.2184661524256831 -0.43445896310792259 0 -0.2245600519387273 -0.42554767948806033 0 -0.2245600519387273 -0.42554767948806033 0 -0.23246810681299529 -0.42314479113921871 0 -0.2379849829943495 -0.43607436018741452 0 -0.22175108608589791 -0.40950087879212982 0 -0.23350737168408739 -0.41279362707058509 0 -0.24303375736676799 -0.39843425441329122 0 -0.21113512088310379 -0.41502099878870791 0 -0.2245600519387273 -0.42554767948806033 0 -0.22175108608589791 -0.40950087879212982 0 -0.2245600519387273 -0.42554767948806033 0 -0.23246810681299529 -0.42314479113921871 0 -0.22175108608589791 -0.40950087879212982 0 -0.23246810681299529 -0.42314479113921871 0 -0.22175108608589791 -0.40950087879212982 0 -0.23350737168408739 -0.41279362707058509 0 -0.23246810681299529 -0.42314479113921871 0 -0.22175108608589791 -0.40950087879212982 0 -0.23350737168408739 -0.41279362707058509 0 -0.24201559875161169 -0.41279604514035789 0 -0.24303375736676799 -0.39843425441329122 0 -0.24201559875161169 -0.41279604514035789 0 -0.24964570182666629 -0.40814511268572118 0 -0.24303375736676799 -0.39843425441329122 0 -0.24201559875161169 -0.41279604514035789 0 -0.24964570182666629 -0.40814511268572118 0 -0.24828241886159561 -0.41561032267268577 0 -0.24201559875161169 -0.41279604514035789 0 -0.24828241886159561 -0.41561032267268577 0 -0.24379692563358829 -0.42048421283368348 0 -0.24828241886159561 -0.41561032267268577 0 -0.24902998740157409 -0.42148343350333928 0 -0.24379692563358829 -0.42048421283368348 0 -0.23246810681299529 -0.42314479113921871 0 -0.23350737168408739 -0.41279362707058509 0 -0.23847579503897059 -0.41909341005561762 0 -0.23350737168408739 -0.41279362707058509 0 -0.24201559875161169 -0.41279604514035789 0 -0.23847579503897059 -0.41909341005561762 0 -0.24201559875161169 -0.41279604514035789 0 -0.24379692563358829 -0.42048421283368348 0 -0.23847579503897059 -0.41909341005561762 0 -0.23246810681299529 -0.42314479113921871 0 -0.23847579503897059 -0.41909341005561762 0 -0.24059097231257021 -0.4262483740942431 0 -0.23246810681299529 -0.42314479113921871 0 -0.24059097231257021 -0.4262483740942431 0 -0.24318512754009189 -0.43678870348630822 0 -0.24379692563358829 -0.42048421283368348 0 -0.23847579503897059 -0.41909341005561762 0 -0.24059097231257021 -0.4262483740942431 0 -0.24379692563358829 -0.42048421283368348 0 -0.24059097231257021 -0.4262483740942431 0 -0.24599871812474169 -0.42676258105683001 0 -0.24902998740157409 -0.42148343350333928 0 -0.24379692563358829 -0.42048421283368348 0 -0.24599871812474169 -0.42676258105683001 0 -0.25049177342546058 -0.42853898560029702 0 -0.24902998740157409 -0.42148343350333928 0 -0.24599871812474169 -0.42676258105683001 0 -0.25049177342546058 -0.42853898560029702 0 -0.24599871812474169 -0.42676258105683001 0 -0.24912289905584681 -0.43293050389483573 0 -0.24059097231257021 -0.4262483740942431 0 -0.24599871812474169 -0.42676258105683001 0 -0.24438455573376569 -0.43054535963028367 0 -0.24059097231257021 -0.4262483740942431 0 -0.24438455573376569 -0.43054535963028367 0 -0.24318512754009189 -0.43678870348630822 0 -0.24438455573376569 -0.43054535963028367 0 -0.24912289905584681 -0.43293050389483573 0 -0.24318512754009189 -0.43678870348630822 0 -0.24599871812474169 -0.42676258105683001 0 -0.24438455573376569 -0.43054535963028367 0 -0.24912289905584681 -0.43293050389483573 0 -0.24831172502054669 -0.43768138713989241 0 -0.24912289905584681 -0.43293050389483573 0 -0.24318512754009189 -0.43678870348630822 0 -0.23246810681299529 -0.42314479113921871 0 -0.24318512754009189 -0.43678870348630822 0 -0.23246810681299529 -0.42314479113921871 0 -0.24318512754009189 -0.43678870348630822 0 -0.2379849829943495 -0.43607436018741452 0 -0.21892957427652121 -0.37598611099184859 0 -0.2259439203489397 -0.39156619375664742 0 -0.23972787977742041 -0.37997719280721443 0 -0.22175108608589791 -0.40950087879212982 0 -0.24303375736676799 -0.39843425441329122 0 -0.22175108608589791 -0.40950087879212982 0 -0.2259439203489397 -0.39156619375664742 0 -0.24303375736676799 -0.39843425441329122 0 -0.2259439203489397 -0.39156619375664742 0 -0.24303375736676799 -0.39843425441329122 0 -0.23972787977742041 -0.37997719280721443 0 -0.26431642864763821 -0.38736763003445229 0 -0.24303375736676799 -0.39843425441329122 0 -0.23972787977742041 -0.37997719280721443 0 -0.25502208631673778 -0.37046984160592461 0 -0.23972787977742041 -0.37997719280721443 0 -0.23373645938152221 -0.36261539030616041 0 -0.25502208631673778 -0.37046984160592461 0 -0.23373645938152221 -0.36261539030616041 0 -0.24806155899641619 -0.35409162412368378 0 -0.21892957427652121 -0.37598611099184859 0 -0.23373645938152221 -0.36261539030616041 0 -0.21334084326515301 -0.357084475270255 0 -0.21892957427652121 -0.37598611099184859 0 -0.23972787977742041 -0.37997719280721443 0 -0.23373645938152221 -0.36261539030616041 0 -0.23196111381080589 -0.34594741534987722 0 -0.21539765834097779 -0.34184144494222563 0 -0.21334084326515301 -0.357084475270255 0 -0.23373645938152221 -0.36261539030616041 0 -0.23196111381080589 -0.34594741534987722 0 -0.21334084326515301 -0.357084475270255 0 -0.23373645938152221 -0.36261539030616041 0 -0.23196111381080589 -0.34594741534987722 0 -0.24806155899641619 -0.35409162412368378 0 -0.23196111381080589 -0.34594741534987722 0 -0.24806155899641619 -0.35409162412368378 0 -0.24984893629784419 -0.33960350302217851 0 -0.23196111381080589 -0.34594741534987722 0 -0.24984893629784419 -0.33960350302217851 0 -0.23047212574501161 -0.32223767934817021 0 -0.25000812288062252 -0.32359785332291641 0 -0.24984893629784419 -0.33960350302217851 0 -0.23047212574501161 -0.32223767934817021 0 -0.25000812288062252 -0.32359785332291641 0 -0.24226855000465849 -0.31371142063638757 0 -0.23047212574501161 -0.32223767934817021 0 -0.24226855000465849 -0.31371142063638757 0 -0.23047212574501161 -0.32223767934817021 0 -0.2308162017826326 -0.30783739588145792 0 -0.23047212574501161 -0.32223767934817021 0 -0.2308162017826326 -0.30783739588145792 0 -0.20688478972816071 -0.31244001362093132 0 -0.23196111381080589 -0.34594741534987722 0 -0.23047212574501161 -0.32223767934817021 0 -0.21539765834097779 -0.34184144494222563 0 -0.20687320498357109 -0.3284665290390959 0 -0.21539765834097779 -0.34184144494222563 0 -0.1974620334100867 -0.35101116622790079 0 -0.23047212574501161 -0.32223767934817021 0 -0.20687320498357109 -0.3284665290390959 0 -0.21539765834097779 -0.34184144494222563 0 -0.23047212574501161 -0.32223767934817021 0 -0.20687320498357109 -0.3284665290390959 0 -0.20688478972816071 -0.31244001362093132 0 -0.23047212574501161 -0.32223767934817021 0 -0.20688478972816071 -0.31244001362093132 0 -0.20687320498357109 -0.3284665290390959 0 -0.18904431163258709 -0.32111904906839001 0 -0.20688478972816071 -0.31244001362093132 0 -0.20687320498357109 -0.3284665290390959 0 -0.18115543765848841 -0.34345250328296489 0 -0.20687320498357109 -0.3284665290390959 0 -0.1974620334100867 -0.35101116622790079 0 -0.18115543765848841 -0.34345250328296489 0 -0.20687320498357109 -0.3284665290390959 0 -0.18904431163258709 -0.32111904906839001 0 -0.18115543765848841 -0.34345250328296489 0 -0.1974620334100867 -0.35101116622790079 0 -0.1933018665620953 -0.37328198294316689 0 -0.17470318965023479 -0.36194006188969641 0 -0.1974620334100867 -0.35101116622790079 0 -0.1933018665620953 -0.37328198294316689 0 -0.21334084326515301 -0.357084475270255 0 -0.21892957427652121 -0.37598611099184859 0 -0.1933018665620953 -0.37328198294316689 0 -0.21334084326515301 -0.357084475270255 0 -0.21539765834097779 -0.34184144494222563 0 -0.1974620334100867 -0.35101116622790079 0 -0.21334084326515301 -0.357084475270255 0 -0.2283576040297827 -0.27114368330084249 0 -0.2090639122743285 -0.25967608715799001 0 -0.221619864150498 -0.24759283765506299 0 -0.23903057428703331 -0.25402840662641629 0 -0.2283576040297827 -0.27114368330084249 0 -0.221619864150498 -0.24759283765506299 0 -0.25183174931301627 -0.25323133939372139 0 -0.25858264265726072 -0.2641368809792603 0 -0.23903057428703331 -0.25402840662641629 0 -0.25063975713542552 -0.27964199744720908 0 -0.25858264265726072 -0.2641368809792603 0 -0.23903057428703331 -0.25402840662641629 0 -0.25063975713542552 -0.27964199744720908 0 -0.23903057428703331 -0.25402840662641629 0 -0.25063975713542552 -0.27964199744720908 0 -0.23903057428703331 -0.25402840662641629 0 -0.2283576040297827 -0.27114368330084249 0 -0.2283576040297827 -0.27114368330084249 0 -0.23629678502618209 -0.29499918395109209 0 -0.21034463006855339 -0.28474277963417582 0 -0.23629678502618209 -0.29499918395109209 0 -0.21034463006855339 -0.28474277963417582 0 -0.23629678502618209 -0.29499918395109209 0 -0.2308162017826326 -0.30783739588145792 0 -0.21034463006855339 -0.28474277963417582 0 -0.26224893998381232 -0.30525558826800442 0 -0.25063975713542552 -0.27964199744720908 0 -0.23629678502618209 -0.29499918395109209 0 -0.25063975713542552 -0.27964199744720908 0 -0.2283576040297827 -0.27114368330084249 0 -0.23629678502618209 -0.29499918395109209 0 -0.26224893998381232 -0.30525558826800442 0 -0.23629678502618209 -0.29499918395109209 0 -0.24202710733243671 -0.29952042076956581 0 -0.25801919228258918 -0.31536375385982762 0 -0.24226855000465849 -0.31371142063638757 0 -0.24202710733243671 -0.29952042076956581 0 -0.26224893998381232 -0.30525558826800442 0 -0.23629678502618209 -0.29499918395109209 0 -0.23629678502618209 -0.29499918395109209 0 -0.24202710733243671 -0.29952042076956581 0 -0.2308162017826326 -0.30783739588145792 0 -0.24226855000465849 -0.31371142063638757 0 -0.24202710733243671 -0.29952042076956581 0 -0.2308162017826326 -0.30783739588145792 0 -0.20688478972816071 -0.31244001362093132 0 -0.198176293109319 -0.29602418557656762 0 -0.21034463006855339 -0.28474277963417582 0 -0.2308162017826326 -0.30783739588145792 0 -0.20688478972816071 -0.31244001362093132 0 -0.21034463006855339 -0.28474277963417582 0 -0.18904431163258709 -0.32111904906839001 0 -0.20688478972816071 -0.31244001362093132 0 -0.18329745371130979 -0.30264234789369238 0 -0.20688478972816071 -0.31244001362093132 0 -0.18329745371130979 -0.30264234789369238 0 -0.20688478972816071 -0.31244001362093132 0 -0.198176293109319 -0.29602418557656762 0 -0.18329745371130979 -0.30264234789369238 0 -0.198176293109319 -0.29602418557656762 0 -0.21034463006855339 -0.28474277963417582 0 -0.18439247511092469 -0.2744863753172595 0 -0.198176293109319 -0.29602418557656762 0 -0.18439247511092469 -0.2744863753172595 0 -0.18329745371130979 -0.30264234789369238 0 -0.2283576040297827 -0.27114368330084249 0 -0.21034463006855339 -0.28474277963417582 0 -0.2090639122743285 -0.25967608715799001 0 -0.21034463006855339 -0.28474277963417582 0 -0.18439247511092469 -0.2744863753172595 0 -0.21034463006855339 -0.28474277963417582 0 -0.2090639122743285 -0.25967608715799001 0 -0.18439247511092469 -0.2744863753172595 0 -0.18965944461012729 -0.25530588987104907 0 -0.2090639122743285 -0.25967608715799001 0 -0.18439247511092469 -0.2744863753172595 0 -0.18965944461012729 -0.25530588987104907 0 -0.2090639122743285 -0.25967608715799001 0 -0.2004263028144547 -0.23610977619121351 0 -0.15844032015329609 -0.26422997100034329 0 -0.14643612556607791 -0.25149969696239582 0 -0.17343121419026639 -0.24380473657680471 0 -0.18965944461012729 -0.25530588987104907 0 -0.15844032015329609 -0.26422997100034329 0 -0.18439247511092469 -0.2744863753172595 0 -0.18965944461012729 -0.25530588987104907 0 -0.15844032015329609 -0.26422997100034329 0 -0.17343121419026639 -0.24380473657680471 0 -0.15844032015329609 -0.26422997100034329 0 -0.18439247511092469 -0.2744863753172595 0 -0.15844032015329609 -0.26422997100034329 0 -0.18439247511092469 -0.2744863753172595 0 -0.15971011769445909 -0.2928446821664536 0 -0.18439247511092469 -0.2744863753172595 0 -0.15971011769445909 -0.2928446821664536 0 -0.18329745371130979 -0.30264234789369238 0 -0.15971011769445909 -0.2928446821664536 0 -0.18329745371130979 -0.30264234789369238 0 -0.16800099499481461 -0.31887019395981953 0 -0.15971011769445909 -0.2928446821664536 0 -0.18329745371130979 -0.30264234789369238 0 -0.15971011769445909 -0.2928446821664536 0 -0.16800099499481461 -0.31887019395981953 0 -0.1442341553481585 -0.31762431097987481 0 -0.15971011769445909 -0.2928446821664536 0 -0.1423461431634723 -0.29931007881085792 0 -0.1442341553481585 -0.31762431097987481 0 -0.12931751793366331 -0.3037243056578886 0 -0.1442341553481585 -0.31762431097987481 0 -0.122796342143644 -0.315736883668572 0 -0.12931751793366331 -0.3037243056578886 0 -0.1442341553481585 -0.31762431097987481 0 -0.1423461431634723 -0.29931007881085792 0 -0.12931751793366331 -0.3037243056578886 0 -0.1442341553481585 -0.31762431097987481 0 -0.12931751793366331 -0.3037243056578886 0 -0.13612278167760841 -0.28304701643921482 0 -0.1247567531298754 -0.28452903969156501 0 -0.1423461431634723 -0.29931007881085792 0 -0.12931751793366331 -0.3037243056578886 0 -0.13612278167760841 -0.28304701643921482 0 -0.15971011769445909 -0.2928446821664536 0 -0.1423461431634723 -0.29931007881085792 0 -0.13612278167760841 -0.28304701643921482 0 -0.15971011769445909 -0.2928446821664536 0 -0.13612278167760841 -0.28304701643921482 0 -0.15844032015329609 -0.26422997100034329 0 -0.15971011769445909 -0.2928446821664536 0 -0.13612278167760841 -0.28304701643921482 0 -0.15844032015329609 -0.26422997100034329 0 -0.13612278167760841 -0.28304701643921482 0 -0.13807946528861309 -0.26803848607889202 0 -0.13612278167760841 -0.28304701643921482 0 -0.13807946528861309 -0.26803848607889202 0 -0.12344452285741229 -0.27189893350966171 0 -0.13612278167760841 -0.28304701643921482 0 -0.12344452285741229 -0.27189893350966171 0 -0.1247567531298754 -0.28452903969156501 0 -0.13248816519566781 -0.25397356668342608 0 -0.1213539256504806 -0.26301708363771459 0 -0.12344452285741229 -0.27189893350966171 0 -0.13248816519566781 -0.25397356668342608 0 -0.12344452285741229 -0.27189893350966171 0 -0.13807946528861309 -0.26803848607889202 0 -0.13248816519566781 -0.25397356668342608 0 -0.12344452285741229 -0.27189893350966171 0 -0.15844032015329609 -0.26422997100034329 0 -0.13807946528861309 -0.26803848607889202 0 -0.13248816519566781 -0.25397356668342608 0 -0.15844032015329609 -0.26422997100034329 0 -0.13248816519566781 -0.25397356668342608 0 -0.15844032015329609 -0.26422997100034329 0 -0.13248816519566781 -0.25397356668342608 0 -0.14643612556607791 -0.25149969696239582 0 -0.17470318965023479 -0.36194006188969641 0 -0.18115543765848841 -0.34345250328296489 0 -0.15543767033340561 -0.35843847752683411 0 -0.18115543765848841 -0.34345250328296489 0 -0.15543767033340561 -0.35843847752683411 0 -0.18115543765848841 -0.34345250328296489 0 -0.15468414050574941 -0.33604803860530308 0 -0.15543767033340561 -0.35843847752683411 0 -0.16544312668609851 -0.37919325178309221 0 -0.17470318965023479 -0.36194006188969641 0 -0.15543767033340561 -0.35843847752683411 0 -0.16544312668609851 -0.37919325178309221 0 -0.1933018665620953 -0.37328198294316689 0 -0.17470318965023479 -0.36194006188969641 0 -0.1974620334100867 -0.35101116622790079 0 -0.17470318965023479 -0.36194006188969641 0 -0.18115543765848841 -0.34345250328296489 0 -0.18904431163258709 -0.32111904906839001 0 -0.18329745371130979 -0.30264234789369238 0 -0.16800099499481461 -0.31887019395981953 0 -0.18904431163258709 -0.32111904906839001 0 -0.18115543765848841 -0.34345250328296489 0 -0.16800099499481461 -0.31887019395981953 0 -0.18115543765848841 -0.34345250328296489 0 -0.16800099499481461 -0.31887019395981953 0 -0.15468414050574941 -0.33604803860530308 0 -0.15468414050574941 -0.33604803860530308 0 -0.1442341553481585 -0.31762431097987481 0 -0.13478472468802019 -0.3310648950080024 0 -0.15468414050574941 -0.33604803860530308 0 -0.13478472468802019 -0.3310648950080024 0 -0.14228714596033251 -0.34685768889591567 0 -0.16800099499481461 -0.31887019395981953 0 -0.15468414050574941 -0.33604803860530308 0 -0.1442341553481585 -0.31762431097987481 0 -0.1442341553481585 -0.31762431097987481 0 -0.13478472468802019 -0.3310648950080024 0 -0.122796342143644 -0.315736883668572 0 -0.13478472468802019 -0.3310648950080024 0 -0.122796342143644 -0.315736883668572 0 -0.1219864798090261 -0.32731949284252149 0 -0.13478472468802019 -0.3310648950080024 0 -0.14228714596033251 -0.34685768889591567 0 -0.1227200843612109 -0.34280295505582742 0 -0.13478472468802019 -0.3310648950080024 0 -0.1227200843612109 -0.34280295505582742 0 -0.1219864798090261 -0.32731949284252149 0 -0.14228714596033251 -0.34685768889591567 0 -0.13536130347794639 -0.36357203709851282 0 -0.1227200843612109 -0.34280295505582742 0 -0.13536130347794639 -0.36357203709851282 0 -0.1227200843612109 -0.34280295505582742 0 -0.13536130347794639 -0.36357203709851282 0 -0.1237834389502307 -0.36203950734471257 0 -0.1227200843612109 -0.34280295505582742 0 -0.15468414050574941 -0.33604803860530308 0 -0.14228714596033251 -0.34685768889591567 0 -0.15543767033340561 -0.35843847752683411 0 -0.14228714596033251 -0.34685768889591567 0 -0.15543767033340561 -0.35843847752683411 0 -0.13536130347794639 -0.36357203709851282 0 -0.14777436511552181 -0.3825035878221002 0 -0.16544312668609851 -0.37919325178309221 0 -0.15543767033340561 -0.35843847752683411 0 -0.15543767033340561 -0.35843847752683411 0 -0.1297199030083227 -0.37342445177070321 0 -0.14777436511552181 -0.3825035878221002 0 -0.15543767033340561 -0.35843847752683411 0 -0.1297199030083227 -0.37342445177070321 0 -0.15543767033340561 -0.35843847752683411 0 -0.13536130347794639 -0.36357203709851282 0 -0.1297199030083227 -0.37342445177070321 0 -0.13536130347794639 -0.36357203709851282 0 -0.1297199030083227 -0.37342445177070321 0 -0.1237834389502307 -0.36203950734471257 0 -0.1297199030083227 -0.37342445177070321 0 -0.1237834389502307 -0.36203950734471257 0 -0.1158009786389156 -0.37310350436309903 0 -0.1158009786389156 -0.37310350436309903 0 -0.10470506933161031 -0.36103765823813128 0 -0.1153149252647577 -0.35729458843542061 0 -0.1237834389502307 -0.36203950734471257 0 -0.1158009786389156 -0.37310350436309903 0 -0.1153149252647577 -0.35729458843542061 0 -0.1158009786389156 -0.37310350436309903 0 -0.10470506933161031 -0.36103765823813128 0 -0.10204425690938861 -0.37569210654592877 0 -0.10470506933161031 -0.36103765823813128 0 -0.092878995368526382 -0.36640746737237501 0 -0.10204425690938861 -0.37569210654592877 0 -0.092878995368526382 -0.36640746737237501 0 -0.10204425690938861 -0.37569210654592877 0 -0.086446536796917092 -0.3781049475334316 0 -0.10470506933161031 -0.36103765823813128 0 -0.092878995368526382 -0.36640746737237501 0 -0.09329064766144371 -0.34627560782267619 0 -0.10470506933161031 -0.36103765823813128 0 -0.10890061214662999 -0.34745267488928849 0 -0.09329064766144371 -0.34627560782267619 0 -0.10890061214662999 -0.34745267488928849 0 -0.1153149252647577 -0.35729458843542061 0 -0.1227200843612109 -0.34280295505582742 0 -0.1237834389502307 -0.36203950734471257 0 -0.1153149252647577 -0.35729458843542061 0 -0.1227200843612109 -0.34280295505582742 0 -0.10470506933161031 -0.36103765823813128 0 -0.10890061214662999 -0.34745267488928849 0 -0.1153149252647577 -0.35729458843542061 0 -0.1227200843612109 -0.34280295505582742 0 -0.1100788652444753 -0.32203387301314212 0 -0.1227200843612109 -0.34280295505582742 0 -0.1219864798090261 -0.32731949284252149 0 -0.1100788652444753 -0.32203387301314212 0 -0.10890061214662999 -0.34745267488928849 0 -0.1227200843612109 -0.34280295505582742 0 -0.1085725816468712 -0.32573838190901611 0 -0.1227200843612109 -0.34280295505582742 0 -0.1100788652444753 -0.32203387301314212 0 -0.1085725816468712 -0.32573838190901611 0 -0.122796342143644 -0.315736883668572 0 -0.1155136663335667 -0.31609134913861942 0 -0.1155369715556072 -0.31007947665108843 0 -0.122796342143644 -0.315736883668572 0 -0.11759383838267801 -0.32029539966571369 0 -0.1155136663335667 -0.31609134913861942 0 -0.122796342143644 -0.315736883668572 0 -0.11759383838267801 -0.32029539966571369 0 -0.1219864798090261 -0.32731949284252149 0 -0.11759383838267801 -0.32029539966571369 0 -0.1219864798090261 -0.32731949284252149 0 -0.1100788652444753 -0.32203387301314212 0 -0.1100788652444753 -0.32203387301314212 0 -0.1155136663335667 -0.31609134913861942 0 -0.10963340369930651 -0.31106240196278218 0 -0.11759383838267801 -0.32029539966571369 0 -0.1100788652444753 -0.32203387301314212 0 -0.1155136663335667 -0.31609134913861942 0 -0.1085725816468712 -0.32573838190901611 0 -0.097958273033010551 -0.31995463117572598 0 -0.090339123647162151 -0.33100737439655997 0 -0.1100788652444753 -0.32203387301314212 0 -0.097958273033010551 -0.31995463117572598 0 -0.097437646127739974 -0.30126479097045661 0 -0.1100788652444753 -0.32203387301314212 0 -0.1085725816468712 -0.32573838190901611 0 -0.097958273033010551 -0.31995463117572598 0 -0.1085725816468712 -0.32573838190901611 0 -0.09329064766144371 -0.34627560782267619 0 -0.1085725816468712 -0.32573838190901611 0 -0.090339123647162151 -0.33100737439655997 0 -0.09329064766144371 -0.34627560782267619 0 -0.10890061214662999 -0.34745267488928849 0 -0.1085725816468712 -0.32573838190901611 0 -0.09329064766144371 -0.34627560782267619 0 -0.090339123647162151 -0.33100737439655997 0 -0.069560568168534787 -0.33639308745409152 0 -0.09329064766144371 -0.34627560782267619 0 -0.090339123647162151 -0.33100737439655997 0 -0.0834991071481377 -0.31882893921227418 0 -0.069560568168534787 -0.33639308745409152 0 -0.097958273033010551 -0.31995463117572598 0 -0.0834991071481377 -0.31882893921227418 0 -0.097437646127739974 -0.30126479097045661 0 -0.097958273033010551 -0.31995463117572598 0 -0.090339123647162151 -0.33100737439655997 0 -0.0834991071481377 -0.31882893921227418 0 -0.0834991071481377 -0.31882893921227418 0 -0.069560568168534787 -0.33639308745409152 0 -0.067008079322227007 -0.30713326621283832 0 -0.0834991071481377 -0.31882893921227418 0 -0.069560568168534787 -0.33639308745409152 0 -0.069560568168534787 -0.33639308745409152 0 -0.070154186991700979 -0.35347987074809412 0 -0.09329064766144371 -0.34627560782267619 0 -0.069560568168534787 -0.33639308745409152 0 -0.070154186991700979 -0.35347987074809412 0 -0.053105527410760578 -0.3506450407559088 0 -0.066630299236885931 -0.36854784030513621 0 -0.078008713676016167 -0.36681283373633639 0 -0.062726779690587542 -0.38735005964999569 0 -0.070154186991700979 -0.35347987074809412 0 -0.066630299236885931 -0.36854784030513621 0 -0.057546662572876911 -0.36481171503242721 0 -0.070154186991700979 -0.35347987074809412 0 -0.066630299236885931 -0.36854784030513621 0 -0.078008713676016167 -0.36681283373633639 0 -0.078008713676016167 -0.36681283373633639 0 -0.092878995368526382 -0.36640746737237501 0 -0.09329064766144371 -0.34627560782267619 0 -0.078008713676016167 -0.36681283373633639 0 -0.086446536796917092 -0.3781049475334316 0 -0.077292123936516868 -0.37833619925144751 0 -0.078008713676016167 -0.36681283373633639 0 -0.092878995368526382 -0.36640746737237501 0 -0.086446536796917092 -0.3781049475334316 0 -0.070154186991700979 -0.35347987074809412 0 -0.078008713676016167 -0.36681283373633639 0 -0.09329064766144371 -0.34627560782267619 0 -0.078008713676016167 -0.36681283373633639 0 -0.09329064766144371 -0.34627560782267619 0 -0.1011869734789563 -0.25704431645737341 0 -0.099029012047181342 -0.26545681162667573 0 -0.083527973448234857 -0.2610555127957464 0 -0.1011869734789563 -0.25704431645737341 0 -0.090354429711030498 -0.24908907313782919 0 -0.10704649346820121 -0.24391890755545939 0 -0.1011869734789563 -0.25704431645737341 0 -0.099029012047181342 -0.26545681162667573 0 -0.109137639267917 -0.26521331890304228 0 -0.1011869734789563 -0.25704431645737341 0 -0.109137639267917 -0.26521331890304228 0 -0.1145933446079922 -0.2567495263405265 0 -0.1011869734789563 -0.25704431645737341 0 -0.1145933446079922 -0.2567495263405265 0 -0.10704649346820121 -0.24391890755545939 0 -0.13248816519566781 -0.25397356668342608 0 -0.1145933446079922 -0.2567495263405265 0 -0.10704649346820121 -0.24391890755545939 0 -0.13248816519566781 -0.25397356668342608 0 -0.1145933446079922 -0.2567495263405265 0 -0.1213539256504806 -0.26301708363771459 0 -0.109137639267917 -0.26521331890304228 0 -0.1145933446079922 -0.2567495263405265 0 -0.1213539256504806 -0.26301708363771459 0 -0.109137639267917 -0.26521331890304228 0 -0.1213539256504806 -0.26301708363771459 0 -0.1022634619936173 -0.27851409835054097 0 -0.1213539256504806 -0.26301708363771459 0 -0.1126267487817998 -0.27592976920062318 0 -0.1022634619936173 -0.27851409835054097 0 -0.12344452285741229 -0.27189893350966171 0 -0.11440088051916759 -0.2898243003359029 0 -0.12344452285741229 -0.27189893350966171 0 -0.1170212548004867 -0.27658721132303471 0 -0.11440088051916759 -0.2898243003359029 0 -0.1213539256504806 -0.26301708363771459 0 -0.1022634619936173 -0.27851409835054097 0 -0.1213539256504806 -0.26301708363771459 0 -0.1126267487817998 -0.27592976920062318 0 -0.1170212548004867 -0.27658721132303471 0 -0.1213539256504806 -0.26301708363771459 0 -0.12344452285741229 -0.27189893350966171 0 -0.1170212548004867 -0.27658721132303471 0 -0.1170212548004867 -0.27658721132303471 0 -0.1098683526826145 -0.28560068349120282 0 -0.1126267487817998 -0.27592976920062318 0 -0.1170212548004867 -0.27658721132303471 0 -0.1098683526826145 -0.28560068349120282 0 -0.099029012047181342 -0.26545681162667573 0 -0.1022634619936173 -0.27851409835054097 0 -0.083527973448234857 -0.2610555127957464 0 -0.1126267487817998 -0.27592976920062318 0 -0.1022634619936173 -0.27851409835054097 0 -0.1098683526826145 -0.28560068349120282 0 -0.099029012047181342 -0.26545681162667573 0 -0.109137639267917 -0.26521331890304228 0 -0.1022634619936173 -0.27851409835054097 0 -0.1069729757666593 -0.29654580805302899 0 -0.1098683526826145 -0.28560068349120282 0 -0.097437646127739974 -0.30126479097045661 0 -0.1098683526826145 -0.28560068349120282 0 -0.097437646127739974 -0.30126479097045661 0 -0.099833721164097347 -0.28850979255398213 0 -0.1098683526826145 -0.28560068349120282 0 -0.097437646127739974 -0.30126479097045661 0 -0.1022634619936173 -0.27851409835054097 0 -0.089765423852417842 -0.28865959740372821 0 -0.1022634619936173 -0.27851409835054097 0 -0.099833721164097347 -0.28850979255398213 0 -0.089765423852417842 -0.28865959740372821 0 -0.099833721164097347 -0.28850979255398213 0 -0.097437646127739974 -0.30126479097045661 0 -0.089765423852417842 -0.28865959740372821 0 -0.1069729757666593 -0.29654580805302899 0 -0.1098683526826145 -0.28560068349120282 0 -0.1107997782677799 -0.29640557452555982 0 -0.1022634619936173 -0.27851409835054097 0 -0.099833721164097347 -0.28850979255398213 0 -0.1098683526826145 -0.28560068349120282 0 -0.1022634619936173 -0.27851409835054097 0 -0.1098683526826145 -0.28560068349120282 0 -0.12931751793366331 -0.3037243056578886 0 -0.1247567531298754 -0.28452903969156501 0 -0.11440088051916759 -0.2898243003359029 0 -0.1170212548004867 -0.27658721132303471 0 -0.1098683526826145 -0.28560068349120282 0 -0.11440088051916759 -0.2898243003359029 0 -0.12344452285741229 -0.27189893350966171 0 -0.1247567531298754 -0.28452903969156501 0 -0.11440088051916759 -0.2898243003359029 0 -0.1098683526826145 -0.28560068349120282 0 -0.11440088051916759 -0.2898243003359029 0 -0.12931751793366331 -0.3037243056578886 0 -0.11440088051916759 -0.2898243003359029 0 -0.1098683526826145 -0.28560068349120282 0 -0.1130243906706281 -0.29255263528600117 0 -0.1107997782677799 -0.29640557452555982 0 -0.11440088051916759 -0.2898243003359029 0 -0.1130243906706281 -0.29255263528600117 0 -0.11580921382630011 -0.29949440320108051 0 -0.11440088051916759 -0.2898243003359029 0 -0.1130243906706281 -0.29255263528600117 0 -0.1098683526826145 -0.28560068349120282 0 -0.11440088051916759 -0.2898243003359029 0 -0.1130243906706281 -0.29255263528600117 0 -0.1130243906706281 -0.29255263528600117 0 -0.1107997782677799 -0.29640557452555982 0 -0.11580921382630011 -0.29949440320108051 0 -0.1107997782677799 -0.29640557452555982 0 -0.11580921382630011 -0.29949440320108051 0 -0.1090307694642508 -0.30061796971998589 0 -0.1139422444768447 -0.30454413977039629 0 -0.1095998692351437 -0.30584252004060453 0 -0.1090307694642508 -0.30061796971998589 0 -0.1139422444768447 -0.30454413977039629 0 -0.11580921382630011 -0.29949440320108051 0 -0.1090307694642508 -0.30061796971998589 0 -0.1139422444768447 -0.30454413977039629 0 -0.11580921382630011 -0.29949440320108051 0 -0.11977066984247629 -0.30688710184812967 0 -0.12931751793366331 -0.3037243056578886 0 -0.11440088051916759 -0.2898243003359029 0 -0.11580921382630011 -0.29949440320108051 0 -0.12931751793366331 -0.3037243056578886 0 -0.11580921382630011 -0.29949440320108051 0 -0.11977066984247629 -0.30688710184812967 0 -0.122796342143644 -0.315736883668572 0 -0.11977066984247629 -0.30688710184812967 0 -0.1155369715556072 -0.31007947665108843 0 -0.12931751793366331 -0.3037243056578886 0 -0.122796342143644 -0.315736883668572 0 -0.11977066984247629 -0.30688710184812967 0 -0.1155136663335667 -0.31609134913861942 0 -0.1155369715556072 -0.31007947665108843 0 -0.10963340369930651 -0.31106240196278218 0 -0.1139422444768447 -0.30454413977039629 0 -0.11977066984247629 -0.30688710184812967 0 -0.1155369715556072 -0.31007947665108843 0 -0.1139422444768447 -0.30454413977039629 0 -0.1155369715556072 -0.31007947665108843 0 -0.1095998692351437 -0.30584252004060453 0 -0.1155369715556072 -0.31007947665108843 0 -0.1095998692351437 -0.30584252004060453 0 -0.10963340369930651 -0.31106240196278218 0 -0.1100788652444753 -0.32203387301314212 0 -0.097437646127739974 -0.30126479097045661 0 -0.1100788652444753 -0.32203387301314212 0 -0.10963340369930651 -0.31106240196278218 0 -0.097437646127739974 -0.30126479097045661 0 -0.1095998692351437 -0.30584252004060453 0 -0.10963340369930651 -0.31106240196278218 0 -0.097437646127739974 -0.30126479097045661 0 -0.1069729757666593 -0.29654580805302899 0 -0.1090307694642508 -0.30061796971998589 0 -0.097437646127739974 -0.30126479097045661 0 -0.1095998692351437 -0.30584252004060453 0 -0.1090307694642508 -0.30061796971998589 0 -0.097437646127739974 -0.30126479097045661 0 -0.1069729757666593 -0.29654580805302899 0 -0.1107997782677799 -0.29640557452555982 0 -0.1090307694642508 -0.30061796971998589 0 -0.097437646127739974 -0.30126479097045661 0 -0.067008079322227007 -0.30713326621283832 0 -0.089765423852417842 -0.28865959740372821 0 -0.0834991071481377 -0.31882893921227418 0 -0.097437646127739974 -0.30126479097045661 0 -0.067008079322227007 -0.30713326621283832 0 -0.067008079322227007 -0.30713326621283832 0 -0.089765423852417842 -0.28865959740372821 0 -0.0834991071481377 -0.31882893921227418 0 -0.097437646127739974 -0.30126479097045661 0 -0.067008079322227007 -0.30713326621283832 0 -0.0650944132590765 -0.28326921240340708 0 -0.089765423852417842 -0.28865959740372821 0 -0.097437646127739974 -0.30126479097045661 0 -0.089765423852417842 -0.28865959740372821 0 -0.089765423852417842 -0.28865959740372821 0 -0.075298303701064606 -0.26489062365442811 0 -0.089765423852417842 -0.28865959740372821 0 -0.087959750105322712 -0.27360623099542031 0 -0.075298303701064606 -0.26489062365442811 0 -0.1022634619936173 -0.27851409835054097 0 -0.083527973448234857 -0.2610555127957464 0 -0.1022634619936173 -0.27851409835054097 0 -0.087959750105322712 -0.27360623099542031 0 -0.083527973448234857 -0.2610555127957464 0 -0.1022634619936173 -0.27851409835054097 0 -0.089765423852417842 -0.28865959740372821 0 -0.087959750105322712 -0.27360623099542031 0 -0.087959750105322712 -0.27360623099542031 0 -0.075298303701064606 -0.26489062365442811 0 -0.083527973448234857 -0.2610555127957464 0 -0.0650944132590765 -0.28326921240340708 0 -0.089765423852417842 -0.28865959740372821 0 -0.075298303701064606 -0.26489062365442811 0 -0.0650944132590765 -0.28326921240340708 0 -0.075298303701064606 -0.26489062365442811 0 -0.061057198529504919 -0.27011798256597908 0 -0.075298303701064606 -0.26489062365442811 0 -0.060831183549710413 -0.24112164990512841 0 -0.062061787452183291 -0.24568551800394081 0 -0.075298303701064606 -0.26489062365442811 0 -0.060831183549710413 -0.24112164990512841 0 -0.078405886419025142 -0.24956238045307519 0 -0.075298303701064606 -0.26489062365442811 0 -0.054168932319975723 -0.25767018119001089 0 -0.061057198529504919 -0.27011798256597908 0 -0.075298303701064606 -0.26489062365442811 0 -0.054168932319975723 -0.25767018119001089 0 -0.062061787452183291 -0.24568551800394081 0 -0.075298303701064606 -0.26489062365442811 0 -0.060831183549710413 -0.24112164990512841 0 -0.083527973448234857 -0.2610555127957464 0 -0.090354429711030498 -0.24908907313782919 0 -0.078405886419025142 -0.24956238045307519 0 -0.1011869734789563 -0.25704431645737341 0 -0.083527973448234857 -0.2610555127957464 0 -0.090354429711030498 -0.24908907313782919 0 -0.075298303701064606 -0.26489062365442811 0 -0.083527973448234857 -0.2610555127957464 0 -0.078405886419025142 -0.24956238045307519 0 -0.035780352995395351 -0.26317601254791773 0 -0.054168932319975723 -0.25767018119001089 0 -0.049667144837902882 -0.27464191301607049 0 -0.035780352995395351 -0.26317601254791773 0 -0.022809030987913068 -0.24985646568987011 0 -0.04251988657919141 -0.24803686420141019 0 -0.035780352995395351 -0.26317601254791773 0 -0.054168932319975723 -0.25767018119001089 0 -0.04251988657919141 -0.24803686420141019 0 -0.054168932319975723 -0.25767018119001089 0 -0.053384912262371333 -0.24546685943074689 0 -0.04251988657919141 -0.24803686420141019 0 -0.054168932319975723 -0.25767018119001089 0 -0.061057198529504919 -0.27011798256597908 0 -0.049667144837902882 -0.27464191301607049 0 -0.0650944132590765 -0.28326921240340708 0 -0.061057198529504919 -0.27011798256597908 0 -0.049667144837902882 -0.27464191301607049 0 -0.035780352995395351 -0.26317601254791773 0 -0.049667144837902882 -0.27464191301607049 0 -0.031167151482632459 -0.28227426847058679 0 -0.047041620186679782 -0.29508057986528902 0 -0.027381858801970051 -0.30762731334058652 0 -0.031167151482632459 -0.28227426847058679 0 -0.049667144837902882 -0.27464191301607049 0 -0.047041620186679782 -0.29508057986528902 0 -0.031167151482632459 -0.28227426847058679 0 -0.0650944132590765 -0.28326921240340708 0 -0.049667144837902882 -0.27464191301607049 0 -0.047041620186679782 -0.29508057986528902 0 -0.067008079322227007 -0.30713326621283832 0 -0.0650944132590765 -0.28326921240340708 0 -0.047041620186679782 -0.29508057986528902 0 -0.067008079322227007 -0.30713326621283832 0 -0.047041620186679782 -0.29508057986528902 0 -0.044250734792035673 -0.32560693502194771 0 -0.047041620186679782 -0.29508057986528902 0 -0.027381858801970051 -0.30762731334058652 0 -0.044250734792035673 -0.32560693502194771 0 -0.027381858801970051 -0.30762731334058652 0 -0.0050347760176988662 -0.30701364131170411 0 -0.027381858801970051 -0.30762731334058652 0 -0.0050347760176988662 -0.30701364131170411 0 -0.019083221285430649 -0.31787073677798061 0 -0.027381858801970051 -0.30762731334058652 0 -0.0050347760176988662 -0.30701364131170411 0 -0.0118020317495272 -0.28889248622558189 0 -0.0050347760176988662 -0.30701364131170411 0 -0.0118020317495272 -0.28889248622558189 0 -0.0050347760176988662 -0.30701364131170411 0 -0.0118020317495272 -0.28889248622558189 0 0.0018400144392212521 -0.2951070344519468 0 -0.0050347760176988662 -0.30701364131170411 0 -0.001918046903726611 -0.31535952535596368 0 -0.0050347760176988662 -0.30701364131170411 0 -0.001918046903726611 -0.31535952535596368 0 0.0050761090351854731 -0.30673598684538772 0 -0.0118020317495272 -0.28889248622558189 0 0.0018400144392212521 -0.2951070344519468 0 0.0057535085207450288 -0.27864841266387669 0 -0.027381858801970051 -0.30762731334058652 0 -0.0118020317495272 -0.28889248622558189 0 -0.031167151482632459 -0.28227426847058679 0 -0.0118020317495272 -0.28889248622558189 0 -0.031167151482632459 -0.28227426847058679 0 -0.01434997176475656 -0.26657638271955802 0 -0.035780352995395351 -0.26317601254791773 0 -0.031167151482632459 -0.28227426847058679 0 -0.01434997176475656 -0.26657638271955802 0 -0.0118020317495272 -0.28889248622558189 0 -0.01434997176475656 -0.26657638271955802 0 0.0057535085207450288 -0.27864841266387669 0 -0.01434997176475656 -0.26657638271955802 0 0.0057535085207450288 -0.27864841266387669 0 0.0042978062406885866 -0.25604185687832598 0 -0.01434997176475656 -0.26657638271955802 0 -0.0097286136276360392 -0.25235965745278027 0 0.0042978062406885866 -0.25604185687832598 0 -0.035780352995395351 -0.26317601254791773 0 -0.01434997176475656 -0.26657638271955802 0 -0.022809030987913068 -0.24985646568987011 0 -0.01434997176475656 -0.26657638271955802 0 -0.0097286136276360392 -0.25235965745278027 0 -0.022809030987913068 -0.24985646568987011 0 -0.031743332919717551 -0.35213301236343808 0 -0.046655975927712777 -0.37051975586717539 0 -0.053105527410760578 -0.3506450407559088 0 -0.046655975927712777 -0.37051975586717539 0 -0.023984163988142369 -0.36849222039542018 0 -0.034698058902929249 -0.37884611543882563 0 -0.031743332919717551 -0.35213301236343808 0 -0.046655975927712777 -0.37051975586717539 0 -0.031743332919717551 -0.35213301236343808 0 -0.046655975927712777 -0.37051975586717539 0 -0.023984163988142369 -0.36849222039542018 0 -0.046655975927712777 -0.37051975586717539 0 -0.057546662572876911 -0.36481171503242721 0 -0.053105527410760578 -0.3506450407559088 0 -0.046655975927712777 -0.37051975586717539 0 -0.057546662572876911 -0.36481171503242721 0 -0.057323148455796891 -0.37642190085408073 0 -0.066630299236885931 -0.36854784030513621 0 -0.057546662572876911 -0.36481171503242721 0 -0.057323148455796891 -0.37642190085408073 0 -0.070154186991700979 -0.35347987074809412 0 -0.057546662572876911 -0.36481171503242721 0 -0.053105527410760578 -0.3506450407559088 0 -0.069560568168534787 -0.33639308745409152 0 -0.053105527410760578 -0.3506450407559088 0 -0.044250734792035673 -0.32560693502194771 0 -0.069560568168534787 -0.33639308745409152 0 -0.067008079322227007 -0.30713326621283832 0 -0.044250734792035673 -0.32560693502194771 0 -0.067008079322227007 -0.30713326621283832 0 -0.044250734792035673 -0.32560693502194771 0 -0.031743332919717551 -0.35213301236343808 0 -0.053105527410760578 -0.3506450407559088 0 -0.044250734792035673 -0.32560693502194771 0 -0.031743332919717551 -0.35213301236343808 0 -0.016830689911722301 -0.33374626885970082 0 -0.031743332919717551 -0.35213301236343808 0 -0.044250734792035673 -0.32560693502194771 0 -0.016830689911722301 -0.33374626885970082 0 -0.027381858801970051 -0.30762731334058652 0 -0.044250734792035673 -0.32560693502194771 0 -0.019083221285430649 -0.31787073677798061 0 -0.044250734792035673 -0.32560693502194771 0 -0.016830689911722301 -0.33374626885970082 0 -0.019083221285430649 -0.31787073677798061 0 -0.016830689911722301 -0.33374626885970082 0 -0.001918046903726611 -0.31535952535596368 0 -0.0050347760176988662 -0.30701364131170411 0 -0.019083221285430649 -0.31787073677798061 0 -0.001918046903726611 -0.31535952535596368 0 -0.016830689911722301 -0.33374626885970082 0 -0.019083221285430649 -0.31787073677798061 0 -0.001918046903726611 -0.31535952535596368 0 -0.016830689911722301 -0.33374626885970082 0 -0.0074049784124641266 -0.35600761405568238 0 0.0063258171966743184 -0.33743469818704608 0 -0.016830689911722301 -0.33374626885970082 0 -0.001918046903726611 -0.31535952535596368 0 0.0063258171966743184 -0.33743469818704608 0 -0.031743332919717551 -0.35213301236343808 0 -0.016830689911722301 -0.33374626885970082 0 -0.0074049784124641266 -0.35600761405568238 0 -0.031743332919717551 -0.35213301236343808 0 -0.0074049784124641266 -0.35600761405568238 0 -0.023984163988142369 -0.36849222039542018 0 -0.0074049784124641266 -0.35600761405568238 0 -0.023984163988142369 -0.36849222039542018 0 -0.0072073966087001402 -0.3705915748032968 0 -0.023984163988142369 -0.36849222039542018 0 -0.0072073966087001402 -0.3705915748032968 0 -0.01222911988141342 -0.3815913127730623 0 -0.0074049784124641266 -0.35600761405568238 0 -0.0072073966087001402 -0.3705915748032968 0 0.0042953364882115088 -0.36977124520528598 0 -0.0072073966087001402 -0.3705915748032968 0 -0.0016893671389383981 -0.37919974328916961 0 0.0042953364882115088 -0.36977124520528598 0 -0.0072073966087001402 -0.3705915748032968 0 -0.0016893671389383981 -0.37919974328916961 0 -0.01222911988141342 -0.3815913127730623 0 -0.0016893671389383981 -0.37919974328916961 0 -0.01222911988141342 -0.3815913127730623 0 -0.0084894724356538182 -0.39372600845071221 0 -0.01222911988141342 -0.3815913127730623 0 -0.0084894724356538182 -0.39372600845071221 0 -0.02389824155765842 -0.3865980483874879 0 -0.0084894724356538182 -0.39372600845071221 0 -0.001692443151624877 -0.40712221425302447 0 0.0089579951430958926 -0.39460938956006331 0 -0.0084894724356538182 -0.39372600845071221 0 -0.015566102594699101 -0.4092666760654301 0 -0.001692443151624877 -0.40712221425302447 0 -0.0084894724356538182 -0.39372600845071221 0 -0.02389824155765842 -0.3865980483874879 0 -0.032162761614171538 -0.40713344168793358 0 -0.0084894724356538182 -0.39372600845071221 0 -0.032162761614171538 -0.40713344168793358 0 -0.015566102594699101 -0.4092666760654301 0 -0.0084894724356538182 -0.39372600845071221 0 -0.032162761614171538 -0.40713344168793358 0 -0.023984163988142369 -0.36849222039542018 0 -0.02389824155765842 -0.3865980483874879 0 -0.034698058902929249 -0.37884611543882563 0 -0.023984163988142369 -0.36849222039542018 0 -0.01222911988141342 -0.3815913127730623 0 -0.02389824155765842 -0.3865980483874879 0 -0.046655975927712777 -0.37051975586717539 0 -0.034698058902929249 -0.37884611543882563 0 -0.047246633580320448 -0.38528155217491222 0 -0.038153274959037427 -0.38936928133349569 0 -0.046107557624865958 -0.39521435821252232 0 -0.047246633580320448 -0.38528155217491222 0 -0.034698058902929249 -0.37884611543882563 0 -0.038153274959037427 -0.38936928133349569 0 -0.047246633580320448 -0.38528155217491222 0 -0.02389824155765842 -0.3865980483874879 0 -0.034698058902929249 -0.37884611543882563 0 -0.038153274959037427 -0.38936928133349569 0 -0.02389824155765842 -0.3865980483874879 0 -0.038153274959037427 -0.38936928133349569 0 -0.04015921552487671 -0.40216264098797327 0 -0.02389824155765842 -0.3865980483874879 0 -0.04015921552487671 -0.40216264098797327 0 -0.02389824155765842 -0.3865980483874879 0 -0.04015921552487671 -0.40216264098797327 0 -0.032162761614171538 -0.40713344168793358 0 -0.04015921552487671 -0.40216264098797327 0 -0.046107557624865958 -0.39521435821252232 0 -0.049379945024002711 -0.40326572574234548 0 -0.038153274959037427 -0.38936928133349569 0 -0.04015921552487671 -0.40216264098797327 0 -0.046107557624865958 -0.39521435821252232 0 -0.061568618935706837 -0.38890649937091371 0 -0.056420189492095332 -0.41772723358845809 0 -0.062639463227155343 -0.40877254598782559 0 -0.046107557624865958 -0.39521435821252232 0 -0.052438906898766541 -0.39184026998469401 0 -0.054832817454173233 -0.39795867018042808 0 -0.054832817454173233 -0.39795867018042808 0 -0.061568618935706837 -0.38890649937091371 0 -0.056420189492095332 -0.41772723358845809 0 -0.061568618935706837 -0.38890649937091371 0 -0.056420189492095332 -0.41772723358845809 0 -0.046107557624865958 -0.39521435821252232 0 -0.052438906898766541 -0.39184026998469401 0 -0.047246633580320448 -0.38528155217491222 0 -0.046107557624865958 -0.39521435821252232 0 -0.049379945024002711 -0.40326572574234548 0 -0.054832817454173233 -0.39795867018042808 0 -0.052438906898766541 -0.39184026998469401 0 -0.054832817454173233 -0.39795867018042808 0 -0.061568618935706837 -0.38890649937091371 0 -0.054832817454173233 -0.39795867018042808 0 -0.061568618935706837 -0.38890649937091371 0 -0.046655975927712777 -0.37051975586717539 0 -0.061568618935706837 -0.38890649937091371 0 -0.047246633580320448 -0.38528155217491222 0 -0.046655975927712777 -0.37051975586717539 0 -0.061568618935706837 -0.38890649937091371 0 -0.061568618935706837 -0.38890649937091371 0 -0.057323148455796891 -0.37642190085408073 0 -0.062726779690587542 -0.38735005964999569 0 -0.066630299236885931 -0.36854784030513621 0 -0.057323148455796891 -0.37642190085408073 0 -0.062726779690587542 -0.38735005964999569 0 -0.046655975927712777 -0.37051975586717539 0 -0.061568618935706837 -0.38890649937091371 0 -0.057323148455796891 -0.37642190085408073 0 -0.061568618935706837 -0.38890649937091371 0 -0.062726779690587542 -0.38735005964999569 0 -0.052438906898766541 -0.39184026998469401 0 -0.061568618935706837 -0.38890649937091371 0 -0.047246633580320448 -0.38528155217491222 0 -0.048013781340311583 -0.42897690944727129 0 -0.055836050792689253 -0.42054087492515507 0 -0.051831543551012632 -0.43982952524008712 0 -0.055836050792689253 -0.42054087492515507 0 -0.051831543551012632 -0.43982952524008712 0 -0.059389454496185379 -0.43131094980991752 0 -0.055836050792689253 -0.42054087492515507 0 -0.051831543551012632 -0.43982952524008712 0 -0.048131903007079452 -0.42269413040054837 0 -0.048013781340311583 -0.42897690944727129 0 -0.055836050792689253 -0.42054087492515507 0 -0.059389454496185379 -0.43131094980991752 0 -0.051831543551012632 -0.43982952524008712 0 -0.065424246730264521 -0.43944494146492891 0 -0.055836050792689253 -0.42054087492515507 0 -0.064465976910774991 -0.42542845760949932 0 -0.059389454496185379 -0.43131094980991752 0 -0.055836050792689253 -0.42054087492515507 0 -0.064465976910774991 -0.42542845760949932 0 -0.049379945024002711 -0.40326572574234548 0 -0.054832817454173233 -0.39795867018042808 0 -0.056420189492095332 -0.41772723358845809 0 -0.056420189492095332 -0.41772723358845809 0 -0.063762623707506502 -0.41881893290260841 0 -0.064465976910774991 -0.42542845760949932 0 -0.056420189492095332 -0.41772723358845809 0 -0.064465976910774991 -0.42542845760949932 0 -0.04015921552487671 -0.40216264098797327 0 -0.049379945024002711 -0.40326572574234548 0 -0.056420189492095332 -0.41772723358845809 0 -0.04015921552487671 -0.40216264098797327 0 -0.056420189492095332 -0.41772723358845809 0 -0.056420189492095332 -0.41772723358845809 0 -0.055836050792689253 -0.42054087492515507 0 -0.032162761614171538 -0.40713344168793358 0 -0.056420189492095332 -0.41772723358845809 0 -0.055836050792689253 -0.42054087492515507 0 -0.064465976910774991 -0.42542845760949932 0 -0.062380775467857787 -0.41490329595528969 0 -0.056420189492095332 -0.41772723358845809 0 -0.063762623707506502 -0.41881893290260841 0 -0.056420189492095332 -0.41772723358845809 0 -0.055836050792689253 -0.42054087492515507 0 -0.062380775467857787 -0.41490329595528969 0 -0.056420189492095332 -0.41772723358845809 0 -0.062639463227155343 -0.40877254598782559 0 -0.048131903007079452 -0.42269413040054837 0 -0.055836050792689253 -0.42054087492515507 0 -0.041972089809154463 -0.41837887979926569 0 -0.055836050792689253 -0.42054087492515507 0 -0.041972089809154463 -0.41837887979926569 0 -0.032162761614171538 -0.40713344168793358 0 -0.04015921552487671 -0.40216264098797327 0 -0.056420189492095332 -0.41772723358845809 0 -0.032162761614171538 -0.40713344168793358 0 -0.055836050792689253 -0.42054087492515507 0 -0.032162761614171538 -0.40713344168793358 0 -0.034445254765709088 -0.41717429342249351 0 -0.038002530881729897 -0.42494107295899719 0 -0.025643636757780461 -0.41824377924377759 0 -0.041972089809154463 -0.41837887979926569 0 -0.032162761614171538 -0.40713344168793358 0 -0.034445254765709088 -0.41717429342249351 0 -0.041972089809154463 -0.41837887979926569 0 -0.034445254765709088 -0.41717429342249351 0 -0.038002530881729897 -0.42494107295899719 0 -0.048131903007079452 -0.42269413040054837 0 -0.048013781340311583 -0.42897690944727129 0 -0.038002530881729897 -0.42494107295899719 0 -0.048131903007079452 -0.42269413040054837 0 -0.041972089809154463 -0.41837887979926569 0 -0.038002530881729897 -0.42494107295899719 0 -0.048013781340311583 -0.42897690944727129 0 -0.038002530881729897 -0.42494107295899719 0 -0.037067235194591097 -0.43856384158549983 0 -0.048013781340311583 -0.42897690944727129 0 -0.037067235194591097 -0.43856384158549983 0 -0.051831543551012632 -0.43982952524008712 0 -0.038002530881729897 -0.42494107295899719 0 -0.02320672800512304 -0.42994095510112712 0 -0.037067235194591097 -0.43856384158549983 0 -0.02320672800512304 -0.42994095510112712 0 -0.006595032483859389 -0.43425466644025262 0 -0.02117442193643071 -0.44352482729242682 0 -0.02320672800512304 -0.42994095510112712 0 -0.02117442193643071 -0.44352482729242682 0 -0.037067235194591097 -0.43856384158549983 0 -0.038002530881729897 -0.42494107295899719 0 -0.02320672800512304 -0.42994095510112712 0 -0.025643636757780461 -0.41824377924377759 0 -0.02320672800512304 -0.42994095510112712 0 -0.025643636757780461 -0.41824377924377759 0 -0.01075751077634669 -0.42011754308580851 0 -0.032162761614171538 -0.40713344168793358 0 -0.025643636757780461 -0.41824377924377759 0 -0.015566102594699101 -0.4092666760654301 0 -0.032162761614171538 -0.40713344168793358 0 -0.034445254765709088 -0.41717429342249351 0 -0.025643636757780461 -0.41824377924377759 0 -0.025643636757780461 -0.41824377924377759 0 -0.015566102594699101 -0.4092666760654301 0 -0.01075751077634669 -0.42011754308580851 0 -0.01075751077634669 -0.42011754308580851 0 -0.001692443151624877 -0.40712221425302447 0 0.0058201528149410958 -0.41984333082949382 0 -0.015566102594699101 -0.4092666760654301 0 -0.01075751077634669 -0.42011754308580851 0 -0.001692443151624877 -0.40712221425302447 0 -0.02320672800512304 -0.42994095510112712 0 -0.01075751077634669 -0.42011754308580851 0 -0.006595032483859389 -0.43425466644025262 0 -0.01075751077634669 -0.42011754308580851 0 -0.006595032483859389 -0.43425466644025262 0 0.0058201528149410958 -0.41984333082949382 0 -0.006595032483859389 -0.43425466644025262 0 -0.0038098490265959001 -0.45446473785298619 0 -0.02117442193643071 -0.44352482729242682 0 -0.0038098490265959001 -0.45446473785298619 0 -0.021129465312389371 -0.45763598646924608 0 -0.02117442193643071 -0.44352482729242682 0 -0.0038098490265959001 -0.45446473785298619 0 -0.0180109388143695 -0.4730200003953704 0 0.0020032285198105168 -0.47812002304748658 0 -0.0038098490265959001 -0.45446473785298619 0 -0.021129465312389371 -0.45763598646924608 0 -0.0180109388143695 -0.4730200003953704 0 -0.021129465312389371 -0.45763598646924608 0 -0.030034743888618601 -0.46555281143125699 0 -0.0180109388143695 -0.4730200003953704 0 -0.021129465312389371 -0.45763598646924608 0 -0.030034743888618601 -0.46555281143125699 0 -0.032617372895932167 -0.45161755537419029 0 -0.021129465312389371 -0.45763598646924608 0 -0.02117442193643071 -0.44352482729242682 0 -0.032617372895932167 -0.45161755537419029 0 -0.02117442193643071 -0.44352482729242682 0 -0.037067235194591097 -0.43856384158549983 0 -0.032617372895932167 -0.45161755537419029 0 -0.016974955428761911 -0.49999999999999267 0 0.0020032285198105168 -0.47812002304748658 0 -0.0180109388143695 -0.4730200003953704 0 -0.016974955428761911 -0.49999999999999267 0 0.0020032285198105168 -0.47812002304748658 0 -0.030034743888618601 -0.46555281143125699 0 -0.0180109388143695 -0.4730200003953704 0 -0.034426155001135127 -0.48109940077443519 0 -0.0180109388143695 -0.4730200003953704 0 -0.016974955428761911 -0.49999999999999267 0 -0.034426155001135127 -0.48109940077443519 0 -0.016974955428761911 -0.49999999999999267 0 -0.046207766148792677 -0.5 0 -0.034426155001135127 -0.48109940077443519 0 -0.046207766148792677 -0.5 0 -0.034426155001135127 -0.48109940077443519 0 -0.053499010661787 -0.48231924301265428 0 -0.034426155001135127 -0.48109940077443519 0 -0.053499010661787 -0.48231924301265428 0 -0.041924198914535901 -0.46639317043984779 0 -0.030034743888618601 -0.46555281143125699 0 -0.034426155001135127 -0.48109940077443519 0 -0.041924198914535901 -0.46639317043984779 0 -0.041924198914535901 -0.46639317043984779 0 -0.07084162451722649 -0.47389040739579952 0 -0.053499010661787 -0.48231924301265428 0 -0.041924198914535901 -0.46639317043984779 0 -0.07084162451722649 -0.47389040739579952 0 -0.046207766148792677 -0.5 0 -0.053499010661787 -0.48231924301265428 0 -0.075440576868823328 -0.5 0 -0.042466496819857043 -0.44929345777193291 0 -0.037067235194591097 -0.43856384158549983 0 -0.051831543551012632 -0.43982952524008712 0 -0.042466496819857043 -0.44929345777193291 0 -0.032617372895932167 -0.45161755537419029 0 -0.039170437802453828 -0.45843219365087828 0 -0.042466496819857043 -0.44929345777193291 0 -0.037067235194591097 -0.43856384158549983 0 -0.032617372895932167 -0.45161755537419029 0 -0.030034743888618601 -0.46555281143125699 0 -0.032617372895932167 -0.45161755537419029 0 -0.039170437802453828 -0.45843219365087828 0 -0.030034743888618601 -0.46555281143125699 0 -0.041924198914535901 -0.46639317043984779 0 -0.039170437802453828 -0.45843219365087828 0 -0.041924198914535901 -0.46639317043984779 0 -0.039170437802453828 -0.45843219365087828 0 -0.047827036309336018 -0.45911817555501899 0 -0.042466496819857043 -0.44929345777193291 0 -0.039170437802453828 -0.45843219365087828 0 -0.047827036309336018 -0.45911817555501899 0 -0.041924198914535901 -0.46639317043984779 0 -0.065443616133335963 -0.46106510787461719 0 -0.07084162451722649 -0.47389040739579952 0 -0.041924198914535901 -0.46639317043984779 0 -0.051987017044143859 -0.45752296963996741 0 -0.065443616133335963 -0.46106510787461719 0 -0.041924198914535901 -0.46639317043984779 0 -0.051987017044143859 -0.45752296963996741 0 -0.047827036309336018 -0.45911817555501899 0 -0.051987017044143859 -0.45752296963996741 0 -0.061003220573020142 -0.4468839218962582 0 -0.051831543551012632 -0.43982952524008712 0 -0.047827036309336018 -0.45911817555501899 0 -0.051831543551012632 -0.43982952524008712 0 -0.051987017044143859 -0.45752296963996741 0 -0.047827036309336018 -0.45911817555501899 0 -0.051831543551012632 -0.43982952524008712 0 -0.042466496819857043 -0.44929345777193291 0 -0.047827036309336018 -0.45911817555501899 0 -0.051831543551012632 -0.43982952524008712 0 -0.061003220573020142 -0.4468839218962582 0 -0.051831543551012632 -0.43982952524008712 0 -0.065424246730264521 -0.43944494146492891 0 -0.051987017044143859 -0.45752296963996741 0 -0.061003220573020142 -0.4468839218962582 0 -0.07477007496665955 -0.45073825124004951 0 -0.065424246730264521 -0.43944494146492891 0 -0.07477007496665955 -0.45073825124004951 0 -0.079768444724971452 -0.44007559238692229 0 -0.061003220573020142 -0.4468839218962582 0 -0.065424246730264521 -0.43944494146492891 0 -0.07477007496665955 -0.45073825124004951 0 -0.051987017044143859 -0.45752296963996741 0 -0.07477007496665955 -0.45073825124004951 0 -0.051987017044143859 -0.45752296963996741 0 -0.07477007496665955 -0.45073825124004951 0 -0.065443616133335963 -0.46106510787461719 0 -0.065443616133335963 -0.46106510787461719 0 -0.076778155725359759 -0.46127938755625392 0 -0.07084162451722649 -0.47389040739579952 0 -0.07477007496665955 -0.45073825124004951 0 -0.065443616133335963 -0.46106510787461719 0 -0.076778155725359759 -0.46127938755625392 0 -0.076778155725359759 -0.46127938755625392 0 -0.08834580385984403 -0.46594248219035161 0 -0.086408450910411425 -0.45511811418254072 0 -0.076778155725359759 -0.46127938755625392 0 -0.08834580385984403 -0.46594248219035161 0 -0.07084162451722649 -0.47389040739579952 0 -0.07477007496665955 -0.45073825124004951 0 -0.076778155725359759 -0.46127938755625392 0 -0.086408450910411425 -0.45511811418254072 0 -0.08834580385984403 -0.46594248219035161 0 -0.086408450910411425 -0.45511811418254072 0 -0.095975927517454276 -0.45641999749253598 0 -0.086408450910411425 -0.45511811418254072 0 -0.097553132889175262 -0.4439535328401315 0 -0.095975927517454276 -0.45641999749253598 0 -0.07477007496665955 -0.45073825124004951 0 -0.097553132889175262 -0.4439535328401315 0 -0.07477007496665955 -0.45073825124004951 0 -0.086408450910411425 -0.45511811418254072 0 -0.097553132889175262 -0.4439535328401315 0 -0.07477007496665955 -0.45073825124004951 0 -0.089497400880491615 -0.43817776186331431 0 -0.097553132889175262 -0.4439535328401315 0 -0.07477007496665955 -0.45073825124004951 0 -0.089497400880491615 -0.43817776186331431 0 -0.079768444724971452 -0.44007559238692229 0 -0.053499010661787 -0.48231924301265428 0 -0.075440576868823328 -0.5 0 -0.07084162451722649 -0.47389040739579952 0 -0.08834580385984403 -0.46594248219035161 0 -0.07084162451722649 -0.47389040739579952 0 -0.099759050119917064 -0.48138764435175119 0 -0.07084162451722649 -0.47389040739579952 0 -0.099759050119917064 -0.48138764435175119 0 -0.075440576868823328 -0.5 0 -0.104673387588854 -0.5 0 -0.099759050119917064 -0.48138764435175119 0 -0.075440576868823328 -0.5 0 -0.07084162451722649 -0.47389040739579952 0 -0.099759050119917064 -0.48138764435175119 0 -0.08834580385984403 -0.46594248219035161 0 -0.099759050119917064 -0.48138764435175119 0 -0.1030154380360422 -0.46569002761644168 0 -0.099759050119917064 -0.48138764435175119 0 -0.1183973795028396 -0.47300833646912632 0 -0.1030154380360422 -0.46569002761644168 0 -0.12867647572260771 -0.48888488130770291 0 -0.099759050119917064 -0.48138764435175119 0 -0.1183973795028396 -0.47300833646912632 0 -0.12867647572260771 -0.48888488130770291 0 -0.099759050119917064 -0.48138764435175119 0 -0.13390619830888459 -0.5 0 -0.12867647572260771 -0.48888488130770291 0 -0.104673387588854 -0.5 0 -0.12867647572260771 -0.48888488130770291 0 -0.104673387588854 -0.5 0 -0.099759050119917064 -0.48138764435175119 0 -0.097553132889175262 -0.4439535328401315 0 -0.1203361908116909 -0.43716881444021349 0 -0.098836915369592812 -0.43485694604785008 0 -0.1088792413805704 -0.45257954415153262 0 -0.097553132889175262 -0.4439535328401315 0 -0.1203361908116909 -0.43716881444021349 0 -0.097553132889175262 -0.4439535328401315 0 -0.1203361908116909 -0.43716881444021349 0 -0.089497400880491615 -0.43817776186331431 0 -0.097553132889175262 -0.4439535328401315 0 -0.098836915369592812 -0.43485694604785008 0 -0.1088792413805704 -0.45257954415153262 0 -0.097553132889175262 -0.4439535328401315 0 -0.095975927517454276 -0.45641999749253598 0 -0.08834580385984403 -0.46594248219035161 0 -0.095975927517454276 -0.45641999749253598 0 -0.1030154380360422 -0.46569002761644168 0 -0.1088792413805704 -0.45257954415153262 0 -0.1030154380360422 -0.46569002761644168 0 -0.1141132722315729 -0.46115893031622429 0 -0.1088792413805704 -0.45257954415153262 0 -0.095975927517454276 -0.45641999749253598 0 -0.1030154380360422 -0.46569002761644168 0 -0.13119730871565741 -0.46194778976005529 0 -0.1141132722315729 -0.46115893031622429 0 -0.1232951009969586 -0.45239827473452299 0 -0.1088792413805704 -0.45257954415153262 0 -0.1141132722315729 -0.46115893031622429 0 -0.1232951009969586 -0.45239827473452299 0 -0.13119730871565741 -0.46194778976005529 0 -0.1183973795028396 -0.47300833646912632 0 -0.1141132722315729 -0.46115893031622429 0 -0.1183973795028396 -0.47300833646912632 0 -0.1030154380360422 -0.46569002761644168 0 -0.1141132722315729 -0.46115893031622429 0 -0.1088792413805704 -0.45257954415153262 0 -0.1232951009969586 -0.45239827473452299 0 -0.1203361908116909 -0.43716881444021349 0 -0.1203361908116909 -0.43716881444021349 0 -0.11156293355070129 -0.42286148837930831 0 -0.098836915369592812 -0.43485694604785008 0 -0.1295444514800311 -0.41630540438514207 0 -0.1203361908116909 -0.43716881444021349 0 -0.11156293355070129 -0.42286148837930831 0 -0.11156293355070129 -0.42286148837930831 0 -0.098836915369592812 -0.43485694604785008 0 -0.099141554253361464 -0.4159480318144636 0 -0.11156293355070129 -0.42286148837930831 0 -0.099141554253361464 -0.4159480318144636 0 -0.112688966408116 -0.40377864479166459 0 -0.099141554253361464 -0.4159480318144636 0 -0.112688966408116 -0.40377864479166459 0 -0.09166693553234033 -0.40462073163945078 0 -0.1295444514800311 -0.41630540438514207 0 -0.11156293355070129 -0.42286148837930831 0 -0.112688966408116 -0.40377864479166459 0 -0.1278343803984657 -0.39934862123476128 0 -0.1295444514800311 -0.41630540438514207 0 -0.112688966408116 -0.40377864479166459 0 -0.112688966408116 -0.40377864479166459 0 -0.1202503665325841 -0.38751838661000998 0 -0.1076577319883356 -0.38634157157787852 0 -0.1278343803984657 -0.39934862123476128 0 -0.112688966408116 -0.40377864479166459 0 -0.1202503665325841 -0.38751838661000998 0 -0.1297199030083227 -0.37342445177070321 0 -0.1158009786389156 -0.37310350436309903 0 -0.1202503665325841 -0.38751838661000998 0 -0.1158009786389156 -0.37310350436309903 0 -0.1202503665325841 -0.38751838661000998 0 -0.1076577319883356 -0.38634157157787852 0 -0.10204425690938861 -0.37569210654592877 0 -0.1076577319883356 -0.38634157157787852 0 -0.096288580843800722 -0.38429723898193452 0 -0.1158009786389156 -0.37310350436309903 0 -0.10204425690938861 -0.37569210654592877 0 -0.1076577319883356 -0.38634157157787852 0 -0.1076577319883356 -0.38634157157787852 0 -0.096288580843800722 -0.38429723898193452 0 -0.098694635717447146 -0.39403184385158652 0 -0.10204425690938861 -0.37569210654592877 0 -0.096288580843800722 -0.38429723898193452 0 -0.086446536796917092 -0.3781049475334316 0 -0.112688966408116 -0.40377864479166459 0 -0.1076577319883356 -0.38634157157787852 0 -0.098694635717447146 -0.39403184385158652 0 -0.112688966408116 -0.40377864479166459 0 -0.098694635717447146 -0.39403184385158652 0 -0.09166693553234033 -0.40462073163945078 0 -0.09166693553234033 -0.40462073163945078 0 -0.084062096259268304 -0.39260530237899111 0 -0.080535189816645897 -0.41229158769806501 0 -0.084062096259268304 -0.39260530237899111 0 -0.073210121080553275 -0.3918524657267593 0 -0.080535189816645897 -0.41229158769806501 0 -0.098694635717447146 -0.39403184385158652 0 -0.09166693553234033 -0.40462073163945078 0 -0.084062096259268304 -0.39260530237899111 0 -0.096288580843800722 -0.38429723898193452 0 -0.084062096259268304 -0.39260530237899111 0 -0.086446536796917092 -0.3781049475334316 0 -0.096288580843800722 -0.38429723898193452 0 -0.098694635717447146 -0.39403184385158652 0 -0.084062096259268304 -0.39260530237899111 0 -0.084062096259268304 -0.39260530237899111 0 -0.086446536796917092 -0.3781049475334316 0 -0.078679830093273728 -0.38476483531806499 0 -0.084062096259268304 -0.39260530237899111 0 -0.078679830093273728 -0.38476483531806499 0 -0.073210121080553275 -0.3918524657267593 0 -0.086446536796917092 -0.3781049475334316 0 -0.078679830093273728 -0.38476483531806499 0 -0.077292123936516868 -0.37833619925144751 0 -0.066630299236885931 -0.36854784030513621 0 -0.062726779690587542 -0.38735005964999569 0 -0.078008713676016167 -0.36681283373633639 0 -0.062726779690587542 -0.38735005964999569 0 -0.078008713676016167 -0.36681283373633639 0 -0.072388272393113157 -0.38292526169969548 0 -0.062726779690587542 -0.38735005964999569 0 -0.078008713676016167 -0.36681283373633639 0 -0.077292123936516868 -0.37833619925144751 0 -0.072388272393113157 -0.38292526169969548 0 -0.078679830093273728 -0.38476483531806499 0 -0.077292123936516868 -0.37833619925144751 0 -0.072388272393113157 -0.38292526169969548 0 -0.078679830093273728 -0.38476483531806499 0 -0.072388272393113157 -0.38292526169969548 0 -0.073210121080553275 -0.3918524657267593 0 -0.072388272393113157 -0.38292526169969548 0 -0.067716730870574879 -0.38806465919919703 0 -0.073210121080553275 -0.3918524657267593 0 -0.061568618935706837 -0.38890649937091371 0 -0.067716730870574879 -0.38806465919919703 0 -0.073210121080553275 -0.3918524657267593 0 -0.072388272393113157 -0.38292526169969548 0 -0.067716730870574879 -0.38806465919919703 0 -0.062726779690587542 -0.38735005964999569 0 -0.061568618935706837 -0.38890649937091371 0 -0.067716730870574879 -0.38806465919919703 0 -0.062726779690587542 -0.38735005964999569 0 -0.061568618935706837 -0.38890649937091371 0 -0.080535189816645897 -0.41229158769806501 0 -0.061568618935706837 -0.38890649937091371 0 -0.062639463227155343 -0.40877254598782559 0 -0.067267864739745428 -0.40693730778932408 0 -0.061568618935706837 -0.38890649937091371 0 -0.067267864739745428 -0.40693730778932408 0 -0.080535189816645897 -0.41229158769806501 0 -0.061568618935706837 -0.38890649937091371 0 -0.073210121080553275 -0.3918524657267593 0 -0.080535189816645897 -0.41229158769806501 0 -0.062639463227155343 -0.40877254598782559 0 -0.067267864739745428 -0.40693730778932408 0 -0.066700825444674428 -0.41429447134226632 0 -0.070651154494422524 -0.42146701410201942 0 -0.081203687680170486 -0.42908954465373528 0 -0.080535189816645897 -0.41229158769806501 0 -0.062380775467857787 -0.41490329595528969 0 -0.062639463227155343 -0.40877254598782559 0 -0.066700825444674428 -0.41429447134226632 0 -0.067267864739745428 -0.40693730778932408 0 -0.066700825444674428 -0.41429447134226632 0 -0.080535189816645897 -0.41229158769806501 0 -0.070651154494422524 -0.42146701410201942 0 -0.066700825444674428 -0.41429447134226632 0 -0.080535189816645897 -0.41229158769806501 0 -0.070651154494422524 -0.42146701410201942 0 -0.066700825444674428 -0.41429447134226632 0 -0.063762623707506502 -0.41881893290260841 0 -0.062380775467857787 -0.41490329595528969 0 -0.066700825444674428 -0.41429447134226632 0 -0.063762623707506502 -0.41881893290260841 0 -0.070651154494422524 -0.42146701410201942 0 -0.063762623707506502 -0.41881893290260841 0 -0.064465976910774991 -0.42542845760949932 0 -0.064465976910774991 -0.42542845760949932 0 -0.068845907093797384 -0.42790904326321771 0 -0.070651154494422524 -0.42146701410201942 0 -0.064465976910774991 -0.42542845760949932 0 -0.068845907093797384 -0.42790904326321771 0 -0.065424246730264521 -0.43944494146492891 0 -0.079768444724971452 -0.44007559238692229 0 -0.064465976910774991 -0.42542845760949932 0 -0.059389454496185379 -0.43131094980991752 0 -0.065424246730264521 -0.43944494146492891 0 -0.064465976910774991 -0.42542845760949932 0 -0.079768444724971452 -0.44007559238692229 0 -0.064465976910774991 -0.42542845760949932 0 -0.079768444724971452 -0.44007559238692229 0 -0.064465976910774991 -0.42542845760949932 0 -0.068845907093797384 -0.42790904326321771 0 -0.079768444724971452 -0.44007559238692229 0 -0.068845907093797384 -0.42790904326321771 0 -0.081203687680170486 -0.42908954465373528 0 -0.070651154494422524 -0.42146701410201942 0 -0.068845907093797384 -0.42790904326321771 0 -0.081203687680170486 -0.42908954465373528 0 -0.098836915369592812 -0.43485694604785008 0 -0.080535189816645897 -0.41229158769806501 0 -0.098836915369592812 -0.43485694604785008 0 -0.081203687680170486 -0.42908954465373528 0 -0.080535189816645897 -0.41229158769806501 0 -0.089497400880491615 -0.43817776186331431 0 -0.098836915369592812 -0.43485694604785008 0 -0.081203687680170486 -0.42908954465373528 0 -0.089497400880491615 -0.43817776186331431 0 -0.079768444724971452 -0.44007559238692229 0 -0.081203687680170486 -0.42908954465373528 0 -0.098836915369592812 -0.43485694604785008 0 -0.099141554253361464 -0.4159480318144636 0 -0.080535189816645897 -0.41229158769806501 0 -0.099141554253361464 -0.4159480318144636 0 -0.09166693553234033 -0.40462073163945078 0 -0.080535189816645897 -0.41229158769806501 0 -0.078365437269297067 -0.068978724922581641 0 -0.08139946478034929 -0.095240914814262723 0 -0.091520988475161852 -0.087291111432991064 0 -0.078365437269297067 -0.068978724922581641 0 -0.100122824520836 -0.079296810023226208 0 -0.091520988475161852 -0.087291111432991064 0 -0.078365437269297067 -0.068978724922581641 0 -0.08139946478034929 -0.095240914814262723 0 -0.078365437269297067 -0.068978724922581641 0 -0.097955978107811176 -0.066186554920374632 0 -0.092287122529422769 -0.054168315087900917 0 -0.078365437269297067 -0.068978724922581641 0 -0.100122824520836 -0.079296810023226208 0 -0.097955978107811176 -0.066186554920374632 0 -0.078365437269297067 -0.068978724922581641 0 -0.063911579031359578 -0.085610371921718109 0 -0.059202607139600183 -0.067025841296559294 0 -0.078365437269297067 -0.068978724922581641 0 -0.063911579031359578 -0.085610371921718109 0 -0.08139946478034929 -0.095240914814262723 0 -0.063911579031359578 -0.085610371921718109 0 -0.06950269725976127 -0.10997836078484879 0 -0.08139946478034929 -0.095240914814262723 0 -0.06950269725976127 -0.10997836078484879 0 -0.065933511767723177 -0.12368393641194569 0 -0.091684698164758743 -0.12236074597746729 0 -0.06950269725976127 -0.10997836078484879 0 -0.091684698164758743 -0.12236074597746729 0 -0.086834395805354431 -0.1075039872669878 0 -0.06950269725976127 -0.10997836078484879 0 -0.091684698164758743 -0.12236074597746729 0 -0.091684698164758743 -0.12236074597746729 0 -0.086834395805354431 -0.1075039872669878 0 -0.096891538069540498 -0.1098175145985352 0 -0.06950269725976127 -0.10997836078484879 0 -0.08139946478034929 -0.095240914814262723 0 -0.086834395805354431 -0.1075039872669878 0 -0.086834395805354431 -0.1075039872669878 0 -0.094693580752362325 -0.1001224001598251 0 -0.096891538069540498 -0.1098175145985352 0 -0.08139946478034929 -0.095240914814262723 0 -0.086834395805354431 -0.1075039872669878 0 -0.094693580752362325 -0.1001224001598251 0 -0.091520988475161852 -0.087291111432991064 0 -0.08139946478034929 -0.095240914814262723 0 -0.094693580752362325 -0.1001224001598251 0 -0.094693580752362325 -0.1001224001598251 0 -0.1032401515069353 -0.1031047001635706 0 -0.10302363505296459 -0.092816707245059638 0 -0.094693580752362325 -0.1001224001598251 0 -0.1032401515069353 -0.1031047001635706 0 -0.096891538069540498 -0.1098175145985352 0 -0.1032401515069353 -0.1031047001635706 0 -0.10984077637821919 -0.1002549597697813 0 -0.10998645006003779 -0.1092809391580154 0 -0.1032401515069353 -0.1031047001635706 0 -0.096891538069540498 -0.1098175145985352 0 -0.10998645006003779 -0.1092809391580154 0 -0.10984077637821919 -0.1002549597697813 0 -0.1136539657602965 -0.093506311200428668 0 -0.10302363505296459 -0.092816707245059638 0 -0.1032401515069353 -0.1031047001635706 0 -0.10984077637821919 -0.1002549597697813 0 -0.10302363505296459 -0.092816707245059638 0 -0.091684698164758743 -0.12236074597746729 0 -0.1141930027055752 -0.12045052136338801 0 -0.10998645006003779 -0.1092809391580154 0 -0.091684698164758743 -0.12236074597746729 0 -0.1141930027055752 -0.12045052136338801 0 -0.1086381146622349 -0.1318244428865836 0 -0.091684698164758743 -0.12236074597746729 0 -0.096891538069540498 -0.1098175145985352 0 -0.10998645006003779 -0.1092809391580154 0 -0.091684698164758743 -0.12236074597746729 0 -0.10998645006003779 -0.1092809391580154 0 -0.1141930027055752 -0.12045052136338801 0 -0.11227151785426751 -0.108785370503425 0 -0.1380237415775914 -0.1222594539261945 0 -0.1141930027055752 -0.12045052136338801 0 -0.10998645006003779 -0.1092809391580154 0 -0.11227151785426751 -0.108785370503425 0 -0.10998645006003779 -0.1092809391580154 0 -0.1282882019553169 -0.096201132338563256 0 -0.11227151785426751 -0.108785370503425 0 -0.1282882019553169 -0.096201132338563256 0 -0.12546166578829279 -0.10449582084405171 0 -0.10998645006003779 -0.1092809391580154 0 -0.11227151785426751 -0.108785370503425 0 -0.1282882019553169 -0.096201132338563256 0 -0.11227151785426751 -0.108785370503425 0 -0.12546166578829279 -0.10449582084405171 0 -0.12927059236926389 -0.1098319103066269 0 -0.116567704727397 -0.09852184216329235 0 -0.10998645006003779 -0.1092809391580154 0 -0.1282882019553169 -0.096201132338563256 0 -0.116567704727397 -0.09852184216329235 0 -0.1210691294831146 -0.093365868349673087 0 -0.1136539657602965 -0.093506311200428668 0 -0.116567704727397 -0.09852184216329235 0 -0.10984077637821919 -0.1002549597697813 0 -0.1136539657602965 -0.093506311200428668 0 -0.116567704727397 -0.09852184216329235 0 -0.10984077637821919 -0.1002549597697813 0 -0.10998645006003779 -0.1092809391580154 0 -0.116567704727397 -0.09852184216329235 0 -0.1210691294831146 -0.093365868349673087 0 -0.1282882019553169 -0.096201132338563256 0 -0.1189943316771598 -0.087013390209617986 0 -0.1210691294831146 -0.093365868349673087 0 -0.1276475393765853 -0.089445389037535614 0 -0.1189943316771598 -0.087013390209617986 0 -0.1210691294831146 -0.093365868349673087 0 -0.1136539657602965 -0.093506311200428668 0 -0.1189943316771598 -0.087013390209617986 0 -0.11600841657417781 -0.0786125172150208 0 -0.1256926547185481 -0.080448655837959543 0 -0.1189943316771598 -0.087013390209617986 0 -0.1256926547185481 -0.080448655837959543 0 -0.1276475393765853 -0.089445389037535614 0 -0.1189943316771598 -0.087013390209617986 0 -0.11600841657417781 -0.0786125172150208 0 -0.10907812352056841 -0.084653096691675561 0 -0.11600841657417781 -0.0786125172150208 0 -0.10907812352056841 -0.084653096691675561 0 -0.10895086168096239 -0.073798380815369574 0 -0.1189943316771598 -0.087013390209617986 0 -0.1136539657602965 -0.093506311200428668 0 -0.10907812352056841 -0.084653096691675561 0 -0.1136539657602965 -0.093506311200428668 0 -0.10302363505296459 -0.092816707245059638 0 -0.10907812352056841 -0.084653096691675561 0 -0.10907812352056841 -0.084653096691675561 0 -0.100122824520836 -0.079296810023226208 0 -0.10895086168096239 -0.073798380815369574 0 -0.10302363505296459 -0.092816707245059638 0 -0.10907812352056841 -0.084653096691675561 0 -0.100122824520836 -0.079296810023226208 0 -0.091520988475161852 -0.087291111432991064 0 -0.094693580752362325 -0.1001224001598251 0 -0.10302363505296459 -0.092816707245059638 0 -0.091520988475161852 -0.087291111432991064 0 -0.10302363505296459 -0.092816707245059638 0 -0.100122824520836 -0.079296810023226208 0 -0.100122824520836 -0.079296810023226208 0 -0.097955978107811176 -0.066186554920374632 0 -0.10895086168096239 -0.073798380815369574 0 -0.097955978107811176 -0.066186554920374632 0 -0.10895086168096239 -0.073798380815369574 0 -0.1107627664028074 -0.062642519676950711 0 -0.1107627664028074 -0.062642519676950711 0 -0.11977706095957399 -0.071398786364969574 0 -0.12643597956351629 -0.061731045311098888 0 -0.10895086168096239 -0.073798380815369574 0 -0.1107627664028074 -0.062642519676950711 0 -0.11977706095957399 -0.071398786364969574 0 -0.11600841657417781 -0.0786125172150208 0 -0.10895086168096239 -0.073798380815369574 0 -0.11977706095957399 -0.071398786364969574 0 -0.11600841657417781 -0.0786125172150208 0 -0.11977706095957399 -0.071398786364969574 0 -0.1256926547185481 -0.080448655837959543 0 -0.1107627664028074 -0.062642519676950711 0 -0.12461367979075789 -0.0491727700495131 0 -0.12643597956351629 -0.061731045311098888 0 -0.1107627664028074 -0.062642519676950711 0 -0.12461367979075789 -0.0491727700495131 0 -0.1114921536975451 -0.043609184491148673 0 -0.12461367979075789 -0.0491727700495131 0 -0.1114921536975451 -0.043609184491148673 0 -0.12721641535463721 -0.035730455700907118 0 -0.1114921536975451 -0.043609184491148673 0 -0.1178746427640204 -0.025894308309052691 0 -0.12721641535463721 -0.035730455700907118 0 -0.1114921536975451 -0.043609184491148673 0 -0.096603026261132929 -0.034305421669976667 0 -0.092287122529422769 -0.054168315087900917 0 -0.1114921536975451 -0.043609184491148673 0 -0.096603026261132929 -0.034305421669976667 0 -0.1178746427640204 -0.025894308309052691 0 -0.097955978107811176 -0.066186554920374632 0 -0.1107627664028074 -0.062642519676950711 0 -0.092287122529422769 -0.054168315087900917 0 -0.1107627664028074 -0.062642519676950711 0 -0.1114921536975451 -0.043609184491148673 0 -0.092287122529422769 -0.054168315087900917 0 -0.11980408171205451 -0.012424682282892721 0 -0.1036830967022902 -0.017749453854158711 0 -0.1133083836320004 0.00072062920631781914 0 -0.11980408171205451 -0.012424682282892721 0 -0.12811938589261601 -0.0038740722286955912 0 -0.1133083836320004 0.00072062920631781914 0 -0.11980408171205451 -0.012424682282892721 0 -0.1178746427640204 -0.025894308309052691 0 -0.1036830967022902 -0.017749453854158711 0 -0.096603026261132929 -0.034305421669976667 0 -0.1178746427640204 -0.025894308309052691 0 -0.096603026261132929 -0.034305421669976667 0 -0.1178746427640204 -0.025894308309052691 0 -0.1036830967022902 -0.017749453854158711 0 -0.096603026261132929 -0.034305421669976667 0 -0.1036830967022902 -0.017749453854158711 0 -0.086476185362119928 -0.02448704739235693 0 -0.088680460419405083 -0.01055526532683577 0 -0.1133083836320004 0.00072062920631781914 0 -0.088680460419405083 -0.01055526532683577 0 -0.1133083836320004 0.00072062920631781914 0 -0.09284060307338092 0.0047276606075373666 0 -0.1036830967022902 -0.017749453854158711 0 -0.088680460419405083 -0.01055526532683577 0 -0.1133083836320004 0.00072062920631781914 0 -0.088680460419405083 -0.01055526532683577 0 -0.09284060307338092 0.0047276606075373666 0 -0.070305210731209267 0.00078966021636795716 0 -0.088680460419405083 -0.01055526532683577 0 -0.086476185362119928 -0.02448704739235693 0 -0.072818310244726459 -0.020963437407266309 0 -0.1036830967022902 -0.017749453854158711 0 -0.088680460419405083 -0.01055526532683577 0 -0.086476185362119928 -0.02448704739235693 0 -0.086476185362119928 -0.02448704739235693 0 -0.072818310244726459 -0.020963437407266309 0 -0.07533140975824551 -0.042716535030900463 0 -0.072818310244726459 -0.020963437407266309 0 -0.059137468143776913 -0.032295609575452799 0 -0.057489386609264129 -0.01530000101729736 0 -0.088680460419405083 -0.01055526532683577 0 -0.072818310244726459 -0.020963437407266309 0 -0.070305210731209267 0.00078966021636795716 0 -0.072818310244726459 -0.020963437407266309 0 -0.057489386609264129 -0.01530000101729736 0 -0.070305210731209267 0.00078966021636795716 0 -0.072818310244726459 -0.020963437407266309 0 -0.070305210731209267 0.00078966021636795716 0 -0.078365437269297067 -0.068978724922581641 0 -0.092287122529422769 -0.054168315087900917 0 -0.07533140975824551 -0.042716535030900463 0 -0.096603026261132929 -0.034305421669976667 0 -0.086476185362119928 -0.02448704739235693 0 -0.07533140975824551 -0.042716535030900463 0 -0.096603026261132929 -0.034305421669976667 0 -0.07533140975824551 -0.042716535030900463 0 -0.096603026261132929 -0.034305421669976667 0 -0.092287122529422769 -0.054168315087900917 0 -0.07533140975824551 -0.042716535030900463 0 -0.072818310244726459 -0.020963437407266309 0 -0.07533140975824551 -0.042716535030900463 0 -0.059137468143776913 -0.032295609575452799 0 -0.07533140975824551 -0.042716535030900463 0 -0.059923651795085783 -0.048808991560860361 0 -0.059137468143776913 -0.032295609575452799 0 -0.072818310244726459 -0.020963437407266309 0 -0.07533140975824551 -0.042716535030900463 0 -0.07533140975824551 -0.042716535030900463 0 -0.059923651795085783 -0.048808991560860361 0 -0.078365437269297067 -0.068978724922581641 0 -0.07533140975824551 -0.042716535030900463 0 -0.078365437269297067 -0.068978724922581641 0 -0.059923651795085783 -0.048808991560860361 0 -0.059202607139600183 -0.067025841296559294 0 -0.078365437269297067 -0.068978724922581641 0 -0.07533140975824551 -0.042716535030900463 0 -0.059923651795085783 -0.048808991560860361 0 -0.059923651795085783 -0.048808991560860361 0 -0.043996373657686723 -0.058216584569163198 0 -0.059202607139600183 -0.067025841296559294 0 -0.059923651795085783 -0.048808991560860361 0 -0.044064785797793903 -0.041388659676970613 0 -0.043996373657686723 -0.058216584569163198 0 -0.059923651795085783 -0.048808991560860361 0 -0.059137468143776913 -0.032295609575452799 0 -0.044064785797793903 -0.041388659676970613 0 -0.059137468143776913 -0.032295609575452799 0 -0.044064785797793903 -0.041388659676970613 0 -0.043820560598797832 -0.023930749018110081 0 -0.044064785797793903 -0.041388659676970613 0 -0.02230130259129191 -0.027516113498254668 0 -0.028138856928493411 -0.049422251994508393 0 -0.043996373657686723 -0.058216584569163198 0 -0.028138856928493411 -0.049422251994508393 0 -0.027170193800707759 -0.06675766020717909 0 -0.044064785797793903 -0.041388659676970613 0 -0.043996373657686723 -0.058216584569163198 0 -0.028138856928493411 -0.049422251994508393 0 -0.053515934265007059 -0.0021442215766564292 0 -0.057489386609264129 -0.01530000101729736 0 -0.070305210731209267 0.00078966021636795716 0 -0.053515934265007059 -0.0021442215766564292 0 -0.070305210731209267 0.00078966021636795716 0 -0.053515934265007059 -0.0021442215766564292 0 -0.057489386609264129 -0.01530000101729736 0 -0.044819245989980439 -0.0095632128376122241 0 -0.059137468143776913 -0.032295609575452799 0 -0.057489386609264129 -0.01530000101729736 0 -0.043820560598797832 -0.023930749018110081 0 -0.057489386609264129 -0.01530000101729736 0 -0.043820560598797832 -0.023930749018110081 0 -0.044819245989980439 -0.0095632128376122241 0 -0.044064785797793903 -0.041388659676970613 0 -0.043820560598797832 -0.023930749018110081 0 -0.02230130259129191 -0.027516113498254668 0 -0.043820560598797832 -0.023930749018110081 0 -0.029763101668789819 -0.010421036477943509 0 -0.02230130259129191 -0.027516113498254668 0 -0.043820560598797832 -0.023930749018110081 0 -0.044819245989980439 -0.0095632128376122241 0 -0.029763101668789819 -0.010421036477943509 0 -0.044819245989980439 -0.0095632128376122241 0 -0.029763101668789819 -0.010421036477943509 0 -0.039507246808043371 0.0039799439019462561 0 -0.053515934265007059 -0.0021442215766564292 0 -0.044819245989980439 -0.0095632128376122241 0 -0.039507246808043371 0.0039799439019462561 0 -0.029763101668789819 -0.010421036477943509 0 -0.008997232748784648 -0.016765234632687209 0 -0.01197704106536252 0.001359318301099606 0 -0.029763101668789819 -0.010421036477943509 0 -0.02230130259129191 -0.027516113498254668 0 -0.008997232748784648 -0.016765234632687209 0 -0.02230130259129191 -0.027516113498254668 0 -0.0050316350510105816 -0.027959140738199901 0 -0.008997232748784648 -0.016765234632687209 0 -0.0050316350510105816 -0.027959140738199901 0 -0.008997232748784648 -0.016765234632687209 0 0.004370854148992769 -0.02253930739916116 0 -0.008997232748784648 -0.016765234632687209 0 0.00097603369742981839 -0.011650801599665221 0 0.004370854148992769 -0.02253930739916116 0 -0.01197704106536252 0.001359318301099606 0 0.0063072361300760427 0.0010464569281274649 0 0.00097603369742981839 -0.011650801599665221 0 -0.008997232748784648 -0.016765234632687209 0 -0.01197704106536252 0.001359318301099606 0 0.00097603369742981839 -0.011650801599665221 0 -0.028138856928493411 -0.049422251994508393 0 -0.0090579422027809251 -0.040651314654816272 0 -0.01386731203177646 -0.05694975887451531 0 -0.028138856928493411 -0.049422251994508393 0 -0.01386731203177646 -0.05694975887451531 0 -0.027170193800707759 -0.06675766020717909 0 -0.02230130259129191 -0.027516113498254668 0 -0.028138856928493411 -0.049422251994508393 0 -0.0090579422027809251 -0.040651314654816272 0 -0.028138856928493411 -0.049422251994508393 0 -0.0090579422027809251 -0.040651314654816272 0 -0.0050316350510105816 -0.027959140738199901 0 -0.0090579422027809251 -0.040651314654816272 0 0.01002297252293188 -0.031880377315124629 0 -0.02230130259129191 -0.027516113498254668 0 -0.0050316350510105816 -0.027959140738199901 0 -0.0090579422027809251 -0.040651314654816272 0 -0.0090579422027809251 -0.040651314654816272 0 -0.0020128726821314639 -0.055086362309079352 0 0.0046609467179025846 -0.047930236769503483 0 -0.01386731203177646 -0.05694975887451531 0 -0.0020128726821314639 -0.055086362309079352 0 -0.0029566945447687429 -0.072831205206993432 0 -0.0090579422027809251 -0.040651314654816272 0 -0.01386731203177646 -0.05694975887451531 0 -0.0020128726821314639 -0.055086362309079352 0 -0.01386731203177646 -0.05694975887451531 0 -0.0029566945447687429 -0.072831205206993432 0 -0.027170193800707759 -0.06675766020717909 0 -0.0029566945447687429 -0.072831205206993432 0 -0.0068657119307818596 -0.093390293539410779 0 0.0053928023734826566 -0.085441489173526258 0 -0.0029566945447687429 -0.072831205206993432 0 -0.0068657119307818596 -0.093390293539410779 0 -0.025138695449766209 -0.085213590399611863 0 -0.0029566945447687429 -0.072831205206993432 0 -0.025138695449766209 -0.085213590399611863 0 -0.0029566945447687429 -0.072831205206993432 0 -0.025138695449766209 -0.085213590399611863 0 -0.027170193800707759 -0.06675766020717909 0 -0.043996373657686723 -0.058216584569163198 0 -0.027170193800707759 -0.06675766020717909 0 -0.045478146484439277 -0.07589610267890147 0 -0.025138695449766209 -0.085213590399611863 0 -0.027170193800707759 -0.06675766020717909 0 -0.045478146484439277 -0.07589610267890147 0 -0.025138695449766209 -0.085213590399611863 0 -0.045478146484439277 -0.07589610267890147 0 -0.047320696354763721 -0.097595975592230308 0 -0.025138695449766209 -0.085213590399611863 0 -0.047320696354763721 -0.097595975592230308 0 -0.063911579031359578 -0.085610371921718109 0 -0.045478146484439277 -0.07589610267890147 0 -0.047320696354763721 -0.097595975592230308 0 -0.043996373657686723 -0.058216584569163198 0 -0.045478146484439277 -0.07589610267890147 0 -0.059202607139600183 -0.067025841296559294 0 -0.063911579031359578 -0.085610371921718109 0 -0.045478146484439277 -0.07589610267890147 0 -0.059202607139600183 -0.067025841296559294 0 -0.06950269725976127 -0.10997836078484879 0 -0.065933511767723177 -0.12368393641194569 0 -0.049926929497316662 -0.1214420895078876 0 -0.06950269725976127 -0.10997836078484879 0 -0.049926929497316662 -0.1214420895078876 0 -0.047320696354763721 -0.097595975592230308 0 -0.063911579031359578 -0.085610371921718109 0 -0.06950269725976127 -0.10997836078484879 0 -0.047320696354763721 -0.097595975592230308 0 -0.06950269725976127 -0.10997836078484879 0 -0.047320696354763721 -0.097595975592230308 0 -0.025138695449766209 -0.085213590399611863 0 -0.047320696354763721 -0.097595975592230308 0 -0.025997477308268149 -0.10477914022733301 0 -0.049926929497316662 -0.1214420895078876 0 -0.047320696354763721 -0.097595975592230308 0 -0.025997477308268149 -0.10477914022733301 0 -0.049926929497316662 -0.1214420895078876 0 -0.029274028942705681 -0.12408749219554591 0 -0.025997477308268149 -0.10477914022733301 0 -0.029274028942705681 -0.12408749219554591 0 -0.025997477308268149 -0.10477914022733301 0 -0.0052067057407001278 -0.116175216957147 0 -0.0068657119307818596 -0.093390293539410779 0 -0.025138695449766209 -0.085213590399611863 0 -0.025997477308268149 -0.10477914022733301 0 -0.0068657119307818596 -0.093390293539410779 0 -0.0052067057407001278 -0.116175216957147 0 0.01174807677133107 -0.097400653476856863 0 -0.0068657119307818596 -0.093390293539410779 0 -0.025997477308268149 -0.10477914022733301 0 -0.0052067057407001278 -0.116175216957147 0 -0.029274028942705681 -0.12408749219554591 0 -0.0052067057407001278 -0.116175216957147 0 -0.01025876308806551 -0.14096282677464769 0 -0.029274028942705681 -0.12408749219554591 0 -0.01025876308806551 -0.14096282677464769 0 -0.036995001435820692 -0.1527218074145188 0 -0.01025876308806551 -0.14096282677464769 0 -0.036995001435820692 -0.1527218074145188 0 -0.01025876308806551 -0.14096282677464769 0 -0.019910277086965671 -0.1608739597840653 0 -0.036995001435820692 -0.1527218074145188 0 -0.01025876308806551 -0.14096282677464769 0 -0.0034896240684032698 -0.16246351977294571 0 0.0097293230729151442 -0.1488010493196375 0 -0.01025876308806551 -0.14096282677464769 0 -0.0034896240684032698 -0.16246351977294571 0 -0.019910277086965671 -0.1608739597840653 0 -0.0034896240684032698 -0.16246351977294571 0 -0.01776187308986845 -0.17583117802044909 0 -0.019910277086965671 -0.1608739597840653 0 -0.0034896240684032698 -0.16246351977294571 0 -0.01776187308986845 -0.17583117802044909 0 0.0043213010084911883 -0.18076402780552539 0 -0.01776187308986845 -0.17583117802044909 0 -0.010140332469224829 -0.19257128083262209 0 0.0043213010084911883 -0.18076402780552539 0 -0.01776187308986845 -0.17583117802044909 0 -0.025686986687324831 -0.1856654949251326 0 -0.010140332469224829 -0.19257128083262209 0 -0.01776187308986845 -0.17583117802044909 0 -0.025686986687324831 -0.1856654949251326 0 -0.025173770858047471 -0.17977901481736619 0 -0.01776187308986845 -0.17583117802044909 0 -0.031046123752670421 -0.17239046693776519 0 -0.025173770858047471 -0.17977901481736619 0 -0.031046123752670421 -0.17239046693776519 0 -0.025686986687324831 -0.1856654949251326 0 -0.025173770858047471 -0.17977901481736619 0 -0.031046123752670421 -0.17239046693776519 0 -0.019910277086965671 -0.1608739597840653 0 -0.036995001435820692 -0.1527218074145188 0 -0.01776187308986845 -0.17583117802044909 0 -0.031046123752670421 -0.17239046693776519 0 -0.019910277086965671 -0.1608739597840653 0 -0.031046123752670421 -0.17239046693776519 0 -0.04371828105334219 -0.17765603792045381 0 -0.036995001435820692 -0.1527218074145188 0 -0.04371828105334219 -0.17765603792045381 0 -0.036995001435820692 -0.1527218074145188 0 -0.025686986687324831 -0.1856654949251326 0 -0.04371828105334219 -0.17765603792045381 0 -0.036937901557288988 -0.19176201047708419 0 -0.031046123752670421 -0.17239046693776519 0 -0.025686986687324831 -0.1856654949251326 0 -0.04371828105334219 -0.17765603792045381 0 -0.025686986687324831 -0.1856654949251326 0 -0.04371828105334219 -0.17765603792045381 0 -0.04371828105334219 -0.17765603792045381 0 -0.071009364422131044 -0.1655334052122002 0 -0.066475469965711048 -0.18672467410929239 0 -0.061371191386940929 -0.16344280496028149 0 -0.036995001435820692 -0.1527218074145188 0 -0.04371828105334219 -0.17765603792045381 0 -0.071009364422131044 -0.1655334052122002 0 -0.04371828105334219 -0.17765603792045381 0 -0.061371191386940929 -0.16344280496028149 0 -0.036995001435820692 -0.1527218074145188 0 -0.04371828105334219 -0.17765603792045381 0 -0.061371191386940929 -0.16344280496028149 0 -0.071009364422131044 -0.1655334052122002 0 -0.060789887279453232 -0.14444049880197959 0 -0.044246461788824062 -0.13567297197998299 0 -0.036995001435820692 -0.1527218074145188 0 -0.061371191386940929 -0.16344280496028149 0 -0.060789887279453232 -0.14444049880197959 0 -0.036995001435820692 -0.1527218074145188 0 -0.065933511767723177 -0.12368393641194569 0 -0.049926929497316662 -0.1214420895078876 0 -0.060789887279453232 -0.14444049880197959 0 -0.049926929497316662 -0.1214420895078876 0 -0.060789887279453232 -0.14444049880197959 0 -0.044246461788824062 -0.13567297197998299 0 -0.049926929497316662 -0.1214420895078876 0 -0.029274028942705681 -0.12408749219554591 0 -0.044246461788824062 -0.13567297197998299 0 -0.029274028942705681 -0.12408749219554591 0 -0.036995001435820692 -0.1527218074145188 0 -0.029274028942705681 -0.12408749219554591 0 -0.044246461788824062 -0.13567297197998299 0 -0.036995001435820692 -0.1527218074145188 0 -0.022809030987913068 -0.24985646568987011 0 -0.0070889730310455673 -0.2378941384005995 0 -0.02939074816271102 -0.2318877511030365 0 -0.0097286136276360392 -0.25235965745278027 0 -0.0070889730310455673 -0.2378941384005995 0 0.0042978062406885866 -0.25604185687832598 0 -0.0097286136276360392 -0.25235965745278027 0 -0.022809030987913068 -0.24985646568987011 0 -0.0070889730310455673 -0.2378941384005995 0 -0.0070889730310455673 -0.2378941384005995 0 -0.0092100623105680676 -0.22134742028979409 0 -0.02939074816271102 -0.2318877511030365 0 -0.0070889730310455673 -0.2378941384005995 0 -0.0092100623105680676 -0.22134742028979409 0 0.0091434983530706317 -0.23480583460362181 0 -0.0092100623105680676 -0.22134742028979409 0 -0.02939074816271102 -0.2318877511030365 0 -0.026588005581571261 -0.21212136381235619 0 -0.026588005581571261 -0.21212136381235619 0 -0.0047408203339536197 -0.20348726134755721 0 -0.026588005581571261 -0.21212136381235619 0 -0.0047408203339536197 -0.20348726134755721 0 -0.026374914455838519 -0.19841703014341031 0 -0.026588005581571261 -0.21212136381235619 0 -0.026374914455838519 -0.19841703014341031 0 -0.03687310618148637 -0.20175936452341811 0 -0.0092100623105680676 -0.22134742028979409 0 -0.0047408203339536197 -0.20348726134755721 0 0.012445844385049851 -0.21811030591977129 0 -0.0092100623105680676 -0.22134742028979409 0 -0.026588005581571261 -0.21212136381235619 0 -0.0047408203339536197 -0.20348726134755721 0 -0.025686986687324831 -0.1856654949251326 0 -0.0047408203339536197 -0.20348726134755721 0 -0.010140332469224829 -0.19257128083262209 0 -0.010140332469224829 -0.19257128083262209 0 0.0054063217488721296 -0.19947706674011861 0 0.0043213010084911883 -0.18076402780552539 0 -0.025686986687324831 -0.1856654949251326 0 -0.0047408203339536197 -0.20348726134755721 0 -0.010140332469224829 -0.19257128083262209 0 0.0054063217488721296 -0.19947706674011861 0 -0.0047408203339536197 -0.20348726134755721 0 -0.010140332469224829 -0.19257128083262209 0 0.0054063217488721296 -0.19947706674011861 0 -0.025686986687324831 -0.1856654949251326 0 -0.0047408203339536197 -0.20348726134755721 0 -0.026374914455838519 -0.19841703014341031 0 -0.025686986687324831 -0.1856654949251326 0 -0.010140332469224829 -0.19257128083262209 0 -0.025686986687324831 -0.1856654949251326 0 -0.026374914455838519 -0.19841703014341031 0 -0.036937901557288988 -0.19176201047708419 0 -0.04371828105334219 -0.17765603792045381 0 -0.049940715533307492 -0.2007328136099876 0 -0.04371828105334219 -0.17765603792045381 0 -0.036937901557288988 -0.19176201047708419 0 -0.049940715533307492 -0.2007328136099876 0 -0.026374914455838519 -0.19841703014341031 0 -0.036937901557288988 -0.19176201047708419 0 -0.03687310618148637 -0.20175936452341811 0 -0.036937901557288988 -0.19176201047708419 0 -0.03687310618148637 -0.20175936452341811 0 -0.049940715533307492 -0.2007328136099876 0 -0.04371828105334219 -0.17765603792045381 0 -0.049940715533307492 -0.2007328136099876 0 -0.066475469965711048 -0.18672467410929239 0 -0.049940715533307492 -0.2007328136099876 0 -0.056163150013269408 -0.22380958929952241 0 -0.049940715533307492 -0.2007328136099876 0 -0.056163150013269408 -0.22380958929952241 0 -0.080311335558948233 -0.20340384973930201 0 -0.049940715533307492 -0.2007328136099876 0 -0.048435190829193168 -0.22075546627714451 0 -0.056163150013269408 -0.22380958929952241 0 -0.026588005581571261 -0.21212136381235619 0 -0.048435190829193168 -0.22075546627714451 0 -0.03687310618148637 -0.20175936452341811 0 -0.049940715533307492 -0.2007328136099876 0 -0.048435190829193168 -0.22075546627714451 0 -0.03687310618148637 -0.20175936452341811 0 -0.048435190829193168 -0.22075546627714451 0 -0.026588005581571261 -0.21212136381235619 0 -0.03687310618148637 -0.20175936452341811 0 -0.048435190829193168 -0.22075546627714451 0 -0.02939074816271102 -0.2318877511030365 0 -0.048435190829193168 -0.22075546627714451 0 -0.047123186138264522 -0.23616377483806539 0 -0.02939074816271102 -0.2318877511030365 0 -0.026588005581571261 -0.21212136381235619 0 -0.048435190829193168 -0.22075546627714451 0 -0.048435190829193168 -0.22075546627714451 0 -0.060831183549710413 -0.24112164990512841 0 -0.048435190829193168 -0.22075546627714451 0 -0.056163150013269408 -0.22380958929952241 0 -0.060831183549710413 -0.24112164990512841 0 -0.048435190829193168 -0.22075546627714451 0 -0.047123186138264522 -0.23616377483806539 0 -0.060831183549710413 -0.24112164990512841 0 -0.056163150013269408 -0.22380958929952241 0 -0.060831183549710413 -0.24112164990512841 0 -0.048435190829193168 -0.22075546627714451 0 -0.056163150013269408 -0.22380958929952241 0 -0.047123186138264522 -0.23616377483806539 0 -0.060831183549710413 -0.24112164990512841 0 -0.053384912262371333 -0.24546685943074689 0 -0.054168932319975723 -0.25767018119001089 0 -0.062061787452183291 -0.24568551800394081 0 -0.053384912262371333 -0.24546685943074689 0 -0.060831183549710413 -0.24112164990512841 0 -0.062061787452183291 -0.24568551800394081 0 -0.053384912262371333 -0.24546685943074689 0 -0.060831183549710413 -0.24112164990512841 0 -0.062061787452183291 -0.24568551800394081 0 -0.047123186138264522 -0.23616377483806539 0 -0.053384912262371333 -0.24546685943074689 0 -0.04251988657919141 -0.24803686420141019 0 -0.02939074816271102 -0.2318877511030365 0 -0.047123186138264522 -0.23616377483806539 0 -0.04251988657919141 -0.24803686420141019 0 -0.022809030987913068 -0.24985646568987011 0 -0.02939074816271102 -0.2318877511030365 0 -0.04251988657919141 -0.24803686420141019 0 -0.090354429711030498 -0.24908907313782919 0 -0.078405886419025142 -0.24956238045307519 0 -0.081604821740734967 -0.23386424842749171 0 -0.090354429711030498 -0.24908907313782919 0 -0.081604821740734967 -0.23386424842749171 0 -0.10704649346820121 -0.24391890755545939 0 -0.060831183549710413 -0.24112164990512841 0 -0.078405886419025142 -0.24956238045307519 0 -0.081604821740734967 -0.23386424842749171 0 -0.056163150013269408 -0.22380958929952241 0 -0.060831183549710413 -0.24112164990512841 0 -0.081604821740734967 -0.23386424842749171 0 -0.056163150013269408 -0.22380958929952241 0 -0.081604821740734967 -0.23386424842749171 0 -0.080311335558948233 -0.20340384973930201 0 -0.056163150013269408 -0.22380958929952241 0 -0.081604821740734967 -0.23386424842749171 0 -0.081604821740734967 -0.23386424842749171 0 -0.080311335558948233 -0.20340384973930201 0 -0.09861531738430615 -0.2193802526372953 0 -0.049940715533307492 -0.2007328136099876 0 -0.080311335558948233 -0.20340384973930201 0 -0.066475469965711048 -0.18672467410929239 0 -0.080311335558948233 -0.20340384973930201 0 -0.066475469965711048 -0.18672467410929239 0 -0.095739588422192184 -0.17961830353155589 0 -0.080311335558948233 -0.20340384973930201 0 -0.10821578548341521 -0.20078178418496501 0 -0.095739588422192184 -0.17961830353155589 0 -0.10821578548341521 -0.20078178418496501 0 -0.095739588422192184 -0.17961830353155589 0 -0.1203971361933983 -0.18690124410361919 0 -0.10821578548341521 -0.20078178418496501 0 -0.1203971361933983 -0.18690124410361919 0 -0.1327037502951979 -0.20443280804757311 0 -0.10821578548341521 -0.20078178418496501 0 -0.1200741735007174 -0.22193598706362069 0 -0.1327037502951979 -0.20443280804757311 0 -0.10821578548341521 -0.20078178418496501 0 -0.09861531738430615 -0.2193802526372953 0 -0.1200741735007174 -0.22193598706362069 0 -0.080311335558948233 -0.20340384973930201 0 -0.10821578548341521 -0.20078178418496501 0 -0.09861531738430615 -0.2193802526372953 0 -0.09861531738430615 -0.2193802526372953 0 -0.1200741735007174 -0.22193598706362069 0 -0.10704649346820121 -0.24391890755545939 0 -0.081604821740734967 -0.23386424842749171 0 -0.09861531738430615 -0.2193802526372953 0 -0.10704649346820121 -0.24391890755545939 0 -0.1200741735007174 -0.22193598706362069 0 -0.10704649346820121 -0.24391890755545939 0 -0.1257745985066126 -0.2379990510601743 0 -0.13248816519566781 -0.25397356668342608 0 -0.10704649346820121 -0.24391890755545939 0 -0.13248816519566781 -0.25397356668342608 0 -0.10704649346820121 -0.24391890755545939 0 -0.1257745985066126 -0.2379990510601743 0 -0.081604821740734967 -0.23386424842749171 0 -0.10704649346820121 -0.24391890755545939 0 -0.090313978194178135 -0.1381101014365245 0 -0.076709337630870095 -0.14955392342489951 0 -0.098300447790920925 -0.15341077250394869 0 -0.076709337630870095 -0.14955392342489951 0 -0.071009364422131044 -0.1655334052122002 0 -0.098300447790920925 -0.15341077250394869 0 -0.091684698164758743 -0.12236074597746729 0 -0.090313978194178135 -0.1381101014365245 0 -0.076237292722106081 -0.1334006223897235 0 -0.090313978194178135 -0.1381101014365245 0 -0.076237292722106081 -0.1334006223897235 0 -0.076709337630870095 -0.14955392342489951 0 -0.091684698164758743 -0.12236074597746729 0 -0.076237292722106081 -0.1334006223897235 0 -0.065933511767723177 -0.12368393641194569 0 -0.091684698164758743 -0.12236074597746729 0 -0.076237292722106081 -0.1334006223897235 0 -0.065933511767723177 -0.12368393641194569 0 -0.060789887279453232 -0.14444049880197959 0 -0.076237292722106081 -0.1334006223897235 0 -0.060789887279453232 -0.14444049880197959 0 -0.076237292722106081 -0.1334006223897235 0 -0.060789887279453232 -0.14444049880197959 0 -0.076237292722106081 -0.1334006223897235 0 -0.076709337630870095 -0.14955392342489951 0 -0.061371191386940929 -0.16344280496028149 0 -0.060789887279453232 -0.14444049880197959 0 -0.068075510826991995 -0.15579672513371659 0 -0.060789887279453232 -0.14444049880197959 0 -0.076709337630870095 -0.14955392342489951 0 -0.068075510826991995 -0.15579672513371659 0 -0.061371191386940929 -0.16344280496028149 0 -0.068075510826991995 -0.15579672513371659 0 -0.071009364422131044 -0.1655334052122002 0 -0.076709337630870095 -0.14955392342489951 0 -0.068075510826991995 -0.15579672513371659 0 -0.071009364422131044 -0.1655334052122002 0 -0.071009364422131044 -0.1655334052122002 0 -0.066475469965711048 -0.18672467410929239 0 -0.095739588422192184 -0.17961830353155589 0 -0.071009364422131044 -0.1655334052122002 0 -0.095739588422192184 -0.17961830353155589 0 -0.098300447790920925 -0.15341077250394869 0 -0.071009364422131044 -0.1655334052122002 0 -0.098300447790920925 -0.15341077250394869 0 -0.095739588422192184 -0.17961830353155589 0 -0.124960509471412 -0.16461423119349411 0 -0.098300447790920925 -0.15341077250394869 0 -0.095739588422192184 -0.17961830353155589 0 -0.1203971361933983 -0.18690124410361919 0 -0.124960509471412 -0.16461423119349411 0 -0.124960509471412 -0.16461423119349411 0 -0.098300447790920925 -0.15341077250394869 0 -0.12559153115971139 -0.1412881397956989 0 -0.098300447790920925 -0.15341077250394869 0 -0.1086381146622349 -0.1318244428865836 0 -0.12559153115971139 -0.1412881397956989 0 -0.098300447790920925 -0.15341077250394869 0 -0.12559153115971139 -0.1412881397956989 0 -0.090313978194178135 -0.1381101014365245 0 -0.098300447790920925 -0.15341077250394869 0 -0.1086381146622349 -0.1318244428865836 0 -0.091684698164758743 -0.12236074597746729 0 -0.090313978194178135 -0.1381101014365245 0 -0.1086381146622349 -0.1318244428865836 0 -0.091684698164758743 -0.12236074597746729 0 -0.1086381146622349 -0.1318244428865836 0 -0.1086381146622349 -0.1318244428865836 0 -0.124553493914561 -0.1281921757286425 0 -0.12559153115971139 -0.1412881397956989 0 -0.1141930027055752 -0.12045052136338801 0 -0.1086381146622349 -0.1318244428865836 0 -0.124553493914561 -0.1281921757286425 0 -0.1086381146622349 -0.1318244428865836 0 -0.12559153115971139 -0.1412881397956989 0 -0.124553493914561 -0.1281921757286425 0 -0.13323719662499589 -0.12968514696337349 0 -0.1380237415775914 -0.1222594539261945 0 -0.124553493914561 -0.1281921757286425 0 -0.1335746803617984 -0.13774204437968471 0 -0.13323719662499589 -0.12968514696337349 0 -0.124553493914561 -0.1281921757286425 0 -0.1335746803617984 -0.13774204437968471 0 -0.12559153115971139 -0.1412881397956989 0 -0.1335746803617984 -0.13774204437968471 0 -0.12559153115971139 -0.1412881397956989 0 -0.1335746803617984 -0.13774204437968471 0 -0.1382897624861843 -0.13167153875675261 0 -0.1487122052970575 -0.13729238083530451 0 -0.1335746803617984 -0.13774204437968471 0 -0.13323719662499589 -0.12968514696337349 0 -0.1382897624861843 -0.13167153875675261 0 -0.13323719662499589 -0.12968514696337349 0 -0.1382897624861843 -0.13167153875675261 0 -0.1380237415775914 -0.1222594539261945 0 -0.1637759653009154 -0.1357335373489641 0 -0.1380237415775914 -0.1222594539261945 0 -0.1382897624861843 -0.13167153875675261 0 -0.1487122052970575 -0.13729238083530451 0 -0.1380237415775914 -0.1222594539261945 0 -0.1637759653009154 -0.1357335373489641 0 -0.1380237415775914 -0.1222594539261945 0 -0.15310360602355261 -0.11765940490208961 0 -0.1487122052970575 -0.13729238083530451 0 -0.1637759653009154 -0.1357335373489641 0 -0.1380237415775914 -0.1222594539261945 0 -0.1444844086813375 -0.15183447814775711 0 -0.16337728620296399 -0.16238081649981431 0 -0.15858938379260279 -0.1484450456599633 0 -0.1487122052970575 -0.13729238083530451 0 -0.1444844086813375 -0.15183447814775711 0 -0.15858938379260279 -0.1484450456599633 0 -0.1335746803617984 -0.13774204437968471 0 -0.1487122052970575 -0.13729238083530451 0 -0.1444844086813375 -0.15183447814775711 0 -0.1335746803617984 -0.13774204437968471 0 -0.1444844086813375 -0.15183447814775711 0 -0.12559153115971139 -0.1412881397956989 0 -0.1444844086813375 -0.15183447814775711 0 -0.12559153115971139 -0.1412881397956989 0 -0.124960509471412 -0.16461423119349411 0 -0.1444844086813375 -0.15183447814775711 0 -0.12559153115971139 -0.1412881397956989 0 -0.124960509471412 -0.16461423119349411 0 -0.1444844086813375 -0.15183447814775711 0 -0.14744639953817049 -0.16855513294621241 0 -0.124960509471412 -0.16461423119349411 0 -0.14036604729477431 -0.1850590935605077 0 -0.14744639953817049 -0.16855513294621241 0 -0.1203971361933983 -0.18690124410361919 0 -0.124960509471412 -0.16461423119349411 0 -0.14036604729477431 -0.1850590935605077 0 -0.14036604729477431 -0.1850590935605077 0 -0.14744639953817049 -0.16855513294621241 0 -0.16154824658611411 -0.1818850892496427 0 -0.1444844086813375 -0.15183447814775711 0 -0.16337728620296399 -0.16238081649981431 0 -0.1444844086813375 -0.15183447814775711 0 -0.14744639953817049 -0.16855513294621241 0 -0.16337728620296399 -0.16238081649981431 0 -0.14744639953817049 -0.16855513294621241 0 -0.16337728620296399 -0.16238081649981431 0 -0.16154824658611411 -0.1818850892496427 0 -0.16337728620296399 -0.16238081649981431 0 -0.17515779410195501 -0.16584870260134191 0 -0.17284095552681031 -0.15391263372203259 0 -0.16337728620296399 -0.16238081649981431 0 -0.16154824658611411 -0.1818850892496427 0 -0.18227016372459029 -0.17292715485187191 0 -0.16154824658611411 -0.1818850892496427 0 -0.18227016372459029 -0.17292715485187191 0 -0.17980730824804289 -0.19284867750305551 0 -0.16337728620296399 -0.16238081649981431 0 -0.18227016372459029 -0.17292715485187191 0 -0.16337728620296399 -0.16238081649981431 0 -0.18227016372459029 -0.17292715485187191 0 -0.17515779410195501 -0.16584870260134191 0 -0.17515779410195501 -0.16584870260134191 0 -0.1863851843554136 -0.16154419167833711 0 -0.17284095552681031 -0.15391263372203259 0 -0.18227016372459029 -0.17292715485187191 0 -0.17515779410195501 -0.16584870260134191 0 -0.18227016372459029 -0.17292715485187191 0 -0.17515779410195501 -0.16584870260134191 0 -0.1863851843554136 -0.16154419167833711 0 -0.1637759653009154 -0.1357335373489641 0 -0.18952818902423929 -0.14920762077173369 0 -0.1863851843554136 -0.16154419167833711 0 -0.17284095552681031 -0.15391263372203259 0 -0.18952818902423929 -0.14920762077173369 0 -0.17284095552681031 -0.15391263372203259 0 -0.1637759653009154 -0.1357335373489641 0 -0.18952818902423929 -0.14920762077173369 0 -0.1637759653009154 -0.1357335373489641 0 -0.18933265822505441 -0.1291266537840581 0 -0.16877095194223141 -0.1158995655352173 0 -0.1637759653009154 -0.1357335373489641 0 -0.18933265822505441 -0.1291266537840581 0 -0.18952818902423929 -0.14920762077173369 0 -0.1487122052970575 -0.13729238083530451 0 -0.1637759653009154 -0.1357335373489641 0 -0.15858938379260279 -0.1484450456599633 0 -0.17284095552681031 -0.15391263372203259 0 -0.1637759653009154 -0.1357335373489641 0 -0.15858938379260279 -0.1484450456599633 0 -0.16337728620296399 -0.16238081649981431 0 -0.17284095552681031 -0.15391263372203259 0 -0.15858938379260279 -0.1484450456599633 0 -0.14643612556607791 -0.25149969696239582 0 -0.14348956186186429 -0.23216774293819031 0 -0.15629559109822491 -0.2389390416839535 0 -0.13248816519566781 -0.25397356668342608 0 -0.14643612556607791 -0.25149969696239582 0 -0.14348956186186429 -0.23216774293819031 0 -0.13248816519566781 -0.25397356668342608 0 -0.1257745985066126 -0.2379990510601743 0 -0.14348956186186429 -0.23216774293819031 0 -0.13248816519566781 -0.25397356668342608 0 -0.14348956186186429 -0.23216774293819031 0 -0.1200741735007174 -0.22193598706362069 0 -0.1257745985066126 -0.2379990510601743 0 -0.14348956186186429 -0.23216774293819031 0 -0.1200741735007174 -0.22193598706362069 0 -0.14348956186186429 -0.23216774293819031 0 -0.1327037502951979 -0.20443280804757311 0 -0.14348956186186429 -0.23216774293819031 0 -0.15449095852806979 -0.21036191919295921 0 -0.14348956186186429 -0.23216774293819031 0 -0.1618254627746909 -0.22828399025842319 0 -0.15629559109822491 -0.2389390416839535 0 -0.14348956186186429 -0.23216774293819031 0 -0.15449095852806979 -0.21036191919295921 0 -0.1618254627746909 -0.22828399025842319 0 -0.14348956186186429 -0.23216774293819031 0 -0.15449095852806979 -0.21036191919295921 0 -0.1327037502951979 -0.20443280804757311 0 -0.1203971361933983 -0.18690124410361919 0 -0.14036604729477431 -0.1850590935605077 0 -0.1327037502951979 -0.20443280804757311 0 -0.14036604729477431 -0.1850590935605077 0 -0.15449095852806979 -0.21036191919295921 0 -0.1327037502951979 -0.20443280804757311 0 -0.14036604729477431 -0.1850590935605077 0 -0.16154824658611411 -0.1818850892496427 0 -0.15449095852806979 -0.21036191919295921 0 -0.16154824658611411 -0.1818850892496427 0 -0.15449095852806979 -0.21036191919295921 0 -0.17980730824804289 -0.19284867750305551 0 -0.15449095852806979 -0.21036191919295921 0 -0.17980730824804289 -0.19284867750305551 0 -0.18254682041708459 -0.2148074115033177 0 -0.15449095852806979 -0.21036191919295921 0 -0.18254682041708459 -0.2148074115033177 0 -0.1618254627746909 -0.22828399025842319 0 -0.18254682041708459 -0.2148074115033177 0 -0.17343121419026639 -0.24380473657680471 0 -0.2004263028144547 -0.23610977619121351 0 -0.18254682041708459 -0.2148074115033177 0 -0.1618254627746909 -0.22828399025842319 0 -0.17343121419026639 -0.24380473657680471 0 -0.17343121419026639 -0.24380473657680471 0 -0.2004263028144547 -0.23610977619121351 0 -0.14643612556607791 -0.25149969696239582 0 -0.17343121419026639 -0.24380473657680471 0 -0.1618254627746909 -0.22828399025842319 0 -0.17343121419026639 -0.24380473657680471 0 -0.15629559109822491 -0.2389390416839535 0 -0.14643612556607791 -0.25149969696239582 0 -0.17343121419026639 -0.24380473657680471 0 -0.15629559109822491 -0.2389390416839535 0 -0.2090639122743285 -0.25967608715799001 0 -0.2004263028144547 -0.23610977619121351 0 -0.221619864150498 -0.24759283765506299 0 -0.2004263028144547 -0.23610977619121351 0 -0.22742139143864321 -0.2284148158056227 0 -0.221619864150498 -0.24759283765506299 0 -0.18965944461012729 -0.25530588987104907 0 -0.17343121419026639 -0.24380473657680471 0 -0.2004263028144547 -0.23610977619121351 0 -0.18254682041708459 -0.2148074115033177 0 -0.2004263028144547 -0.23610977619121351 0 -0.20265184356952701 -0.2168459478327063 0 -0.2004263028144547 -0.23610977619121351 0 -0.22742139143864321 -0.2284148158056227 0 -0.2004263028144547 -0.23610977619121351 0 -0.20265184356952701 -0.2168459478327063 0 -0.22742139143864321 -0.2284148158056227 0 -0.21870878834657101 -0.20919201145336649 0 -0.20265184356952701 -0.2168459478327063 0 -0.20048947603558001 -0.19105958315261981 0 -0.21870878834657101 -0.20919201145336649 0 -0.20265184356952701 -0.2168459478327063 0 -0.22742139143864321 -0.2284148158056227 0 -0.21870878834657101 -0.20919201145336649 0 -0.2166899145147462 -0.2047377265202662 0 -0.18254682041708459 -0.2148074115033177 0 -0.20265184356952701 -0.2168459478327063 0 -0.20048947603558001 -0.19105958315261981 0 -0.17980730824804289 -0.19284867750305551 0 -0.18254682041708459 -0.2148074115033177 0 -0.20048947603558001 -0.19105958315261981 0 -0.21870878834657101 -0.20919201145336649 0 -0.20048947603558001 -0.19105958315261981 0 -0.20048947603558001 -0.19105958315261981 0 -0.21070533001672601 -0.1953928900148702 0 -0.2052274264297162 -0.18574230489178309 0 -0.21870878834657101 -0.20919201145336649 0 -0.2166899145147462 -0.2047377265202662 0 -0.20048947603558001 -0.19105958315261981 0 -0.22818468913484191 -0.1985574549316948 0 -0.2052274264297162 -0.18574230489178309 0 -0.2166899145147462 -0.2047377265202662 0 -0.20048947603558001 -0.19105958315261981 0 -0.21070533001672601 -0.1953928900148702 0 -0.22818468913484191 -0.1985574549316948 0 -0.2052274264297162 -0.18574230489178309 0 -0.21982056126626409 -0.1856791322099107 0 -0.21708741766772779 -0.19738782456813481 0 -0.22818468913484191 -0.1985574549316948 0 -0.2052274264297162 -0.18574230489178309 0 -0.2166899145147462 -0.2047377265202662 0 -0.21070533001672601 -0.1953928900148702 0 -0.21708741766772779 -0.19738782456813481 0 -0.2166899145147462 -0.2047377265202662 0 -0.21708741766772779 -0.19738782456813481 0 -0.22208352411301291 -0.20312616905052791 0 -0.21070533001672601 -0.1953928900148702 0 -0.21708741766772779 -0.19738782456813481 0 -0.2052274264297162 -0.18574230489178309 0 -0.22818468913484191 -0.1985574549316948 0 -0.2376386546186682 -0.20175651551055901 0 -0.2363656402511751 -0.17736704534222281 0 -0.21708741766772779 -0.19738782456813481 0 -0.22818468913484191 -0.1985574549316948 0 -0.22208352411301291 -0.20312616905052791 0 -0.22818468913484191 -0.1985574549316948 0 -0.2284737088363806 -0.2060645390634101 0 -0.22208352411301291 -0.20312616905052791 0 -0.22818468913484191 -0.1985574549316948 0 -0.2376386546186682 -0.20175651551055901 0 -0.2284737088363806 -0.2060645390634101 0 -0.24950550547526451 -0.19888285929883651 0 -0.2363656402511751 -0.17736704534222281 0 -0.25362625710537301 -0.18645699761263629 0 -0.2376386546186682 -0.20175651551055901 0 -0.2363656402511751 -0.17736704534222281 0 -0.24950550547526451 -0.19888285929883651 0 -0.2376386546186682 -0.20175651551055901 0 -0.2363656402511751 -0.17736704534222281 0 -0.24950550547526451 -0.19888285929883651 0 -0.2376386546186682 -0.20175651551055901 0 -0.2439484508345223 -0.20754072803386969 0 -0.2376386546186682 -0.20175651551055901 0 -0.2439484508345223 -0.20754072803386969 0 -0.23542817741596189 -0.21381164323903129 0 -0.24950550547526451 -0.19888285929883651 0 -0.2439484508345223 -0.20754072803386969 0 -0.25166048950198172 -0.21090101610928241 0 -0.24459434835883689 -0.21569967510966001 0 -0.25144891957088078 -0.2225293564090782 0 -0.25166048950198172 -0.21090101610928241 0 -0.2439484508345223 -0.20754072803386969 0 -0.24459434835883689 -0.21569967510966001 0 -0.25166048950198172 -0.21090101610928241 0 -0.24459434835883689 -0.21569967510966001 0 -0.23542817741596189 -0.21381164323903129 0 -0.2416894933895038 -0.22434768786179821 0 -0.2439484508345223 -0.20754072803386969 0 -0.24459434835883689 -0.21569967510966001 0 -0.23542817741596189 -0.21381164323903129 0 -0.21870878834657101 -0.20919201145336649 0 -0.23566313280420531 -0.22606550426235739 0 -0.21870878834657101 -0.20919201145336649 0 -0.23542817741596189 -0.21381164323903129 0 -0.2284737088363806 -0.2060645390634101 0 -0.21870878834657101 -0.20919201145336649 0 -0.23542817741596189 -0.21381164323903129 0 -0.23566313280420531 -0.22606550426235739 0 -0.2376386546186682 -0.20175651551055901 0 -0.23542817741596189 -0.21381164323903129 0 -0.2284737088363806 -0.2060645390634101 0 -0.21870878834657101 -0.20919201145336649 0 -0.2284737088363806 -0.2060645390634101 0 -0.22208352411301291 -0.20312616905052791 0 -0.21870878834657101 -0.20919201145336649 0 -0.2166899145147462 -0.2047377265202662 0 -0.22208352411301291 -0.20312616905052791 0 -0.21870878834657101 -0.20919201145336649 0 -0.22742139143864321 -0.2284148158056227 0 -0.21870878834657101 -0.20919201145336649 0 -0.22742139143864321 -0.2284148158056227 0 -0.23566313280420531 -0.22606550426235739 0 -0.22742139143864321 -0.2284148158056227 0 -0.23566313280420531 -0.22606550426235739 0 -0.2416894933895038 -0.22434768786179821 0 -0.2501108441946493 -0.24044431760204099 0 -0.25144891957088078 -0.2225293564090782 0 -0.23566313280420531 -0.22606550426235739 0 -0.2416894933895038 -0.22434768786179821 0 -0.2501108441946493 -0.24044431760204099 0 -0.23542817741596189 -0.21381164323903129 0 -0.23566313280420531 -0.22606550426235739 0 -0.2416894933895038 -0.22434768786179821 0 -0.23566313280420531 -0.22606550426235739 0 -0.2416894933895038 -0.22434768786179821 0 -0.24459434835883689 -0.21569967510966001 0 -0.2416894933895038 -0.22434768786179821 0 -0.25144891957088078 -0.2225293564090782 0 -0.23566313280420531 -0.22606550426235739 0 -0.2501108441946493 -0.24044431760204099 0 -0.23903057428703331 -0.25402840662641629 0 -0.23566313280420531 -0.22606550426235739 0 -0.2501108441946493 -0.24044431760204099 0 -0.25183174931301627 -0.25323133939372139 0 -0.23903057428703331 -0.25402840662641629 0 -0.2501108441946493 -0.24044431760204099 0 -0.23903057428703331 -0.25402840662641629 0 -0.22742139143864321 -0.2284148158056227 0 -0.23903057428703331 -0.25402840662641629 0 -0.22742139143864321 -0.2284148158056227 0 -0.221619864150498 -0.24759283765506299 0 -0.23903057428703331 -0.25402840662641629 0 -0.22742139143864321 -0.2284148158056227 0 -0.23566313280420531 -0.22606550426235739 0 -0.20989436450787741 -0.14235374203289899 0 -0.21473224268190891 -0.15741215146324589 0 -0.22299992492461931 -0.13942851517873911 0 -0.20989436450787741 -0.14235374203289899 0 -0.20043590863334201 -0.16108674916252319 0 -0.21473224268190891 -0.15741215146324589 0 -0.20989436450787741 -0.14235374203289899 0 -0.22299992492461931 -0.13942851517873911 0 -0.2206792867515707 -0.1239141105014812 0 -0.20989436450787741 -0.14235374203289899 0 -0.2206792867515707 -0.1239141105014812 0 -0.20594581204367721 -0.1218148302044238 0 -0.20989436450787741 -0.14235374203289899 0 -0.18933265822505441 -0.1291266537840581 0 -0.20989436450787741 -0.14235374203289899 0 -0.18933265822505441 -0.1291266537840581 0 -0.20594581204367721 -0.1218148302044238 0 -0.20989436450787741 -0.14235374203289899 0 -0.18933265822505441 -0.1291266537840581 0 -0.18952818902423929 -0.14920762077173369 0 -0.20989436450787741 -0.14235374203289899 0 -0.18952818902423929 -0.14920762077173369 0 -0.20043590863334201 -0.16108674916252319 0 -0.1863851843554136 -0.16154419167833711 0 -0.18952818902423929 -0.14920762077173369 0 -0.20043590863334201 -0.16108674916252319 0 -0.1863851843554136 -0.16154419167833711 0 -0.1963529181278818 -0.17074488208481459 0 -0.20043590863334201 -0.16108674916252319 0 -0.18227016372459029 -0.17292715485187191 0 -0.1863851843554136 -0.16154419167833711 0 -0.1963529181278818 -0.17074488208481459 0 -0.1963529181278818 -0.17074488208481459 0 -0.20043590863334201 -0.16108674916252319 0 -0.20744590749634709 -0.17242400983955741 0 -0.18227016372459029 -0.17292715485187191 0 -0.2052274264297162 -0.18574230489178309 0 -0.18227016372459029 -0.17292715485187191 0 -0.20048947603558001 -0.19105958315261981 0 -0.18227016372459029 -0.17292715485187191 0 -0.1963529181278818 -0.17074488208481459 0 -0.2052274264297162 -0.18574230489178309 0 -0.18227016372459029 -0.17292715485187191 0 -0.17980730824804289 -0.19284867750305551 0 -0.20048947603558001 -0.19105958315261981 0 -0.18227016372459029 -0.17292715485187191 0 -0.20048947603558001 -0.19105958315261981 0 -0.2052274264297162 -0.18574230489178309 0 -0.1963529181278818 -0.17074488208481459 0 -0.2052274264297162 -0.18574230489178309 0 -0.20744590749634709 -0.17242400983955741 0 -0.2052274264297162 -0.18574230489178309 0 -0.20744590749634709 -0.17242400983955741 0 -0.21290097491209711 -0.17910175196954939 0 -0.20744590749634709 -0.17242400983955741 0 -0.21290097491209711 -0.17910175196954939 0 -0.2191100044560611 -0.17256156093694641 0 -0.21290097491209711 -0.17910175196954939 0 -0.21982056126626409 -0.1856791322099107 0 -0.2191100044560611 -0.17256156093694641 0 -0.2052274264297162 -0.18574230489178309 0 -0.21290097491209711 -0.17910175196954939 0 -0.21982056126626409 -0.1856791322099107 0 -0.20043590863334201 -0.16108674916252319 0 -0.20744590749634709 -0.17242400983955741 0 -0.21473224268190891 -0.15741215146324589 0 -0.20744590749634709 -0.17242400983955741 0 -0.21473224268190891 -0.15741215146324589 0 -0.2191100044560611 -0.17256156093694641 0 -0.21473224268190891 -0.15741215146324589 0 -0.2191100044560611 -0.17256156093694641 0 -0.23509262588368199 -0.15297757517388669 0 -0.2191100044560611 -0.17256156093694641 0 -0.2363656402511751 -0.17736704534222281 0 -0.23509262588368199 -0.15297757517388669 0 -0.21982056126626409 -0.1856791322099107 0 -0.2191100044560611 -0.17256156093694641 0 -0.2363656402511751 -0.17736704534222281 0 -0.22818468913484191 -0.1985574549316948 0 -0.21982056126626409 -0.1856791322099107 0 -0.2363656402511751 -0.17736704534222281 0 -0.2363656402511751 -0.17736704534222281 0 -0.25362625710537301 -0.18645699761263629 0 -0.25097896693593602 -0.16889208695044211 0 -0.2363656402511751 -0.17736704534222281 0 -0.23509262588368199 -0.15297757517388669 0 -0.2363656402511751 -0.17736704534222281 0 -0.23509262588368199 -0.15297757517388669 0 -0.25097896693593602 -0.16889208695044211 0 -0.23509262588368199 -0.15297757517388669 0 -0.25097896693593602 -0.16889208695044211 0 -0.25572092066513219 -0.15306998945925929 0 -0.23509262588368199 -0.15297757517388669 0 -0.25572092066513219 -0.15306998945925929 0 -0.25093210300509278 -0.13645293483133961 0 -0.23509262588368199 -0.15297757517388669 0 -0.2338196115161888 -0.12858810500555051 0 -0.21473224268190891 -0.15741215146324589 0 -0.23509262588368199 -0.15297757517388669 0 -0.22299992492461931 -0.13942851517873911 0 -0.23509262588368199 -0.15297757517388669 0 -0.22299992492461931 -0.13942851517873911 0 -0.2338196115161888 -0.12858810500555051 0 -0.22299992492461931 -0.13942851517873911 0 -0.2338196115161888 -0.12858810500555051 0 -0.2206792867515707 -0.1239141105014812 0 -0.23509262588368199 -0.15297757517388669 0 -0.2338196115161888 -0.12858810500555051 0 -0.25093210300509278 -0.13645293483133961 0 -0.2338196115161888 -0.12858810500555051 0 -0.24929734647927171 -0.1238637837538919 0 -0.25093210300509278 -0.13645293483133961 0 -0.24929734647927171 -0.1238637837538919 0 -0.24231712350917869 -0.1150855353005908 0 -0.25425372042747008 -0.11319065916316499 0 -0.2338196115161888 -0.12858810500555051 0 -0.24231712350917869 -0.1150855353005908 0 -0.23254659714869569 -0.1041986348372143 0 -0.2338196115161888 -0.12858810500555051 0 -0.24929734647927171 -0.1238637837538919 0 -0.24231712350917869 -0.1150855353005908 0 -0.24231712350917869 -0.1150855353005908 0 -0.24366985579822281 -0.1049523647137398 0 -0.25425372042747008 -0.11319065916316499 0 -0.24366985579822281 -0.1049523647137398 0 -0.25425372042747008 -0.11319065916316499 0 -0.25177196309779221 -0.096668232575091828 0 -0.24366985579822281 -0.1049523647137398 0 -0.23918628293415081 -0.092386206617686512 0 -0.25177196309779221 -0.096668232575091828 0 -0.24366985579822281 -0.1049523647137398 0 -0.23254659714869569 -0.1041986348372143 0 -0.23918628293415081 -0.092386206617686512 0 -0.24231712350917869 -0.1150855353005908 0 -0.24366985579822281 -0.1049523647137398 0 -0.23254659714869569 -0.1041986348372143 0 -0.23254659714869569 -0.1041986348372143 0 -0.23010595521713939 -0.1136353809504153 0 -0.210296949579514 -0.09546009953996426 0 -0.23254659714869569 -0.1041986348372143 0 -0.23918628293415081 -0.092386206617686512 0 -0.22437194513491959 -0.087188277015608301 0 -0.23010595521713939 -0.1136353809504153 0 -0.210296949579514 -0.09546009953996426 0 -0.23254659714869569 -0.1041986348372143 0 -0.22437194513491959 -0.087188277015608301 0 -0.210296949579514 -0.09546009953996426 0 -0.2338196115161888 -0.12858810500555051 0 -0.23254659714869569 -0.1041986348372143 0 -0.23010595521713939 -0.1136353809504153 0 -0.2338196115161888 -0.12858810500555051 0 -0.23254659714869569 -0.1041986348372143 0 -0.2206792867515707 -0.1239141105014812 0 -0.23010595521713939 -0.1136353809504153 0 -0.21383883381093441 -0.1121356946206901 0 -0.2338196115161888 -0.12858810500555051 0 -0.2206792867515707 -0.1239141105014812 0 -0.23010595521713939 -0.1136353809504153 0 -0.23509560766029841 -0.076918186559056773 0 -0.23549803516859341 -0.057633022928252411 0 -0.2501192247690982 -0.068758624578275848 0 -0.23509560766029841 -0.076918186559056773 0 -0.2475034128029481 -0.08336319830717645 0 -0.2501192247690982 -0.068758624578275848 0 -0.23509560766029841 -0.076918186559056773 0 -0.2475034128029481 -0.08336319830717645 0 -0.23918628293415081 -0.092386206617686512 0 -0.2475034128029481 -0.08336319830717645 0 -0.23918628293415081 -0.092386206617686512 0 -0.25177196309779221 -0.096668232575091828 0 -0.23509560766029841 -0.076918186559056773 0 -0.23918628293415081 -0.092386206617686512 0 -0.22437194513491959 -0.087188277015608301 0 -0.23509560766029841 -0.076918186559056773 0 -0.22314034256350429 -0.070185980402331982 0 -0.23549803516859341 -0.057633022928252411 0 -0.23509560766029841 -0.076918186559056773 0 -0.22437194513491959 -0.087188277015608301 0 -0.22314034256350429 -0.070185980402331982 0 -0.22314034256350429 -0.070185980402331982 0 -0.20767767651553171 -0.078895087993158169 0 -0.2130584483381785 -0.050295327515584291 0 -0.20767767651553171 -0.078895087993158169 0 -0.2130584483381785 -0.050295327515584291 0 -0.22437194513491959 -0.087188277015608301 0 -0.20767767651553171 -0.078895087993158169 0 -0.210296949579514 -0.09546009953996426 0 -0.22437194513491959 -0.087188277015608301 0 -0.22314034256350429 -0.070185980402331982 0 -0.20767767651553171 -0.078895087993158169 0 -0.1904879439418885 -0.077284818129513141 0 -0.210296949579514 -0.09546009953996426 0 -0.19461049308673911 -0.094986156978199301 0 -0.1904879439418885 -0.077284818129513141 0 -0.210296949579514 -0.09546009953996426 0 -0.20767767651553171 -0.078895087993158169 0 -0.1904879439418885 -0.077284818129513141 0 -0.210296949579514 -0.09546009953996426 0 -0.1904879439418885 -0.077284818129513141 0 -0.19461049308673911 -0.094986156978199301 0 -0.18228686912450401 -0.091015305440701591 0 -0.20767767651553171 -0.078895087993158169 0 -0.1904879439418885 -0.077284818129513141 0 -0.19376244510658699 -0.058284694120863352 0 -0.20594581204367721 -0.1218148302044238 0 -0.21383883381093441 -0.1121356946206901 0 -0.20194124392974641 -0.1066617441333846 0 -0.2206792867515707 -0.1239141105014812 0 -0.20594581204367721 -0.1218148302044238 0 -0.21383883381093441 -0.1121356946206901 0 -0.23010595521713939 -0.1136353809504153 0 -0.21383883381093441 -0.1121356946206901 0 -0.210296949579514 -0.09546009953996426 0 -0.21383883381093441 -0.1121356946206901 0 -0.210296949579514 -0.09546009953996426 0 -0.20194124392974641 -0.1066617441333846 0 -0.210296949579514 -0.09546009953996426 0 -0.20194124392974641 -0.1066617441333846 0 -0.19461049308673911 -0.094986156978199301 0 -0.19461049308673911 -0.094986156978199301 0 -0.18803945885804221 -0.1045088176474329 0 -0.18228686912450401 -0.091015305440701591 0 -0.20194124392974641 -0.1066617441333846 0 -0.19461049308673911 -0.094986156978199301 0 -0.18803945885804221 -0.1045088176474329 0 -0.20194124392974641 -0.1066617441333846 0 -0.18803945885804221 -0.1045088176474329 0 -0.19283888377740391 -0.1163128960314511 0 -0.18933265822505441 -0.1291266537840581 0 -0.20594581204367721 -0.1218148302044238 0 -0.19283888377740391 -0.1163128960314511 0 -0.20594581204367721 -0.1218148302044238 0 -0.20194124392974641 -0.1066617441333846 0 -0.19283888377740391 -0.1163128960314511 0 -0.18933265822505441 -0.1291266537840581 0 -0.19283888377740391 -0.1163128960314511 0 -0.16877095194223141 -0.1158995655352173 0 -0.18933265822505441 -0.1291266537840581 0 -0.16877095194223141 -0.1158995655352173 0 -0.18803945885804221 -0.1045088176474329 0 -0.19283888377740391 -0.1163128960314511 0 -0.16877095194223141 -0.1158995655352173 0 -0.1637759653009154 -0.1357335373489641 0 -0.16877095194223141 -0.1158995655352173 0 -0.15310360602355261 -0.11765940490208961 0 -0.16877095194223141 -0.1158995655352173 0 -0.15310360602355261 -0.11765940490208961 0 -0.1482092456594083 -0.1026724772863765 0 -0.16877095194223141 -0.1158995655352173 0 -0.1482092456594083 -0.1026724772863765 0 -0.17177812307220311 -0.1011821235790662 0 -0.16529050194948611 -0.087935027159728146 0 -0.1482092456594083 -0.1026724772863765 0 -0.16877095194223141 -0.1158995655352173 0 -0.17177812307220311 -0.1011821235790662 0 -0.1482092456594083 -0.1026724772863765 0 -0.18803945885804221 -0.1045088176474329 0 -0.16877095194223141 -0.1158995655352173 0 -0.17177812307220311 -0.1011821235790662 0 -0.18803945885804221 -0.1045088176474329 0 -0.17177812307220311 -0.1011821235790662 0 -0.18228686912450401 -0.091015305440701591 0 -0.17177812307220311 -0.1011821235790662 0 -0.18228686912450401 -0.091015305440701591 0 -0.16529050194948611 -0.087935027159728146 0 -0.1904879439418885 -0.077284818129513141 0 -0.18228686912450401 -0.091015305440701591 0 -0.1730299303942836 -0.076852330580081285 0 -0.18228686912450401 -0.091015305440701591 0 -0.1730299303942836 -0.076852330580081285 0 -0.16529050194948611 -0.087935027159728146 0 -0.1904879439418885 -0.077284818129513141 0 -0.17067893830426301 -0.059109536719062009 0 -0.19376244510658699 -0.058284694120863352 0 -0.1904879439418885 -0.077284818129513141 0 -0.17067893830426301 -0.059109536719062009 0 -0.1904879439418885 -0.077284818129513141 0 -0.1730299303942836 -0.076852330580081285 0 -0.17067893830426301 -0.059109536719062009 0 -0.1730299303942836 -0.076852330580081285 0 -0.15640539865127631 -0.068916965451401468 0 -0.17067893830426301 -0.059109536719062009 0 -0.1730299303942836 -0.076852330580081285 0 -0.15640539865127631 -0.068916965451401468 0 -0.16529050194948611 -0.087935027159728146 0 -0.15640539865127631 -0.068916965451401468 0 -0.16529050194948611 -0.087935027159728146 0 -0.15028766251766251 -0.083519186952888236 0 -0.16529050194948611 -0.087935027159728146 0 -0.15028766251766251 -0.083519186952888236 0 -0.1482092456594083 -0.1026724772863765 0 -0.15028766251766251 -0.083519186952888236 0 -0.13774394484781699 -0.083901450718684115 0 -0.1482092456594083 -0.1026724772863765 0 -0.15028766251766251 -0.083519186952888236 0 -0.14345068384045959 -0.074301669873333615 0 -0.13774394484781699 -0.083901450718684115 0 -0.15640539865127631 -0.068916965451401468 0 -0.15028766251766251 -0.083519186952888236 0 -0.14345068384045959 -0.074301669873333615 0 -0.15640539865127631 -0.068916965451401468 0 -0.14345068384045959 -0.074301669873333615 0 -0.14084001037479121 -0.062679529271818912 0 -0.14084001037479121 -0.062679529271818912 0 -0.13197640281075099 -0.072491216971875327 0 -0.12643597956351629 -0.061731045311098888 0 -0.14345068384045959 -0.074301669873333615 0 -0.14084001037479121 -0.062679529271818912 0 -0.13197640281075099 -0.072491216971875327 0 -0.14345068384045959 -0.074301669873333615 0 -0.13197640281075099 -0.072491216971875327 0 -0.13774394484781699 -0.083901450718684115 0 -0.11977706095957399 -0.071398786364969574 0 -0.13197640281075099 -0.072491216971875327 0 -0.1256926547185481 -0.080448655837959543 0 -0.11977706095957399 -0.071398786364969574 0 -0.13197640281075099 -0.072491216971875327 0 -0.12643597956351629 -0.061731045311098888 0 -0.13774394484781699 -0.083901450718684115 0 -0.1276475393765853 -0.089445389037535614 0 -0.1482092456594083 -0.1026724772863765 0 -0.13774394484781699 -0.083901450718684115 0 -0.1256926547185481 -0.080448655837959543 0 -0.1276475393765853 -0.089445389037535614 0 -0.13197640281075099 -0.072491216971875327 0 -0.13774394484781699 -0.083901450718684115 0 -0.1256926547185481 -0.080448655837959543 0 -0.1210691294831146 -0.093365868349673087 0 -0.1276475393765853 -0.089445389037535614 0 -0.1282882019553169 -0.096201132338563256 0 -0.1276475393765853 -0.089445389037535614 0 -0.1482092456594083 -0.1026724772863765 0 -0.1282882019553169 -0.096201132338563256 0 -0.1339475495512448 -0.104630621625181 0 -0.1482092456594083 -0.1026724772863765 0 -0.1276475393765853 -0.089445389037535614 0 -0.1282882019553169 -0.096201132338563256 0 -0.1482092456594083 -0.1026724772863765 0 -0.1339475495512448 -0.104630621625181 0 -0.13971504109451821 -0.1108678619737799 0 -0.1482092456594083 -0.1026724772863765 0 -0.1339475495512448 -0.104630621625181 0 -0.12927059236926389 -0.1098319103066269 0 -0.13971504109451821 -0.1108678619737799 0 -0.1339475495512448 -0.104630621625181 0 -0.12546166578829279 -0.10449582084405171 0 -0.12927059236926389 -0.1098319103066269 0 -0.1282882019553169 -0.096201132338563256 0 -0.1339475495512448 -0.104630621625181 0 -0.12546166578829279 -0.10449582084405171 0 -0.11227151785426751 -0.108785370503425 0 -0.1380237415775914 -0.1222594539261945 0 -0.1141930027055752 -0.12045052136338801 0 -0.124553493914561 -0.1281921757286425 0 -0.1380237415775914 -0.1222594539261945 0 -0.11227151785426751 -0.108785370503425 0 -0.12927059236926389 -0.1098319103066269 0 -0.1380237415775914 -0.1222594539261945 0 -0.12927059236926389 -0.1098319103066269 0 -0.1380237415775914 -0.1222594539261945 0 -0.13971504109451821 -0.1108678619737799 0 -0.13971504109451821 -0.1108678619737799 0 -0.15310360602355261 -0.11765940490208961 0 -0.1482092456594083 -0.1026724772863765 0 -0.1380237415775914 -0.1222594539261945 0 -0.13971504109451821 -0.1108678619737799 0 -0.15310360602355261 -0.11765940490208961 0 -0.15264550735809521 -0.027320956315973879 0 -0.1391462592669078 -0.01748319494812901 0 -0.1647793876409058 -0.0073474749609078434 0 -0.15264550735809521 -0.027320956315973879 0 -0.1391462592669078 -0.01748319494812901 0 -0.13982187886954631 -0.033944235447150153 0 -0.14585391048571231 -0.0024431993864051501 0 -0.1391462592669078 -0.01748319494812901 0 -0.1647793876409058 -0.0073474749609078434 0 -0.14585391048571231 -0.0024431993864051501 0 -0.1647793876409058 -0.0073474749609078434 0 -0.15431607014499149 0.0079353612233126342 0 -0.14585391048571231 -0.0024431993864051501 0 -0.1391462592669078 -0.01748319494812901 0 -0.13793630684459571 0.011996523739471431 0 -0.1391462592669078 -0.01748319494812901 0 -0.1647793876409058 -0.0073474749609078434 0 -0.1391462592669078 -0.01748319494812901 0 -0.13793630684459571 0.011996523739471431 0 -0.12811938589261601 -0.0038740722286955912 0 -0.1391462592669078 -0.01748319494812901 0 -0.13793630684459571 0.011996523739471431 0 -0.11980408171205451 -0.012424682282892721 0 -0.12811938589261601 -0.0038740722286955912 0 -0.1391462592669078 -0.01748319494812901 0 -0.1178746427640204 -0.025894308309052691 0 -0.1391462592669078 -0.01748319494812901 0 -0.12721641535463721 -0.035730455700907118 0 -0.1391462592669078 -0.01748319494812901 0 -0.13982187886954631 -0.033944235447150153 0 -0.11980408171205451 -0.012424682282892721 0 -0.1178746427640204 -0.025894308309052691 0 -0.1391462592669078 -0.01748319494812901 0 -0.1178746427640204 -0.025894308309052691 0 -0.1391462592669078 -0.01748319494812901 0 -0.1391462592669078 -0.01748319494812901 0 -0.12721641535463721 -0.035730455700907118 0 -0.13982187886954631 -0.033944235447150153 0 -0.12461367979075789 -0.0491727700495131 0 -0.12721641535463721 -0.035730455700907118 0 -0.1372503779901913 -0.048689491970356817 0 -0.12721641535463721 -0.035730455700907118 0 -0.13982187886954631 -0.033944235447150153 0 -0.1372503779901913 -0.048689491970356817 0 -0.12461367979075789 -0.0491727700495131 0 -0.12643597956351629 -0.061731045311098888 0 -0.1372503779901913 -0.048689491970356817 0 -0.14084001037479121 -0.062679529271818912 0 -0.12643597956351629 -0.061731045311098888 0 -0.1372503779901913 -0.048689491970356817 0 -0.15640539865127631 -0.068916965451401468 0 -0.14084001037479121 -0.062679529271818912 0 -0.1521948587808564 -0.046985678050767407 0 -0.14084001037479121 -0.062679529271818912 0 -0.1372503779901913 -0.048689491970356817 0 -0.1521948587808564 -0.046985678050767407 0 -0.15264550735809521 -0.027320956315973879 0 -0.13982187886954631 -0.033944235447150153 0 -0.1521948587808564 -0.046985678050767407 0 -0.13982187886954631 -0.033944235447150153 0 -0.1372503779901913 -0.048689491970356817 0 -0.1521948587808564 -0.046985678050767407 0 -0.1521948587808564 -0.046985678050767407 0 -0.17067893830426301 -0.059109536719062009 0 -0.16728515223225979 -0.030844198172915251 0 -0.15264550735809521 -0.027320956315973879 0 -0.1521948587808564 -0.046985678050767407 0 -0.16728515223225979 -0.030844198172915251 0 -0.15640539865127631 -0.068916965451401468 0 -0.1521948587808564 -0.046985678050767407 0 -0.17067893830426301 -0.059109536719062009 0 -0.17067893830426301 -0.059109536719062009 0 -0.19029146645307951 -0.03105471914354303 0 -0.19376244510658699 -0.058284694120863352 0 -0.17067893830426301 -0.059109536719062009 0 -0.16728515223225979 -0.030844198172915251 0 -0.19029146645307951 -0.03105471914354303 0 -0.16728515223225979 -0.030844198172915251 0 -0.1822162013154893 -0.01272298916753602 0 -0.19029146645307951 -0.03105471914354303 0 -0.15264550735809521 -0.027320956315973879 0 -0.16728515223225979 -0.030844198172915251 0 -0.1647793876409058 -0.0073474749609078434 0 -0.16728515223225979 -0.030844198172915251 0 -0.1647793876409058 -0.0073474749609078434 0 -0.1822162013154893 -0.01272298916753602 0 -0.1647793876409058 -0.0073474749609078434 0 -0.1822162013154893 -0.01272298916753602 0 -0.1904125160149038 0.002788245026313058 0 -0.1647793876409058 -0.0073474749609078434 0 -0.1904125160149038 0.002788245026313058 0 -0.1822162013154893 -0.01272298916753602 0 -0.2083861203033745 -0.0049981216447641669 0 -0.1904125160149038 0.002788245026313058 0 -0.1822162013154893 -0.01272298916753602 0 -0.19029146645307951 -0.03105471914354303 0 -0.2083861203033745 -0.0049981216447641669 0 -0.19029146645307951 -0.03105471914354303 0 -0.21843922016082529 -0.021695567038010549 0 -0.2083861203033745 -0.0049981216447641669 0 -0.21843922016082529 -0.021695567038010549 0 -0.2083861203033745 -0.0049981216447641669 0 -0.22381999198347211 0.0069041934395632013 0 -0.19029146645307951 -0.03105471914354303 0 -0.19376244510658699 -0.058284694120863352 0 -0.2130584483381785 -0.050295327515584291 0 -0.19029146645307951 -0.03105471914354303 0 -0.21843922016082529 -0.021695567038010549 0 -0.2130584483381785 -0.050295327515584291 0 -0.21843922016082529 -0.021695567038010549 0 -0.2130584483381785 -0.050295327515584291 0 -0.20767767651553171 -0.078895087993158169 0 -0.19376244510658699 -0.058284694120863352 0 -0.2130584483381785 -0.050295327515584291 0 -0.22314034256350429 -0.070185980402331982 0 -0.2130584483381785 -0.050295327515584291 0 -0.23549803516859341 -0.057633022928252411 0 -0.2130584483381785 -0.050295327515584291 0 -0.24048575696599481 -0.032532615641330517 0 -0.23549803516859341 -0.057633022928252411 0 -0.21843922016082529 -0.021695567038010549 0 -0.2130584483381785 -0.050295327515584291 0 -0.24048575696599481 -0.032532615641330517 0 -0.24048575696599481 -0.032532615641330517 0 -0.23549803516859341 -0.057633022928252411 0 -0.25364594507212251 -0.048969902135762633 0 -0.23549803516859341 -0.057633022928252411 0 -0.25364594507212251 -0.048969902135762633 0 -0.2501192247690982 -0.068758624578275848 0 -0.21843922016082529 -0.021695567038010549 0 -0.22381999198347211 0.0069041934395632013 0 -0.21843922016082529 -0.021695567038010549 0 -0.23379007600127369 -0.003718801751831164 0 -0.22381999198347211 0.0069041934395632013 0 -0.21843922016082529 -0.021695567038010549 0 -0.23379007600127369 -0.003718801751831164 0 -0.2404780809278324 -0.014879338801027001 0 -0.21843922016082529 -0.021695567038010549 0 -0.24048575696599481 -0.032532615641330517 0 -0.2404780809278324 -0.014879338801027001 0 -0.24048575696599481 -0.032532615641330517 0 -0.2404780809278324 -0.014879338801027001 0 -0.2619940657845109 -0.01596096717032755 0 -0.23379007600127369 -0.003718801751831164 0 -0.2404780809278324 -0.014879338801027001 0 -0.2476812857265574 -0.00048874240363525783 0 -0.2404780809278324 -0.014879338801027001 0 -0.2476812857265574 -0.00048874240363525783 0 -0.2619940657845109 -0.01596096717032755 0 -0.2476812857265574 -0.00048874240363525783 0 -0.26128693094488509 -0.00078928531848339637 0 -0.2619940657845109 -0.01596096717032755 0 -0.2619940657845109 -0.01596096717032755 0 -0.27381040030869591 -0.037891744656280243 0 -0.25811262679335961 -0.033092462530353382 0 -0.24048575696599481 -0.032532615641330517 0 -0.2619940657845109 -0.01596096717032755 0 -0.25811262679335961 -0.033092462530353382 0 -0.2619940657845109 -0.01596096717032755 0 -0.28499390076906311 -0.016825005539927881 0 -0.27381040030869591 -0.037891744656280243 0 -0.2619940657845109 -0.01596096717032755 0 -0.28499390076906311 -0.016825005539927881 0 -0.27474322859119898 0.00066054829782829041 0 -0.26128693094488509 -0.00078928531848339637 0 -0.2619940657845109 -0.01596096717032755 0 -0.27474322859119898 0.00066054829782829041 0 -0.29186197708965789 -0.0021013430792621531 0 -0.28499390076906311 -0.016825005539927881 0 -0.27474322859119898 0.00066054829782829041 0 -0.29186197708965789 -0.0021013430792621531 0 -0.28499390076906311 -0.016825005539927881 0 -0.30590744426632788 -0.014886382830086481 0 -0.28499390076906311 -0.016825005539927881 0 -0.29095529284896599 -0.033435931659844667 0 -0.27381040030869591 -0.037891744656280243 0 -0.28499390076906311 -0.016825005539927881 0 -0.30590744426632788 -0.014886382830086481 0 -0.29095529284896599 -0.033435931659844667 0 -0.30590744426632788 -0.014886382830086481 0 -0.30716733871483948 -0.036269748600590818 0 -0.29095529284896599 -0.033435931659844667 0 -0.30590744426632788 -0.014886382830086481 0 -0.30578893155081932 -0.0017932752882775229 0 -0.31728932138840138 0.00013825063324591011 0 -0.29186197708965789 -0.0021013430792621531 0 -0.30590744426632788 -0.014886382830086481 0 -0.30578893155081932 -0.0017932752882775229 0 -0.31173961125274358 -0.060900159835823732 0 -0.30716733871483948 -0.036269748600590818 0 -0.28926625873196321 -0.058875679806912662 0 -0.30716733871483948 -0.036269748600590818 0 -0.28926625873196321 -0.058875679806912662 0 -0.30716733871483948 -0.036269748600590818 0 -0.29095529284896599 -0.033435931659844667 0 -0.28926625873196321 -0.058875679806912662 0 -0.29095529284896599 -0.033435931659844667 0 -0.28926625873196321 -0.058875679806912662 0 -0.27381040030869591 -0.037891744656280243 0 -0.28926625873196321 -0.058875679806912662 0 -0.26759762134999732 -0.062277363028074482 0 -0.27381040030869591 -0.037891744656280243 0 -0.24048575696599481 -0.032532615641330517 0 -0.25811262679335961 -0.033092462530353382 0 -0.25364594507212251 -0.048969902135762633 0 -0.27381040030869591 -0.037891744656280243 0 -0.25811262679335961 -0.033092462530353382 0 -0.25364594507212251 -0.048969902135762633 0 -0.26759762134999732 -0.062277363028074482 0 -0.27381040030869591 -0.037891744656280243 0 -0.25364594507212251 -0.048969902135762633 0 -0.26759762134999732 -0.062277363028074482 0 -0.25364594507212251 -0.048969902135762633 0 -0.2501192247690982 -0.068758624578275848 0 -0.26759762134999732 -0.062277363028074482 0 -0.2501192247690982 -0.068758624578275848 0 -0.26134398555340099 -0.082084741205771292 0 -0.2475034128029481 -0.08336319830717645 0 -0.2501192247690982 -0.068758624578275848 0 -0.26134398555340099 -0.082084741205771292 0 -0.2475034128029481 -0.08336319830717645 0 -0.26134398555340099 -0.082084741205771292 0 -0.25177196309779221 -0.096668232575091828 0 -0.26134398555340099 -0.082084741205771292 0 -0.27415102643566969 -0.090639970607540823 0 -0.27943619929149749 -0.076532492708924593 0 -0.26134398555340099 -0.082084741205771292 0 -0.27415102643566969 -0.090639970607540823 0 -0.26582494139911311 -0.10288213896695381 0 -0.27415102643566969 -0.090639970607540823 0 -0.27943619929149749 -0.076532492708924593 0 -0.28585563730940039 -0.08809097562351377 0 -0.26759762134999732 -0.062277363028074482 0 -0.26134398555340099 -0.082084741205771292 0 -0.27943619929149749 -0.076532492708924593 0 -0.28926625873196321 -0.058875679806912662 0 -0.26759762134999732 -0.062277363028074482 0 -0.27943619929149749 -0.076532492708924593 0 -0.24929734647927171 -0.1238637837538919 0 -0.25425372042747008 -0.11319065916316499 0 -0.26516417393842812 -0.12600168446881349 0 -0.25425372042747008 -0.11319065916316499 0 -0.26596605406059748 -0.11456903114199329 0 -0.26516417393842812 -0.12600168446881349 0 -0.25425372042747008 -0.11319065916316499 0 -0.26582494139911311 -0.10288213896695381 0 -0.26596605406059748 -0.11456903114199329 0 -0.26134398555340099 -0.082084741205771292 0 -0.25177196309779221 -0.096668232575091828 0 -0.26582494139911311 -0.10288213896695381 0 -0.25425372042747008 -0.11319065916316499 0 -0.25177196309779221 -0.096668232575091828 0 -0.26582494139911311 -0.10288213896695381 0 -0.26582494139911311 -0.10288213896695381 0 -0.27790983945506798 -0.1151347947403541 0 -0.28566259181513648 -0.1027760574317081 0 -0.27415102643566969 -0.090639970607540823 0 -0.26582494139911311 -0.10288213896695381 0 -0.28566259181513648 -0.1027760574317081 0 -0.27790983945506798 -0.1151347947403541 0 -0.26516417393842812 -0.12600168446881349 0 -0.28071288874525069 -0.13304640321564271 0 -0.26582494139911311 -0.10288213896695381 0 -0.26596605406059748 -0.11456903114199329 0 -0.27790983945506798 -0.1151347947403541 0 -0.26596605406059748 -0.11456903114199329 0 -0.27790983945506798 -0.1151347947403541 0 -0.26516417393842812 -0.12600168446881349 0 -0.27790983945506798 -0.1151347947403541 0 -0.29312993610220373 -0.120968372054391 0 -0.28566259181513648 -0.1027760574317081 0 -0.29312993610220373 -0.120968372054391 0 -0.28566259181513648 -0.1027760574317081 0 -0.30716044399434322 -0.1080699818278192 0 -0.27790983945506798 -0.1151347947403541 0 -0.29312993610220373 -0.120968372054391 0 -0.28071288874525069 -0.13304640321564271 0 -0.27415102643566969 -0.090639970607540823 0 -0.28566259181513648 -0.1027760574317081 0 -0.28585563730940039 -0.08809097562351377 0 -0.28566259181513648 -0.1027760574317081 0 -0.28585563730940039 -0.08809097562351377 0 -0.2979414446609166 -0.092895808347745787 0 -0.28566259181513648 -0.1027760574317081 0 -0.30716044399434322 -0.1080699818278192 0 -0.2979414446609166 -0.092895808347745787 0 -0.30716044399434322 -0.1080699818278192 0 -0.2979414446609166 -0.092895808347745787 0 -0.31262588381714951 -0.088315800873953298 0 -0.29312993610220373 -0.120968372054391 0 -0.30716044399434322 -0.1080699818278192 0 -0.30861541676818921 -0.1287049599374496 0 -0.28926625873196321 -0.058875679806912662 0 -0.27943619929149749 -0.076532492708924593 0 -0.29840266636855362 -0.07722622598173455 0 -0.28585563730940039 -0.08809097562351377 0 -0.2979414446609166 -0.092895808347745787 0 -0.29840266636855362 -0.07722622598173455 0 -0.27943619929149749 -0.076532492708924593 0 -0.28585563730940039 -0.08809097562351377 0 -0.29840266636855362 -0.07722622598173455 0 -0.29840266636855362 -0.07722622598173455 0 -0.31415381114409607 -0.074689429886725292 0 -0.31262588381714951 -0.088315800873953298 0 -0.2979414446609166 -0.092895808347745787 0 -0.29840266636855362 -0.07722622598173455 0 -0.31262588381714951 -0.088315800873953298 0 -0.31173961125274358 -0.060900159835823732 0 -0.29840266636855362 -0.07722622598173455 0 -0.31415381114409607 -0.074689429886725292 0 -0.31173961125274358 -0.060900159835823732 0 -0.28926625873196321 -0.058875679806912662 0 -0.29840266636855362 -0.07722622598173455 0 -0.31173961125274358 -0.060900159835823732 0 -0.324253438681461 -0.068598805746813249 0 -0.3279212248643541 -0.059137078950535098 0 -0.31173961125274358 -0.060900159835823732 0 -0.324253438681461 -0.068598805746813249 0 -0.31415381114409607 -0.074689429886725292 0 -0.324253438681461 -0.068598805746813249 0 -0.31415381114409607 -0.074689429886725292 0 -0.32374745560057311 -0.078406156995301596 0 -0.324253438681461 -0.068598805746813249 0 -0.32374745560057311 -0.078406156995301596 0 -0.33185849576703008 -0.075861162703048671 0 -0.31415381114409607 -0.074689429886725292 0 -0.31262588381714951 -0.088315800873953298 0 -0.32374745560057311 -0.078406156995301596 0 -0.31262588381714951 -0.088315800873953298 0 -0.32374745560057311 -0.078406156995301596 0 -0.33000548038844701 -0.089509328178344977 0 -0.33000548038844701 -0.089509328178344977 0 -0.34132436072756872 -0.080716226764722843 0 -0.34603280615720561 -0.1100039056613431 0 -0.32374745560057311 -0.078406156995301596 0 -0.33000548038844701 -0.089509328178344977 0 -0.33185849576703008 -0.075861162703048671 0 -0.33000548038844701 -0.089509328178344977 0 -0.34132436072756872 -0.080716226764722843 0 -0.33185849576703008 -0.075861162703048671 0 -0.34132436072756872 -0.080716226764722843 0 -0.33475487962180761 -0.064791892776391094 0 -0.34132436072756872 -0.080716226764722843 0 -0.33475487962180761 -0.064791892776391094 0 -0.33185849576703008 -0.075861162703048671 0 -0.34132436072756872 -0.080716226764722843 0 -0.33941117802130139 -0.068815763733114793 0 -0.34132436072756872 -0.080716226764722843 0 -0.33941117802130139 -0.068815763733114793 0 -0.33475487962180761 -0.064791892776391094 0 -0.33941117802130139 -0.068815763733114793 0 -0.34713894868165679 -0.064980009176049139 0 -0.34105549234085819 -0.062207016943974063 0 -0.33941117802130139 -0.068815763733114793 0 -0.33475487962180761 -0.064791892776391094 0 -0.34105549234085819 -0.062207016943974063 0 -0.324253438681461 -0.068598805746813249 0 -0.33475487962180761 -0.064791892776391094 0 -0.33185849576703008 -0.075861162703048671 0 -0.324253438681461 -0.068598805746813249 0 -0.33475487962180761 -0.064791892776391094 0 -0.3279212248643541 -0.059137078950535098 0 -0.30716044399434322 -0.1080699818278192 0 -0.32486770707374257 -0.12294884968839701 0 -0.32444388026115561 -0.10375271607170029 0 -0.30716044399434322 -0.1080699818278192 0 -0.32486770707374257 -0.12294884968839701 0 -0.30861541676818921 -0.1287049599374496 0 -0.30716044399434322 -0.1080699818278192 0 -0.31262588381714951 -0.088315800873953298 0 -0.32444388026115561 -0.10375271607170029 0 -0.31262588381714951 -0.088315800873953298 0 -0.33000548038844701 -0.089509328178344977 0 -0.32444388026115561 -0.10375271607170029 0 -0.34132436072756872 -0.080716226764722843 0 -0.34603280615720561 -0.1100039056613431 0 -0.33000548038844701 -0.089509328178344977 0 -0.32444388026115561 -0.10375271607170029 0 -0.34603280615720561 -0.1100039056613431 0 -0.32486770707374257 -0.12294884968839701 0 -0.32444388026115561 -0.10375271607170029 0 -0.34603280615720561 -0.1100039056613431 0 -0.32486770707374257 -0.12294884968839701 0 -0.34603280615720561 -0.1100039056613431 0 -0.34006649546174489 -0.13132788452938701 0 -0.34603280615720561 -0.1100039056613431 0 -0.35171160120851042 -0.1058947582153414 0 -0.36209884168945039 -0.1310732896659608 0 -0.34603280615720561 -0.1100039056613431 0 -0.35074125158684089 -0.13929158455796381 0 -0.35171160120851042 -0.1058947582153414 0 -0.36209884168945039 -0.1310732896659608 0 -0.34132436072756872 -0.080716226764722843 0 -0.34603280615720561 -0.1100039056613431 0 -0.35171160120851042 -0.1058947582153414 0 -0.35171160120851042 -0.1058947582153414 0 -0.37302585757566292 -0.097776174687443457 0 -0.36078175294453879 -0.080619568728049151 0 -0.37302585757566292 -0.097776174687443457 0 -0.3668779710233957 -0.114475641305049 0 -0.38413772053621043 -0.1151260681325659 0 -0.35171160120851042 -0.1058947582153414 0 -0.37302585757566292 -0.097776174687443457 0 -0.3668779710233957 -0.114475641305049 0 -0.35171160120851042 -0.1058947582153414 0 -0.3668779710233957 -0.114475641305049 0 -0.36209884168945039 -0.1310732896659608 0 -0.3668779710233957 -0.114475641305049 0 -0.36209884168945039 -0.1310732896659608 0 -0.38413772053621043 -0.1151260681325659 0 -0.36209884168945039 -0.1310732896659608 0 -0.38413772053621043 -0.1151260681325659 0 -0.35082362692948699 -0.073085055120758718 0 -0.36078175294453879 -0.080619568728049151 0 -0.35838838024820507 -0.060155086343002387 0 -0.34713894868165679 -0.064980009176049139 0 -0.35082362692948699 -0.073085055120758718 0 -0.35838838024820507 -0.060155086343002387 0 -0.33941117802130139 -0.068815763733114793 0 -0.34713894868165679 -0.064980009176049139 0 -0.35082362692948699 -0.073085055120758718 0 -0.34132436072756872 -0.080716226764722843 0 -0.33941117802130139 -0.068815763733114793 0 -0.35082362692948699 -0.073085055120758718 0 -0.34132436072756872 -0.080716226764722843 0 -0.35082362692948699 -0.073085055120758718 0 -0.36078175294453879 -0.080619568728049151 0 -0.34132436072756872 -0.080716226764722843 0 -0.35171160120851042 -0.1058947582153414 0 -0.36078175294453879 -0.080619568728049151 0 -0.34132436072756872 -0.080716226764722843 0 -0.35171160120851042 -0.1058947582153414 0 -0.37302585757566292 -0.097776174687443457 0 -0.36078175294453879 -0.080619568728049151 0 -0.38058688523823608 -0.080984518617609455 0 -0.36078175294453879 -0.080619568728049151 0 -0.3721252998970791 -0.071475135214301377 0 -0.38058688523823608 -0.080984518617609455 0 -0.3721252998970791 -0.071475135214301377 0 -0.35838838024820507 -0.060155086343002387 0 -0.37780066047672989 -0.060246070524735233 0 -0.36078175294453879 -0.080619568728049151 0 -0.3721252998970791 -0.071475135214301377 0 -0.35838838024820507 -0.060155086343002387 0 -0.37209358054968639 -0.04849628506008187 0 -0.35838838024820507 -0.060155086343002387 0 -0.3645005046004629 -0.03615518930561306 0 -0.37209358054968639 -0.04849628506008187 0 -0.35838838024820507 -0.060155086343002387 0 -0.37780066047672989 -0.060246070524735233 0 -0.35838838024820507 -0.060155086343002387 0 -0.3645005046004629 -0.03615518930561306 0 -0.35838838024820507 -0.060155086343002387 0 -0.34649689178392551 -0.045769900256840683 0 -0.3645005046004629 -0.03615518930561306 0 -0.35838838024820507 -0.060155086343002387 0 -0.34550839597571192 -0.057054255264720029 0 -0.34649689178392551 -0.045769900256840683 0 -0.34713894868165679 -0.064980009176049139 0 -0.34550839597571192 -0.057054255264720029 0 -0.34105549234085819 -0.062207016943974063 0 -0.34713894868165679 -0.064980009176049139 0 -0.35838838024820507 -0.060155086343002387 0 -0.34550839597571192 -0.057054255264720029 0 -0.34649689178392551 -0.045769900256840683 0 -0.3645005046004629 -0.03615518930561306 0 -0.34411629634214791 -0.029868916857915279 0 -0.37209358054968639 -0.04849628506008187 0 -0.3645005046004629 -0.03615518930561306 0 -0.38671682712196431 -0.03107642849730622 0 -0.3645005046004629 -0.03615518930561306 0 -0.37061262895272129 -0.012155292268223801 0 -0.3645005046004629 -0.03615518930561306 0 -0.37061262895272129 -0.012155292268223801 0 -0.38671682712196431 -0.03107642849730622 0 -0.3645005046004629 -0.03615518930561306 0 -0.37061262895272129 -0.012155292268223801 0 -0.35308317933793609 -0.016353070834483199 0 -0.37061262895272129 -0.012155292268223801 0 -0.35308317933793609 -0.016353070834483199 0 -0.3591254032888318 0.0013412729998198911 0 -0.37236316585112339 -0.0052816256180520799 0 -0.37061262895272129 -0.012155292268223801 0 -0.36670424245805999 -0.00027229795985809851 0 -0.37306833222542007 -0.0025127159228337942 0 -0.37236316585112339 -0.0052816256180520799 0 -0.36670424245805999 -0.00027229795985809851 0 -0.37306833222542007 -0.0025127159228337942 0 -0.37439284452380439 -0.0052846690853750322 0 -0.37306833222542007 -0.0025127159228337942 0 -0.37236316585112339 -0.0052816256180520799 0 -0.37236316585112339 -0.0052816256180520799 0 -0.37439284452380439 -0.0052846690853750322 0 -0.37061262895272129 -0.012155292268223801 0 -0.37236316585112339 -0.0052816256180520799 0 -0.37439284452380439 -0.0052846690853750322 0 -0.37306833222542007 -0.0025127159228337942 0 -0.37236316585112339 -0.0052816256180520799 0 -0.37439284452380439 -0.0052846690853750322 0 -0.37236316585112339 -0.0052816256180520799 0 -0.37061262895272129 -0.012155292268223801 0 -0.37061262895272129 -0.012155292268223801 0 -0.3591254032888318 0.0013412729998198911 0 -0.37061262895272129 -0.012155292268223801 0 -0.36670424245805999 -0.00027229795985809851 0 -0.3591254032888318 0.0013412729998198911 0 -0.34781910234901381 -0.0050527516654024452 0 -0.35308317933793609 -0.016353070834483199 0 -0.3591254032888318 0.0013412729998198911 0 -0.34781910234901381 -0.0050527516654024452 0 -0.35308317933793609 -0.016353070834483199 0 -0.33960655132663248 -0.014815429070591749 0 -0.3645005046004629 -0.03615518930561306 0 -0.35308317933793609 -0.016353070834483199 0 -0.34411629634214791 -0.029868916857915279 0 -0.35308317933793609 -0.016353070834483199 0 -0.34411629634214791 -0.029868916857915279 0 -0.33960655132663248 -0.014815429070591749 0 -0.34411629634214791 -0.029868916857915279 0 -0.33119901307165273 -0.024541028108277289 0 -0.33960655132663248 -0.014815429070591749 0 -0.33119901307165273 -0.024541028108277289 0 -0.32506841869771541 -0.0136638173942685 0 -0.33119901307165273 -0.024541028108277289 0 -0.33960655132663248 -0.014815429070591749 0 -0.32506841869771541 -0.0136638173942685 0 -0.34411629634214791 -0.029868916857915279 0 -0.33119901307165273 -0.024541028108277289 0 -0.33126443054718091 -0.039275058384533108 0 -0.34781910234901381 -0.0050527516654024452 0 -0.33960655132663248 -0.014815429070591749 0 -0.33635329816133003 0.00058701043679631332 0 -0.33960655132663248 -0.014815429070591749 0 -0.32506841869771541 -0.0136638173942685 0 -0.33635329816133003 0.00058701043679631332 0 -0.32506841869771541 -0.0136638173942685 0 -0.33635329816133003 0.00058701043679631332 0 -0.30590744426632788 -0.014886382830086481 0 -0.32506841869771541 -0.0136638173942685 0 -0.31728932138840138 0.00013825063324591011 0 -0.32506841869771541 -0.0136638173942685 0 -0.31728932138840138 0.00013825063324591011 0 -0.33635329816133003 0.00058701043679631332 0 -0.32506841869771541 -0.0136638173942685 0 -0.31728932138840138 0.00013825063324591011 0 -0.30716733871483948 -0.036269748600590818 0 -0.33119901307165273 -0.024541028108277289 0 -0.32506841869771541 -0.0136638173942685 0 -0.30590744426632788 -0.014886382830086481 0 -0.30716733871483948 -0.036269748600590818 0 -0.32506841869771541 -0.0136638173942685 0 -0.30716733871483948 -0.036269748600590818 0 -0.32506841869771541 -0.0136638173942685 0 -0.30716733871483948 -0.036269748600590818 0 -0.32265918967379242 -0.049538588231348588 0 -0.33126443054718091 -0.039275058384533108 0 -0.30716733871483948 -0.036269748600590818 0 -0.33119901307165273 -0.024541028108277289 0 -0.33126443054718091 -0.039275058384533108 0 -0.31173961125274358 -0.060900159835823732 0 -0.3279212248643541 -0.059137078950535098 0 -0.32265918967379242 -0.049538588231348588 0 -0.31173961125274358 -0.060900159835823732 0 -0.30716733871483948 -0.036269748600590818 0 -0.32265918967379242 -0.049538588231348588 0 -0.3279212248643541 -0.059137078950535098 0 -0.32265918967379242 -0.049538588231348588 0 -0.33549933424382861 -0.053750018972143827 0 -0.32265918967379242 -0.049538588231348588 0 -0.33549933424382861 -0.053750018972143827 0 -0.33126443054718091 -0.039275058384533108 0 -0.33475487962180761 -0.064791892776391094 0 -0.3279212248643541 -0.059137078950535098 0 -0.33549933424382861 -0.053750018972143827 0 -0.34550839597571192 -0.057054255264720029 0 -0.33549933424382861 -0.053750018972143827 0 -0.34105549234085819 -0.062207016943974063 0 -0.33475487962180761 -0.064791892776391094 0 -0.33549933424382861 -0.053750018972143827 0 -0.34105549234085819 -0.062207016943974063 0 -0.34550839597571192 -0.057054255264720029 0 -0.34649689178392551 -0.045769900256840683 0 -0.33549933424382861 -0.053750018972143827 0 -0.34649689178392551 -0.045769900256840683 0 -0.33549933424382861 -0.053750018972143827 0 -0.33126443054718091 -0.039275058384533108 0 -0.34649689178392551 -0.045769900256840683 0 -0.34411629634214791 -0.029868916857915279 0 -0.33126443054718091 -0.039275058384533108 0 -0.30559899489425357 -0.2402380940913478 0 -0.31014439070815758 -0.21257012979985629 0 -0.31763188855412638 -0.22858778461587351 0 -0.30559899489425357 -0.2402380940913478 0 -0.29203947361656613 -0.22787710720622659 0 -0.31014439070815758 -0.21257012979985629 0 -0.30559899489425357 -0.2402380940913478 0 -0.31014439070815758 -0.21257012979985629 0 -0.29203947361656613 -0.22787710720622659 0 -0.31014439070815758 -0.21257012979985629 0 -0.29203947361656613 -0.22787710720622659 0 -0.27520906300666509 -0.2237635891118995 0 -0.28135772014985438 -0.21152559109179259 0 -0.29203947361656613 -0.22787710720622659 0 -0.27393455652497478 -0.24318408461259691 0 -0.28884926028384728 -0.25029772390255278 0 -0.30559899489425357 -0.2402380940913478 0 -0.29203947361656613 -0.22787710720622659 0 -0.28884926028384728 -0.25029772390255278 0 -0.29203947361656613 -0.22787710720622659 0 -0.27393455652497478 -0.24318408461259691 0 -0.27679012331568009 -0.25358160228448118 0 -0.28884926028384728 -0.25029772390255278 0 -0.27393455652497478 -0.24318408461259691 0 -0.27393455652497478 -0.24318408461259691 0 -0.26323840710644197 -0.2398830263260413 0 -0.26800348178550482 -0.23304277800566639 0 -0.26455855558509339 -0.25482313094172437 0 -0.27393455652497478 -0.24318408461259691 0 -0.26323840710644197 -0.2398830263260413 0 -0.26455855558509339 -0.25482313094172437 0 -0.26323840710644197 -0.2398830263260413 0 -0.2501108441946493 -0.24044431760204099 0 -0.26323840710644197 -0.2398830263260413 0 -0.2501108441946493 -0.24044431760204099 0 -0.2595845974419877 -0.22792082046817799 0 -0.26455855558509339 -0.25482313094172437 0 -0.2501108441946493 -0.24044431760204099 0 -0.25183174931301627 -0.25323133939372139 0 -0.26455855558509339 -0.25482313094172437 0 -0.2501108441946493 -0.24044431760204099 0 -0.2501108441946493 -0.24044431760204099 0 -0.25144891957088078 -0.2225293564090782 0 -0.2595845974419877 -0.22792082046817799 0 -0.25144891957088078 -0.2225293564090782 0 -0.2595845974419877 -0.22792082046817799 0 -0.26111026553732219 -0.21591654138794339 0 -0.26323840710644197 -0.2398830263260413 0 -0.2595845974419877 -0.22792082046817799 0 -0.26800348178550482 -0.23304277800566639 0 -0.2595845974419877 -0.22792082046817799 0 -0.27520906300666509 -0.2237635891118995 0 -0.26111026553732219 -0.21591654138794339 0 -0.29203947361656613 -0.22787710720622659 0 -0.27393455652497478 -0.24318408461259691 0 -0.27520906300666509 -0.2237635891118995 0 -0.27393455652497478 -0.24318408461259691 0 -0.26800348178550482 -0.23304277800566639 0 -0.27520906300666509 -0.2237635891118995 0 -0.2595845974419877 -0.22792082046817799 0 -0.26800348178550482 -0.23304277800566639 0 -0.27520906300666509 -0.2237635891118995 0 -0.27520906300666509 -0.2237635891118995 0 -0.27003914640609261 -0.20796711985983751 0 -0.28135772014985438 -0.21152559109179259 0 -0.27520906300666509 -0.2237635891118995 0 -0.27003914640609261 -0.20796711985983751 0 -0.26111026553732219 -0.21591654138794339 0 -0.27003914640609261 -0.20796711985983751 0 -0.27683861389642112 -0.19950794412680919 0 -0.28135772014985438 -0.21152559109179259 0 -0.27003914640609261 -0.20796711985983751 0 -0.26111026553732219 -0.21591654138794339 0 -0.25871937729632588 -0.2024173463693846 0 -0.26111026553732219 -0.21591654138794339 0 -0.25166048950198172 -0.21090101610928241 0 -0.25871937729632588 -0.2024173463693846 0 -0.24950550547526451 -0.19888285929883651 0 -0.25166048950198172 -0.21090101610928241 0 -0.25871937729632588 -0.2024173463693846 0 -0.25144891957088078 -0.2225293564090782 0 -0.26111026553732219 -0.21591654138794339 0 -0.25166048950198172 -0.21090101610928241 0 -0.25871937729632588 -0.2024173463693846 0 -0.26650779438697142 -0.19369210795032399 0 -0.25362625710537301 -0.18645699761263629 0 -0.24950550547526451 -0.19888285929883651 0 -0.25871937729632588 -0.2024173463693846 0 -0.25362625710537301 -0.18645699761263629 0 -0.27003914640609261 -0.20796711985983751 0 -0.25871937729632588 -0.2024173463693846 0 -0.26650779438697142 -0.19369210795032399 0 -0.26650779438697142 -0.19369210795032399 0 -0.27683861389642112 -0.19950794412680919 0 -0.27652360969153972 -0.18726467934182539 0 -0.27003914640609261 -0.20796711985983751 0 -0.26650779438697142 -0.19369210795032399 0 -0.27683861389642112 -0.19950794412680919 0 -0.27683861389642112 -0.19950794412680919 0 -0.28879562134673109 -0.19775915121441259 0 -0.27652360969153972 -0.18726467934182539 0 -0.28879562134673109 -0.19775915121441259 0 -0.29956148503183838 -0.18923875984316821 0 -0.28893887426381959 -0.18115341519959499 0 -0.28879562134673109 -0.19775915121441259 0 -0.28893887426381959 -0.18115341519959499 0 -0.27652360969153972 -0.18726467934182539 0 -0.28879562134673109 -0.19775915121441259 0 -0.29956148503183838 -0.18923875984316821 0 -0.30123016828847943 -0.20134647649299339 0 -0.27683861389642112 -0.19950794412680919 0 -0.28879562134673109 -0.19775915121441259 0 -0.28135772014985438 -0.21152559109179259 0 -0.28879562134673109 -0.19775915121441259 0 -0.28135772014985438 -0.21152559109179259 0 -0.2948635447736096 -0.21067254896344181 0 -0.29203947361656613 -0.22787710720622659 0 -0.28135772014985438 -0.21152559109179259 0 -0.2948635447736096 -0.21067254896344181 0 -0.28879562134673109 -0.19775915121441259 0 -0.2948635447736096 -0.21067254896344181 0 -0.30123016828847943 -0.20134647649299339 0 -0.2948635447736096 -0.21067254896344181 0 -0.31014439070815758 -0.21257012979985629 0 -0.30123016828847943 -0.20134647649299339 0 -0.31014439070815758 -0.21257012979985629 0 -0.30123016828847943 -0.20134647649299339 0 -0.31278579958206021 -0.19649179264408781 0 -0.29203947361656613 -0.22787710720622659 0 -0.2948635447736096 -0.21067254896344181 0 -0.31014439070815758 -0.21257012979985629 0 -0.31014439070815758 -0.21257012979985629 0 -0.31278579958206021 -0.19649179264408781 0 -0.29956148503183838 -0.18923875984316821 0 -0.3154272084559635 -0.18041345548831941 0 -0.31278579958206021 -0.19649179264408781 0 -0.29956148503183838 -0.18923875984316821 0 -0.30123016828847943 -0.20134647649299339 0 -0.31278579958206021 -0.19649179264408781 0 -0.29956148503183838 -0.18923875984316821 0 -0.30096224553546641 -0.17422120844002981 0 -0.3154272084559635 -0.18041345548831941 0 -0.30096224553546641 -0.17422120844002981 0 -0.3154272084559635 -0.18041345548831941 0 -0.30096224553546641 -0.17422120844002981 0 -0.32014745776485259 -0.1516811525883581 0 -0.3154272084559635 -0.18041345548831941 0 -0.30096224553546641 -0.17422120844002981 0 -0.29982350478764708 -0.15566873267792211 0 -0.32014745776485259 -0.1516811525883581 0 -0.28649728261496787 -0.16802896139174309 0 -0.28395949042840229 -0.14923682458474499 0 -0.29982350478764708 -0.15566873267792211 0 -0.30096224553546641 -0.17422120844002981 0 -0.28649728261496787 -0.16802896139174309 0 -0.30096224553546641 -0.17422120844002981 0 -0.28649728261496787 -0.16802896139174309 0 -0.29982350478764708 -0.15566873267792211 0 -0.28649728261496787 -0.16802896139174309 0 -0.28893887426381959 -0.18115341519959499 0 -0.27431474039678699 -0.17290068353949281 0 -0.30096224553546641 -0.17422120844002981 0 -0.28649728261496787 -0.16802896139174309 0 -0.28893887426381959 -0.18115341519959499 0 -0.29956148503183838 -0.18923875984316821 0 -0.30096224553546641 -0.17422120844002981 0 -0.28893887426381959 -0.18115341519959499 0 -0.28893887426381959 -0.18115341519959499 0 -0.27652360969153972 -0.18726467934182539 0 -0.27431474039678699 -0.17290068353949281 0 -0.27431474039678699 -0.17290068353949281 0 -0.26376659439563899 -0.17888588738778571 0 -0.26176859578417799 -0.16494235372319621 0 -0.27652360969153972 -0.18726467934182539 0 -0.27431474039678699 -0.17290068353949281 0 -0.26376659439563899 -0.17888588738778571 0 -0.26650779438697142 -0.19369210795032399 0 -0.27652360969153972 -0.18726467934182539 0 -0.26376659439563899 -0.17888588738778571 0 -0.26376659439563899 -0.17888588738778571 0 -0.25362625710537301 -0.18645699761263629 0 -0.25097896693593602 -0.16889208695044211 0 -0.26650779438697142 -0.19369210795032399 0 -0.26376659439563899 -0.17888588738778571 0 -0.25362625710537301 -0.18645699761263629 0 -0.26176859578417799 -0.16494235372319621 0 -0.27160343642896889 -0.15766815985716959 0 -0.25572092066513219 -0.15306998945925929 0 -0.25097896693593602 -0.16889208695044211 0 -0.26176859578417799 -0.16494235372319621 0 -0.25572092066513219 -0.15306998945925929 0 -0.26376659439563899 -0.17888588738778571 0 -0.25097896693593602 -0.16889208695044211 0 -0.26176859578417799 -0.16494235372319621 0 -0.28649728261496787 -0.16802896139174309 0 -0.27160343642896889 -0.15766815985716959 0 -0.28395949042840229 -0.14923682458474499 0 -0.27431474039678699 -0.17290068353949281 0 -0.26176859578417799 -0.16494235372319621 0 -0.27160343642896889 -0.15766815985716959 0 -0.28649728261496787 -0.16802896139174309 0 -0.27431474039678699 -0.17290068353949281 0 -0.27160343642896889 -0.15766815985716959 0 -0.27160343642896889 -0.15766815985716959 0 -0.26776304668710238 -0.14201876711904349 0 -0.28395949042840229 -0.14923682458474499 0 -0.26776304668710238 -0.14201876711904349 0 -0.28071288874525069 -0.13304640321564271 0 -0.28395949042840229 -0.14923682458474499 0 -0.27160343642896889 -0.15766815985716959 0 -0.26776304668710238 -0.14201876711904349 0 -0.25572092066513219 -0.15306998945925929 0 -0.26776304668710238 -0.14201876711904349 0 -0.25572092066513219 -0.15306998945925929 0 -0.25093210300509278 -0.13645293483133961 0 -0.26776304668710238 -0.14201876711904349 0 -0.25093210300509278 -0.13645293483133961 0 -0.26516417393842812 -0.12600168446881349 0 -0.24929734647927171 -0.1238637837538919 0 -0.25093210300509278 -0.13645293483133961 0 -0.26516417393842812 -0.12600168446881349 0 -0.26776304668710238 -0.14201876711904349 0 -0.26516417393842812 -0.12600168446881349 0 -0.28071288874525069 -0.13304640321564271 0 -0.29312993610220373 -0.120968372054391 0 -0.28071288874525069 -0.13304640321564271 0 -0.29777153890580338 -0.13985644352828289 0 -0.28395949042840229 -0.14923682458474499 0 -0.29982350478764708 -0.15566873267792211 0 -0.29777153890580338 -0.13985644352828289 0 -0.28071288874525069 -0.13304640321564271 0 -0.28395949042840229 -0.14923682458474499 0 -0.29777153890580338 -0.13985644352828289 0 -0.29982350478764708 -0.15566873267792211 0 -0.29777153890580338 -0.13985644352828289 0 -0.32014745776485259 -0.1516811525883581 0 -0.29777153890580338 -0.13985644352828289 0 -0.30861541676818921 -0.1287049599374496 0 -0.32014745776485259 -0.1516811525883581 0 -0.29312993610220373 -0.120968372054391 0 -0.29777153890580338 -0.13985644352828289 0 -0.30861541676818921 -0.1287049599374496 0 -0.32486770707374257 -0.12294884968839701 0 -0.32014745776485259 -0.1516811525883581 0 -0.33516354227783529 -0.14585847703352969 0 -0.32486770707374257 -0.12294884968839701 0 -0.30861541676818921 -0.1287049599374496 0 -0.32014745776485259 -0.1516811525883581 0 -0.32486770707374257 -0.12294884968839701 0 -0.32014745776485259 -0.1516811525883581 0 -0.32014745776485259 -0.1516811525883581 0 -0.33516354227783529 -0.14585847703352969 0 -0.33472825588687849 -0.15759419726816221 0 -0.33516354227783529 -0.14585847703352969 0 -0.34299051089757149 -0.15535730231200059 0 -0.33472825588687849 -0.15759419726816221 0 -0.33516354227783529 -0.14585847703352969 0 -0.34299051089757149 -0.15535730231200059 0 -0.3461119977417485 -0.14956315023086261 0 -0.33516354227783529 -0.14585847703352969 0 -0.34611226665790118 -0.14264109469637909 0 -0.3461119977417485 -0.14956315023086261 0 -0.33516354227783529 -0.14585847703352969 0 -0.34006649546174489 -0.13132788452938701 0 -0.34611226665790118 -0.14264109469637909 0 -0.32486770707374257 -0.12294884968839701 0 -0.33516354227783529 -0.14585847703352969 0 -0.34006649546174489 -0.13132788452938701 0 -0.34603280615720561 -0.1100039056613431 0 -0.35074125158684089 -0.13929158455796381 0 -0.36209884168945039 -0.1310732896659608 0 -0.34603280615720561 -0.1100039056613431 0 -0.34006649546174489 -0.13132788452938701 0 -0.35074125158684089 -0.13929158455796381 0 -0.34006649546174489 -0.13132788452938701 0 -0.35074125158684089 -0.13929158455796381 0 -0.34611226665790118 -0.14264109469637909 0 -0.35074125158684089 -0.13929158455796381 0 -0.36209884168945039 -0.1310732896659608 0 -0.35074125158684089 -0.13929158455796381 0 -0.36209884168945039 -0.1310732896659608 0 -0.35798391155991821 -0.1466331712951213 0 -0.37444947868913181 -0.13663244653355239 0 -0.36209884168945039 -0.1310732896659608 0 -0.37104196275218698 -0.15275129503782839 0 -0.37444947868913181 -0.13663244653355239 0 -0.36209884168945039 -0.1310732896659608 0 -0.38413772053621043 -0.1151260681325659 0 -0.36209884168945039 -0.1310732896659608 0 -0.37104196275218698 -0.15275129503782839 0 -0.36209884168945039 -0.1310732896659608 0 -0.37104196275218698 -0.15275129503782839 0 -0.35798391155991821 -0.1466331712951213 0 -0.37104196275218698 -0.15275129503782839 0 -0.36193614461514761 -0.1537460237422015 0 -0.36251700056011471 -0.16059206341738849 0 -0.37104196275218698 -0.15275129503782839 0 -0.36193614461514761 -0.1537460237422015 0 -0.35798391155991821 -0.1466331712951213 0 -0.35620170358837022 -0.1550075652184677 0 -0.35224083670161899 -0.1503057304120563 0 -0.35798391155991821 -0.1466331712951213 0 -0.36193614461514761 -0.1537460237422015 0 -0.35620170358837022 -0.1550075652184677 0 -0.35798391155991821 -0.1466331712951213 0 -0.35620170358837022 -0.1550075652184677 0 -0.35224083670161899 -0.1503057304120563 0 -0.34994590372130652 -0.1571983594098629 0 -0.35224083670161899 -0.1503057304120563 0 -0.35798391155991821 -0.1466331712951213 0 -0.35161542630961318 -0.14472916453264281 0 -0.35074125158684089 -0.13929158455796381 0 -0.35798391155991821 -0.1466331712951213 0 -0.35161542630961318 -0.14472916453264281 0 -0.35074125158684089 -0.13929158455796381 0 -0.35161542630961318 -0.14472916453264281 0 -0.34611226665790118 -0.14264109469637909 0 -0.35074125158684089 -0.13929158455796381 0 -0.34611226665790118 -0.14264109469637909 0 -0.35074125158684089 -0.13929158455796381 0 -0.35161542630961318 -0.14472916453264281 0 -0.35224083670161899 -0.1503057304120563 0 -0.35161542630961318 -0.14472916453264281 0 -0.3461119977417485 -0.14956315023086261 0 -0.35161542630961318 -0.14472916453264281 0 -0.34611226665790118 -0.14264109469637909 0 -0.3461119977417485 -0.14956315023086261 0 -0.35224083670161899 -0.1503057304120563 0 -0.3461119977417485 -0.14956315023086261 0 -0.34994590372130652 -0.1571983594098629 0 -0.34299051089757149 -0.15535730231200059 0 -0.3461119977417485 -0.14956315023086261 0 -0.34994590372130652 -0.1571983594098629 0 -0.34299051089757149 -0.15535730231200059 0 -0.34588367918456658 -0.16237553385824921 0 -0.34994590372130652 -0.1571983594098629 0 -0.34588367918456658 -0.16237553385824921 0 -0.34994590372130652 -0.1571983594098629 0 -0.35358888548674888 -0.1645902037731769 0 -0.34579649054668732 -0.17004935967476251 0 -0.35358888548674888 -0.1645902037731769 0 -0.35253509529088062 -0.1748910283042148 0 -0.34588367918456658 -0.16237553385824921 0 -0.34579649054668732 -0.17004935967476251 0 -0.35358888548674888 -0.1645902037731769 0 -0.35358888548674888 -0.1645902037731769 0 -0.36251700056011471 -0.16059206341738849 0 -0.35996106043915138 -0.17057324184555961 0 -0.35358888548674888 -0.1645902037731769 0 -0.35996106043915138 -0.17057324184555961 0 -0.35253509529088062 -0.1748910283042148 0 -0.35620170358837022 -0.1550075652184677 0 -0.35358888548674888 -0.1645902037731769 0 -0.36251700056011471 -0.16059206341738849 0 -0.35620170358837022 -0.1550075652184677 0 -0.34994590372130652 -0.1571983594098629 0 -0.35358888548674888 -0.1645902037731769 0 -0.36193614461514761 -0.1537460237422015 0 -0.35620170358837022 -0.1550075652184677 0 -0.36251700056011471 -0.16059206341738849 0 -0.35996106043915138 -0.17057324184555961 0 -0.36851200133675333 -0.1681574909621846 0 -0.36472169652115832 -0.17623070534540519 0 -0.36251700056011471 -0.16059206341738849 0 -0.35996106043915138 -0.17057324184555961 0 -0.36851200133675333 -0.1681574909621846 0 -0.37104196275218698 -0.15275129503782839 0 -0.37690180271423251 -0.166955468422536 0 -0.37104196275218698 -0.15275129503782839 0 -0.36251700056011471 -0.16059206341738849 0 -0.36851200133675333 -0.1681574909621846 0 -0.37104196275218698 -0.15275129503782839 0 -0.36851200133675333 -0.1681574909621846 0 -0.37690180271423251 -0.166955468422536 0 -0.3690470090954584 -0.18711908717464351 0 -0.3743800148900811 -0.18233939596803631 0 -0.37477327163816809 -0.19024999202774279 0 -0.36919515319026353 -0.1804745972361318 0 -0.3690470090954584 -0.18711908717464351 0 -0.3743800148900811 -0.18233939596803631 0 -0.36919515319026353 -0.1804745972361318 0 -0.3690470090954584 -0.18711908717464351 0 -0.3636962355726916 -0.1835595402913765 0 -0.36919515319026353 -0.1804745972361318 0 -0.3743800148900811 -0.18233939596803631 0 -0.3712666631441115 -0.17629868122952891 0 -0.36851200133675333 -0.1681574909621846 0 -0.3712666631441115 -0.17629868122952891 0 -0.37998508381492158 -0.17442930040969681 0 -0.36851200133675333 -0.1681574909621846 0 -0.3712666631441115 -0.17629868122952891 0 -0.36472169652115832 -0.17623070534540519 0 -0.36919515319026353 -0.1804745972361318 0 -0.3712666631441115 -0.17629868122952891 0 -0.36472169652115832 -0.17623070534540519 0 -0.35996106043915138 -0.17057324184555961 0 -0.36472169652115832 -0.17623070534540519 0 -0.35835231747187318 -0.17911604304479789 0 -0.36472169652115832 -0.17623070534540519 0 -0.3636962355726916 -0.1835595402913765 0 -0.35835231747187318 -0.17911604304479789 0 -0.3636962355726916 -0.1835595402913765 0 -0.35835231747187318 -0.17911604304479789 0 -0.35772563653931139 -0.18805583857977931 0 -0.36919515319026353 -0.1804745972361318 0 -0.36472169652115832 -0.17623070534540519 0 -0.3636962355726916 -0.1835595402913765 0 -0.3690470090954584 -0.18711908717464351 0 -0.3636962355726916 -0.1835595402913765 0 -0.36359623465070551 -0.1904990541413118 0 -0.3636962355726916 -0.1835595402913765 0 -0.35772563653931139 -0.18805583857977931 0 -0.36359623465070551 -0.1904990541413118 0 -0.35256399429651092 -0.1835405293190393 0 -0.35835231747187318 -0.17911604304479789 0 -0.35772563653931139 -0.18805583857977931 0 -0.35256399429651092 -0.1835405293190393 0 -0.35253509529088062 -0.1748910283042148 0 -0.35835231747187318 -0.17911604304479789 0 -0.35996106043915138 -0.17057324184555961 0 -0.35253509529088062 -0.1748910283042148 0 -0.35835231747187318 -0.17911604304479789 0 -0.34579649054668732 -0.17004935967476251 0 -0.35253509529088062 -0.1748910283042148 0 -0.34533228514863978 -0.17871773342090971 0 -0.35256399429651092 -0.1835405293190393 0 -0.35253509529088062 -0.1748910283042148 0 -0.34533228514863978 -0.17871773342090971 0 -0.35256399429651092 -0.1835405293190393 0 -0.34558397443592043 -0.18545594081768799 0 -0.35273792371417512 -0.19147655413610429 0 -0.35256399429651092 -0.1835405293190393 0 -0.34533228514863978 -0.17871773342090971 0 -0.34558397443592043 -0.18545594081768799 0 -0.33968328899347888 -0.18151520840545679 0 -0.33019449805852491 -0.17865742429513831 0 -0.33911699136528978 -0.19055471814492109 0 -0.33019449805852491 -0.17865742429513831 0 -0.3154272084559635 -0.18041345548831941 0 -0.33911699136528978 -0.19055471814492109 0 -0.34558397443592043 -0.18545594081768799 0 -0.33968328899347888 -0.18151520840545679 0 -0.33911699136528978 -0.19055471814492109 0 -0.34533228514863978 -0.17871773342090971 0 -0.34558397443592043 -0.18545594081768799 0 -0.33968328899347888 -0.18151520840545679 0 -0.33019449805852491 -0.17865742429513831 0 -0.33818869595901929 -0.17419022534862669 0 -0.32902147554551542 -0.1673853886229611 0 -0.34579649054668732 -0.17004935967476251 0 -0.34533228514863978 -0.17871773342090971 0 -0.33818869595901929 -0.17419022534862669 0 -0.33968328899347888 -0.18151520840545679 0 -0.33019449805852491 -0.17865742429513831 0 -0.33818869595901929 -0.17419022534862669 0 -0.34533228514863978 -0.17871773342090971 0 -0.33968328899347888 -0.18151520840545679 0 -0.33818869595901929 -0.17419022534862669 0 -0.34579649054668732 -0.17004935967476251 0 -0.33818869595901929 -0.17419022534862669 0 -0.33925030221026797 -0.1655314333433977 0 -0.34588367918456658 -0.16237553385824921 0 -0.34579649054668732 -0.17004935967476251 0 -0.33925030221026797 -0.1655314333433977 0 -0.33925030221026797 -0.1655314333433977 0 -0.34090096670524023 -0.1601859945626127 0 -0.33472825588687849 -0.15759419726816221 0 -0.34299051089757149 -0.15535730231200059 0 -0.34090096670524023 -0.1601859945626127 0 -0.33472825588687849 -0.15759419726816221 0 -0.34299051089757149 -0.15535730231200059 0 -0.34588367918456658 -0.16237553385824921 0 -0.34090096670524023 -0.1601859945626127 0 -0.34588367918456658 -0.16237553385824921 0 -0.33925030221026797 -0.1655314333433977 0 -0.34090096670524023 -0.1601859945626127 0 -0.33925030221026797 -0.1655314333433977 0 -0.33472825588687849 -0.15759419726816221 0 -0.32902147554551542 -0.1673853886229611 0 -0.33818869595901929 -0.17419022534862669 0 -0.33925030221026797 -0.1655314333433977 0 -0.32902147554551542 -0.1673853886229611 0 -0.32014745776485259 -0.1516811525883581 0 -0.3154272084559635 -0.18041345548831941 0 -0.32014745776485259 -0.1516811525883581 0 -0.32902147554551542 -0.1673853886229611 0 -0.3154272084559635 -0.18041345548831941 0 -0.32014745776485259 -0.1516811525883581 0 -0.33472825588687849 -0.15759419726816221 0 -0.32902147554551542 -0.1673853886229611 0 -0.3154272084559635 -0.18041345548831941 0 -0.33911699136528978 -0.19055471814492109 0 -0.3154272084559635 -0.18041345548831941 0 -0.32394234631425101 -0.1901881006152501 0 -0.33911699136528978 -0.19055471814492109 0 -0.33019449805852491 -0.17865742429513831 0 -0.32902147554551542 -0.1673853886229611 0 -0.3154272084559635 -0.18041345548831941 0 -0.3154272084559635 -0.18041345548831941 0 -0.31278579958206021 -0.19649179264408781 0 -0.31014439070815758 -0.21257012979985629 0 -0.31278579958206021 -0.19649179264408781 0 -0.33202310850546402 -0.19407255605734741 0 -0.32394234631425101 -0.1901881006152501 0 -0.31278579958206021 -0.19649179264408781 0 -0.33202310850546402 -0.19407255605734741 0 -0.3154272084559635 -0.18041345548831941 0 -0.32394234631425101 -0.1901881006152501 0 -0.31278579958206021 -0.19649179264408781 0 -0.31014439070815758 -0.21257012979985629 0 -0.32061317712960141 -0.21220172084192351 0 -0.33202310850546402 -0.19407255605734741 0 -0.31014439070815758 -0.21257012979985629 0 -0.33202310850546402 -0.19407255605734741 0 -0.31014439070815758 -0.21257012979985629 0 -0.32061317712960141 -0.21220172084192351 0 -0.31763188855412638 -0.22858778461587351 0 -0.32061317712960141 -0.21220172084192351 0 -0.33514267874013159 -0.2056392614340064 0 -0.33202310850546402 -0.19407255605734741 0 -0.32061317712960141 -0.21220172084192351 0 -0.33514267874013159 -0.2056392614340064 0 -0.33979745049787757 -0.2156682210175612 0 -0.33514267874013159 -0.2056392614340064 0 -0.34297602869919169 -0.2065437417586635 0 -0.33969115613375628 -0.19990867942740759 0 -0.33514267874013159 -0.2056392614340064 0 -0.33979745049787757 -0.2156682210175612 0 -0.34297602869919169 -0.2065437417586635 0 -0.33969115613375628 -0.19990867942740759 0 -0.33911699136528978 -0.19055471814492109 0 -0.34920552918669229 -0.20146570054318699 0 -0.33514267874013159 -0.2056392614340064 0 -0.33969115613375628 -0.19990867942740759 0 -0.33202310850546402 -0.19407255605734741 0 -0.32394234631425101 -0.1901881006152501 0 -0.33202310850546402 -0.19407255605734741 0 -0.33911699136528978 -0.19055471814492109 0 -0.33969115613375628 -0.19990867942740759 0 -0.33202310850546402 -0.19407255605734741 0 -0.33911699136528978 -0.19055471814492109 0 -0.33911699136528978 -0.19055471814492109 0 -0.34920552918669229 -0.20146570054318699 0 -0.36280677427461488 -0.2006959808015257 0 -0.33911699136528978 -0.19055471814492109 0 -0.35273792371417512 -0.19147655413610429 0 -0.36280677427461488 -0.2006959808015257 0 -0.34558397443592043 -0.18545594081768799 0 -0.33911699136528978 -0.19055471814492109 0 -0.35273792371417512 -0.19147655413610429 0 -0.33911699136528978 -0.19055471814492109 0 -0.36280677427461488 -0.2006959808015257 0 -0.34297602869919169 -0.2065437417586635 0 -0.33969115613375628 -0.19990867942740759 0 -0.34920552918669229 -0.20146570054318699 0 -0.34920552918669229 -0.20146570054318699 0 -0.36280677427461488 -0.2006959808015257 0 -0.3561328044003092 -0.20489575428449189 0 -0.35256399429651092 -0.1835405293190393 0 -0.35273792371417512 -0.19147655413610429 0 -0.35772563653931139 -0.18805583857977931 0 -0.35273792371417512 -0.19147655413610429 0 -0.36015143177407549 -0.1932783983885481 0 -0.36280677427461488 -0.2006959808015257 0 -0.35273792371417512 -0.19147655413610429 0 -0.35772563653931139 -0.18805583857977931 0 -0.36015143177407549 -0.1932783983885481 0 -0.35772563653931139 -0.18805583857977931 0 -0.36359623465070551 -0.1904990541413118 0 -0.36015143177407549 -0.1932783983885481 0 -0.36359623465070551 -0.1904990541413118 0 -0.36389058969157062 -0.19566456428401921 0 -0.36903371489016751 -0.19585968276652579 0 -0.36359623465070551 -0.1904990541413118 0 -0.36015143177407549 -0.1932783983885481 0 -0.36389058969157062 -0.19566456428401921 0 -0.36015143177407549 -0.1932783983885481 0 -0.36280677427461488 -0.2006959808015257 0 -0.36389058969157062 -0.19566456428401921 0 -0.36280677427461488 -0.2006959808015257 0 -0.36389058969157062 -0.19566456428401921 0 -0.36903371489016751 -0.19585968276652579 0 -0.36280677427461488 -0.2006959808015257 0 -0.36903371489016751 -0.19585968276652579 0 -0.37435377332353359 -0.20167875025011331 0 -0.36903371489016751 -0.19585968276652579 0 -0.37435377332353359 -0.20167875025011331 0 -0.37563099144924511 -0.19603554402084841 0 -0.3690470090954584 -0.18711908717464351 0 -0.36903371489016751 -0.19585968276652579 0 -0.37477327163816809 -0.19024999202774279 0 -0.36903371489016751 -0.19585968276652579 0 -0.37477327163816809 -0.19024999202774279 0 -0.37563099144924511 -0.19603554402084841 0 -0.3690470090954584 -0.18711908717464351 0 -0.36359623465070551 -0.1904990541413118 0 -0.36903371489016751 -0.19585968276652579 0 -0.37350903180547002 -0.21429762244861481 0 -0.36147558520242878 -0.2073844894220995 0 -0.373648484016739 -0.2304260829835468 0 -0.36280677427461488 -0.2006959808015257 0 -0.38649655718393988 -0.21083724345813029 0 -0.36280677427461488 -0.2006959808015257 0 -0.37350903180547002 -0.21429762244861481 0 -0.38649655718393988 -0.21083724345813029 0 -0.36280677427461488 -0.2006959808015257 0 -0.37435377332353359 -0.20167875025011331 0 -0.38649655718393988 -0.21083724345813029 0 -0.36280677427461488 -0.2006959808015257 0 -0.37350903180547002 -0.21429762244861481 0 -0.36147558520242878 -0.2073844894220995 0 -0.36280677427461488 -0.2006959808015257 0 -0.36147558520242878 -0.2073844894220995 0 -0.3561328044003092 -0.20489575428449189 0 -0.36147558520242878 -0.2073844894220995 0 -0.35104332893750068 -0.21003684637115541 0 -0.35397423530953148 -0.22303389587538611 0 -0.34920552918669229 -0.20146570054318699 0 -0.3561328044003092 -0.20489575428449189 0 -0.35104332893750068 -0.21003684637115541 0 -0.36147558520242878 -0.2073844894220995 0 -0.3561328044003092 -0.20489575428449189 0 -0.35104332893750068 -0.21003684637115541 0 -0.34297602869919169 -0.2065437417586635 0 -0.34920552918669229 -0.20146570054318699 0 -0.35104332893750068 -0.21003684637115541 0 -0.33979745049787757 -0.2156682210175612 0 -0.34297602869919169 -0.2065437417586635 0 -0.35104332893750068 -0.21003684637115541 0 -0.33979745049787757 -0.2156682210175612 0 -0.35104332893750068 -0.21003684637115541 0 -0.35397423530953148 -0.22303389587538611 0 -0.35397423530953148 -0.22303389587538611 0 -0.35676515930916719 -0.2389738998533967 0 -0.33603059983657818 -0.23271670516604209 0 -0.35397423530953148 -0.22303389587538611 0 -0.373648484016739 -0.2304260829835468 0 -0.35676515930916719 -0.2389738998533967 0 -0.36147558520242878 -0.2073844894220995 0 -0.373648484016739 -0.2304260829835468 0 -0.36147558520242878 -0.2073844894220995 0 -0.35397423530953148 -0.22303389587538611 0 -0.373648484016739 -0.2304260829835468 0 -0.36872445483943223 -0.25546112575184732 0 -0.373648484016739 -0.2304260829835468 0 -0.35676515930916719 -0.2389738998533967 0 -0.35144802254355512 -0.25323168949016089 0 -0.35676515930916719 -0.2389738998533967 0 -0.33603059983657818 -0.23271670516604209 0 -0.35144802254355512 -0.25323168949016089 0 -0.36872445483943223 -0.25546112575184732 0 -0.35676515930916719 -0.2389738998533967 0 -0.33558998382955912 -0.25522013354807987 0 -0.35144802254355512 -0.25323168949016089 0 -0.33603059983657818 -0.23271670516604209 0 -0.35144802254355512 -0.25323168949016089 0 -0.33603059983657818 -0.23271670516604209 0 -0.33558998382955912 -0.25522013354807987 0 -0.33603059983657818 -0.23271670516604209 0 -0.32255225243677937 -0.2484995408870776 0 -0.33979745049787757 -0.2156682210175612 0 -0.35397423530953148 -0.22303389587538611 0 -0.33603059983657818 -0.23271670516604209 0 -0.32061317712960141 -0.21220172084192351 0 -0.33603059983657818 -0.23271670516604209 0 -0.32061317712960141 -0.21220172084192351 0 -0.33979745049787757 -0.2156682210175612 0 -0.33603059983657818 -0.23271670516604209 0 -0.32061317712960141 -0.21220172084192351 0 -0.33603059983657818 -0.23271670516604209 0 -0.31763188855412638 -0.22858778461587351 0 -0.31304893188711502 -0.25662415588864612 0 -0.30559899489425357 -0.2402380940913478 0 -0.32255225243677937 -0.2484995408870776 0 -0.30559899489425357 -0.2402380940913478 0 -0.31763188855412638 -0.22858778461587351 0 -0.32255225243677937 -0.2484995408870776 0 -0.33603059983657818 -0.23271670516604209 0 -0.31763188855412638 -0.22858778461587351 0 -0.32255225243677937 -0.2484995408870776 0 -0.43679565123876007 -0.25153719175576511 0 -0.43387612300259087 -0.23111976877133769 0 -0.43679565123876007 -0.25153719175576511 0 -0.43387612300259087 -0.23111976877133769 0 -0.42141652743145608 -0.24373293179399319 0 -0.43387612300259087 -0.23111976877133769 0 -0.43100194576512452 -0.21101950337140249 0 -0.43387612300259087 -0.23111976877133769 0 -0.41018634009326499 -0.22097850611473491 0 -0.43387612300259087 -0.23111976877133769 0 -0.41018634009326499 -0.22097850611473491 0 -0.43100194576512452 -0.21101950337140249 0 -0.43387612300259087 -0.23111976877133769 0 -0.41018634009326499 -0.22097850611473491 0 -0.42141652743145608 -0.24373293179399319 0 -0.41307519793274522 -0.25607968324600561 0 -0.42141652743145608 -0.24373293179399319 0 -0.40382692193229541 -0.24427961944825829 0 -0.41018634009326499 -0.22097850611473491 0 -0.42141652743145608 -0.24373293179399319 0 -0.40382692193229541 -0.24427961944825829 0 -0.38582138283104922 -0.25346767654499403 0 -0.40382692193229541 -0.24427961944825829 0 -0.39275759477275718 -0.22895164363045509 0 -0.38582138283104922 -0.25346767654499403 0 -0.373648484016739 -0.2304260829835468 0 -0.38582138283104922 -0.25346767654499403 0 -0.373648484016739 -0.2304260829835468 0 -0.39275759477275718 -0.22895164363045509 0 -0.38582138283104922 -0.25346767654499403 0 -0.36872445483943223 -0.25546112575184732 0 -0.373648484016739 -0.2304260829835468 0 -0.373648484016739 -0.2304260829835468 0 -0.38160291694472648 -0.22112814813018669 0 -0.39275759477275718 -0.22895164363045509 0 -0.38160291694472648 -0.22112814813018669 0 -0.39275759477275718 -0.22895164363045509 0 -0.38649655718393988 -0.21083724345813029 0 -0.37350903180547002 -0.21429762244861481 0 -0.373648484016739 -0.2304260829835468 0 -0.38160291694472648 -0.22112814813018669 0 -0.41018634009326499 -0.22097850611473491 0 -0.39275759477275718 -0.22895164363045509 0 -0.38649655718393988 -0.21083724345813029 0 -0.41018634009326499 -0.22097850611473491 0 -0.40382692193229541 -0.24427961944825829 0 -0.39275759477275718 -0.22895164363045509 0 -0.41018634009326499 -0.22097850611473491 0 -0.39838649842082202 -0.20510714947082501 0 -0.38649655718393988 -0.21083724345813029 0 -0.41018634009326499 -0.22097850611473491 0 -0.38649655718393988 -0.21083724345813029 0 -0.39838649842082202 -0.20510714947082501 0 -0.40867742408899838 -0.19684267558485161 0 -0.41132386262589771 -0.20828029805578771 0 -0.39838649842082202 -0.20510714947082501 0 -0.3912617087029352 -0.2055240726128223 0 -0.38649655718393988 -0.21083724345813029 0 -0.39838649842082202 -0.20510714947082501 0 -0.3912617087029352 -0.2055240726128223 0 -0.38590937781326262 -0.2008029490730398 0 -0.3912617087029352 -0.2055240726128223 0 -0.38373537882921949 -0.2036197833464278 0 -0.38649655718393988 -0.21083724345813029 0 -0.3912617087029352 -0.2055240726128223 0 -0.38373537882921949 -0.2036197833464278 0 -0.38590937781326262 -0.2008029490730398 0 -0.37435377332353359 -0.20167875025011331 0 -0.38373537882921949 -0.2036197833464278 0 -0.38649655718393988 -0.21083724345813029 0 -0.37350903180547002 -0.21429762244861481 0 -0.38160291694472648 -0.22112814813018669 0 -0.38649655718393988 -0.21083724345813029 0 -0.37477327163816809 -0.19024999202774279 0 -0.38112493592857821 -0.1944088104708232 0 -0.37983830222988108 -0.18750696093157279 0 -0.37477327163816809 -0.19024999202774279 0 -0.38112493592857821 -0.1944088104708232 0 -0.37563099144924511 -0.19603554402084841 0 -0.37435377332353359 -0.20167875025011331 0 -0.38373537882921949 -0.2036197833464278 0 -0.38065547712242659 -0.19925590133803339 0 -0.37435377332353359 -0.20167875025011331 0 -0.37563099144924511 -0.19603554402084841 0 -0.38065547712242659 -0.19925590133803339 0 -0.38112493592857821 -0.1944088104708232 0 -0.38065547712242659 -0.19925590133803339 0 -0.38415449893548093 -0.1976437416658654 0 -0.38112493592857821 -0.1944088104708232 0 -0.37563099144924511 -0.19603554402084841 0 -0.38065547712242659 -0.19925590133803339 0 -0.38112493592857821 -0.1944088104708232 0 -0.38415449893548093 -0.1976437416658654 0 -0.38892820487765623 -0.19610730578156521 0 -0.38415449893548093 -0.1976437416658654 0 -0.38590937781326262 -0.2008029490730398 0 -0.38892820487765623 -0.19610730578156521 0 -0.38065547712242659 -0.19925590133803339 0 -0.38415449893548093 -0.1976437416658654 0 -0.38590937781326262 -0.2008029490730398 0 -0.38373537882921949 -0.2036197833464278 0 -0.38065547712242659 -0.19925590133803339 0 -0.38590937781326262 -0.2008029490730398 0 -0.38112493592857821 -0.1944088104708232 0 -0.37983830222988108 -0.18750696093157279 0 -0.38892820487765623 -0.19610730578156521 0 -0.39838649842082202 -0.20510714947082501 0 -0.38590937781326262 -0.2008029490730398 0 -0.4072641696339252 -0.1846825394472896 0 -0.39838649842082202 -0.20510714947082501 0 -0.40867742408899838 -0.19684267558485161 0 -0.4072641696339252 -0.1846825394472896 0 -0.38590937781326262 -0.2008029490730398 0 -0.38892820487765623 -0.19610730578156521 0 -0.4072641696339252 -0.1846825394472896 0 -0.38590937781326262 -0.2008029490730398 0 -0.4072641696339252 -0.1846825394472896 0 -0.40867742408899838 -0.19684267558485161 0 -0.42812776852765771 -0.1909192379714674 0 -0.42093702877772071 -0.20220308114304289 0 -0.40867742408899838 -0.19684267558485161 0 -0.42812776852765771 -0.1909192379714674 0 -0.41699091919275438 -0.18971428635208051 0 -0.40867742408899838 -0.19684267558485161 0 -0.42812776852765771 -0.1909192379714674 0 -0.41699091919275438 -0.18971428635208051 0 -0.40867742408899838 -0.19684267558485161 0 -0.4072641696339252 -0.1846825394472896 0 -0.42093702877772071 -0.20220308114304289 0 -0.40867742408899838 -0.19684267558485161 0 -0.41132386262589771 -0.20828029805578771 0 -0.41018634009326499 -0.22097850611473491 0 -0.41132386262589771 -0.20828029805578771 0 -0.43100194576512452 -0.21101950337140249 0 -0.42093702877772071 -0.20220308114304289 0 -0.41132386262589771 -0.20828029805578771 0 -0.43100194576512452 -0.21101950337140249 0 -0.41018634009326499 -0.22097850611473491 0 -0.39838649842082202 -0.20510714947082501 0 -0.41132386262589771 -0.20828029805578771 0 -0.43100194576512452 -0.21101950337140249 0 -0.42812776852765771 -0.1909192379714674 0 -0.44696113643044127 -0.19827901922138219 0 -0.42093702877772071 -0.20220308114304289 0 -0.43100194576512452 -0.21101950337140249 0 -0.42812776852765771 -0.1909192379714674 0 -0.43100194576512452 -0.21101950337140249 0 -0.42812776852765771 -0.1909192379714674 0 -0.41699091919275438 -0.18971428635208051 0 -0.42812776852765771 -0.1909192379714674 0 -0.42386726193647728 -0.1883462133650875 0 -0.42240869603110481 -0.18313359423967071 0 -0.42994101195167228 -0.17914335221427091 0 -0.42861896145458778 -0.16856212982153931 0 -0.42812776852765771 -0.1909192379714674 0 -0.42240869603110481 -0.18313359423967071 0 -0.42994101195167228 -0.17914335221427091 0 -0.42812776852765771 -0.1909192379714674 0 -0.42386726193647728 -0.1883462133650875 0 -0.42240869603110481 -0.18313359423967071 0 -0.42812776852765771 -0.1909192379714674 0 -0.42994101195167228 -0.17914335221427091 0 -0.43777172144296622 -0.17956184415272719 0 -0.42994101195167228 -0.17914335221427091 0 -0.42861896145458778 -0.16856212982153931 0 -0.43777172144296622 -0.17956184415272719 0 -0.42861896145458778 -0.16856212982153931 0 -0.41295056198302749 -0.15505273247534229 0 -0.42667681690941378 -0.1475650412138636 0 -0.42861896145458778 -0.16856212982153931 0 -0.40527233309226901 -0.16828302194813 0 -0.41295056198302749 -0.15505273247534229 0 -0.42240869603110481 -0.18313359423967071 0 -0.42861896145458778 -0.16856212982153931 0 -0.4072641696339252 -0.1846825394472896 0 -0.42861896145458778 -0.16856212982153931 0 -0.4072641696339252 -0.1846825394472896 0 -0.42861896145458778 -0.16856212982153931 0 -0.4072641696339252 -0.1846825394472896 0 -0.40527233309226901 -0.16828302194813 0 -0.41699091919275438 -0.18971428635208051 0 -0.42240869603110481 -0.18313359423967071 0 -0.4072641696339252 -0.1846825394472896 0 -0.41699091919275438 -0.18971428635208051 0 -0.42386726193647728 -0.1883462133650875 0 -0.42240869603110481 -0.18313359423967071 0 -0.38892820487765623 -0.19610730578156521 0 -0.39521680908740348 -0.1807631339857019 0 -0.38844541820101358 -0.17817080961363399 0 -0.38892820487765623 -0.19610730578156521 0 -0.4072641696339252 -0.1846825394472896 0 -0.39521680908740348 -0.1807631339857019 0 -0.4072641696339252 -0.1846825394472896 0 -0.40042203817911859 -0.17616888753489529 0 -0.40527233309226901 -0.16828302194813 0 -0.4072641696339252 -0.1846825394472896 0 -0.40042203817911859 -0.17616888753489529 0 -0.39521680908740348 -0.1807631339857019 0 -0.39521680908740348 -0.1807631339857019 0 -0.38844541820101358 -0.17817080961363399 0 -0.39393484090287689 -0.1709468547584598 0 -0.40042203817911859 -0.17616888753489529 0 -0.39521680908740348 -0.1807631339857019 0 -0.39393484090287689 -0.1709468547584598 0 -0.37983830222988108 -0.18750696093157279 0 -0.38892820487765623 -0.19610730578156521 0 -0.37998508381492158 -0.17442930040969681 0 -0.38892820487765623 -0.19610730578156521 0 -0.38844541820101358 -0.17817080961363399 0 -0.37998508381492158 -0.17442930040969681 0 -0.38892820487765623 -0.19610730578156521 0 -0.37998508381492158 -0.17442930040969681 0 -0.38844541820101358 -0.17817080961363399 0 -0.37998508381492158 -0.17442930040969681 0 -0.38597782223252852 -0.16902517279493889 0 -0.38844541820101358 -0.17817080961363399 0 -0.38597782223252852 -0.16902517279493889 0 -0.39393484090287689 -0.1709468547584598 0 -0.3743800148900811 -0.18233939596803631 0 -0.3712666631441115 -0.17629868122952891 0 -0.37998508381492158 -0.17442930040969681 0 -0.3743800148900811 -0.18233939596803631 0 -0.37983830222988108 -0.18750696093157279 0 -0.37998508381492158 -0.17442930040969681 0 -0.3743800148900811 -0.18233939596803631 0 -0.37477327163816809 -0.19024999202774279 0 -0.37983830222988108 -0.18750696093157279 0 -0.38597782223252852 -0.16902517279493889 0 -0.39393484090287689 -0.1709468547584598 0 -0.39030121626246939 -0.15475575380828149 0 -0.37104196275218698 -0.15275129503782839 0 -0.37690180271423251 -0.166955468422536 0 -0.39030121626246939 -0.15475575380828149 0 -0.37998508381492158 -0.17442930040969681 0 -0.37690180271423251 -0.166955468422536 0 -0.38597782223252852 -0.16902517279493889 0 -0.36851200133675333 -0.1681574909621846 0 -0.37998508381492158 -0.17442930040969681 0 -0.37690180271423251 -0.166955468422536 0 -0.37998508381492158 -0.17442930040969681 0 -0.37690180271423251 -0.166955468422536 0 -0.37690180271423251 -0.166955468422536 0 -0.39030121626246939 -0.15475575380828149 0 -0.37690180271423251 -0.166955468422536 0 -0.38597782223252852 -0.16902517279493889 0 -0.39030121626246939 -0.15475575380828149 0 -0.40527233309226901 -0.16828302194813 0 -0.39030121626246939 -0.15475575380828149 0 -0.41295056198302749 -0.15505273247534229 0 -0.39393484090287689 -0.1709468547584598 0 -0.40527233309226901 -0.16828302194813 0 -0.39030121626246939 -0.15475575380828149 0 -0.40042203817911859 -0.17616888753489529 0 -0.39393484090287689 -0.1709468547584598 0 -0.40527233309226901 -0.16828302194813 0 -0.40337988054357771 -0.14268836223194001 0 -0.39030121626246939 -0.15475575380828149 0 -0.41295056198302749 -0.15505273247534229 0 -0.40337988054357771 -0.14268836223194001 0 -0.39030121626246939 -0.15475575380828149 0 -0.3847931345618415 -0.14670696440290051 0 -0.40337988054357771 -0.14268836223194001 0 -0.39030121626246939 -0.15475575380828149 0 -0.37444947868913181 -0.13663244653355239 0 -0.37104196275218698 -0.15275129503782839 0 -0.3847931345618415 -0.14670696440290051 0 -0.37104196275218698 -0.15275129503782839 0 -0.39030121626246939 -0.15475575380828149 0 -0.3847931345618415 -0.14670696440290051 0 -0.37444947868913181 -0.13663244653355239 0 -0.40337988054357771 -0.14268836223194001 0 -0.3847931345618415 -0.14670696440290051 0 -0.37444947868913181 -0.13663244653355239 0 -0.40337988054357771 -0.14268836223194001 0 -0.39140569268787467 -0.12801913107642371 0 -0.37444947868913181 -0.13663244653355239 0 -0.40337988054357771 -0.14268836223194001 0 -0.37444947868913181 -0.13663244653355239 0 -0.39140569268787467 -0.12801913107642371 0 -0.38413772053621043 -0.1151260681325659 0 -0.40337988054357771 -0.14268836223194001 0 -0.39140569268787467 -0.12801913107642371 0 -0.40363141267452629 -0.1211993515337291 0 -0.40337988054357771 -0.14268836223194001 0 -0.41881241854716961 -0.12844910391753431 0 -0.40363141267452629 -0.1211993515337291 0 -0.40337988054357771 -0.14268836223194001 0 -0.41881241854716961 -0.12844910391753431 0 -0.42667681690941378 -0.1475650412138636 0 -0.40337988054357771 -0.14268836223194001 0 -0.41881241854716961 -0.12844910391753431 0 -0.40337988054357771 -0.14268836223194001 0 -0.41295056198302749 -0.15505273247534229 0 -0.42667681690941378 -0.1475650412138636 0 -0.40337988054357771 -0.14268836223194001 0 -0.42667681690941378 -0.1475650412138636 0 -0.42861896145458778 -0.16856212982153931 0 -0.42667681690941378 -0.1475650412138636 0 -0.4499737532752498 -0.15244172019578831 0 -0.41881241854716961 -0.12844910391753431 0 -0.42667681690941378 -0.1475650412138636 0 -0.44075865191375752 -0.1276468128158641 0 -0.44075865191375752 -0.1276468128158641 0 -0.44792627002857438 -0.13939773438359321 0 -0.45935554502322062 -0.12662597983180349 0 -0.42667681690941378 -0.1475650412138636 0 -0.44075865191375752 -0.1276468128158641 0 -0.44792627002857438 -0.13939773438359321 0 -0.42667681690941378 -0.1475650412138636 0 -0.44792627002857438 -0.13939773438359321 0 -0.4499737532752498 -0.15244172019578831 0 -0.42667681690941378 -0.1475650412138636 0 -0.4499737532752498 -0.15244172019578831 0 -0.4499737532752498 -0.15244172019578831 0 -0.46621116441012928 -0.1558406495811315 0 -0.4499737532752498 -0.15244172019578831 0 -0.46621116441012928 -0.1558406495811315 0 -0.46286658302123052 -0.1427091178606468 0 -0.4499737532752498 -0.15244172019578831 0 -0.46286658302123052 -0.1427091178606468 0 -0.44792627002857438 -0.13939773438359321 0 -0.4499737532752498 -0.15244172019578831 0 -0.46286658302123052 -0.1427091178606468 0 -0.46621116441012928 -0.1558406495811315 0 -0.46286658302123052 -0.1427091178606468 0 -0.47639096129214398 -0.146112831099065 0 -0.46286658302123052 -0.1427091178606468 0 -0.45935554502322062 -0.12662597983180349 0 -0.47575941276721062 -0.13297651552550449 0 -0.44792627002857438 -0.13939773438359321 0 -0.46286658302123052 -0.1427091178606468 0 -0.45935554502322062 -0.12662597983180349 0 -0.46286658302123052 -0.1427091178606468 0 -0.47575941276721062 -0.13297651552550449 0 -0.46286658302123052 -0.1427091178606468 0 -0.47575941276721062 -0.13297651552550449 0 -0.47639096129214398 -0.146112831099065 0 -0.47575941276721062 -0.13297651552550449 0 -0.48598459080592771 -0.13708807095731421 0 -0.47639096129214398 -0.146112831099065 0 -0.47575941276721062 -0.13297651552550449 0 -0.48598459080592771 -0.13708807095731421 0 -0.49251029496619397 -0.1248251799735004 0 -0.48598459080592771 -0.13708807095731421 0 -0.5 -0.13257524928949441 0 -0.48797158560805248 -0.1481171803749515 0 -0.48598459080592771 -0.13708807095731421 0 -0.5 -0.13257524928949441 0 -0.49251029496619397 -0.1248251799735004 0 -0.5 -0.13257524928949441 0 -0.48797158560805248 -0.1481171803749515 0 -0.5 -0.1623877944377615 0 -0.48797158560805248 -0.1481171803749515 0 -0.47639096129214398 -0.146112831099065 0 -0.47955243114031382 -0.15994545229484169 0 -0.48598459080592771 -0.13708807095731421 0 -0.48797158560805248 -0.1481171803749515 0 -0.47639096129214398 -0.146112831099065 0 -0.46621116441012928 -0.1558406495811315 0 -0.47639096129214398 -0.146112831099065 0 -0.47955243114031382 -0.15994545229484169 0 -0.46621116441012928 -0.1558406495811315 0 -0.47955243114031382 -0.15994545229484169 0 -0.46769626287254701 -0.16788217565542929 0 -0.47955243114031382 -0.15994545229484169 0 -0.48501907377849018 -0.17359347294658181 0 -0.46769626287254701 -0.16788217565542929 0 -0.48797158560805248 -0.1481171803749515 0 -0.47955243114031382 -0.15994545229484169 0 -0.5 -0.1623877944377615 0 -0.47955243114031382 -0.15994545229484169 0 -0.5 -0.1623877944377615 0 -0.48501907377849018 -0.17359347294658181 0 -0.48501907377849018 -0.17359347294658181 0 -0.47198846707304531 -0.1936449793093187 0 -0.5 -0.19220033958602861 0 -0.5 -0.1623877944377615 0 -0.48501907377849018 -0.17359347294658181 0 -0.5 -0.19220033958602861 0 -0.48501907377849018 -0.17359347294658181 0 -0.45657342115307398 -0.1822563554590246 0 -0.48501907377849018 -0.17359347294658181 0 -0.45657342115307398 -0.1822563554590246 0 -0.47198846707304531 -0.1936449793093187 0 -0.48501907377849018 -0.17359347294658181 0 -0.45657342115307398 -0.1822563554590246 0 -0.46769626287254701 -0.16788217565542929 0 -0.45657342115307398 -0.1822563554590246 0 -0.46769626287254701 -0.16788217565542929 0 -0.45112522388072779 -0.16777494799556661 0 -0.4499737532752498 -0.15244172019578831 0 -0.46621116441012928 -0.1558406495811315 0 -0.45112522388072779 -0.16777494799556661 0 -0.46621116441012928 -0.1558406495811315 0 -0.46769626287254701 -0.16788217565542929 0 -0.45112522388072779 -0.16777494799556661 0 -0.42861896145458778 -0.16856212982153931 0 -0.4499737532752498 -0.15244172019578831 0 -0.45112522388072779 -0.16777494799556661 0 -0.42861896145458778 -0.16856212982153931 0 -0.4499737532752498 -0.15244172019578831 0 -0.42812776852765771 -0.1909192379714674 0 -0.45657342115307398 -0.1822563554590246 0 -0.43777172144296622 -0.17956184415272719 0 -0.42861896145458778 -0.16856212982153931 0 -0.45112522388072779 -0.16777494799556661 0 -0.43777172144296622 -0.17956184415272719 0 -0.45657342115307398 -0.1822563554590246 0 -0.45112522388072779 -0.16777494799556661 0 -0.43777172144296622 -0.17956184415272719 0 -0.42812776852765771 -0.1909192379714674 0 -0.45657342115307398 -0.1822563554590246 0 -0.42812776852765771 -0.1909192379714674 0 -0.45657342115307398 -0.1822563554590246 0 -0.44696113643044127 -0.19827901922138219 0 -0.43100194576512452 -0.21101950337140249 0 -0.44696113643044127 -0.19827901922138219 0 -0.45828230039080448 -0.21304242602492729 0 -0.43100194576512452 -0.21101950337140249 0 -0.45828230039080448 -0.21304242602492729 0 -0.44976474365308461 -0.22612580178287661 0 -0.45828230039080448 -0.21304242602492729 0 -0.47960430847884189 -0.2128019512752137 0 -0.46533620179895852 -0.22665209913975809 0 -0.45657342115307398 -0.1822563554590246 0 -0.44696113643044127 -0.19827901922138219 0 -0.47198846707304531 -0.1936449793093187 0 -0.44696113643044127 -0.19827901922138219 0 -0.45828230039080448 -0.21304242602492729 0 -0.47198846707304531 -0.1936449793093187 0 -0.47198846707304531 -0.1936449793093187 0 -0.5 -0.19220033958602861 0 -0.47960430847884189 -0.2128019512752137 0 -0.5 -0.19220033958602861 0 -0.47960430847884189 -0.2128019512752137 0 -0.4999999999999995 -0.22201288473429559 0 -0.45828230039080448 -0.21304242602492729 0 -0.47198846707304531 -0.1936449793093187 0 -0.47960430847884189 -0.2128019512752137 0 -0.47960430847884189 -0.2128019512752137 0 -0.47982213935770551 -0.23208181915433571 0 -0.46533620179895852 -0.22665209913975809 0 -0.47982213935770551 -0.23208181915433571 0 -0.4999999999999995 -0.22201288473429559 0 -0.4886145357930356 -0.24179113403251959 0 -0.47960430847884189 -0.2128019512752137 0 -0.47982213935770551 -0.23208181915433571 0 -0.4999999999999995 -0.22201288473429559 0 -0.47982213935770551 -0.23208181915433571 0 -0.4999999999999995 -0.22201288473429559 0 -0.49590866617644802 -0.2576750274662496 0 -0.4886145357930356 -0.24179113403251959 0 -0.47521515037916889 -0.24881642459123701 0 -0.49590866617644802 -0.2576750274662496 0 -0.50000000000000222 -0.24908167697214789 0 -0.4886145357930356 -0.24179113403251959 0 -0.4999999999999995 -0.22201288473429559 0 -0.50000000000000222 -0.24908167697214789 0 -0.4886145357930356 -0.24179113403251959 0 -0.47982213935770551 -0.23208181915433571 0 -0.47483960980402268 -0.2425201220920665 0 -0.45964427871541141 -0.24215075357437621 0 -0.4886145357930356 -0.24179113403251959 0 -0.48057067547679089 -0.24033078045018519 0 -0.47521515037916889 -0.24881642459123701 0 -0.48057067547679089 -0.24033078045018519 0 -0.47521515037916889 -0.24881642459123701 0 -0.47483960980402268 -0.2425201220920665 0 -0.47982213935770551 -0.23208181915433571 0 -0.45964427871541141 -0.24215075357437621 0 -0.47982213935770551 -0.23208181915433571 0 -0.4886145357930356 -0.24179113403251959 0 -0.48057067547679089 -0.24033078045018519 0 -0.47982213935770551 -0.23208181915433571 0 -0.48057067547679089 -0.24033078045018519 0 -0.47483960980402268 -0.2425201220920665 0 -0.47521515037916889 -0.24881642459123701 0 -0.47483960980402268 -0.2425201220920665 0 -0.45964427871541141 -0.24215075357437621 0 -0.47521515037916889 -0.24881642459123701 0 -0.47483960980402268 -0.2425201220920665 0 -0.46028954896004942 -0.25343879599630659 0 -0.47521515037916889 -0.24881642459123701 0 -0.45964427871541141 -0.24215075357437621 0 -0.47521515037916889 -0.24881642459123701 0 -0.45964427871541141 -0.24215075357437621 0 -0.46028954896004942 -0.25343879599630659 0 -0.45964427871541141 -0.24215075357437621 0 -0.45165784991548819 -0.24613605356540649 0 -0.45964427871541141 -0.24215075357437621 0 -0.45165784991548819 -0.24613605356540649 0 -0.45964427871541141 -0.24215075357437621 0 -0.46533620179895852 -0.22665209913975809 0 -0.44976474365308461 -0.22612580178287661 0 -0.47982213935770551 -0.23208181915433571 0 -0.45964427871541141 -0.24215075357437621 0 -0.46533620179895852 -0.22665209913975809 0 -0.45828230039080448 -0.21304242602492729 0 -0.46533620179895852 -0.22665209913975809 0 -0.44976474365308461 -0.22612580178287661 0 -0.43387612300259087 -0.23111976877133769 0 -0.43100194576512452 -0.21101950337140249 0 -0.44976474365308461 -0.22612580178287661 0 -0.43387612300259087 -0.23111976877133769 0 -0.45964427871541141 -0.24215075357437621 0 -0.44976474365308461 -0.22612580178287661 0 -0.43679565123876007 -0.25153719175576511 0 -0.43387612300259087 -0.23111976877133769 0 -0.45165784991548819 -0.24613605356540649 0 -0.43387612300259087 -0.23111976877133769 0 -0.45964427871541141 -0.24215075357437621 0 -0.45165784991548819 -0.24613605356540649 0 -0.43387612300259087 -0.23111976877133769 0 -0.45964427871541141 -0.24215075357437621 0 -0.4208870767061354 -0.043033868644993818 0 -0.41097400434585107 -0.039445087843019207 0 -0.41463642711387072 -0.050674971790526741 0 -0.4208870767061354 -0.043033868644993818 0 -0.42160299582416227 -0.032546203181351853 0 -0.41097400434585107 -0.039445087843019207 0 -0.41097400434585107 -0.039445087843019207 0 -0.40679965950654612 -0.027482078901306849 0 -0.40132689097486868 -0.036411669321218601 0 -0.42160299582416227 -0.032546203181351853 0 -0.41097400434585107 -0.039445087843019207 0 -0.40679965950654612 -0.027482078901306849 0 -0.41097400434585107 -0.039445087843019207 0 -0.41463642711387072 -0.050674971790526741 0 -0.40081707292511398 -0.047643082043241913 0 -0.40081707292511398 -0.047643082043241913 0 -0.41491731872826332 -0.064209735589177891 0 -0.41463642711387072 -0.050674971790526741 0 -0.40081707292511398 -0.047643082043241913 0 -0.41491731872826332 -0.064209735589177891 0 -0.41463642711387072 -0.050674971790526741 0 -0.4266533755610995 -0.057263588377850207 0 -0.41491731872826332 -0.064209735589177891 0 -0.4208870767061354 -0.043033868644993818 0 -0.41463642711387072 -0.050674971790526741 0 -0.4266533755610995 -0.057263588377850207 0 -0.4208870767061354 -0.043033868644993818 0 -0.4266533755610995 -0.057263588377850207 0 -0.4292908257388327 -0.043213080092035512 0 -0.4266533755610995 -0.057263588377850207 0 -0.43651583771898689 -0.062203162380251441 0 -0.44050018399329072 -0.04930889234720711 0 -0.4266533755610995 -0.057263588377850207 0 -0.4292908257388327 -0.043213080092035512 0 -0.44050018399329072 -0.04930889234720711 0 -0.4292908257388327 -0.043213080092035512 0 -0.43421583243975448 -0.027336920836126492 0 -0.44050018399329072 -0.04930889234720711 0 -0.42160299582416227 -0.032546203181351853 0 -0.4292908257388327 -0.043213080092035512 0 -0.43421583243975448 -0.027336920836126492 0 -0.43421583243975448 -0.027336920836126492 0 -0.44050018399329072 -0.04930889234720711 0 -0.4208870767061354 -0.043033868644993818 0 -0.42160299582416227 -0.032546203181351853 0 -0.4292908257388327 -0.043213080092035512 0 -0.43421583243975448 -0.027336920836126492 0 -0.42793148088621891 -0.005364949325045683 0 -0.41907942798868653 -0.019363742632849009 0 -0.43421583243975448 -0.027336920836126492 0 -0.42793148088621891 -0.005364949325045683 0 -0.42160299582416227 -0.032546203181351853 0 -0.43421583243975448 -0.027336920836126492 0 -0.41907942798868653 -0.019363742632849009 0 -0.43421583243975448 -0.027336920836126492 0 -0.43240081612263093 -0.0053716510142982994 0 -0.42793148088621891 -0.005364949325045683 0 -0.43240081612263093 -0.0053716510142982994 0 -0.43912802971379722 0.0047070681882631343 0 -0.4263276796660021 0.00024241913928148981 0 -0.43240081612263093 -0.0053716510142982994 0 -0.42793148088621891 -0.005364949325045683 0 -0.43240081612263093 -0.0053716510142982994 0 -0.4263276796660021 0.00024241913928148981 0 -0.42793148088621891 -0.005364949325045683 0 -0.4263276796660021 0.00024241913928148981 0 -0.43240081612263093 -0.0053716510142982994 0 -0.42793148088621891 -0.005364949325045683 0 -0.4263276796660021 0.00024241913928148981 0 -0.42793148088621891 -0.005364949325045683 0 -0.40116216270501159 -0.005324809205209593 0 -0.4263276796660021 0.00024241913928148981 0 -0.42793148088621891 -0.005364949325045683 0 -0.40116216270501159 -0.005324809205209593 0 -0.42793148088621891 -0.005364949325045683 0 -0.41907942798868653 -0.019363742632849009 0 -0.40116216270501159 -0.005324809205209593 0 -0.41907942798868653 -0.019363742632849009 0 -0.40679965950654612 -0.027482078901306849 0 -0.40116216270501159 -0.005324809205209593 0 -0.42160299582416227 -0.032546203181351853 0 -0.41907942798868653 -0.019363742632849009 0 -0.40679965950654612 -0.027482078901306849 0 -0.40679965950654612 -0.027482078901306849 0 -0.40116216270501159 -0.005324809205209593 0 -0.38671682712196431 -0.03107642849730622 0 -0.37439284452380439 -0.0052846690853750322 0 -0.40116216270501159 -0.005324809205209593 0 -0.38541198093840229 0.0033348221957011561 0 -0.37439284452380439 -0.0052846690853750322 0 -0.40116216270501159 -0.005324809205209593 0 -0.37439284452380439 -0.0052846690853750322 0 -0.40116216270501159 -0.005324809205209593 0 -0.38671682712196431 -0.03107642849730622 0 -0.37306833222542007 -0.0025127159228337942 0 -0.37439284452380439 -0.0052846690853750322 0 -0.38541198093840229 0.0033348221957011561 0 -0.37439284452380439 -0.0052846690853750322 0 -0.38671682712196431 -0.03107642849730622 0 -0.37439284452380439 -0.0052846690853750322 0 -0.37061262895272129 -0.012155292268223801 0 -0.38671682712196431 -0.03107642849730622 0 -0.37061262895272129 -0.012155292268223801 0 -0.38671682712196431 -0.03107642849730622 0 -0.38671682712196431 -0.03107642849730622 0 -0.39911919528025819 -0.057032234027631273 0 -0.38517628729697678 -0.052260996944852867 0 -0.37209358054968639 -0.04849628506008187 0 -0.38671682712196431 -0.03107642849730622 0 -0.38517628729697678 -0.052260996944852867 0 -0.40679965950654612 -0.027482078901306849 0 -0.38671682712196431 -0.03107642849730622 0 -0.40132689097486868 -0.036411669321218601 0 -0.38671682712196431 -0.03107642849730622 0 -0.39911919528025819 -0.057032234027631273 0 -0.38671682712196431 -0.03107642849730622 0 -0.40081707292511398 -0.047643082043241913 0 -0.38671682712196431 -0.03107642849730622 0 -0.39911919528025819 -0.057032234027631273 0 -0.40081707292511398 -0.047643082043241913 0 -0.38671682712196431 -0.03107642849730622 0 -0.40132689097486868 -0.036411669321218601 0 -0.40081707292511398 -0.047643082043241913 0 -0.41097400434585107 -0.039445087843019207 0 -0.40132689097486868 -0.036411669321218601 0 -0.40081707292511398 -0.047643082043241913 0 -0.39911919528025819 -0.057032234027631273 0 -0.40081707292511398 -0.047643082043241913 0 -0.41491731872826332 -0.064209735589177891 0 -0.39911919528025819 -0.057032234027631273 0 -0.38517628729697678 -0.052260996944852867 0 -0.38824547264679338 -0.065122061602015502 0 -0.38517628729697678 -0.052260996944852867 0 -0.37780066047672989 -0.060246070524735233 0 -0.38824547264679338 -0.065122061602015502 0 -0.37209358054968639 -0.04849628506008187 0 -0.38517628729697678 -0.052260996944852867 0 -0.37780066047672989 -0.060246070524735233 0 -0.3721252998970791 -0.071475135214301377 0 -0.37780066047672989 -0.060246070524735233 0 -0.38824547264679338 -0.065122061602015502 0 -0.38824547264679338 -0.065122061602015502 0 -0.38058688523823608 -0.080984518617609455 0 -0.39508760630327577 -0.075003050388750464 0 -0.3721252998970791 -0.071475135214301377 0 -0.38824547264679338 -0.065122061602015502 0 -0.38058688523823608 -0.080984518617609455 0 -0.38058688523823608 -0.080984518617609455 0 -0.3917560387458181 -0.091842782997249434 0 -0.39508760630327577 -0.075003050388750464 0 -0.37302585757566292 -0.097776174687443457 0 -0.38058688523823608 -0.080984518617609455 0 -0.3917560387458181 -0.091842782997249434 0 -0.3917560387458181 -0.091842782997249434 0 -0.40617659938297068 -0.099178846599171366 0 -0.41152156343855267 -0.082988039557956084 0 -0.3917560387458181 -0.091842782997249434 0 -0.39508760630327577 -0.075003050388750464 0 -0.41152156343855267 -0.082988039557956084 0 -0.39911919528025819 -0.057032234027631273 0 -0.38824547264679338 -0.065122061602015502 0 -0.39508760630327577 -0.075003050388750464 0 -0.39911919528025819 -0.057032234027631273 0 -0.41152156343855267 -0.082988039557956084 0 -0.39911919528025819 -0.057032234027631273 0 -0.39508760630327577 -0.075003050388750464 0 -0.41152156343855267 -0.082988039557956084 0 -0.37302585757566292 -0.097776174687443457 0 -0.3917560387458181 -0.091842782997249434 0 -0.38413772053621043 -0.1151260681325659 0 -0.38413772053621043 -0.1151260681325659 0 -0.40617659938297068 -0.099178846599171366 0 -0.3917560387458181 -0.091842782997249434 0 -0.38413772053621043 -0.1151260681325659 0 -0.40617659938297068 -0.099178846599171366 0 -0.39140569268787467 -0.12801913107642371 0 -0.38413772053621043 -0.1151260681325659 0 -0.40363141267452629 -0.1211993515337291 0 -0.38413772053621043 -0.1151260681325659 0 -0.40617659938297068 -0.099178846599171366 0 -0.40363141267452629 -0.1211993515337291 0 -0.40617659938297068 -0.099178846599171366 0 -0.40363141267452629 -0.1211993515337291 0 -0.41779359958292539 -0.1134964869098674 0 -0.41881241854716961 -0.12844910391753431 0 -0.40363141267452629 -0.1211993515337291 0 -0.41779359958292539 -0.1134964869098674 0 -0.40617659938297068 -0.099178846599171366 0 -0.42492953055776672 -0.1010622152579128 0 -0.42821547822973099 -0.083231625065776804 0 -0.40617659938297068 -0.099178846599171366 0 -0.41779359958292539 -0.1134964869098674 0 -0.42492953055776672 -0.1010622152579128 0 -0.42492953055776672 -0.1010622152579128 0 -0.43424495655076117 -0.1142098456031282 0 -0.4380499054523489 -0.098107835871218282 0 -0.42492953055776672 -0.1010622152579128 0 -0.42821547822973099 -0.083231625065776804 0 -0.4380499054523489 -0.098107835871218282 0 -0.41881241854716961 -0.12844910391753431 0 -0.41779359958292539 -0.1134964869098674 0 -0.43424495655076117 -0.1142098456031282 0 -0.41779359958292539 -0.1134964869098674 0 -0.42492953055776672 -0.1010622152579128 0 -0.43424495655076117 -0.1142098456031282 0 -0.41881241854716961 -0.12844910391753431 0 -0.44075865191375752 -0.1276468128158641 0 -0.43424495655076117 -0.1142098456031282 0 -0.41881241854716961 -0.12844910391753431 0 -0.43424495655076117 -0.1142098456031282 0 -0.4209437200908332 -0.074155993366915807 0 -0.41491731872826332 -0.064209735589177891 0 -0.41152156343855267 -0.082988039557956084 0 -0.4266533755610995 -0.057263588377850207 0 -0.4209437200908332 -0.074155993366915807 0 -0.41491731872826332 -0.064209735589177891 0 -0.39911919528025819 -0.057032234027631273 0 -0.41491731872826332 -0.064209735589177891 0 -0.41152156343855267 -0.082988039557956084 0 -0.4209437200908332 -0.074155993366915807 0 -0.41152156343855267 -0.082988039557956084 0 -0.42821547822973099 -0.083231625065776804 0 -0.40617659938297068 -0.099178846599171366 0 -0.41152156343855267 -0.082988039557956084 0 -0.42821547822973099 -0.083231625065776804 0 -0.40617659938297068 -0.099178846599171366 0 -0.42821547822973099 -0.083231625065776804 0 -0.4266533755610995 -0.057263588377850207 0 -0.4209437200908332 -0.074155993366915807 0 -0.43212525577473049 -0.070959304937660755 0 -0.4209437200908332 -0.074155993366915807 0 -0.42821547822973099 -0.083231625065776804 0 -0.43212525577473049 -0.070959304937660755 0 -0.4266533755610995 -0.057263588377850207 0 -0.43651583771898689 -0.062203162380251441 0 -0.43212525577473049 -0.070959304937660755 0 -0.43212525577473049 -0.070959304937660755 0 -0.44678453554682679 -0.071280863858287691 0 -0.45225360217188509 -0.088914596616274058 0 -0.43651583771898689 -0.062203162380251441 0 -0.43212525577473049 -0.070959304937660755 0 -0.44678453554682679 -0.071280863858287691 0 -0.44529734151061451 -0.062695665540891621 0 -0.44678453554682679 -0.071280863858287691 0 -0.45720319853710761 -0.067356349562793599 0 -0.42821547822973099 -0.083231625065776804 0 -0.45225360217188509 -0.088914596616274058 0 -0.4380499054523489 -0.098107835871218282 0 -0.42821547822973099 -0.083231625065776804 0 -0.43212525577473049 -0.070959304937660755 0 -0.45225360217188509 -0.088914596616274058 0 -0.43212525577473049 -0.070959304937660755 0 -0.45225360217188509 -0.088914596616274058 0 -0.44678453554682679 -0.071280863858287691 0 -0.45225360217188509 -0.088914596616274058 0 -0.4570062472201637 -0.077760043799248058 0 -0.45225360217188509 -0.088914596616274058 0 -0.46762352366196769 -0.085014628224217154 0 -0.47238194856903948 -0.10686988829488719 0 -0.45225360217188509 -0.088914596616274058 0 -0.46762352366196769 -0.085014628224217154 0 -0.4570062472201637 -0.077760043799248058 0 -0.46762352366196769 -0.085014628224217154 0 -0.46522407993224041 -0.074944185745118228 0 -0.4570062472201637 -0.077760043799248058 0 -0.46522407993224041 -0.074944185745118228 0 -0.45720319853710761 -0.067356349562793599 0 -0.47045165986368792 -0.065017641495921569 0 -0.45720319853710761 -0.067356349562793599 0 -0.47045165986368792 -0.065017641495921569 0 -0.46300573068473327 -0.056364317111252789 0 -0.46522407993224041 -0.074944185745118228 0 -0.45720319853710761 -0.067356349562793599 0 -0.4570062472201637 -0.077760043799248058 0 -0.44678453554682679 -0.071280863858287691 0 -0.45720319853710761 -0.067356349562793599 0 -0.4570062472201637 -0.077760043799248058 0 -0.44075865191375752 -0.1276468128158641 0 -0.43424495655076117 -0.1142098456031282 0 -0.45043686210426792 -0.1094242450019393 0 -0.44075865191375752 -0.1276468128158641 0 -0.45935554502322062 -0.12662597983180349 0 -0.45043686210426792 -0.1094242450019393 0 -0.45225360217188509 -0.088914596616274058 0 -0.45043686210426792 -0.1094242450019393 0 -0.4380499054523489 -0.098107835871218282 0 -0.43424495655076117 -0.1142098456031282 0 -0.45043686210426792 -0.1094242450019393 0 -0.4380499054523489 -0.098107835871218282 0 -0.45225360217188509 -0.088914596616274058 0 -0.47238194856903948 -0.10686988829488719 0 -0.45225360217188509 -0.088914596616274058 0 -0.45043686210426792 -0.1094242450019393 0 -0.47238194856903948 -0.10686988829488719 0 -0.45935554502322062 -0.12662597983180349 0 -0.45043686210426792 -0.1094242450019393 0 -0.47238194856903948 -0.10686988829488719 0 -0.47238194856903948 -0.10686988829488719 0 -0.49251029496619397 -0.1248251799735004 0 -0.47575941276721062 -0.13297651552550449 0 -0.47238194856903948 -0.10686988829488719 0 -0.49251029496619397 -0.1248251799735004 0 -0.45935554502322062 -0.12662597983180349 0 -0.47575941276721062 -0.13297651552550449 0 -0.47238194856903948 -0.10686988829488719 0 -0.47238194856903948 -0.10686988829488719 0 -0.5 -0.1027627041412273 0 -0.48410016348389978 -0.086653688554265973 0 -0.5 -0.13257524928949441 0 -0.5 -0.1027627041412273 0 -0.49251029496619397 -0.1248251799735004 0 -0.47238194856903948 -0.10686988829488719 0 -0.5 -0.1027627041412273 0 -0.49251029496619397 -0.1248251799735004 0 -0.47601895217770213 -0.074711755564905863 0 -0.48410016348389978 -0.086653688554265973 0 -0.48774753420403633 -0.072482352572191253 0 -0.48105559098107092 -0.063624794043073946 0 -0.47601895217770213 -0.074711755564905863 0 -0.48774753420403633 -0.072482352572191253 0 -0.48105559098107092 -0.063624794043073946 0 -0.47045165986368792 -0.065017641495921569 0 -0.47601895217770213 -0.074711755564905863 0 -0.46522407993224041 -0.074944185745118228 0 -0.47045165986368792 -0.065017641495921569 0 -0.47601895217770213 -0.074711755564905863 0 -0.46762352366196769 -0.085014628224217154 0 -0.47238194856903948 -0.10686988829488719 0 -0.48410016348389978 -0.086653688554265973 0 -0.46762352366196769 -0.085014628224217154 0 -0.46522407993224041 -0.074944185745118228 0 -0.47601895217770213 -0.074711755564905863 0 -0.46762352366196769 -0.085014628224217154 0 -0.47601895217770213 -0.074711755564905863 0 -0.48410016348389978 -0.086653688554265973 0 -0.5 -0.1027627041412273 0 -0.48410016348389978 -0.086653688554265973 0 -0.5 -0.072950158992960201 0 -0.48105559098107092 -0.063624794043073946 0 -0.48774753420403633 -0.072482352572191253 0 -0.49677796408602859 -0.06488255242992147 0 -0.48410016348389978 -0.086653688554265973 0 -0.5 -0.072950158992960201 0 -0.48774753420403633 -0.072482352572191253 0 -0.5 -0.072950158992960201 0 -0.48774753420403633 -0.072482352572191253 0 -0.49677796408602859 -0.06488255242992147 0 -0.48105559098107092 -0.063624794043073946 0 -0.49677796408602859 -0.06488255242992147 0 -0.48227308468572611 -0.051474091891599433 0 -0.49038295576784979 -0.052223897024216967 0 -0.49999999999999828 -0.043137613844693043 0 -0.48248077429964681 -0.049401329930654519 0 -0.5 -0.072950158992960201 0 -0.49677796408602859 -0.06488255242992147 0 -0.49999999999999828 -0.043137613844693043 0 -0.49677796408602859 -0.06488255242992147 0 -0.49038295576784979 -0.052223897024216967 0 -0.49999999999999828 -0.043137613844693043 0 -0.49038295576784979 -0.052223897024216967 0 -0.48227308468572611 -0.051474091891599433 0 -0.48248077429964681 -0.049401329930654519 0 -0.49677796408602859 -0.06488255242992147 0 -0.48227308468572611 -0.051474091891599433 0 -0.49677796408602859 -0.06488255242992147 0 -0.49038295576784979 -0.052223897024216967 0 -0.48227308468572611 -0.051474091891599433 0 -0.49999999999999828 -0.043137613844693043 0 -0.48248077429964681 -0.049401329930654519 0 -0.49999999999999828 -0.043137613844693043 0 -0.48248077429964681 -0.049401329930654519 0 -0.48477878529226082 -0.02646696320226774 0 -0.47726767011471721 -0.037607031473148728 0 -0.48248077429964681 -0.049401329930654519 0 -0.48477878529226082 -0.02646696320226774 0 -0.48248077429964681 -0.049401329930654519 0 -0.48477878529226082 -0.02646696320226774 0 -0.48071411985885321 -0.050032968681616892 0 -0.46460968528011148 -0.035145862792511598 0 -0.47726767011471721 -0.037607031473148728 0 -0.48071411985885321 -0.050032968681616892 0 -0.46460968528011148 -0.035145862792511598 0 -0.47726767011471721 -0.037607031473148728 0 -0.48248077429964681 -0.049401329930654519 0 -0.48071411985885321 -0.050032968681616892 0 -0.47726767011471721 -0.037607031473148728 0 -0.46460968528011148 -0.035145862792511598 0 -0.47260563788049842 -0.023830788983272681 0 -0.47045165986368792 -0.065017641495921569 0 -0.48071411985885321 -0.050032968681616892 0 -0.46300573068473327 -0.056364317111252789 0 -0.48071411985885321 -0.050032968681616892 0 -0.46300573068473327 -0.056364317111252789 0 -0.46460968528011148 -0.035145862792511598 0 -0.48071411985885321 -0.050032968681616892 0 -0.46300573068473327 -0.056364317111252789 0 -0.48105559098107092 -0.063624794043073946 0 -0.47045165986368792 -0.065017641495921569 0 -0.48071411985885321 -0.050032968681616892 0 -0.48105559098107092 -0.063624794043073946 0 -0.48227308468572611 -0.051474091891599433 0 -0.48105559098107092 -0.063624794043073946 0 -0.48227308468572611 -0.051474091891599433 0 -0.48071411985885321 -0.050032968681616892 0 -0.48227308468572611 -0.051474091891599433 0 -0.48248077429964681 -0.049401329930654519 0 -0.48071411985885321 -0.050032968681616892 0 -0.48227308468572611 -0.051474091891599433 0 -0.48248077429964681 -0.049401329930654519 0 -0.48227308468572611 -0.051474091891599433 0 -0.48071411985885321 -0.050032968681616892 0 -0.48248077429964681 -0.049401329930654519 0 -0.48071411985885321 -0.050032968681616892 0 -0.44529734151061451 -0.062695665540891621 0 -0.46300573068473327 -0.056364317111252789 0 -0.44529734151061451 -0.062695665540891621 0 -0.45720319853710761 -0.067356349562793599 0 -0.46300573068473327 -0.056364317111252789 0 -0.44529734151061451 -0.062695665540891621 0 -0.46300573068473327 -0.056364317111252789 0 -0.45215488522128311 -0.047882395862684612 0 -0.46460968528011148 -0.035145862792511598 0 -0.44736148463766567 -0.035897241521559903 0 -0.45215488522128311 -0.047882395862684612 0 -0.46300573068473327 -0.056364317111252789 0 -0.46460968528011148 -0.035145862792511598 0 -0.45215488522128311 -0.047882395862684612 0 -0.43421583243975448 -0.027336920836126492 0 -0.44736148463766567 -0.035897241521559903 0 -0.44050018399329072 -0.04930889234720711 0 -0.44736148463766567 -0.035897241521559903 0 -0.44050018399329072 -0.04930889234720711 0 -0.45215488522128311 -0.047882395862684612 0 -0.44529734151061451 -0.062695665540891621 0 -0.44678453554682679 -0.071280863858287691 0 -0.44050018399329072 -0.04930889234720711 0 -0.43651583771898689 -0.062203162380251441 0 -0.44678453554682679 -0.071280863858287691 0 -0.44050018399329072 -0.04930889234720711 0 -0.44678453554682679 -0.071280863858287691 0 -0.44050018399329072 -0.04930889234720711 0 -0.44529734151061451 -0.062695665540891621 0 -0.44050018399329072 -0.04930889234720711 0 -0.45215488522128311 -0.047882395862684612 0 -0.43240081612263093 -0.0053716510142982994 0 -0.45022362416265738 -0.0053983760001807416 0 -0.43912802971379722 0.0047070681882631343 0 -0.43240081612263093 -0.0053716510142982994 0 -0.45022362416265738 -0.0053983760001807416 0 -0.44850525070137087 -0.02025875690340528 0 -0.43240081612263093 -0.0053716510142982994 0 -0.44850525070137087 -0.02025875690340528 0 -0.43240081612263093 -0.0053716510142982994 0 -0.45022362416265738 -0.0053983760001807416 0 -0.43421583243975448 -0.027336920836126492 0 -0.43240081612263093 -0.0053716510142982994 0 -0.44850525070137087 -0.02025875690340528 0 -0.43421583243975448 -0.027336920836126492 0 -0.44736148463766567 -0.035897241521559903 0 -0.44850525070137087 -0.02025875690340528 0 -0.46460968528011148 -0.035145862792511598 0 -0.44850525070137087 -0.02025875690340528 0 -0.46241157122591531 -0.021369512642757719 0 -0.45022362416265738 -0.0053983760001807416 0 -0.44850525070137087 -0.02025875690340528 0 -0.46241157122591531 -0.021369512642757719 0 -0.46460968528011148 -0.035145862792511598 0 -0.44850525070137087 -0.02025875690340528 0 -0.46460968528011148 -0.035145862792511598 0 -0.44736148463766567 -0.035897241521559903 0 -0.44850525070137087 -0.02025875690340528 0 -0.46460968528011148 -0.035145862792511598 0 -0.46241157122591531 -0.021369512642757719 0 -0.47260563788049842 -0.023830788983272681 0 -0.46241157122591531 -0.021369512642757719 0 -0.46848277903440932 -0.0095249425311645514 0 -0.47260563788049842 -0.023830788983272681 0 -0.45022362416265738 -0.0053983760001807416 0 -0.46241157122591531 -0.021369512642757719 0 -0.46848277903440932 -0.0095249425311645514 0 -0.45022362416265738 -0.0053983760001807416 0 -0.46848277903440932 -0.0095249425311645514 0 -0.4614253901193251 0.001548070883527083 0 -0.47808333633557681 -0.012870421257785749 0 -0.48477878529226082 -0.02646696320226774 0 -0.4870767962848751 -0.0035325964738809491 0 -0.46848277903440932 -0.0095249425311645514 0 -0.4764321631785875 -0.0011330607793884151 0 -0.4614253901193251 0.001548070883527083 0 -0.46848277903440932 -0.0095249425311645514 0 -0.47808333633557681 -0.012870421257785749 0 -0.47260563788049842 -0.023830788983272681 0 -0.46848277903440932 -0.0095249425311645514 0 -0.4764321631785875 -0.0011330607793884151 0 -0.47808333633557681 -0.012870421257785749 0 -0.4764321631785875 -0.0011330607793884151 0 -0.47808333633557681 -0.012870421257785749 0 -0.4870767962848751 -0.0035325964738809491 0 -0.47808333633557681 -0.012870421257785749 0 -0.47260563788049842 -0.023830788983272681 0 -0.48477878529226082 -0.02646696320226774 0 -0.47726767011471721 -0.037607031473148728 0 -0.47260563788049842 -0.023830788983272681 0 -0.48477878529226082 -0.02646696320226774 0 -0.49999999999999828 -0.043137613844693043 0 -0.5 -0.021471390092698491 0 -0.48477878529226082 -0.02646696320226774 0 -0.5 -0.021471390092698491 0 -0.48477878529226082 -0.02646696320226774 0 -0.4958240557730339 -0.0089197602187931421 0 -0.4958240557730339 -0.0089197602187931421 0 -0.49272607608861058 0.0089180851959778651 0 -0.4958240557730339 -0.0089197602187931421 0 -0.4870767962848751 -0.0035325964738809491 0 -0.49272607608861058 0.0089180851959778651 0 -0.5 -0.021471390092698491 0 -0.4958240557730339 -0.0089197602187931421 0 -0.5 0.00019483365929612309 0 -0.48477878529226082 -0.02646696320226774 0 -0.4958240557730339 -0.0089197602187931421 0 -0.4870767962848751 -0.0035325964738809491 0 -0.48477878529226082 -0.02646696320226774 0 -0.4870767962848751 -0.0035325964738809491 0 -0.4958240557730339 -0.0089197602187931421 0 -0.49272607608861058 0.0089180851959778651 0 -0.5 0.00019483365929612309 0 -0.4870767962848751 -0.0035325964738809491 0 -0.49272607608861058 0.0089180851959778651 0 -0.48937480727748928 0.019401770254505811 0 -0.49272607608861058 0.0089180851959778651 0 -0.5 0.00019483365929612309 0 -0.49999999999999711 0.021861057411290751 0 -0.4870767962848751 -0.0035325964738809491 0 -0.48937480727748928 0.019401770254505811 0 -0.4870767962848751 -0.0035325964738809491 0 -0.48937480727748928 0.019401770254505811 0 -0.48131041539390113 0.0086275048210471064 0 -0.49272607608861058 0.0089180851959778651 0 -0.48962809640418847 0.02675593061074906 0 -0.49272607608861058 0.0089180851959778651 0 -0.48962809640418847 0.02675593061074906 0 -0.48937480727748928 0.019401770254505811 0 -0.49999999999999711 0.021861057411290751 0 -0.48962809640418847 0.02675593061074906 0 -0.49999999999999878 0.038895296568826801 0 -0.49272607608861058 0.0089180851959778651 0 -0.49999999999999711 0.021861057411290751 0 -0.48962809640418847 0.02675593061074906 0 -0.49999999999999711 0.021861057411290751 0 -0.48962809640418847 0.02675593061074906 0 -0.48962809640418847 0.02675593061074906 0 -0.48937480727748928 0.019401770254505811 0 -0.48195108801136499 0.023687300073796439 0 -0.48937480727748928 0.019401770254505811 0 -0.48222200461990561 0.017874040604309201 0 -0.48195108801136499 0.023687300073796439 0 -0.48962809640418847 0.02675593061074906 0 -0.473803199823985 0.034224266720816222 0 -0.48962809640418847 0.02675593061074906 0 -0.48195108801136499 0.023687300073796439 0 -0.473803199823985 0.034224266720816222 0 -0.48222200461990561 0.017874040604309201 0 -0.48195108801136499 0.023687300073796439 0 -0.47472733193125582 0.02018049217860025 0 -0.48195108801136499 0.023687300073796439 0 -0.47472733193125582 0.02018049217860025 0 -0.473803199823985 0.034224266720816222 0 -0.47472733193125582 0.02018049217860025 0 -0.473803199823985 0.034224266720816222 0 -0.46611110801013422 0.029483499211293781 0 -0.47472733193125582 0.02018049217860025 0 -0.4659582855077643 0.019340147793352389 0 -0.46611110801013422 0.029483499211293781 0 -0.47472733193125582 0.02018049217860025 0 -0.46837867253295218 0.0099876239637381424 0 -0.4659582855077643 0.019340147793352389 0 -0.47472733193125582 0.02018049217860025 0 -0.48131041539390113 0.0086275048210471064 0 -0.46837867253295218 0.0099876239637381424 0 -0.4764321631785875 -0.0011330607793884151 0 -0.48131041539390113 0.0086275048210471064 0 -0.46837867253295218 0.0099876239637381424 0 -0.4764321631785875 -0.0011330607793884151 0 -0.4870767962848751 -0.0035325964738809491 0 -0.48131041539390113 0.0086275048210471064 0 -0.48937480727748928 0.019401770254505811 0 -0.48222200461990561 0.017874040604309201 0 -0.48131041539390113 0.0086275048210471064 0 -0.48222200461990561 0.017874040604309201 0 -0.47472733193125582 0.02018049217860025 0 -0.48131041539390113 0.0086275048210471064 0 -0.4852085750405441 0.052203075822305302 0 -0.48290162366901512 0.06548626232982209 0 -0.49202754967738949 0.062833584307019685 0 -0.5 0.051835352162414028 0 -0.4852085750405441 0.052203075822305302 0 -0.49202754967738949 0.062833584307019685 0 -0.5 0.051835352162414028 0 -0.4852085750405441 0.052203075822305302 0 -0.49999999999999878 0.038895296568826801 0 -0.48962809640418847 0.02675593061074906 0 -0.4852085750405441 0.052203075822305302 0 -0.48962809640418847 0.02675593061074906 0 -0.4852085750405441 0.052203075822305302 0 -0.49999999999999878 0.038895296568826801 0 -0.4852085750405441 0.052203075822305302 0 -0.49999999999999878 0.038895296568826801 0 -0.48962809640418847 0.02675593061074906 0 -0.4852085750405441 0.052203075822305302 0 -0.47667714231032199 0.042442900941185767 0 -0.48962809640418847 0.02675593061074906 0 -0.473803199823985 0.034224266720816222 0 -0.47667714231032199 0.042442900941185767 0 -0.47062307686042931 0.046388145319614438 0 -0.47667714231032199 0.042442900941185767 0 -0.46619489778166517 0.045135132841811768 0 -0.473803199823985 0.034224266720816222 0 -0.47667714231032199 0.042442900941185767 0 -0.46619489778166517 0.045135132841811768 0 -0.47062307686042931 0.046388145319614438 0 -0.47667714231032199 0.042442900941185767 0 -0.47410230816806259 0.049607176463024698 0 -0.4852085750405441 0.052203075822305302 0 -0.47667714231032199 0.042442900941185767 0 -0.47410230816806259 0.049607176463024698 0 -0.4852085750405441 0.052203075822305302 0 -0.47410230816806259 0.049607176463024698 0 -0.47706901860808187 0.059918022767682773 0 -0.47062307686042931 0.046388145319614438 0 -0.47410230816806259 0.049607176463024698 0 -0.46358759201472588 0.047047648016271669 0 -0.47410230816806259 0.049607176463024698 0 -0.47706901860808187 0.059918022767682773 0 -0.46358759201472588 0.047047648016271669 0 -0.47706901860808187 0.059918022767682773 0 -0.46358759201472588 0.047047648016271669 0 -0.4852085750405441 0.052203075822305302 0 -0.47706901860808187 0.059918022767682773 0 -0.4852085750405441 0.052203075822305302 0 -0.47706901860808187 0.059918022767682773 0 -0.48290162366901512 0.06548626232982209 0 -0.4852085750405441 0.052203075822305302 0 -0.48290162366901512 0.06548626232982209 0 -0.47706901860808187 0.059918022767682773 0 -0.46358759201472588 0.047047648016271669 0 -0.46329393536089858 0.062951721136377856 0 -0.46358759201472588 0.047047648016271669 0 -0.45797830324378008 0.041692602830880783 0 -0.44277165576409078 0.062316587491913961 0 -0.46358759201472588 0.047047648016271669 0 -0.44277165576409078 0.062316587491913961 0 -0.46358759201472588 0.047047648016271669 0 -0.46329393536089858 0.062951721136377856 0 -0.45543131877497472 0.063423753475805825 0 -0.46358759201472588 0.047047648016271669 0 -0.44277165576409078 0.062316587491913961 0 -0.45543131877497472 0.063423753475805825 0 -0.473803199823985 0.034224266720816222 0 -0.45797830324378008 0.041692602830880783 0 -0.46611110801013422 0.029483499211293781 0 -0.473803199823985 0.034224266720816222 0 -0.45797830324378008 0.041692602830880783 0 -0.473803199823985 0.034224266720816222 0 -0.45797830324378008 0.041692602830880783 0 -0.46619489778166517 0.045135132841811768 0 -0.45620090210208009 0.039995763210914297 0 -0.45797830324378008 0.041692602830880783 0 -0.45201363568846331 0.039065366277395847 0 -0.45620090210208009 0.039995763210914297 0 -0.45797830324378008 0.041692602830880783 0 -0.46358759201472588 0.047047648016271669 0 -0.45797830324378008 0.041692602830880783 0 -0.46358759201472588 0.047047648016271669 0 -0.45797830324378008 0.041692602830880783 0 -0.46619489778166517 0.045135132841811768 0 -0.47062307686042931 0.046388145319614438 0 -0.46358759201472588 0.047047648016271669 0 -0.46619489778166517 0.045135132841811768 0 -0.46358759201472588 0.047047648016271669 0 -0.46619489778166517 0.045135132841811768 0 -0.45620090210208009 0.039995763210914297 0 -0.45797830324378008 0.041692602830880783 0 -0.45829905444872582 0.033034527401772512 0 -0.45797830324378008 0.041692602830880783 0 -0.45829905444872582 0.033034527401772512 0 -0.46611110801013422 0.029483499211293781 0 -0.45620090210208009 0.039995763210914297 0 -0.45829905444872582 0.033034527401772512 0 -0.45323987329491722 0.034556162741571687 0 -0.45620090210208009 0.039995763210914297 0 -0.45323987329491722 0.034556162741571687 0 -0.45201363568846331 0.039065366277395847 0 -0.45829905444872582 0.033034527401772512 0 -0.45323987329491722 0.034556162741571687 0 -0.45525520012838722 0.027713781248912259 0 -0.45797830324378008 0.041692602830880783 0 -0.43733341789756208 0.051435664464042477 0 -0.45797830324378008 0.041692602830880783 0 -0.44219598150127548 0.042023827715741258 0 -0.43733341789756208 0.051435664464042477 0 -0.45797830324378008 0.041692602830880783 0 -0.44219598150127548 0.042023827715741258 0 -0.45201363568846331 0.039065366277395847 0 -0.44719523645561349 0.036479748241835377 0 -0.4400418800761785 0.034623912437916529 0 -0.44982016868414593 0.03034105396991205 0 -0.45323987329491722 0.034556162741571687 0 -0.44719523645561349 0.036479748241835377 0 -0.44982016868414593 0.03034105396991205 0 -0.45323987329491722 0.034556162741571687 0 -0.44719523645561349 0.036479748241835377 0 -0.45201363568846331 0.039065366277395847 0 -0.44719523645561349 0.036479748241835377 0 -0.4400418800761785 0.034623912437916529 0 -0.44219598150127548 0.042023827715741258 0 -0.44719523645561349 0.036479748241835377 0 -0.44219598150127548 0.042023827715741258 0 -0.45201363568846331 0.039065366277395847 0 -0.45797830324378008 0.041692602830880783 0 -0.44277165576409078 0.062316587491913961 0 -0.43733341789756208 0.051435664464042477 0 -0.45022362416265738 -0.0053983760001807416 0 -0.4614253901193251 0.001548070883527083 0 -0.4506653441507858 0.0059721052188214333 0 -0.45754951978292552 0.01369561568306964 0 -0.4614253901193251 0.001548070883527083 0 -0.4506653441507858 0.0059721052188214333 0 -0.4764321631785875 -0.0011330607793884151 0 -0.4614253901193251 0.001548070883527083 0 -0.46837867253295218 0.0099876239637381424 0 -0.45754951978292552 0.01369561568306964 0 -0.46837867253295218 0.0099876239637381424 0 -0.4659582855077643 0.019340147793352389 0 -0.45754951978292552 0.01369561568306964 0 -0.4614253901193251 0.001548070883527083 0 -0.46837867253295218 0.0099876239637381424 0 -0.45754951978292552 0.01369561568306964 0 -0.4659582855077643 0.019340147793352389 0 -0.46023087207360242 0.024268598908121299 0 -0.45829905444872582 0.033034527401772512 0 -0.46611110801013422 0.029483499211293781 0 -0.46023087207360242 0.024268598908121299 0 -0.4659582855077643 0.019340147793352389 0 -0.46611110801013422 0.029483499211293781 0 -0.46023087207360242 0.024268598908121299 0 -0.46023087207360242 0.024268598908121299 0 -0.45525520012838722 0.027713781248912259 0 -0.45232793666143639 0.02219053055249141 0 -0.45829905444872582 0.033034527401772512 0 -0.46023087207360242 0.024268598908121299 0 -0.45525520012838722 0.027713781248912259 0 -0.45754951978292552 0.01369561568306964 0 -0.46023087207360242 0.024268598908121299 0 -0.45232793666143639 0.02219053055249141 0 -0.45232793666143639 0.02219053055249141 0 -0.44245132258660003 0.025559979412238601 0 -0.44500015697522372 0.015308147339428049 0 -0.45754951978292552 0.01369561568306964 0 -0.45232793666143639 0.02219053055249141 0 -0.44500015697522372 0.015308147339428049 0 -0.45525520012838722 0.027713781248912259 0 -0.45232793666143639 0.02219053055249141 0 -0.44982016868414593 0.03034105396991205 0 -0.45232793666143639 0.02219053055249141 0 -0.44982016868414593 0.03034105396991205 0 -0.44245132258660003 0.025559979412238601 0 -0.45323987329491722 0.034556162741571687 0 -0.45525520012838722 0.027713781248912259 0 -0.44982016868414593 0.03034105396991205 0 -0.4400418800761785 0.034623912437916529 0 -0.44245132258660003 0.025559979412238601 0 -0.43184983015758571 0.028662915123008611 0 -0.4400418800761785 0.034623912437916529 0 -0.44982016868414593 0.03034105396991205 0 -0.44245132258660003 0.025559979412238601 0 -0.44245132258660003 0.025559979412238601 0 -0.44500015697522372 0.015308147339428049 0 -0.43377831781324688 0.016479712849375501 0 -0.44500015697522372 0.015308147339428049 0 -0.43912802971379722 0.0047070681882631343 0 -0.43377831781324688 0.016479712849375501 0 -0.44500015697522372 0.015308147339428049 0 -0.4506653441507858 0.0059721052188214333 0 -0.43912802971379722 0.0047070681882631343 0 -0.45754951978292552 0.01369561568306964 0 -0.44500015697522372 0.015308147339428049 0 -0.4506653441507858 0.0059721052188214333 0 -0.45022362416265738 -0.0053983760001807416 0 -0.4506653441507858 0.0059721052188214333 0 -0.43912802971379722 0.0047070681882631343 0 -0.4263276796660021 0.00024241913928148981 0 -0.41999892811968242 0.022369626296904959 0 -0.43377831781324688 0.016479712849375501 0 -0.43912802971379722 0.0047070681882631343 0 -0.4263276796660021 0.00024241913928148981 0 -0.43377831781324688 0.016479712849375501 0 -0.4263276796660021 0.00024241913928148981 0 -0.41999892811968242 0.022369626296904959 0 -0.4263276796660021 0.00024241913928148981 0 -0.41268980074537048 0.01284941546700656 0 -0.41999892811968242 0.022369626296904959 0 -0.40116216270501159 -0.005324809205209593 0 -0.4263276796660021 0.00024241913928148981 0 -0.41268980074537048 0.01284941546700656 0 -0.4263276796660021 0.00024241913928148981 0 -0.41268980074537048 0.01284941546700656 0 -0.41268980074537048 0.01284941546700656 0 -0.40949331921337112 0.030723745818663339 0 -0.41999892811968242 0.022369626296904959 0 -0.41268980074537048 0.01284941546700656 0 -0.40949331921337112 0.030723745818663339 0 -0.39905192182473942 0.025456411794731931 0 -0.41999892811968242 0.022369626296904959 0 -0.43184983015758571 0.028662915123008611 0 -0.42747884626544358 0.041223991042631872 0 -0.41999892811968242 0.022369626296904959 0 -0.43377831781324688 0.016479712849375501 0 -0.43184983015758571 0.028662915123008611 0 -0.44245132258660003 0.025559979412238601 0 -0.43377831781324688 0.016479712849375501 0 -0.43184983015758571 0.028662915123008611 0 -0.4400418800761785 0.034623912437916529 0 -0.43184983015758571 0.028662915123008611 0 -0.42747884626544358 0.041223991042631872 0 -0.44219598150127548 0.042023827715741258 0 -0.42747884626544358 0.041223991042631872 0 -0.43733341789756208 0.051435664464042477 0 -0.4400418800761785 0.034623912437916529 0 -0.44219598150127548 0.042023827715741258 0 -0.42747884626544358 0.041223991042631872 0 -0.44277165576409078 0.062316587491913961 0 -0.43733341789756208 0.051435664464042477 0 -0.42740841557273729 0.063195602628864256 0 -0.42747884626544358 0.041223991042631872 0 -0.43733341789756208 0.051435664464042477 0 -0.42264645626723019 0.053395226440443887 0 -0.43733341789756208 0.051435664464042477 0 -0.42264645626723019 0.053395226440443887 0 -0.42740841557273729 0.063195602628864256 0 -0.41367017657336352 0.044496833454528643 0 -0.40734142502704451 0.066624040612152227 0 -0.42264645626723019 0.053395226440443887 0 -0.41367017657336352 0.044496833454528643 0 -0.40734142502704451 0.066624040612152227 0 -0.42264645626723019 0.053395226440443887 0 -0.40734142502704451 0.066624040612152227 0 -0.42740841557273729 0.063195602628864256 0 -0.41367017657336352 0.044496833454528643 0 -0.39970550571006869 0.046554690453079722 0 -0.40734142502704451 0.066624040612152227 0 -0.40949331921337112 0.030723745818663339 0 -0.41367017657336352 0.044496833454528643 0 -0.39970550571006869 0.046554690453079722 0 -0.40949331921337112 0.030723745818663339 0 -0.41999892811968242 0.022369626296904959 0 -0.41367017657336352 0.044496833454528643 0 -0.41999892811968242 0.022369626296904959 0 -0.41367017657336352 0.044496833454528643 0 -0.41999892811968242 0.022369626296904959 0 -0.42747884626544358 0.041223991042631872 0 -0.41367017657336352 0.044496833454528643 0 -0.42747884626544358 0.041223991042631872 0 -0.42264645626723019 0.053395226440443887 0 -0.41367017657336352 0.044496833454528643 0 -0.39970550571006869 0.046554690453079722 0 -0.39905192182473942 0.025456411794731931 0 -0.40949331921337112 0.030723745818663339 0 -0.39970550571006869 0.046554690453079722 0 -0.39905192182473942 0.025456411794731931 0 -0.39970550571006869 0.046554690453079722 0 -0.38171857467451142 0.041479537175283701 0 -0.39905192182473942 0.025456411794731931 0 -0.39970550571006869 0.046554690453079722 0 -0.40035908959539601 0.067652969111427569 0 -0.40734142502704451 0.066624040612152227 0 -0.39970550571006869 0.046554690453079722 0 -0.40035908959539601 0.067652969111427569 0 -0.39970550571006869 0.046554690453079722 0 -0.3866395516609597 0.056645819447229913 0 -0.40035908959539601 0.067652969111427569 0 -0.39970550571006869 0.046554690453079722 0 -0.3866395516609597 0.056645819447229913 0 -0.38171857467451142 0.041479537175283701 0 -0.3866395516609597 0.056645819447229913 0 -0.38214778829224982 0.071603413937182198 0 -0.36438522752428432 0.057502662555836331 0 -0.3866395516609597 0.056645819447229913 0 -0.38171857467451142 0.041479537175283701 0 -0.36438522752428432 0.057502662555836331 0 -0.38171857467451142 0.041479537175283701 0 -0.39905192182473942 0.025456411794731931 0 -0.38171857467451142 0.041479537175283701 0 -0.38074299888388752 0.027622667289955011 0 -0.37306611699726211 0.033756776278764222 0 -0.38171857467451142 0.041479537175283701 0 -0.39016149656287508 0.024575078863436409 0 -0.39905192182473942 0.025456411794731931 0 -0.38171857467451142 0.041479537175283701 0 -0.38074299888388752 0.027622667289955011 0 -0.39016149656287508 0.024575078863436409 0 -0.39016149656287508 0.024575078863436409 0 -0.38715227591142742 0.017425169466143309 0 -0.39383252991130818 0.016104815052729059 0 -0.38074299888388752 0.027622667289955011 0 -0.39016149656287508 0.024575078863436409 0 -0.38715227591142742 0.017425169466143309 0 -0.38074299888388752 0.027622667289955011 0 -0.38715227591142742 0.017425169466143309 0 -0.37690566555465371 0.012554975683560669 0 -0.38074299888388752 0.027622667289955011 0 -0.37690566555465371 0.012554975683560669 0 -0.36960039401106648 0.024866027662230429 0 -0.38074299888388752 0.027622667289955011 0 -0.37690566555465371 0.012554975683560669 0 -0.37306833222542007 -0.0025127159228337942 0 -0.37690566555465371 0.012554975683560669 0 -0.38541198093840229 0.0033348221957011561 0 -0.38715227591142742 0.017425169466143309 0 -0.37690566555465371 0.012554975683560669 0 -0.38541198093840229 0.0033348221957011561 0 -0.38715227591142742 0.017425169466143309 0 -0.38541198093840229 0.0033348221957011561 0 -0.39420593690931549 0.009060626336257413 0 -0.40222992935267438 0.011004533697263581 0 -0.39886674907178299 0.01947886793302412 0 -0.39383252991130818 0.016104815052729059 0 -0.40116216270501159 -0.005324809205209593 0 -0.41268980074537048 0.01284941546700656 0 -0.40222992935267438 0.011004533697263581 0 -0.38715227591142742 0.017425169466143309 0 -0.39420593690931549 0.009060626336257413 0 -0.39383252991130818 0.016104815052729059 0 -0.40116216270501159 -0.005324809205209593 0 -0.39420593690931549 0.009060626336257413 0 -0.40222992935267438 0.011004533697263581 0 -0.40116216270501159 -0.005324809205209593 0 -0.38541198093840229 0.0033348221957011561 0 -0.39420593690931549 0.009060626336257413 0 -0.39420593690931549 0.009060626336257413 0 -0.40222992935267438 0.011004533697263581 0 -0.39383252991130818 0.016104815052729059 0 -0.41268980074537048 0.01284941546700656 0 -0.40222992935267438 0.011004533697263581 0 -0.39886674907178299 0.01947886793302412 0 -0.41268980074537048 0.01284941546700656 0 -0.39905192182473942 0.025456411794731931 0 -0.41268980074537048 0.01284941546700656 0 -0.39886674907178299 0.01947886793302412 0 -0.39905192182473942 0.025456411794731931 0 -0.39886674907178299 0.01947886793302412 0 -0.39905192182473942 0.025456411794731931 0 -0.39016149656287508 0.024575078863436409 0 -0.39886674907178299 0.01947886793302412 0 -0.39383252991130818 0.016104815052729059 0 -0.39016149656287508 0.024575078863436409 0 -0.39886674907178299 0.01947886793302412 0 -0.39905192182473942 0.025456411794731931 0 -0.40162991001964099 0.10867620122801511 0 -0.40113978326282218 0.092854466443200709 0 -0.40162991001964099 0.10867620122801511 0 -0.39949374668505783 0.094061869875740001 0 -0.39406021694736509 0.1130591139961749 0 -0.40162991001964099 0.10867620122801511 0 -0.39949374668505783 0.094061869875740001 0 -0.40113978326282218 0.092854466443200709 0 -0.39949374668505783 0.094061869875740001 0 -0.39406021694736509 0.1130591139961749 0 -0.40162991001964099 0.10867620122801511 0 -0.40113978326282218 0.092854466443200709 0 -0.41342782490304192 0.1003922656507228 0 -0.39949374668505783 0.094061869875740001 0 -0.39406021694736509 0.1130591139961749 0 -0.38062059044660462 0.1079057381913229 0 -0.40212003677645991 0.12449793601282939 0 -0.39406021694736509 0.1130591139961749 0 -0.38862668720967508 0.1320563581166104 0 -0.40162991001964099 0.10867620122801511 0 -0.40212003677645991 0.12449793601282939 0 -0.39406021694736509 0.1130591139961749 0 -0.40162991001964099 0.10867620122801511 0 -0.40212003677645991 0.12449793601282939 0 -0.40162991001964099 0.10867620122801511 0 -0.40212003677645991 0.12449793601282939 0 -0.41151700746513592 0.11628837704514811 0 -0.39406021694736509 0.1130591139961749 0 -0.38862668720967508 0.1320563581166104 0 -0.39406021694736509 0.1130591139961749 0 -0.3845922324469081 0.12213198516270329 0 -0.38862668720967508 0.1320563581166104 0 -0.39406021694736509 0.1130591139961749 0 -0.3845922324469081 0.12213198516270329 0 -0.38062059044660462 0.1079057381913229 0 -0.3845922324469081 0.12213198516270329 0 -0.37617366486649012 0.12162999737847589 0 -0.38062059044660462 0.1079057381913229 0 -0.3845922324469081 0.12213198516270329 0 -0.37617366486649012 0.12162999737847589 0 -0.38112963527719779 0.12691068118287679 0 -0.38062059044660462 0.1079057381913229 0 -0.38116972533535159 0.088908385989641528 0 -0.39175924521184091 0.089487096632082486 0 -0.39949374668505783 0.094061869875740001 0 -0.38062059044660462 0.1079057381913229 0 -0.39175924521184091 0.089487096632082486 0 -0.39949374668505783 0.094061869875740001 0 -0.38062059044660462 0.1079057381913229 0 -0.38062059044660462 0.1079057381913229 0 -0.38116972533535159 0.088908385989641528 0 -0.37005056905432682 0.095905223840830209 0 -0.38116972533535159 0.088908385989641528 0 -0.38214778829224982 0.071603413937182198 0 -0.36718154171164141 0.081096552100920719 0 -0.38116972533535159 0.088908385989641528 0 -0.38214778829224982 0.071603413937182198 0 -0.39175924521184091 0.089487096632082486 0 -0.3866395516609597 0.056645819447229913 0 -0.38214778829224982 0.071603413937182198 0 -0.40035908959539601 0.067652969111427569 0 -0.38214778829224982 0.071603413937182198 0 -0.40035908959539601 0.067652969111427569 0 -0.39991034906021489 0.085704165318528591 0 -0.40101267348072439 0.088751247769775402 0 -0.40734142502704451 0.066624040612152227 0 -0.40035908959539601 0.067652969111427569 0 -0.40101267348072439 0.088751247769775402 0 -0.40734142502704451 0.066624040612152227 0 -0.40035908959539601 0.067652969111427569 0 -0.39991034906021489 0.085704165318528591 0 -0.40101267348072439 0.088751247769775402 0 -0.40035908959539601 0.067652969111427569 0 -0.40101267348072439 0.088751247769775402 0 -0.38214778829224982 0.071603413937182198 0 -0.39175924521184091 0.089487096632082486 0 -0.39991034906021489 0.085704165318528591 0 -0.38214778829224982 0.071603413937182198 0 -0.39991034906021489 0.085704165318528591 0 -0.39949374668505783 0.094061869875740001 0 -0.39175924521184091 0.089487096632082486 0 -0.40101267348072439 0.088751247769775402 0 -0.39175924521184091 0.089487096632082486 0 -0.39991034906021489 0.085704165318528591 0 -0.40101267348072439 0.088751247769775402 0 -0.39949374668505783 0.094061869875740001 0 -0.40101267348072439 0.088751247769775402 0 -0.40113978326282218 0.092854466443200709 0 -0.40101267348072439 0.088751247769775402 0 -0.40113978326282218 0.092854466443200709 0 -0.39949374668505783 0.094061869875740001 0 -0.40101267348072439 0.088751247769775402 0 -0.39949374668505783 0.094061869875740001 0 -0.40113978326282218 0.092854466443200709 0 -0.40113978326282218 0.092854466443200709 0 -0.42195571951345662 0.0775855269675573 0 -0.41342782490304192 0.1003922656507228 0 -0.42195571951345662 0.0775855269675573 0 -0.42617970131570793 0.094101742191316964 0 -0.41342782490304192 0.1003922656507228 0 -0.40101267348072439 0.088751247769775402 0 -0.40113978326282218 0.092854466443200709 0 -0.42195571951345662 0.0775855269675573 0 -0.40113978326282218 0.092854466443200709 0 -0.42195571951345662 0.0775855269675573 0 -0.40101267348072439 0.088751247769775402 0 -0.40734142502704451 0.066624040612152227 0 -0.42195571951345662 0.0775855269675573 0 -0.40734142502704451 0.066624040612152227 0 -0.42195571951345662 0.0775855269675573 0 -0.42740841557273729 0.063195602628864256 0 -0.44277165576409078 0.062316587491913961 0 -0.42195571951345662 0.0775855269675573 0 -0.43756033438910441 0.081767176300966207 0 -0.44277165576409078 0.062316587491913961 0 -0.42195571951345662 0.0775855269675573 0 -0.44277165576409078 0.062316587491913961 0 -0.42195571951345662 0.0775855269675573 0 -0.42740841557273729 0.063195602628864256 0 -0.43678349679915712 0.098102003184982633 0 -0.42617970131570793 0.094101742191316964 0 -0.43756033438910441 0.081767176300966207 0 -0.42195571951345662 0.0775855269675573 0 -0.42617970131570793 0.094101742191316964 0 -0.43756033438910441 0.081767176300966207 0 -0.43678349679915712 0.098102003184982633 0 -0.42617970131570793 0.094101742191316964 0 -0.42292644542948732 0.1112361852529376 0 -0.43678349679915712 0.098102003184982633 0 -0.42292644542948732 0.1112361852529376 0 -0.43678349679915712 0.098102003184982633 0 -0.42292644542948732 0.1112361852529376 0 -0.43813875060081559 0.10467254727102369 0 -0.40162991001964099 0.10867620122801511 0 -0.41342782490304192 0.1003922656507228 0 -0.41151700746513592 0.11628837704514811 0 -0.42617970131570793 0.094101742191316964 0 -0.41342782490304192 0.1003922656507228 0 -0.42292644542948732 0.1112361852529376 0 -0.41342782490304192 0.1003922656507228 0 -0.41151700746513592 0.11628837704514811 0 -0.42292644542948732 0.1112361852529376 0 -0.40212003677645991 0.12449793601282939 0 -0.41151700746513592 0.11628837704514811 0 -0.41360886217638199 0.12806563737141519 0 -0.41151700746513592 0.11628837704514811 0 -0.42563695303280441 0.1243772734250197 0 -0.42292644542948732 0.1112361852529376 0 -0.41151700746513592 0.11628837704514811 0 -0.42563695303280441 0.1243772734250197 0 -0.41360886217638199 0.12806563737141519 0 -0.42563695303280441 0.1243772734250197 0 -0.43813875060081559 0.10467254727102369 0 -0.44494530549027711 0.1336194592038176 0 -0.42563695303280441 0.1243772734250197 0 -0.43813875060081559 0.10467254727102369 0 -0.42563695303280441 0.1243772734250197 0 -0.42292644542948732 0.1112361852529376 0 -0.43813875060081559 0.10467254727102369 0 -0.43813875060081559 0.10467254727102369 0 -0.45712348648206758 0.11601484673086029 0 -0.44494530549027711 0.1336194592038176 0 -0.43813875060081559 0.10467254727102369 0 -0.4571236721697568 0.099814443047186022 0 -0.45064054816882693 0.084967821117027748 0 -0.43813875060081559 0.10467254727102369 0 -0.4571236721697568 0.099814443047186022 0 -0.45712348648206758 0.11601484673086029 0 -0.43678349679915712 0.098102003184982633 0 -0.43813875060081559 0.10467254727102369 0 -0.45064054816882693 0.084967821117027748 0 -0.43813875060081559 0.10467254727102369 0 -0.45064054816882693 0.084967821117027748 0 -0.4571236721697568 0.099814443047186022 0 -0.46902793183386421 0.087657045746223461 0 -0.47557310741604503 0.1035330774413635 0 -0.4571236721697568 0.099814443047186022 0 -0.45712348648206758 0.11601484673086029 0 -0.47557310741604503 0.1035330774413635 0 -0.45712348648206758 0.11601484673086029 0 -0.48014382200503541 0.1235866657285576 0 -0.46410348659539952 0.1353801087124705 0 -0.44277165576409078 0.062316587491913961 0 -0.4485861642230507 0.072880319573097513 0 -0.43756033438910441 0.081767176300966207 0 -0.44277165576409078 0.062316587491913961 0 -0.4485861642230507 0.072880319573097513 0 -0.45543131877497472 0.063423753475805825 0 -0.4485861642230507 0.072880319573097513 0 -0.45064054816882693 0.084967821117027748 0 -0.45891724651210752 0.071922491161367896 0 -0.43678349679915712 0.098102003184982633 0 -0.45064054816882693 0.084967821117027748 0 -0.43756033438910441 0.081767176300966207 0 -0.4485861642230507 0.072880319573097513 0 -0.45064054816882693 0.084967821117027748 0 -0.43756033438910441 0.081767176300966207 0 -0.43678349679915712 0.098102003184982633 0 -0.45064054816882693 0.084967821117027748 0 -0.4571236721697568 0.099814443047186022 0 -0.45064054816882693 0.084967821117027748 0 -0.46902793183386421 0.087657045746223461 0 -0.45064054816882693 0.084967821117027748 0 -0.46385478338845432 0.072442921942355201 0 -0.46902793183386421 0.087657045746223461 0 -0.45064054816882693 0.084967821117027748 0 -0.46385478338845432 0.072442921942355201 0 -0.45064054816882693 0.084967821117027748 0 -0.45891724651210752 0.071922491161367896 0 -0.45064054816882693 0.084967821117027748 0 -0.45891724651210752 0.071922491161367896 0 -0.46385478338845432 0.072442921942355201 0 -0.45891724651210752 0.071922491161367896 0 -0.46385478338845432 0.072442921942355201 0 -0.46329393536089858 0.062951721136377856 0 -0.47706901860808187 0.059918022767682773 0 -0.46385478338845432 0.072442921942355201 0 -0.46329393536089858 0.062951721136377856 0 -0.45891724651210752 0.071922491161367896 0 -0.46329393536089858 0.062951721136377856 0 -0.45543131877497472 0.063423753475805825 0 -0.4485861642230507 0.072880319573097513 0 -0.45891724651210752 0.071922491161367896 0 -0.45543131877497472 0.063423753475805825 0 -0.47706901860808187 0.059918022767682773 0 -0.46385478338845432 0.072442921942355201 0 -0.48135009265449519 0.074419816843558362 0 -0.48290162366901512 0.06548626232982209 0 -0.48135009265449519 0.074419816843558362 0 -0.47706901860808187 0.059918022767682773 0 -0.48290162366901512 0.06548626232982209 0 -0.48135009265449519 0.074419816843558362 0 -0.47706901860808187 0.059918022767682773 0 -0.48290162366901512 0.06548626232982209 0 -0.47706901860808187 0.059918022767682773 0 -0.46385478338845432 0.072442921942355201 0 -0.48135009265449519 0.074419816843558362 0 -0.46902793183386421 0.087657045746223461 0 -0.48562538720560677 0.090764194085849861 0 -0.46385478338845432 0.072442921942355201 0 -0.48135009265449519 0.074419816843558362 0 -0.46902793183386421 0.087657045746223461 0 -0.49999999999999939 0.08180964691353719 0 -0.48562538720560677 0.090764194085849861 0 -0.5 0.1082486955831156 0 -0.48135009265449519 0.074419816843558362 0 -0.49999999999999939 0.08180964691353719 0 -0.48562538720560677 0.090764194085849861 0 -0.5 0.051835352162414028 0 -0.49999999999999939 0.08180964691353719 0 -0.49202754967738949 0.062833584307019685 0 -0.48290162366901512 0.06548626232982209 0 -0.49999999999999939 0.08180964691353719 0 -0.49202754967738949 0.062833584307019685 0 -0.48290162366901512 0.06548626232982209 0 -0.49999999999999939 0.08180964691353719 0 -0.48290162366901512 0.06548626232982209 0 -0.48135009265449519 0.074419816843558362 0 -0.49999999999999939 0.08180964691353719 0 -0.45712348648206758 0.11601484673086029 0 -0.48014382200503541 0.1235866657285576 0 -0.47557310741604503 0.1035330774413635 0 -0.46902793183386421 0.087657045746223461 0 -0.48562538720560677 0.090764194085849861 0 -0.47557310741604503 0.1035330774413635 0 -0.48562538720560677 0.090764194085849861 0 -0.47557310741604503 0.1035330774413635 0 -0.5 0.1082486955831156 0 -0.48014382200503541 0.1235866657285576 0 -0.5 0.1082486955831156 0 -0.5 0.13468774425269389 0 -0.48014382200503541 0.1235866657285576 0 -0.47557310741604503 0.1035330774413635 0 -0.5 0.1082486955831156 0 -0.48014382200503541 0.1235866657285576 0 -0.5 0.13468774425269389 0 -0.47929902445193129 0.14976360365933439 0 -0.48014382200503541 0.1235866657285576 0 -0.47929902445193129 0.14976360365933439 0 -0.46410348659539952 0.1353801087124705 0 -0.5 0.13468774425269389 0 -0.47929902445193129 0.14976360365933439 0 -0.5 0.1611267929222723 0 -0.47929902445193129 0.14976360365933439 0 -0.5 0.1611267929222723 0 -0.48494841947491968 0.17304200778545339 0 -0.47070050677776099 0.18590744230251841 0 -0.5 0.18756584159185069 0 -0.5 0.1611267929222723 0 -0.48494841947491968 0.17304200778545339 0 -0.5 0.18756584159185069 0 -0.48494841947491968 0.17304200778545339 0 -0.47070050677776099 0.18590744230251841 0 -0.5 0.18756584159185069 0 -0.48494841947491968 0.17304200778545339 0 -0.47070050677776099 0.18590744230251841 0 -0.46599130386893178 0.17001707977970321 0 -0.47929902445193129 0.14976360365933439 0 -0.48494841947491968 0.17304200778545339 0 -0.46599130386893178 0.17001707977970321 0 -0.46599130386893178 0.17001707977970321 0 -0.43956322966686201 0.15704953967936061 0 -0.45853496751541323 0.15027564460621101 0 -0.47929902445193129 0.14976360365933439 0 -0.46599130386893178 0.17001707977970321 0 -0.45853496751541323 0.15027564460621101 0 -0.47070050677776099 0.18590744230251841 0 -0.44140101355552203 0.18424904301318609 0 -0.47070050677776099 0.18590744230251841 0 -0.46599130386893178 0.17001707977970321 0 -0.44140101355552203 0.18424904301318609 0 -0.46599130386893178 0.17001707977970321 0 -0.44140101355552203 0.18424904301318609 0 -0.43956322966686201 0.15704953967936061 0 -0.46599130386893178 0.17001707977970321 0 -0.43956322966686201 0.15704953967936061 0 -0.43956322966686201 0.15704953967936061 0 -0.44494530549027711 0.1336194592038176 0 -0.45853496751541323 0.15027564460621101 0 -0.45712348648206758 0.11601484673086029 0 -0.44494530549027711 0.1336194592038176 0 -0.46410348659539952 0.1353801087124705 0 -0.44494530549027711 0.1336194592038176 0 -0.46410348659539952 0.1353801087124705 0 -0.45853496751541323 0.15027564460621101 0 -0.47929902445193129 0.14976360365933439 0 -0.46410348659539952 0.1353801087124705 0 -0.45853496751541323 0.15027564460621101 0 -0.47578328995944058 0.23750807252905379 0 -0.5 0.2449761532337297 0 -0.47923303884552509 0.25932873114419958 0 -0.47578328995944058 0.23750807252905379 0 -0.5 0.2449761532337297 0 -0.5 0.21627099741279021 0 -0.47578328995944058 0.23750807252905379 0 -0.47187443884138058 0.21409278731096129 0 -0.5 0.21627099741279021 0 -0.47187443884138058 0.21409278731096129 0 -0.5 0.21627099741279021 0 -0.48564373640478542 0.20095926715453019 0 -0.47070050677776099 0.18590744230251841 0 -0.48564373640478542 0.20095926715453019 0 -0.5 0.18756584159185069 0 -0.5 0.21627099741279021 0 -0.48564373640478542 0.20095926715453019 0 -0.5 0.18756584159185069 0 -0.47070050677776099 0.18590744230251841 0 -0.47187443884138058 0.21409278731096129 0 -0.48564373640478542 0.20095926715453019 0 -0.47070050677776099 0.18590744230251841 0 -0.44140101355552203 0.18424904301318609 0 -0.45457328338468578 0.20681332703131969 0 -0.47070050677776099 0.18590744230251841 0 -0.47187443884138058 0.21409278731096129 0 -0.45457328338468578 0.20681332703131969 0 -0.44140101355552203 0.18424904301318609 0 -0.45457328338468578 0.20681332703131969 0 -0.43632626903122579 0.21515989603621649 0 -0.47187443884138058 0.21409278731096129 0 -0.45457328338468578 0.20681332703131969 0 -0.45256418871753928 0.2346574664937163 0 -0.47578328995944058 0.23750807252905379 0 -0.47187443884138058 0.21409278731096129 0 -0.45256418871753928 0.2346574664937163 0 -0.45256418871753928 0.2346574664937163 0 -0.43632626903122579 0.21515989603621649 0 -0.45256418871753928 0.2346574664937163 0 -0.42596404561014101 0.23016722767376979 0 -0.43632626903122579 0.21515989603621649 0 -0.45457328338468578 0.20681332703131969 0 -0.45256418871753928 0.2346574664937163 0 -0.43632626903122579 0.21515989603621649 0 -0.45256418871753928 0.2346574664937163 0 -0.43529638255301378 0.24546015694172851 0 -0.42596404561014101 0.23016722767376979 0 -0.45256418871753928 0.2346574664937163 0 -0.43529638255301378 0.24546015694172851 0 -0.45102807335219919 0.25572229957892562 0 -0.47578328995944058 0.23750807252905379 0 -0.45256418871753928 0.2346574664937163 0 -0.45102807335219919 0.25572229957892562 0 -0.40922858799221312 0.2389885889359247 0 -0.41889031088441397 0.24791416493849361 0 -0.42596404561014101 0.23016722767376979 0 -0.40922858799221312 0.2389885889359247 0 -0.41889031088441397 0.24791416493849361 0 -0.40488716479814912 0.25137799833678148 0 -0.41889031088441397 0.24791416493849361 0 -0.43529638255301378 0.24546015694172851 0 -0.42596404561014101 0.23016722767376979 0 -0.42596404561014101 0.23016722767376979 0 -0.41685979505777088 0.213049496122346 0 -0.43632626903122579 0.21515989603621649 0 -0.40922858799221312 0.2389885889359247 0 -0.42596404561014101 0.23016722767376979 0 -0.40642939404216938 0.225645525246223 0 -0.42596404561014101 0.23016722767376979 0 -0.40642939404216938 0.225645525246223 0 -0.41685979505777088 0.213049496122346 0 -0.40642939404216938 0.225645525246223 0 -0.41685979505777088 0.213049496122346 0 -0.39580620015941043 0.21023927163700051 0 -0.43632626903122579 0.21515989603621649 0 -0.42008834934491229 0.19566232557871679 0 -0.41685979505777088 0.213049496122346 0 -0.43632626903122579 0.21515989603621649 0 -0.42008834934491229 0.19566232557871679 0 -0.44140101355552203 0.18424904301318609 0 -0.43632626903122579 0.21515989603621649 0 -0.42008834934491229 0.19566232557871679 0 -0.41685979505777088 0.213049496122346 0 -0.42008834934491229 0.19566232557871679 0 -0.40214689786317032 0.19409388418790791 0 -0.42008834934491229 0.19566232557871679 0 -0.40214689786317032 0.19409388418790791 0 -0.40385042965859869 0.17616475512121699 0 -0.40214689786317032 0.19409388418790791 0 -0.38390124695420907 0.19015906637507179 0 -0.39580620015941043 0.21023927163700051 0 -0.38390124695420907 0.19015906637507179 0 -0.38052460859911952 0.21156396358857249 0 -0.36534834697711283 0.2060517822388806 0 -0.38390124695420907 0.19015906637507179 0 -0.38052460859911952 0.21156396358857249 0 -0.39580620015941043 0.21023927163700051 0 -0.38052460859911952 0.21156396358857249 0 -0.39580620015941043 0.21023927163700051 0 -0.39019276166733508 0.22437143797993969 0 -0.41685979505777088 0.213049496122346 0 -0.40214689786317032 0.19409388418790791 0 -0.39580620015941043 0.21023927163700051 0 -0.40642939404216938 0.225645525246223 0 -0.39019276166733508 0.22437143797993969 0 -0.39597463655027831 0.23519513930562599 0 -0.40642939404216938 0.225645525246223 0 -0.39580620015941043 0.21023927163700051 0 -0.39019276166733508 0.22437143797993969 0 -0.40922858799221312 0.2389885889359247 0 -0.40642939404216938 0.225645525246223 0 -0.39597463655027831 0.23519513930562599 0 -0.39019276166733508 0.22437143797993969 0 -0.38588241524355588 0.2368067041331138 0 -0.39597463655027831 0.23519513930562599 0 -0.38052460859911952 0.21156396358857249 0 -0.39019276166733508 0.22437143797993969 0 -0.37772646931776083 0.22674949602313521 0 -0.37772646931776083 0.22674949602313521 0 -0.38588241524355588 0.2368067041331138 0 -0.37835728648591088 0.23858007776624371 0 -0.39019276166733508 0.22437143797993969 0 -0.37772646931776083 0.22674949602313521 0 -0.38588241524355588 0.2368067041331138 0 -0.37835728648591088 0.23858007776624371 0 -0.38049471131469081 0.2476181147904957 0 -0.36997256016297941 0.23863577371655301 0 -0.37772646931776083 0.22674949602313521 0 -0.37835728648591088 0.23858007776624371 0 -0.36997256016297941 0.23863577371655301 0 -0.38588241524355588 0.2368067041331138 0 -0.37835728648591088 0.23858007776624371 0 -0.38049471131469081 0.2476181147904957 0 -0.38588241524355588 0.2368067041331138 0 -0.38049471131469081 0.2476181147904957 0 -0.39010408614463132 0.24621225185314899 0 -0.38049471131469081 0.2476181147904957 0 -0.39010408614463132 0.24621225185314899 0 -0.38909131249649259 0.25397932375631421 0 -0.39010408614463132 0.24621225185314899 0 -0.39369253740391708 0.25303020028355988 0 -0.39737267215590188 0.25003125147026389 0 -0.39010408614463132 0.24621225185314899 0 -0.39949795028619528 0.24431047220830121 0 -0.39737267215590188 0.25003125147026389 0 -0.39010408614463132 0.24621225185314899 0 -0.39597463655027831 0.23519513930562599 0 -0.39949795028619528 0.24431047220830121 0 -0.38588241524355588 0.2368067041331138 0 -0.39010408614463132 0.24621225185314899 0 -0.39597463655027831 0.23519513930562599 0 -0.40922858799221312 0.2389885889359247 0 -0.39597463655027831 0.23519513930562599 0 -0.39949795028619528 0.24431047220830121 0 -0.40922858799221312 0.2389885889359247 0 -0.39949795028619528 0.24431047220830121 0 -0.40488716479814912 0.25137799833678148 0 -0.39949795028619528 0.24431047220830121 0 -0.39737267215590188 0.25003125147026389 0 -0.40488716479814912 0.25137799833678148 0 -0.42563695303280441 0.1243772734250197 0 -0.44494530549027711 0.1336194592038176 0 -0.41313515546479318 0.14408199957901591 0 -0.43956322966686201 0.15704953967936061 0 -0.44494530549027711 0.1336194592038176 0 -0.41313515546479318 0.14408199957901591 0 -0.40212003677645991 0.12449793601282939 0 -0.41313515546479318 0.14408199957901591 0 -0.41360886217638199 0.12806563737141519 0 -0.42563695303280441 0.1243772734250197 0 -0.41313515546479318 0.14408199957901591 0 -0.41360886217638199 0.12806563737141519 0 -0.42563695303280441 0.1243772734250197 0 -0.41313515546479318 0.14408199957901591 0 -0.43956322966686201 0.15704953967936061 0 -0.41313515546479318 0.14408199957901591 0 -0.43956322966686201 0.15704953967936061 0 -0.41313515546479318 0.14408199957901591 0 -0.4203509707830243 0.16186553632300099 0 -0.43956322966686201 0.15704953967936061 0 -0.42042450715850221 0.17887196961950819 0 -0.4203509707830243 0.16186553632300099 0 -0.44140101355552203 0.18424904301318609 0 -0.42008834934491229 0.19566232557871679 0 -0.42042450715850221 0.17887196961950819 0 -0.44140101355552203 0.18424904301318609 0 -0.43956322966686201 0.15704953967936061 0 -0.42042450715850221 0.17887196961950819 0 -0.42008834934491229 0.19566232557871679 0 -0.42042450715850221 0.17887196961950819 0 -0.40385042965859869 0.17616475512121699 0 -0.42042450715850221 0.17887196961950819 0 -0.41125585285488381 0.16562095872395721 0 -0.40385042965859869 0.17616475512121699 0 -0.42008834934491229 0.19566232557871679 0 -0.40385042965859869 0.17616475512121699 0 -0.41313515546479318 0.14408199957901591 0 -0.41125585285488381 0.16562095872395721 0 -0.39851820120950099 0.1671205329770438 0 -0.41313515546479318 0.14408199957901591 0 -0.4203509707830243 0.16186553632300099 0 -0.41125585285488381 0.16562095872395721 0 -0.42042450715850221 0.17887196961950819 0 -0.4203509707830243 0.16186553632300099 0 -0.41125585285488381 0.16562095872395721 0 -0.39851820120950099 0.1671205329770438 0 -0.3894694494586935 0.16230495964643729 0 -0.39774116024280409 0.15047135431386549 0 -0.41125585285488381 0.16562095872395721 0 -0.39851820120950099 0.1671205329770438 0 -0.40385042965859869 0.17616475512121699 0 -0.38390124695420907 0.19015906637507179 0 -0.39851820120950099 0.1671205329770438 0 -0.40385042965859869 0.17616475512121699 0 -0.38390124695420907 0.19015906637507179 0 -0.39851820120950099 0.1671205329770438 0 -0.40214689786317032 0.19409388418790791 0 -0.38390124695420907 0.19015906637507179 0 -0.40385042965859869 0.17616475512121699 0 -0.38390124695420907 0.19015906637507179 0 -0.38256499663627558 0.1705002791918323 0 -0.36614960548215392 0.18146450782859341 0 -0.38390124695420907 0.19015906637507179 0 -0.39851820120950099 0.1671205329770438 0 -0.38256499663627558 0.1705002791918323 0 -0.39851820120950099 0.1671205329770438 0 -0.3894694494586935 0.16230495964643729 0 -0.38256499663627558 0.1705002791918323 0 -0.3894694494586935 0.16230495964643729 0 -0.38256499663627558 0.1705002791918323 0 -0.38188799399758722 0.1556168438750124 0 -0.38256499663627558 0.1705002791918323 0 -0.38188799399758722 0.1556168438750124 0 -0.37072299084486288 0.16197627864138731 0 -0.38188799399758722 0.1556168438750124 0 -0.38862668720967508 0.1320563581166104 0 -0.37695185672888049 0.13500004573232399 0 -0.3894694494586935 0.16230495964643729 0 -0.38188799399758722 0.1556168438750124 0 -0.39774116024280409 0.15047135431386549 0 -0.38188799399758722 0.1556168438750124 0 -0.37695185672888049 0.13500004573232399 0 -0.37187236241563021 0.14838268013887859 0 -0.38188799399758722 0.1556168438750124 0 -0.38862668720967508 0.1320563581166104 0 -0.38188799399758722 0.1556168438750124 0 -0.39774116024280409 0.15047135431386549 0 -0.38862668720967508 0.1320563581166104 0 -0.41313515546479318 0.14408199957901591 0 -0.39851820120950099 0.1671205329770438 0 -0.39774116024280409 0.15047135431386549 0 -0.41313515546479318 0.14408199957901591 0 -0.39774116024280409 0.15047135431386549 0 -0.38862668720967508 0.1320563581166104 0 -0.41313515546479318 0.14408199957901591 0 -0.39851820120950099 0.1671205329770438 0 -0.40212003677645991 0.12449793601282939 0 -0.41313515546479318 0.14408199957901591 0 -0.38862668720967508 0.1320563581166104 0 -0.41313515546479318 0.14408199957901591 0 -0.38862668720967508 0.1320563581166104 0 -0.38862668720967508 0.1320563581166104 0 -0.38694259993411761 0.13123002211075929 0 -0.37695185672888049 0.13500004573232399 0 -0.3845922324469081 0.12213198516270329 0 -0.38862668720967508 0.1320563581166104 0 -0.38694259993411761 0.13123002211075929 0 -0.3845922324469081 0.12213198516270329 0 -0.38694259993411761 0.13123002211075929 0 -0.38112963527719779 0.12691068118287679 0 -0.38862668720967508 0.1320563581166104 0 -0.38694259993411761 0.13123002211075929 0 -0.38694259993411761 0.13123002211075929 0 -0.37695185672888049 0.13500004573232399 0 -0.38112963527719779 0.12691068118287679 0 -0.37617366486649012 0.12162999737847589 0 -0.37695185672888049 0.13500004573232399 0 -0.38112963527719779 0.12691068118287679 0 -0.37695185672888049 0.13500004573232399 0 -0.36720826889954949 0.13974735238622821 0 -0.36174743420815042 0.12174960650690431 0 -0.37617366486649012 0.12162999737847589 0 -0.37695185672888049 0.13500004573232399 0 -0.36174743420815042 0.12174960650690431 0 -0.36720826889954949 0.13974735238622821 0 -0.35576162256561211 0.1393744540781377 0 -0.36174743420815042 0.12174960650690431 0 -0.35576162256561211 0.1393744540781377 0 -0.34287427796969622 0.13559347482248571 0 -0.36174743420815042 0.12174960650690431 0 -0.34287427796969622 0.13559347482248571 0 -0.36174743420815042 0.12174960650690431 0 -0.35576162256561211 0.1393744540781377 0 -0.34736205628805228 0.1557068108897266 0 -0.34287427796969622 0.13559347482248571 0 -0.35576162256561211 0.1393744540781377 0 -0.34736205628805228 0.1557068108897266 0 -0.36259070160727069 0.149572880059441 0 -0.34736205628805228 0.1557068108897266 0 -0.36259070160727069 0.149572880059441 0 -0.37072299084486288 0.16197627864138731 0 -0.36720826889954949 0.13974735238622821 0 -0.35576162256561211 0.1393744540781377 0 -0.36259070160727069 0.149572880059441 0 -0.36720826889954949 0.13974735238622821 0 -0.36259070160727069 0.149572880059441 0 -0.37187236241563021 0.14838268013887859 0 -0.37695185672888049 0.13500004573232399 0 -0.36720826889954949 0.13974735238622821 0 -0.37187236241563021 0.14838268013887859 0 -0.38188799399758722 0.1556168438750124 0 -0.37187236241563021 0.14838268013887859 0 -0.37072299084486288 0.16197627864138731 0 -0.36259070160727069 0.149572880059441 0 -0.37187236241563021 0.14838268013887859 0 -0.37072299084486288 0.16197627864138731 0 -0.38256499663627558 0.1705002791918323 0 -0.37072299084486288 0.16197627864138731 0 -0.36614960548215392 0.18146450782859341 0 -0.37072299084486288 0.16197627864138731 0 -0.36614960548215392 0.18146450782859341 0 -0.3491057955066964 0.17426126335019121 0 -0.36614960548215392 0.18146450782859341 0 -0.3491057955066964 0.17426126335019121 0 -0.34069088508338241 0.19099425122770949 0 -0.34736205628805228 0.1557068108897266 0 -0.37072299084486288 0.16197627864138731 0 -0.3491057955066964 0.17426126335019121 0 -0.34736205628805228 0.1557068108897266 0 -0.37072299084486288 0.16197627864138731 0 -0.34736205628805228 0.1557068108897266 0 -0.3288453619280664 0.17071934836756619 0 -0.32400112173124163 0.14943734313806639 0 -0.34736205628805228 0.1557068108897266 0 -0.3491057955066964 0.17426126335019121 0 -0.3288453619280664 0.17071934836756619 0 -0.3491057955066964 0.17426126335019121 0 -0.3288453619280664 0.17071934836756619 0 -0.34069088508338241 0.19099425122770949 0 -0.3288453619280664 0.17071934836756619 0 -0.34069088508338241 0.19099425122770949 0 -0.31154991965553469 0.18713955986883271 0 -0.3288453619280664 0.17071934836756619 0 -0.30036239330349129 0.16677686173087111 0 -0.31154991965553469 0.18713955986883271 0 -0.3288453619280664 0.17071934836756619 0 -0.32400112173124163 0.14943734313806639 0 -0.30036239330349129 0.16677686173087111 0 -0.32400112173124163 0.14943734313806639 0 -0.30174075433872072 0.14346323901273059 0 -0.32400112173124163 0.14943734313806639 0 -0.32409385646085881 0.12882097444149121 0 -0.30174075433872072 0.14346323901273059 0 -0.32409385646085881 0.12882097444149121 0 -0.34287427796969622 0.13559347482248571 0 -0.34535269450362449 0.1120038510413756 0 -0.32400112173124163 0.14943734313806639 0 -0.32409385646085881 0.12882097444149121 0 -0.34287427796969622 0.13559347482248571 0 -0.34736205628805228 0.1557068108897266 0 -0.32400112173124163 0.14943734313806639 0 -0.34736205628805228 0.1557068108897266 0 -0.32400112173124163 0.14943734313806639 0 -0.34287427796969622 0.13559347482248571 0 -0.32400112173124163 0.14943734313806639 0 -0.34287427796969622 0.13559347482248571 0 -0.35787946682009392 0.24137912807366541 0 -0.33655197151490079 0.24229062925525449 0 -0.35852366498609761 0.25141211286660597 0 -0.35787946682009392 0.24137912807366541 0 -0.3558429446409262 0.22752306685288709 0 -0.33655197151490079 0.24229062925525449 0 -0.35787946682009392 0.24137912807366541 0 -0.36850619279556551 0.24703405767702649 0 -0.36997256016297941 0.23863577371655301 0 -0.35787946682009392 0.24137912807366541 0 -0.36850619279556551 0.24703405767702649 0 -0.35852366498609761 0.25141211286660597 0 -0.38049471131469081 0.2476181147904957 0 -0.36850619279556551 0.24703405767702649 0 -0.36997256016297941 0.23863577371655301 0 -0.35787946682009392 0.24137912807366541 0 -0.36997256016297941 0.23863577371655301 0 -0.3558429446409262 0.22752306685288709 0 -0.37772646931776083 0.22674949602313521 0 -0.3558429446409262 0.22752306685288709 0 -0.36534834697711283 0.2060517822388806 0 -0.37772646931776083 0.22674949602313521 0 -0.36997256016297941 0.23863577371655301 0 -0.3558429446409262 0.22752306685288709 0 -0.3558429446409262 0.22752306685288709 0 -0.34920565089839162 0.210585361050318 0 -0.33494042689214493 0.21777234388179459 0 -0.3558429446409262 0.22752306685288709 0 -0.34920565089839162 0.210585361050318 0 -0.36534834697711283 0.2060517822388806 0 -0.38052460859911952 0.21156396358857249 0 -0.37772646931776083 0.22674949602313521 0 -0.36534834697711283 0.2060517822388806 0 -0.38390124695420907 0.19015906637507179 0 -0.36614960548215392 0.18146450782859341 0 -0.36534834697711283 0.2060517822388806 0 -0.36614960548215392 0.18146450782859341 0 -0.36534834697711283 0.2060517822388806 0 -0.34069088508338241 0.19099425122770949 0 -0.34920565089839162 0.210585361050318 0 -0.36534834697711283 0.2060517822388806 0 -0.34069088508338241 0.19099425122770949 0 -0.34069088508338241 0.19099425122770949 0 -0.31497155491170159 0.2066326863755743 0 -0.31154991965553469 0.18713955986883271 0 -0.34069088508338241 0.19099425122770949 0 -0.31497155491170159 0.2066326863755743 0 -0.31497155491170159 0.2066326863755743 0 -0.33494042689214493 0.21777234388179459 0 -0.31291956771957219 0.22393104332477279 0 -0.34920565089839162 0.210585361050318 0 -0.34069088508338241 0.19099425122770949 0 -0.33494042689214493 0.21777234388179459 0 -0.34069088508338241 0.19099425122770949 0 -0.31497155491170159 0.2066326863755743 0 -0.33494042689214493 0.21777234388179459 0 -0.3558429446409262 0.22752306685288709 0 -0.33494042689214493 0.21777234388179459 0 -0.33655197151490079 0.24229062925525449 0 -0.33494042689214493 0.21777234388179459 0 -0.31291956771957219 0.22393104332477279 0 -0.33655197151490079 0.24229062925525449 0 -0.31291956771957219 0.22393104332477279 0 -0.33655197151490079 0.24229062925525449 0 -0.31291956771957219 0.22393104332477279 0 -0.31299774134644598 0.24067245853374089 0 -0.33655197151490079 0.24229062925525449 0 -0.31299774134644598 0.24067245853374089 0 -0.33655197151490079 0.24229062925525449 0 -0.31501683502413969 0.2575678616419691 0 -0.29008095711228737 0.2378969072826205 0 -0.30075549003935942 0.2449904063501305 0 -0.28588718725652051 0.25656071756487392 0 -0.29008095711228737 0.2378969072826205 0 -0.27476504109127808 0.23107993887808079 0 -0.28588718725652051 0.25656071756487392 0 -0.31299774134644598 0.24067245853374089 0 -0.30075549003935942 0.2449904063501305 0 -0.31501683502413969 0.2575678616419691 0 -0.31299774134644598 0.24067245853374089 0 -0.30075549003935942 0.2449904063501305 0 -0.29979472945740332 0.23225408672744821 0 -0.29008095711228737 0.2378969072826205 0 -0.30075549003935942 0.2449904063501305 0 -0.29979472945740332 0.23225408672744821 0 -0.31291956771957219 0.22393104332477279 0 -0.29979472945740332 0.23225408672744821 0 -0.28925222474002049 0.22227112152343881 0 -0.31291956771957219 0.22393104332477279 0 -0.31299774134644598 0.24067245853374089 0 -0.29979472945740332 0.23225408672744821 0 -0.29008095711228737 0.2378969072826205 0 -0.28925222474002049 0.22227112152343881 0 -0.27476504109127808 0.23107993887808079 0 -0.29008095711228737 0.2378969072826205 0 -0.29979472945740332 0.23225408672744821 0 -0.28925222474002049 0.22227112152343881 0 -0.29979472945740332 0.23225408672744821 0 -0.28925222474002049 0.22227112152343881 0 -0.28925222474002049 0.22227112152343881 0 -0.27476504109127808 0.23107993887808079 0 -0.28925222474002049 0.22227112152343881 0 -0.28778621689404438 0.20817228309810629 0 -0.29964193108846687 0.2037633217716355 0 -0.28925222474002049 0.22227112152343881 0 -0.27362844838965911 0.20747657128683439 0 -0.28925222474002049 0.22227112152343881 0 -0.28778621689404438 0.20817228309810629 0 -0.27362844838965911 0.20747657128683439 0 -0.31497155491170159 0.2066326863755743 0 -0.28925222474002049 0.22227112152343881 0 -0.29964193108846687 0.2037633217716355 0 -0.31497155491170159 0.2066326863755743 0 -0.31291956771957219 0.22393104332477279 0 -0.28925222474002049 0.22227112152343881 0 -0.31497155491170159 0.2066326863755743 0 -0.28925222474002049 0.22227112152343881 0 -0.2946497392410331 0.19460095799222479 0 -0.31154991965553469 0.18713955986883271 0 -0.29305883314164471 0.1813678011651127 0 -0.29964193108846687 0.2037633217716355 0 -0.2946497392410331 0.19460095799222479 0 -0.31154991965553469 0.18713955986883271 0 -0.31497155491170159 0.2066326863755743 0 -0.29964193108846687 0.2037633217716355 0 -0.31154991965553469 0.18713955986883271 0 -0.2946497392410331 0.19460095799222479 0 -0.27765361548125872 0.19298232183765471 0 -0.29305883314164471 0.1813678011651127 0 -0.28778621689404438 0.20817228309810629 0 -0.2946497392410331 0.19460095799222479 0 -0.27765361548125872 0.19298232183765471 0 -0.28778621689404438 0.20817228309810629 0 -0.29964193108846687 0.2037633217716355 0 -0.2946497392410331 0.19460095799222479 0 -0.27765361548125872 0.19298232183765471 0 -0.25800467203929611 0.19268202105023169 0 -0.26695720839337522 0.18280165458648009 0 -0.27765361548125872 0.19298232183765471 0 -0.25800467203929611 0.19268202105023169 0 -0.27362844838965911 0.20747657128683439 0 -0.28778621689404438 0.20817228309810629 0 -0.27765361548125872 0.19298232183765471 0 -0.27362844838965911 0.20747657128683439 0 -0.25800467203929611 0.19268202105023169 0 -0.27362844838965911 0.20747657128683439 0 -0.25800467203929611 0.19268202105023169 0 -0.26638485656528549 0.21188097996415689 0 -0.25800467203929611 0.19268202105023169 0 -0.25362864727702522 0.18265657121000431 0 -0.25112440798004088 0.2079531670713029 0 -0.26638485656528549 0.21188097996415689 0 -0.25586129915106498 0.22582089692809421 0 -0.25800467203929611 0.19268202105023169 0 -0.25112440798004088 0.2079531670713029 0 -0.26638485656528549 0.21188097996415689 0 -0.26638485656528549 0.21188097996415689 0 -0.27362844838965911 0.20747657128683439 0 -0.27587357045492023 0.2188280122298781 0 -0.25800467203929611 0.19268202105023169 0 -0.26638485656528549 0.21188097996415689 0 -0.27362844838965911 0.20747657128683439 0 -0.28925222474002049 0.22227112152343881 0 -0.27362844838965911 0.20747657128683439 0 -0.27587357045492023 0.2188280122298781 0 -0.26638485656528549 0.21188097996415689 0 -0.27587357045492023 0.2188280122298781 0 -0.27476504109127808 0.23107993887808079 0 -0.26638485656528549 0.21188097996415689 0 -0.27476504109127808 0.23107993887808079 0 -0.25586129915106498 0.22582089692809421 0 -0.26638485656528549 0.21188097996415689 0 -0.27476504109127808 0.23107993887808079 0 -0.28925222474002049 0.22227112152343881 0 -0.27587357045492023 0.2188280122298781 0 -0.27476504109127808 0.23107993887808079 0 -0.27476504109127808 0.23107993887808079 0 -0.25586129915106498 0.22582089692809421 0 -0.25304333006038349 0.24428765334769589 0 -0.27476504109127808 0.23107993887808079 0 -0.25304333006038349 0.24428765334769589 0 -0.27476504109127808 0.23107993887808079 0 -0.25304333006038349 0.24428765334769589 0 -0.26703533862896062 0.25406948235759119 0 -0.27476504109127808 0.23107993887808079 0 -0.28588718725652051 0.25656071756487392 0 -0.26703533862896062 0.25406948235759119 0 -0.27476504109127808 0.23107993887808079 0 -0.28588718725652051 0.25656071756487392 0 -0.30174075433872072 0.14346323901273059 0 -0.30036239330349129 0.16677686173087111 0 -0.28108145601895118 0.15795361373979819 0 -0.30174075433872072 0.14346323901273059 0 -0.28108145601895118 0.15795361373979819 0 -0.27948038694619992 0.13748913488739539 0 -0.30174075433872072 0.14346323901273059 0 -0.27948038694619992 0.13748913488739539 0 -0.28668733565835991 0.12291982257563561 0 -0.30174075433872072 0.14346323901273059 0 -0.27948038694619992 0.13748913488739539 0 -0.30174075433872072 0.14346323901273059 0 -0.28668733565835991 0.12291982257563561 0 -0.30531000059112912 0.1222815423273219 0 -0.32409385646085881 0.12882097444149121 0 -0.30174075433872072 0.14346323901273059 0 -0.30531000059112912 0.1222815423273219 0 -0.32400112173124163 0.14943734313806639 0 -0.30174075433872072 0.14346323901273059 0 -0.30036239330349129 0.16677686173087111 0 -0.32400112173124163 0.14943734313806639 0 -0.30036239330349129 0.16677686173087111 0 -0.30036239330349129 0.16677686173087111 0 -0.31154991965553469 0.18713955986883271 0 -0.29305883314164471 0.1813678011651127 0 -0.27765361548125872 0.19298232183765471 0 -0.29305883314164471 0.1813678011651127 0 -0.28005895460658042 0.17523046804747819 0 -0.30036239330349129 0.16677686173087111 0 -0.29305883314164471 0.1813678011651127 0 -0.28005895460658042 0.17523046804747819 0 -0.30036239330349129 0.16677686173087111 0 -0.28108145601895118 0.15795361373979819 0 -0.28005895460658042 0.17523046804747819 0 -0.28108145601895118 0.15795361373979819 0 -0.26544015256271569 0.17045689078703141 0 -0.26085544707193697 0.15417195003355311 0 -0.28108145601895118 0.15795361373979819 0 -0.28005895460658042 0.17523046804747819 0 -0.26544015256271569 0.17045689078703141 0 -0.27765361548125872 0.19298232183765471 0 -0.28005895460658042 0.17523046804747819 0 -0.26695720839337522 0.18280165458648009 0 -0.28005895460658042 0.17523046804747819 0 -0.26695720839337522 0.18280165458648009 0 -0.26544015256271569 0.17045689078703141 0 -0.25362864727702522 0.18265657121000431 0 -0.25152250743242349 0.1658649348156136 0 -0.26544015256271569 0.17045689078703141 0 -0.25800467203929611 0.19268202105023169 0 -0.26695720839337522 0.18280165458648009 0 -0.25362864727702522 0.18265657121000431 0 -0.26695720839337522 0.18280165458648009 0 -0.25362864727702522 0.18265657121000431 0 -0.26544015256271569 0.17045689078703141 0 -0.25152250743242349 0.1658649348156136 0 -0.26544015256271569 0.17045689078703141 0 -0.26085544707193697 0.15417195003355311 0 -0.25152250743242349 0.1658649348156136 0 -0.26085544707193697 0.15417195003355311 0 -0.23969799745787751 0.14830936451592219 0 -0.26085544707193697 0.15417195003355311 0 -0.25814383389963658 0.13754269296079971 0 -0.23969799745787751 0.14830936451592219 0 -0.28108145601895118 0.15795361373979819 0 -0.26085544707193697 0.15417195003355311 0 -0.27948038694619992 0.13748913488739539 0 -0.26085544707193697 0.15417195003355311 0 -0.27948038694619992 0.13748913488739539 0 -0.25814383389963658 0.13754269296079971 0 -0.27948038694619992 0.13748913488739539 0 -0.25814383389963658 0.13754269296079971 0 -0.26548866182197128 0.12354188668309379 0 -0.27948038694619992 0.13748913488739539 0 -0.26548866182197128 0.12354188668309379 0 -0.28668733565835991 0.12291982257563561 0 -0.25814383389963658 0.13754269296079971 0 -0.26548866182197128 0.12354188668309379 0 -0.24519667620019761 0.12420112868403391 0 -0.25459818759909481 0.11380077835847691 0 -0.26548866182197128 0.12354188668309379 0 -0.26740637776913179 0.10426281937306731 0 -0.25459818759909481 0.11380077835847691 0 -0.26548866182197128 0.12354188668309379 0 -0.24519667620019761 0.12420112868403391 0 -0.25459818759909481 0.11380077835847691 0 -0.26740637776913179 0.10426281937306731 0 -0.24213173602150809 0.103909100708085 0 -0.26740637776913179 0.10426281937306731 0 -0.25606733521099673 0.084324349327204812 0 -0.24213173602150809 0.103909100708085 0 -0.26740637776913179 0.10426281937306731 0 -0.29338848334729611 0.1068431632625034 0 -0.26740637776913179 0.10426281937306731 0 -0.28466466911376709 0.088826640494535175 0 -0.26997248387107781 0.089293614109921954 0 -0.26548866182197128 0.12354188668309379 0 -0.26740637776913179 0.10426281937306731 0 -0.28668733565835991 0.12291982257563561 0 -0.28668733565835991 0.12291982257563561 0 -0.29338848334729611 0.1068431632625034 0 -0.30531000059112912 0.1222815423273219 0 -0.26740637776913179 0.10426281937306731 0 -0.28668733565835991 0.12291982257563561 0 -0.29338848334729611 0.1068431632625034 0 -0.29338848334729611 0.1068431632625034 0 -0.30453963677134738 0.090323293778859906 0 -0.28466466911376709 0.088826640494535175 0 -0.26740637776913179 0.10426281937306731 0 -0.29338848334729611 0.1068431632625034 0 -0.28466466911376709 0.088826640494535175 0 -0.29338848334729611 0.1068431632625034 0 -0.31937058892546027 0.10942350715193951 0 -0.29338848334729611 0.1068431632625034 0 -0.31937058892546027 0.10942350715193951 0 -0.3126581339891088 0.099327517930086429 0 -0.29338848334729611 0.1068431632625034 0 -0.30453963677134738 0.090323293778859906 0 -0.3126581339891088 0.099327517930086429 0 -0.29338848334729611 0.1068431632625034 0 -0.30531000059112912 0.1222815423273219 0 -0.31937058892546027 0.10942350715193951 0 -0.30068314181087841 0.070006224793072225 0 -0.31670161450798973 0.05118580909160924 0 -0.31956691078140859 0.075069001227056467 0 -0.30068314181087841 0.070006224793072225 0 -0.30453963677134738 0.090323293778859906 0 -0.31956691078140859 0.075069001227056467 0 -0.30068314181087841 0.070006224793072225 0 -0.28466466911376709 0.088826640494535175 0 -0.27662085366610029 0.076183406230883474 0 -0.30068314181087841 0.070006224793072225 0 -0.30453963677134738 0.090323293778859906 0 -0.28466466911376709 0.088826640494535175 0 -0.30068314181087841 0.070006224793072225 0 -0.28466466911376709 0.088826640494535175 0 -0.30068314181087841 0.070006224793072225 0 -0.29655308738552733 0.058178183239874302 0 -0.28312549944342053 0.062124113757033403 0 -0.30068314181087841 0.070006224793072225 0 -0.27662085366610029 0.076183406230883474 0 -0.28312549944342053 0.062124113757033403 0 -0.26685611060726888 0.064816606655069914 0 -0.27662085366610029 0.076183406230883474 0 -0.28312549944342053 0.062124113757033403 0 -0.26685611060726888 0.064816606655069914 0 -0.27662085366610029 0.076183406230883474 0 -0.25606733521099673 0.084324349327204812 0 -0.27662085366610029 0.076183406230883474 0 -0.26997248387107781 0.089293614109921954 0 -0.25606733521099673 0.084324349327204812 0 -0.28466466911376709 0.088826640494535175 0 -0.27662085366610029 0.076183406230883474 0 -0.26997248387107781 0.089293614109921954 0 -0.26740637776913179 0.10426281937306731 0 -0.26997248387107781 0.089293614109921954 0 -0.25606733521099673 0.084324349327204812 0 -0.26685611060726888 0.064816606655069914 0 -0.25606733521099673 0.084324349327204812 0 -0.24945842255855349 0.063645980770078089 0 -0.25926226174218331 0.05011651316746929 0 -0.24162147800221201 0.047994600011292167 0 -0.24945842255855349 0.063645980770078089 0 -0.26685611060726888 0.064816606655069914 0 -0.25926226174218331 0.05011651316746929 0 -0.24945842255855349 0.063645980770078089 0 -0.26731190113689818 0.033195404987975907 0 -0.24167877276290001 0.023059685000754952 0 -0.2493236397861846 0.03802887252306017 0 -0.25926226174218331 0.05011651316746929 0 -0.2493236397861846 0.03802887252306017 0 -0.24162147800221201 0.047994600011292167 0 -0.25926226174218331 0.05011651316746929 0 -0.26731190113689818 0.033195404987975907 0 -0.2493236397861846 0.03802887252306017 0 -0.26731190113689818 0.033195404987975907 0 -0.29294502951089701 0.043331124975195312 0 -0.25926226174218331 0.05011651316746929 0 -0.26731190113689818 0.033195404987975907 0 -0.27757377106013448 0.050735436095798753 0 -0.26731190113689818 0.033195404987975907 0 -0.27757377106013448 0.050735436095798753 0 -0.29294502951089701 0.043331124975195312 0 -0.26685611060726888 0.064816606655069914 0 -0.25926226174218331 0.05011651316746929 0 -0.27757377106013448 0.050735436095798753 0 -0.26685611060726888 0.064816606655069914 0 -0.27757377106013448 0.050735436095798753 0 -0.28312549944342053 0.062124113757033403 0 -0.26128693094488509 -0.00078928531848339637 0 -0.25922367882670783 0.01177406324393533 0 -0.27474322859119898 0.00066054829782829041 0 -0.2476812857265574 -0.00048874240363525783 0 -0.26128693094488509 -0.00078928531848339637 0 -0.25922367882670783 0.01177406324393533 0 -0.26731190113689818 0.033195404987975907 0 -0.25922367882670783 0.01177406324393533 0 -0.24167877276290001 0.023059685000754952 0 -0.26731190113689818 0.033195404987975907 0 -0.24167877276290001 0.023059685000754952 0 -0.26731190113689818 0.033195404987975907 0 -0.28470472394546947 0.01631177397890406 0 -0.28887933193365112 0.02877732694653078 0 -0.26731190113689818 0.033195404987975907 0 -0.25922367882670783 0.01177406324393533 0 -0.28470472394546947 0.01631177397890406 0 -0.25922367882670783 0.01177406324393533 0 -0.27474322859119898 0.00066054829782829041 0 -0.28470472394546947 0.01631177397890406 0 -0.29186197708965789 -0.0021013430792621531 0 -0.28470472394546947 0.01631177397890406 0 -0.30042506375159572 0.0067280935367426964 0 -0.28470472394546947 0.01631177397890406 0 -0.2979949276434557 0.01832375169019031 0 -0.30042506375159572 0.0067280935367426964 0 -0.29186197708965789 -0.0021013430792621531 0 -0.27474322859119898 0.00066054829782829041 0 -0.28470472394546947 0.01631177397890406 0 -0.28470472394546947 0.01631177397890406 0 -0.28887933193365112 0.02877732694653078 0 -0.2979949276434557 0.01832375169019031 0 -0.28887933193365112 0.02877732694653078 0 -0.30122762679499221 0.028635721817977799 0 -0.2979949276434557 0.01832375169019031 0 -0.30122762679499221 0.028635721817977799 0 -0.30951022407908729 0.01394031866076029 0 -0.31205610410514251 0.034459168131596059 0 -0.30122762679499221 0.028635721817977799 0 -0.30951022407908729 0.01394031866076029 0 -0.30122762679499221 0.028635721817977799 0 -0.2979949276434557 0.01832375169019031 0 -0.30951022407908729 0.01394031866076029 0 -0.30578893155081932 -0.0017932752882775229 0 -0.30951022407908729 0.01394031866076029 0 -0.31728932138840138 0.00013825063324591011 0 -0.30578893155081932 -0.0017932752882775229 0 -0.30951022407908729 0.01394031866076029 0 -0.30042506375159572 0.0067280935367426964 0 -0.2979949276434557 0.01832375169019031 0 -0.30951022407908729 0.01394031866076029 0 -0.30042506375159572 0.0067280935367426964 0 -0.30951022407908729 0.01394031866076029 0 -0.30042506375159572 0.0067280935367426964 0 -0.29186197708965789 -0.0021013430792621531 0 -0.30578893155081932 -0.0017932752882775229 0 -0.30042506375159572 0.0067280935367426964 0 -0.29086983984431469 0.047013031475306437 0 -0.29485738489655822 0.050939179798980203 0 -0.28625076806502281 0.053748262716142907 0 -0.29485738489655822 0.050939179798980203 0 -0.29655308738552733 0.058178183239874302 0 -0.28625076806502281 0.053748262716142907 0 -0.29529583731778158 0.047081843762452683 0 -0.29485738489655822 0.050939179798980203 0 -0.30012096793854037 0.04616859769748536 0 -0.29086983984431469 0.047013031475306437 0 -0.29529583731778158 0.047081843762452683 0 -0.29485738489655822 0.050939179798980203 0 -0.29655308738552733 0.058178183239874302 0 -0.28312549944342053 0.062124113757033403 0 -0.28625076806502281 0.053748262716142907 0 -0.27757377106013448 0.050735436095798753 0 -0.28312549944342053 0.062124113757033403 0 -0.28625076806502281 0.053748262716142907 0 -0.27757377106013448 0.050735436095798753 0 -0.29086983984431469 0.047013031475306437 0 -0.29294502951089701 0.043331124975195312 0 -0.27757377106013448 0.050735436095798753 0 -0.29086983984431469 0.047013031475306437 0 -0.28625076806502281 0.053748262716142907 0 -0.26731190113689818 0.033195404987975907 0 -0.28887933193365112 0.02877732694653078 0 -0.29294502951089701 0.043331124975195312 0 -0.28887933193365112 0.02877732694653078 0 -0.30122762679499221 0.028635721817977799 0 -0.29294502951089701 0.043331124975195312 0 -0.29086983984431469 0.047013031475306437 0 -0.29294502951089701 0.043331124975195312 0 -0.29294502951089701 0.043331124975195312 0 -0.30012096793854037 0.04616859769748536 0 -0.29529583731778158 0.047081843762452683 0 -0.29294502951089701 0.043331124975195312 0 -0.30012096793854037 0.04616859769748536 0 -0.29086983984431469 0.047013031475306437 0 -0.29529583731778158 0.047081843762452683 0 -0.29294502951089701 0.043331124975195312 0 -0.30012096793854037 0.04616859769748536 0 -0.31205610410514251 0.034459168131596059 0 -0.31670161450798973 0.05118580909160924 0 -0.30122762679499221 0.028635721817977799 0 -0.29294502951089701 0.043331124975195312 0 -0.30012096793854037 0.04616859769748536 0 -0.30122762679499221 0.028635721817977799 0 -0.30012096793854037 0.04616859769748536 0 -0.31205610410514251 0.034459168131596059 0 -0.30122762679499221 0.028635721817977799 0 -0.29294502951089701 0.043331124975195312 0 -0.30068314181087841 0.070006224793072225 0 -0.29655308738552733 0.058178183239874302 0 -0.31670161450798973 0.05118580909160924 0 -0.30068314181087841 0.070006224793072225 0 -0.31670161450798973 0.05118580909160924 0 -0.29655308738552733 0.058178183239874302 0 -0.30012096793854037 0.04616859769748536 0 -0.31670161450798973 0.05118580909160924 0 -0.29485738489655822 0.050939179798980203 0 -0.29655308738552733 0.058178183239874302 0 -0.30012096793854037 0.04616859769748536 0 -0.31670161450798973 0.05118580909160924 0 -0.33555362908188502 0.048838900075648298 0 -0.33149488185534243 0.062524352591258464 0 -0.31670161450798973 0.05118580909160924 0 -0.33272008720510232 0.032365393390147427 0 -0.31205610410514251 0.034459168131596059 0 -0.31670161450798973 0.05118580909160924 0 -0.33272008720510232 0.032365393390147427 0 -0.33272008720510232 0.032365393390147427 0 -0.33555362908188502 0.048838900075648298 0 -0.34988981521336437 0.045995526403765252 0 -0.31670161450798973 0.05118580909160924 0 -0.33272008720510232 0.032365393390147427 0 -0.33555362908188502 0.048838900075648298 0 -0.33272008720510232 0.032365393390147427 0 -0.34988981521336437 0.045995526403765252 0 -0.33555362908188502 0.048838900075648298 0 -0.34696174662762652 0.052123418901460772 0 -0.33149488185534243 0.062524352591258464 0 -0.3467511976590002 0.062086698327905129 0 -0.34696174662762652 0.052123418901460772 0 -0.33149488185534243 0.062524352591258464 0 -0.31728932138840138 0.00013825063324591011 0 -0.3287022216917726 0.01237376227776261 0 -0.33635329816133003 0.00058701043679631332 0 -0.30951022407908729 0.01394031866076029 0 -0.31728932138840138 0.00013825063324591011 0 -0.3287022216917726 0.01237376227776261 0 -0.30951022407908729 0.01394031866076029 0 -0.31728932138840138 0.00013825063324591011 0 -0.30951022407908729 0.01394031866076029 0 -0.33272008720510232 0.032365393390147427 0 -0.3287022216917726 0.01237376227776261 0 -0.30951022407908729 0.01394031866076029 0 -0.31205610410514251 0.034459168131596059 0 -0.33272008720510232 0.032365393390147427 0 -0.30951022407908729 0.01394031866076029 0 -0.33272008720510232 0.032365393390147427 0 -0.33272008720510232 0.032365393390147427 0 -0.3287022216917726 0.01237376227776261 0 -0.34763817762494198 0.01483783826786331 0 -0.33272008720510232 0.032365393390147427 0 -0.34763817762494198 0.01483783826786331 0 -0.3287022216917726 0.01237376227776261 0 -0.33635329816133003 0.00058701043679631332 0 -0.34763817762494198 0.01483783826786331 0 -0.33635329816133003 0.00058701043679631332 0 -0.34763817762494198 0.01483783826786331 0 -0.34781910234901381 -0.0050527516654024452 0 -0.33635329816133003 0.00058701043679631332 0 -0.34763817762494198 0.01483783826786331 0 -0.34781910234901381 -0.0050527516654024452 0 -0.3591254032888318 0.0013412729998198911 0 -0.34763817762494198 0.01483783826786331 0 -0.3591254032888318 0.0013412729998198911 0 -0.34763817762494198 0.01483783826786331 0 -0.36569798612806759 0.01291202131705645 0 -0.3591254032888318 0.0013412729998198911 0 -0.34763817762494198 0.01483783826786331 0 -0.34763817762494198 0.01483783826786331 0 -0.3583276400307146 0.028336758556946499 0 -0.36569798612806759 0.01291202131705645 0 -0.33272008720510232 0.032365393390147427 0 -0.34763817762494198 0.01483783826786331 0 -0.3583276400307146 0.028336758556946499 0 -0.34763817762494198 0.01483783826786331 0 -0.3583276400307146 0.028336758556946499 0 -0.3583276400307146 0.028336758556946499 0 -0.36960039401106648 0.024866027662230429 0 -0.36327437910522659 0.034583624294714288 0 -0.36960039401106648 0.024866027662230429 0 -0.36327437910522659 0.034583624294714288 0 -0.37306611699726211 0.033756776278764222 0 -0.38074299888388752 0.027622667289955011 0 -0.36960039401106648 0.024866027662230429 0 -0.37306611699726211 0.033756776278764222 0 -0.37690566555465371 0.012554975683560669 0 -0.36960039401106648 0.024866027662230429 0 -0.36569798612806759 0.01291202131705645 0 -0.3583276400307146 0.028336758556946499 0 -0.36960039401106648 0.024866027662230429 0 -0.36569798612806759 0.01291202131705645 0 -0.3583276400307146 0.028336758556946499 0 -0.36569798612806759 0.01291202131705645 0 -0.37306833222542007 -0.0025127159228337942 0 -0.37690566555465371 0.012554975683560669 0 -0.36569798612806759 0.01291202131705645 0 -0.37306833222542007 -0.0025127159228337942 0 -0.36670424245805999 -0.00027229795985809851 0 -0.36569798612806759 0.01291202131705645 0 -0.37306833222542007 -0.0025127159228337942 0 -0.36569798612806759 0.01291202131705645 0 -0.37306833222542007 -0.0025127159228337942 0 -0.37690566555465371 0.012554975683560669 0 -0.36670424245805999 -0.00027229795985809851 0 -0.3591254032888318 0.0013412729998198911 0 -0.36569798612806759 0.01291202131705645 0 -0.3467511976590002 0.062086698327905129 0 -0.34696174662762652 0.052123418901460772 0 -0.36438522752428432 0.057502662555836331 0 -0.34696174662762652 0.052123418901460772 0 -0.34988981521336437 0.045995526403765252 0 -0.36438522752428432 0.057502662555836331 0 -0.34988981521336437 0.045995526403765252 0 -0.36438522752428432 0.057502662555836331 0 -0.34988981521336437 0.045995526403765252 0 -0.36158063200099338 0.046152157091975753 0 -0.36438522752428432 0.057502662555836331 0 -0.33555362908188502 0.048838900075648298 0 -0.34696174662762652 0.052123418901460772 0 -0.34988981521336437 0.045995526403765252 0 -0.34696174662762652 0.052123418901460772 0 -0.34988981521336437 0.045995526403765252 0 -0.33272008720510232 0.032365393390147427 0 -0.3583276400307146 0.028336758556946499 0 -0.34988981521336437 0.045995526403765252 0 -0.3583276400307146 0.028336758556946499 0 -0.34988981521336437 0.045995526403765252 0 -0.3583276400307146 0.028336758556946499 0 -0.34988981521336437 0.045995526403765252 0 -0.36327437910522659 0.034583624294714288 0 -0.34988981521336437 0.045995526403765252 0 -0.36158063200099338 0.046152157091975753 0 -0.36327437910522659 0.034583624294714288 0 -0.36158063200099338 0.046152157091975753 0 -0.36327437910522659 0.034583624294714288 0 -0.36880498606045559 0.042694951479314867 0 -0.3583276400307146 0.028336758556946499 0 -0.36327437910522659 0.034583624294714288 0 -0.36327437910522659 0.034583624294714288 0 -0.37306611699726211 0.033756776278764222 0 -0.36880498606045559 0.042694951479314867 0 -0.38171857467451142 0.041479537175283701 0 -0.37306611699726211 0.033756776278764222 0 -0.36880498606045559 0.042694951479314867 0 -0.38171857467451142 0.041479537175283701 0 -0.36880498606045559 0.042694951479314867 0 -0.36438522752428432 0.057502662555836331 0 -0.38171857467451142 0.041479537175283701 0 -0.36438522752428432 0.057502662555836331 0 -0.36158063200099338 0.046152157091975753 0 -0.36880498606045559 0.042694951479314867 0 -0.36438522752428432 0.057502662555836331 0 -0.38214778829224982 0.071603413937182198 0 -0.36438522752428432 0.057502662555836331 0 -0.36718154171164141 0.081096552100920719 0 -0.38214778829224982 0.071603413937182198 0 -0.36438522752428432 0.057502662555836331 0 -0.36438522752428432 0.057502662555836331 0 -0.34416293462874742 0.076196359263064908 0 -0.3467511976590002 0.062086698327905129 0 -0.36438522752428432 0.057502662555836331 0 -0.34416293462874742 0.076196359263064908 0 -0.36438522752428432 0.057502662555836331 0 -0.34416293462874742 0.076196359263064908 0 -0.36718154171164141 0.081096552100920719 0 -0.34416293462874742 0.076196359263064908 0 -0.36718154171164141 0.081096552100920719 0 -0.35749212904851729 0.094809905602385447 0 -0.34416293462874742 0.076196359263064908 0 -0.35749212904851729 0.094809905602385447 0 -0.34222530054032868 0.094264373821341063 0 -0.36718154171164141 0.081096552100920719 0 -0.37005056905432682 0.095905223840830209 0 -0.35749212904851729 0.094809905602385447 0 -0.38116972533535159 0.088908385989641528 0 -0.36718154171164141 0.081096552100920719 0 -0.37005056905432682 0.095905223840830209 0 -0.38062059044660462 0.1079057381913229 0 -0.37005056905432682 0.095905223840830209 0 -0.36378885872951899 0.10680553731988041 0 -0.37005056905432682 0.095905223840830209 0 -0.36378885872951899 0.10680553731988041 0 -0.35749212904851729 0.094809905602385447 0 -0.38062059044660462 0.1079057381913229 0 -0.36378885872951899 0.10680553731988041 0 -0.36174743420815042 0.12174960650690431 0 -0.37617366486649012 0.12162999737847589 0 -0.38062059044660462 0.1079057381913229 0 -0.36174743420815042 0.12174960650690431 0 -0.38062059044660462 0.1079057381913229 0 -0.36174743420815042 0.12174960650690431 0 -0.34287427796969622 0.13559347482248571 0 -0.36174743420815042 0.12174960650690431 0 -0.34535269450362449 0.1120038510413756 0 -0.36378885872951899 0.10680553731988041 0 -0.36174743420815042 0.12174960650690431 0 -0.34535269450362449 0.1120038510413756 0 -0.36378885872951899 0.10680553731988041 0 -0.34535269450362449 0.1120038510413756 0 -0.35749212904851729 0.094809905602385447 0 -0.34535269450362449 0.1120038510413756 0 -0.35749212904851729 0.094809905602385447 0 -0.34222530054032868 0.094264373821341063 0 -0.34535269450362449 0.1120038510413756 0 -0.34222530054032868 0.094264373821341063 0 -0.32394064173321052 0.09489005597029343 0 -0.34535269450362449 0.1120038510413756 0 -0.31937058892546027 0.10942350715193951 0 -0.32394064173321052 0.09489005597029343 0 -0.32409385646085881 0.12882097444149121 0 -0.34535269450362449 0.1120038510413756 0 -0.31937058892546027 0.10942350715193951 0 -0.34535269450362449 0.1120038510413756 0 -0.31937058892546027 0.10942350715193951 0 -0.32409385646085881 0.12882097444149121 0 -0.30531000059112912 0.1222815423273219 0 -0.31937058892546027 0.10942350715193951 0 -0.30453963677134738 0.090323293778859906 0 -0.32394064173321052 0.09489005597029343 0 -0.3126581339891088 0.099327517930086429 0 -0.31937058892546027 0.10942350715193951 0 -0.32394064173321052 0.09489005597029343 0 -0.3126581339891088 0.099327517930086429 0 -0.30453963677134738 0.090323293778859906 0 -0.32394064173321052 0.09489005597029343 0 -0.31956691078140859 0.075069001227056467 0 -0.31670161450798973 0.05118580909160924 0 -0.31956691078140859 0.075069001227056467 0 -0.33149488185534243 0.062524352591258464 0 -0.34416293462874742 0.076196359263064908 0 -0.31956691078140859 0.075069001227056467 0 -0.33149488185534243 0.062524352591258464 0 -0.3467511976590002 0.062086698327905129 0 -0.34416293462874742 0.076196359263064908 0 -0.33149488185534243 0.062524352591258464 0 -0.34416293462874742 0.076196359263064908 0 -0.32394064173321052 0.09489005597029343 0 -0.34416293462874742 0.076196359263064908 0 -0.34222530054032868 0.094264373821341063 0 -0.32394064173321052 0.09489005597029343 0 -0.34416293462874742 0.076196359263064908 0 -0.32394064173321052 0.09489005597029343 0 -0.31956691078140859 0.075069001227056467 0 -0.39776976750034593 0.5 0 -0.38302158855869661 0.47988909059875262 0 -0.40720515339997498 0.45890026026416397 0 -0.38302158855869661 0.47988909059875262 0 -0.37889978532357999 0.45529298933999462 0 -0.40720515339997498 0.45890026026416397 0 -0.37889978532357999 0.45529298933999462 0 -0.39555619825749588 0.43919659907570913 0 -0.37599798409538632 0.43323129088977519 0 -0.37889978532357999 0.45529298933999462 0 -0.39555619825749588 0.43919659907570913 0 -0.40720515339997498 0.45890026026416397 0 -0.40720515339997498 0.45890026026416397 0 -0.43709772400596308 0.44197567589373282 0 -0.41842863906801259 0.4284990838984819 0 -0.39555619825749588 0.43919659907570913 0 -0.40720515339997498 0.45890026026416397 0 -0.41842863906801259 0.4284990838984819 0 -0.40720515339997498 0.45890026026416397 0 -0.43709772400596308 0.44197567589373282 0 -0.43224325069968478 0.47245562459427137 0 -0.39776976750034593 0.5 0 -0.43224325069968478 0.47245562459427137 0 -0.44222375386620638 0.5 0 -0.39776976750034593 0.5 0 -0.40720515339997498 0.45890026026416397 0 -0.43224325069968478 0.47245562459427137 0 -0.43224325069968478 0.47245562459427137 0 -0.46629578103524733 0.47987370070782931 0 -0.45576680894391369 0.45545226788898391 0 -0.43224325069968478 0.47245562459427137 0 -0.44222375386620638 0.5 0 -0.46629578103524733 0.47987370070782931 0 -0.44222375386620638 0.5 0 -0.46629578103524733 0.47987370070782931 0 -0.5 0.5 0 -0.46629578103524733 0.47987370070782931 0 -0.5 0.5 0 -0.49310497881981491 0.4824054518794858 0 -0.5 0.5 0 -0.49310497881981491 0.4824054518794858 0 -0.5 0.43787782606157127 0 -0.4744358938818643 0.46892885988423483 0 -0.49310497881981491 0.4824054518794858 0 -0.46629578103524733 0.47987370070782931 0 -0.4744358938818643 0.46892885988423483 0 -0.49310497881981491 0.4824054518794858 0 -0.4744358938818643 0.46892885988423483 0 -0.49310497881981491 0.4824054518794858 0 -0.5 0.43787782606157127 0 -0.4744358938818643 0.46892885988423483 0 -0.5 0.43787782606157127 0 -0.47382709027448638 0.44292778108350062 0 -0.47382709027448638 0.44292778108350062 0 -0.45576680894391369 0.45545226788898391 0 -0.45800357308820738 0.43268427342736082 0 -0.4744358938818643 0.46892885988423483 0 -0.47382709027448638 0.44292778108350062 0 -0.45576680894391369 0.45545226788898391 0 -0.46629578103524733 0.47987370070782931 0 -0.4744358938818643 0.46892885988423483 0 -0.45576680894391369 0.45545226788898391 0 -0.4744358938818643 0.46892885988423483 0 -0.45576680894391369 0.45545226788898391 0 -0.43709772400596308 0.44197567589373282 0 -0.43224325069968478 0.47245562459427137 0 -0.45576680894391369 0.45545226788898391 0 -0.43709772400596308 0.44197567589373282 0 -0.45576680894391369 0.45545226788898391 0 -0.45800357308820738 0.43268427342736082 0 -0.43709772400596308 0.44197567589373282 0 -0.45576680894391369 0.45545226788898391 0 -0.43709772400596308 0.44197567589373282 0 -0.44031056439387922 0.42338800184850972 0 -0.45800357308820738 0.43268427342736082 0 -0.44031056439387922 0.42338800184850972 0 -0.45648558754266422 0.40985708775927621 0 -0.45800357308820738 0.43268427342736082 0 -0.44031056439387922 0.42338800184850972 0 -0.45648558754266422 0.40985708775927621 0 -0.43153729826454829 0.40392388826369741 0 -0.45648558754266422 0.40985708775927621 0 -0.4766742973523832 0.41796913714104578 0 -0.4717295332089414 0.39178792228516918 0 -0.45648558754266422 0.40985708775927621 0 -0.45800357308820738 0.43268427342736082 0 -0.4766742973523832 0.41796913714104578 0 -0.5 0.43787782606157127 0 -0.47382709027448638 0.44292778108350062 0 -0.4766742973523832 0.41796913714104578 0 -0.47382709027448638 0.44292778108350062 0 -0.45800357308820738 0.43268427342736082 0 -0.4766742973523832 0.41796913714104578 0 -0.5 0.43787782606157127 0 -0.4766742973523832 0.41796913714104578 0 -0.5 0.39267993222939668 0 -0.4766742973523832 0.41796913714104578 0 -0.5 0.39267993222939668 0 -0.4717295332089414 0.39178792228516918 0 -0.4717295332089414 0.39178792228516918 0 -0.45713731530919222 0.3723461799165303 0 -0.47856865765459539 0.36607147821700908 0 -0.5 0.39267993222939668 0 -0.4717295332089414 0.39178792228516918 0 -0.47856865765459539 0.36607147821700908 0 -0.4717295332089414 0.39178792228516918 0 -0.45096459429219588 0.39100004847620151 0 -0.45713731530919222 0.3723461799165303 0 -0.45648558754266422 0.40985708775927621 0 -0.4717295332089414 0.39178792228516918 0 -0.45096459429219588 0.39100004847620151 0 -0.45648558754266422 0.40985708775927621 0 -0.45096459429219588 0.39100004847620151 0 -0.43153729826454829 0.40392388826369741 0 -0.45096459429219588 0.39100004847620151 0 -0.43570597296378882 0.37862088161605151 0 -0.43153729826454829 0.40392388826369741 0 -0.45096459429219588 0.39100004847620151 0 -0.43570597296378882 0.37862088161605151 0 -0.45713731530919222 0.3723461799165303 0 -0.43570597296378882 0.37862088161605151 0 -0.45713731530919222 0.3723461799165303 0 -0.43570597296378882 0.37862088161605151 0 -0.4221944276638071 0.38687394434277611 0 -0.41749852246767472 0.37061239341810209 0 -0.43570597296378882 0.37862088161605151 0 -0.4221944276638071 0.38687394434277611 0 -0.43153729826454829 0.40392388826369741 0 -0.40737397593410002 0.39533588220211591 0 -0.41749852246767472 0.37061239341810209 0 -0.40737397593410002 0.39533588220211591 0 -0.40337229025876598 0.37926234475009152 0 -0.41749852246767472 0.37061239341810209 0 -0.4221944276638071 0.38687394434277611 0 -0.40737397593410002 0.39533588220211591 0 -0.41749852246767472 0.37061239341810209 0 -0.4221944276638071 0.38687394434277611 0 -0.40737397593410002 0.39533588220211591 0 -0.43153729826454829 0.40392388826369741 0 -0.40737397593410002 0.39533588220211591 0 -0.43153729826454829 0.40392388826369741 0 -0.41274420263123551 0.41196985258411162 0 -0.44031056439387922 0.42338800184850972 0 -0.43153729826454829 0.40392388826369741 0 -0.41842863906801259 0.4284990838984819 0 -0.43709772400596308 0.44197567589373282 0 -0.44031056439387922 0.42338800184850972 0 -0.41842863906801259 0.4284990838984819 0 -0.43709772400596308 0.44197567589373282 0 -0.41842863906801259 0.4284990838984819 0 -0.43153729826454829 0.40392388826369741 0 -0.41842863906801259 0.4284990838984819 0 -0.41274420263123551 0.41196985258411162 0 -0.41842863906801259 0.4284990838984819 0 -0.41274420263123551 0.41196985258411162 0 -0.39724942940052532 0.42005937098612961 0 -0.40737397593410002 0.39533588220211591 0 -0.39724942940052532 0.42005937098612961 0 -0.40737397593410002 0.39533588220211591 0 -0.41274420263123551 0.41196985258411162 0 -0.39724942940052532 0.42005937098612961 0 -0.39555619825749588 0.43919659907570913 0 -0.41842863906801259 0.4284990838984819 0 -0.39724942940052532 0.42005937098612961 0 -0.39555619825749588 0.43919659907570913 0 -0.39724942940052532 0.42005937098612961 0 -0.37599798409538632 0.43323129088977519 0 -0.39724942940052532 0.42005937098612961 0 -0.37599798409538632 0.43323129088977519 0 -0.37627508799104259 0.41492687074768858 0 -0.39724942940052532 0.42005937098612961 0 -0.37627508799104259 0.41492687074768858 0 -0.38540051188702279 0.40156212935804481 0 -0.38540051188702279 0.40156212935804481 0 -0.38699167204688872 0.38124322341472971 0 -0.35911239406255713 0.39624529943955999 0 -0.40737397593410002 0.39533588220211591 0 -0.38699167204688872 0.38124322341472971 0 -0.40337229025876598 0.37926234475009152 0 -0.40737397593410002 0.39533588220211591 0 -0.38540051188702279 0.40156212935804481 0 -0.38699167204688872 0.38124322341472971 0 -0.40737397593410002 0.39533588220211591 0 -0.39724942940052532 0.42005937098612961 0 -0.38540051188702279 0.40156212935804481 0 -0.40195740377192501 0.36275870300970131 0 -0.39672916892520882 0.3338421517339164 0 -0.41107808498658749 0.34697999421648668 0 -0.40195740377192501 0.36275870300970131 0 -0.38201990282386061 0.36131375793366027 0 -0.39672916892520882 0.3338421517339164 0 -0.40195740377192501 0.36275870300970131 0 -0.39672916892520882 0.3338421517339164 0 -0.38699167204688872 0.38124322341472971 0 -0.40337229025876598 0.37926234475009152 0 -0.40195740377192501 0.36275870300970131 0 -0.38699167204688872 0.38124322341472971 0 -0.40195740377192501 0.36275870300970131 0 -0.38201990282386061 0.36131375793366027 0 -0.38699167204688872 0.38124322341472971 0 -0.38201990282386061 0.36131375793366027 0 -0.36446034141132488 0.37086643364919741 0 -0.38201990282386061 0.36131375793366027 0 -0.39672916892520882 0.3338421517339164 0 -0.36980828876009419 0.34548756785883511 0 -0.39672916892520882 0.3338421517339164 0 -0.36980828876009419 0.34548756785883511 0 -0.37548017902234548 0.31857141996958033 0 -0.39672916892520882 0.3338421517339164 0 -0.36980828876009419 0.34548756785883511 0 -0.37548017902234548 0.31857141996958033 0 -0.39672916892520882 0.3338421517339164 0 -0.3925767750734861 0.31087590915856739 0 -0.39672916892520882 0.3338421517339164 0 -0.3925767750734861 0.31087590915856739 0 -0.39672916892520882 0.3338421517339164 0 -0.40753781859621219 0.31388422216185291 0 -0.3925767750734861 0.31087590915856739 0 -0.39672916892520882 0.3338421517339164 0 -0.41862468159352151 0.32437060568018439 0 -0.39672916892520882 0.3338421517339164 0 -0.41862468159352151 0.32437060568018439 0 -0.41107808498658749 0.34697999421648668 0 -0.41862468159352151 0.32437060568018439 0 -0.42762306900124952 0.34588890463408839 0 -0.41107808498658749 0.34697999421648668 0 -0.39672916892520882 0.3338421517339164 0 -0.41862468159352151 0.32437060568018439 0 -0.40753781859621219 0.31388422216185291 0 -0.41862468159352151 0.32437060568018439 0 -0.40753781859621219 0.31388422216185291 0 -0.42222735997216981 0.30847568694016819 0 -0.43914543170129361 0.32842996110250589 0 -0.43910194600992042 0.30455993321443542 0 -0.42222735997216981 0.30847568694016819 0 -0.41862468159352151 0.32437060568018439 0 -0.43914543170129361 0.32842996110250589 0 -0.42222735997216981 0.30847568694016819 0 -0.41862468159352151 0.32437060568018439 0 -0.42762306900124952 0.34588890463408839 0 -0.43914543170129361 0.32842996110250589 0 -0.42762306900124952 0.34588890463408839 0 -0.41749852246767472 0.37061239341810209 0 -0.44181468518410572 0.35974839000456971 0 -0.42762306900124952 0.34588890463408839 0 -0.41749852246767472 0.37061239341810209 0 -0.42762306900124952 0.34588890463408839 0 -0.44181468518410572 0.35974839000456971 0 -0.43914543170129361 0.32842996110250589 0 -0.42762306900124952 0.34588890463408839 0 -0.41107808498658749 0.34697999421648668 0 -0.41749852246767472 0.37061239341810209 0 -0.40337229025876598 0.37926234475009152 0 -0.40195740377192501 0.36275870300970131 0 -0.41749852246767472 0.37061239341810209 0 -0.40195740377192501 0.36275870300970131 0 -0.41107808498658749 0.34697999421648668 0 -0.41749852246767472 0.37061239341810209 0 -0.43570597296378882 0.37862088161605151 0 -0.41749852246767472 0.37061239341810209 0 -0.44181468518410572 0.35974839000456971 0 -0.44181468518410572 0.35974839000456971 0 -0.46184472396866438 0.34590320798573371 0 -0.43914543170129361 0.32842996110250589 0 -0.43570597296378882 0.37862088161605151 0 -0.44181468518410572 0.35974839000456971 0 -0.45713731530919222 0.3723461799165303 0 -0.44181468518410572 0.35974839000456971 0 -0.46184472396866438 0.34590320798573371 0 -0.45713731530919222 0.3723461799165303 0 -0.45713731530919222 0.3723461799165303 0 -0.47856865765459539 0.36607147821700908 0 -0.46184472396866438 0.34590320798573371 0 -0.45713731530919222 0.3723461799165303 0 -0.47856865765459539 0.36607147821700908 0 -0.5 0.39267993222939668 0 -0.47856865765459539 0.36607147821700908 0 -0.49999999999999889 0.35979677651748831 0 -0.46184472396866438 0.34590320798573371 0 -0.47856865765459539 0.36607147821700908 0 -0.48370536101559292 0.34575665786436938 0 -0.48370536101559292 0.34575665786436938 0 -0.49999999999999889 0.35979677651748831 0 -0.5 0.33109162069654868 0 -0.47856865765459539 0.36607147821700908 0 -0.48370536101559292 0.34575665786436938 0 -0.49999999999999889 0.35979677651748831 0 -0.47856865765459539 0.36607147821700908 0 -0.49999999999999889 0.35979677651748831 0 -0.48771442365145251 0.31353070121775822 0 -0.5 0.33109162069654868 0 -0.5 0.30238646487560911 0 -0.48771442365145251 0.31353070121775822 0 -0.5 0.33109162069654868 0 -0.47779226172068712 0.32739039106684442 0 -0.48370536101559292 0.34575665786436938 0 -0.5 0.33109162069654868 0 -0.47779226172068712 0.32739039106684442 0 -0.46184472396866438 0.34590320798573371 0 -0.48370536101559292 0.34575665786436938 0 -0.47779226172068712 0.32739039106684442 0 -0.48771442365145251 0.31353070121775822 0 -0.47779226172068712 0.32739039106684442 0 -0.47299028473682531 0.30696325883958769 0 -0.47779226172068712 0.32739039106684442 0 -0.45839530370502501 0.31976635703137651 0 -0.47299028473682531 0.30696325883958769 0 -0.46184472396866438 0.34590320798573371 0 -0.47779226172068712 0.32739039106684442 0 -0.45839530370502501 0.31976635703137651 0 -0.46184472396866438 0.34590320798573371 0 -0.45839530370502501 0.31976635703137651 0 -0.43914543170129361 0.32842996110250589 0 -0.45839530370502501 0.31976635703137651 0 -0.43914543170129361 0.32842996110250589 0 -0.43910194600992042 0.30455993321443542 0 -0.43910194600992042 0.30455993321443542 0 -0.44238993935782012 0.28794488846051319 0 -0.45563096152129151 0.30003774992619497 0 -0.45839530370502501 0.31976635703137651 0 -0.43910194600992042 0.30455993321443542 0 -0.45563096152129151 0.30003774992619497 0 -0.45563096152129151 0.30003774992619497 0 -0.47299028473682531 0.30696325883958769 0 -0.46658343019783582 0.28117479644960169 0 -0.44238993935782012 0.28794488846051319 0 -0.45563096152129151 0.30003774992619497 0 -0.46658343019783582 0.28117479644960169 0 -0.45839530370502501 0.31976635703137651 0 -0.45563096152129151 0.30003774992619497 0 -0.47299028473682531 0.30696325883958769 0 -0.48771442365145251 0.31353070121775822 0 -0.47299028473682531 0.30696325883958769 0 -0.48401815551537047 0.29849030434493251 0 -0.47299028473682531 0.30696325883958769 0 -0.48401815551537047 0.29849030434493251 0 -0.46658343019783582 0.28117479644960169 0 -0.49280263899073878 0.288396300342106 0 -0.4838236317951532 0.27488683645920192 0 -0.46658343019783582 0.28117479644960169 0 -0.48401815551537047 0.29849030434493251 0 -0.49280263899073878 0.288396300342106 0 -0.46658343019783582 0.28117479644960169 0 -0.49280263899073878 0.288396300342106 0 -0.46658343019783582 0.28117479644960169 0 -0.48401815551537047 0.29849030434493251 0 -0.49280263899073878 0.288396300342106 0 -0.5 0.30238646487560911 0 -0.49280263899073878 0.288396300342106 0 -0.5 0.30238646487560911 0 -0.5 0.27368130905466942 0 -0.48771442365145251 0.31353070121775822 0 -0.48401815551537047 0.29849030434493251 0 -0.5 0.30238646487560911 0 -0.5 0.2449761532337297 0 -0.5 0.27368130905466942 0 -0.47923303884552509 0.25932873114419958 0 -0.49280263899073878 0.288396300342106 0 -0.5 0.27368130905466942 0 -0.4838236317951532 0.27488683645920192 0 -0.5 0.27368130905466942 0 -0.4838236317951532 0.27488683645920192 0 -0.47923303884552509 0.25932873114419958 0 -0.4838236317951532 0.27488683645920192 0 -0.47923303884552509 0.25932873114419958 0 -0.46658343019783582 0.28117479644960169 0 -0.47923303884552509 0.25932873114419958 0 -0.46658343019783582 0.28117479644960169 0 -0.45102807335219919 0.25572229957892562 0 -0.47578328995944058 0.23750807252905379 0 -0.47923303884552509 0.25932873114419958 0 -0.45102807335219919 0.25572229957892562 0 -0.46658343019783582 0.28117479644960169 0 -0.44036422140493292 0.27395329255709733 0 -0.46658343019783582 0.28117479644960169 0 -0.44036422140493292 0.27395329255709733 0 -0.45102807335219919 0.25572229957892562 0 -0.44238993935782012 0.28794488846051319 0 -0.46658343019783582 0.28117479644960169 0 -0.44036422140493292 0.27395329255709733 0 -0.44036422140493292 0.27395329255709733 0 -0.45102807335219919 0.25572229957892562 0 -0.4280352942007748 0.258839626023737 0 -0.43529638255301378 0.24546015694172851 0 -0.45102807335219919 0.25572229957892562 0 -0.4280352942007748 0.258839626023737 0 -0.41889031088441397 0.24791416493849361 0 -0.43529638255301378 0.24546015694172851 0 -0.4280352942007748 0.258839626023737 0 -0.41889031088441397 0.24791416493849361 0 -0.41824677426488049 0.25766477753708222 0 -0.41191647936230341 0.25717353052150499 0 -0.41889031088441397 0.24791416493849361 0 -0.4280352942007748 0.258839626023737 0 -0.41824677426488049 0.25766477753708222 0 -0.41824677426488049 0.25766477753708222 0 -0.41191647936230341 0.25717353052150499 0 -0.41414501261202991 0.26673178866459307 0 -0.4280352942007748 0.258839626023737 0 -0.41824677426488049 0.25766477753708222 0 -0.41414501261202991 0.26673178866459307 0 -0.41191647936230341 0.25717353052150499 0 -0.41414501261202991 0.26673178866459307 0 -0.40200809589171588 0.25958948682920729 0 -0.41889031088441397 0.24791416493849361 0 -0.41191647936230341 0.25717353052150499 0 -0.40488716479814912 0.25137799833678148 0 -0.41191647936230341 0.25717353052150499 0 -0.40488716479814912 0.25137799833678148 0 -0.40200809589171588 0.25958948682920729 0 -0.40825289270311071 0.27215463300266179 0 -0.41657825059999348 0.2734090113831697 0 -0.39965425033848789 0.27718168058843268 0 -0.40697687791984888 0.26902302697441932 0 -0.41414501261202991 0.26673178866459307 0 -0.40199527776436611 0.2667239403526549 0 -0.40825289270311071 0.27215463300266179 0 -0.41657825059999348 0.2734090113831697 0 -0.41414501261202991 0.26673178866459307 0 -0.40825289270311071 0.27215463300266179 0 -0.40697687791984888 0.26902302697441932 0 -0.41414501261202991 0.26673178866459307 0 -0.41657825059999348 0.2734090113831697 0 -0.41414501261202991 0.26673178866459307 0 -0.42838234604615122 0.27756578735159437 0 -0.41657825059999348 0.2734090113831697 0 -0.42838234604615122 0.27756578735159437 0 -0.42042604583579157 0.28184169105138329 0 -0.41657825059999348 0.2734090113831697 0 -0.42042604583579157 0.28184169105138329 0 -0.41246685573023228 0.2860141942066135 0 -0.44036422140493292 0.27395329255709733 0 -0.4280352942007748 0.258839626023737 0 -0.41414501261202991 0.26673178866459307 0 -0.44036422140493292 0.27395329255709733 0 -0.41414501261202991 0.26673178866459307 0 -0.42838234604615122 0.27756578735159437 0 -0.44036422140493292 0.27395329255709733 0 -0.41414501261202991 0.26673178866459307 0 -0.44238993935782012 0.28794488846051319 0 -0.44036422140493292 0.27395329255709733 0 -0.42838234604615122 0.27756578735159437 0 -0.43910194600992042 0.30455993321443542 0 -0.44238993935782012 0.28794488846051319 0 -0.42427673096678908 0.29037777126415548 0 -0.44238993935782012 0.28794488846051319 0 -0.42838234604615122 0.27756578735159437 0 -0.42427673096678908 0.29037777126415548 0 -0.42838234604615122 0.27756578735159437 0 -0.42427673096678908 0.29037777126415548 0 -0.42042604583579157 0.28184169105138329 0 -0.43910194600992042 0.30455993321443542 0 -0.42427673096678908 0.29037777126415548 0 -0.42222735997216981 0.30847568694016819 0 -0.42427673096678908 0.29037777126415548 0 -0.42222735997216981 0.30847568694016819 0 -0.40917747649281822 0.29871206699534031 0 -0.40753781859621219 0.31388422216185291 0 -0.42222735997216981 0.30847568694016819 0 -0.40917747649281822 0.29871206699534031 0 -0.41657825059999348 0.2734090113831697 0 -0.41246685573023228 0.2860141942066135 0 -0.39254247938843673 0.28578863942376459 0 -0.42427673096678908 0.29037777126415548 0 -0.42042604583579157 0.28184169105138329 0 -0.41246685573023228 0.2860141942066135 0 -0.42427673096678908 0.29037777126415548 0 -0.40917747649281822 0.29871206699534031 0 -0.41246685573023228 0.2860141942066135 0 -0.40917747649281822 0.29871206699534031 0 -0.39254247938843673 0.28578863942376459 0 -0.38842438122176343 0.28790966658321848 0 -0.40917747649281822 0.29871206699534031 0 -0.39254247938843673 0.28578863942376459 0 -0.40917747649281822 0.29871206699534031 0 -0.41246685573023228 0.2860141942066135 0 -0.39254247938843673 0.28578863942376459 0 -0.39254247938843673 0.28578863942376459 0 -0.38730525094610968 0.28171993162504733 0 -0.39231340981882001 0.28067847083522052 0 -0.40753781859621219 0.31388422216185291 0 -0.40917747649281822 0.29871206699534031 0 -0.3925767750734861 0.31087590915856739 0 -0.40917747649281822 0.29871206699534031 0 -0.3925767750734861 0.31087590915856739 0 -0.38842438122176343 0.28790966658321848 0 -0.37548017902234548 0.31857141996958033 0 -0.38115206928459899 0.2916552720803261 0 -0.3925767750734861 0.31087590915856739 0 -0.38842438122176343 0.28790966658321848 0 -0.37548017902234548 0.31857141996958033 0 -0.3925767750734861 0.31087590915856739 0 -0.38115206928459899 0.2916552720803261 0 -0.3925767750734861 0.31087590915856739 0 -0.38842438122176343 0.28790966658321848 0 -0.38115206928459899 0.2916552720803261 0 -0.38730525094610968 0.28171993162504733 0 -0.38842438122176343 0.28790966658321848 0 -0.38115206928459899 0.2916552720803261 0 -0.38730525094610968 0.28171993162504733 0 -0.38115206928459899 0.2916552720803261 0 -0.38381677910555878 0.27900980111621743 0 -0.38730525094610968 0.28171993162504733 0 -0.38842438122176343 0.28790966658321848 0 -0.39254247938843673 0.28578863942376459 0 -0.38730525094610968 0.28171993162504733 0 -0.39254247938843673 0.28578863942376459 0 -0.38730525094610968 0.28171993162504733 0 -0.38842438122176343 0.28790966658321848 0 -0.39254247938843673 0.28578863942376459 0 -0.38842438122176343 0.28790966658321848 0 -0.38842438122176343 0.28790966658321848 0 -0.38115206928459899 0.2916552720803261 0 -0.38115206928459899 0.2916552720803261 0 -0.38381677910555878 0.27900980111621743 0 -0.37266413524734648 0.28251234652757817 0 -0.38115206928459899 0.2916552720803261 0 -0.38381677910555878 0.27900980111621743 0 -0.38381677910555878 0.27900980111621743 0 -0.38543058341235292 0.2713514379643287 0 -0.36018437531022951 0.26065021518573622 0 -0.38730525094610968 0.28171993162504733 0 -0.38543058341235292 0.2713514379643287 0 -0.39195244073180252 0.27601932006781632 0 -0.38730525094610968 0.28171993162504733 0 -0.38381677910555878 0.27900980111621743 0 -0.38543058341235292 0.2713514379643287 0 -0.38730525094610968 0.28171993162504733 0 -0.38543058341235292 0.2713514379643287 0 -0.38730525094610968 0.28171993162504733 0 -0.38381677910555878 0.27900980111621743 0 -0.38381677910555878 0.27900980111621743 0 -0.38543058341235292 0.2713514379643287 0 -0.38730525094610968 0.28171993162504733 0 -0.39231340981882001 0.28067847083522052 0 -0.39195244073180252 0.27601932006781632 0 -0.38543058341235292 0.2713514379643287 0 -0.38343323383580302 0.26030440906465552 0 -0.39007276251575618 0.26710060426156168 0 -0.38543058341235292 0.2713514379643287 0 -0.38792580381912678 0.25951028477208887 0 -0.38543058341235292 0.2713514379643287 0 -0.39195244073180252 0.27601932006781632 0 -0.39189591237977689 0.27034805926210043 0 -0.39007276251575618 0.26710060426156168 0 -0.38543058341235292 0.2713514379643287 0 -0.39189591237977689 0.27034805926210043 0 -0.38543058341235292 0.2713514379643287 0 -0.38343323383580302 0.26030440906465552 0 -0.37322473440261222 0.25546119881934742 0 -0.38343323383580302 0.26030440906465552 0 -0.38792580381912678 0.25951028477208887 0 -0.37322473440261222 0.25546119881934742 0 -0.38792580381912678 0.25951028477208887 0 -0.37322473440261222 0.25546119881934742 0 -0.38049471131469081 0.2476181147904957 0 -0.38792580381912678 0.25951028477208887 0 -0.37322473440261222 0.25546119881934742 0 -0.38049471131469081 0.2476181147904957 0 -0.38909131249649259 0.25397932375631421 0 -0.38792580381912678 0.25951028477208887 0 -0.38909131249649259 0.25397932375631421 0 -0.38792580381912678 0.25951028477208887 0 -0.38909131249649259 0.25397932375631421 0 -0.38792580381912678 0.25951028477208887 0 -0.39135653436974638 0.25606336602271601 0 -0.38543058341235292 0.2713514379643287 0 -0.38792580381912678 0.25951028477208887 0 -0.38543058341235292 0.2713514379643287 0 -0.38343323383580302 0.26030440906465552 0 -0.38792580381912678 0.25951028477208887 0 -0.38792580381912678 0.25951028477208887 0 -0.39485268103249388 0.2572527848635825 0 -0.40200809589171588 0.25958948682920729 0 -0.41414501261202991 0.26673178866459307 0 -0.38792580381912678 0.25951028477208887 0 -0.41414501261202991 0.26673178866459307 0 -0.38792580381912678 0.25951028477208887 0 -0.40200809589171588 0.25958948682920729 0 -0.41414501261202991 0.26673178866459307 0 -0.38792580381912678 0.25951028477208887 0 -0.40199527776436611 0.2667239403526549 0 -0.39007276251575618 0.26710060426156168 0 -0.38792580381912678 0.25951028477208887 0 -0.39503875045176839 0.26719263504772878 0 -0.38792580381912678 0.25951028477208887 0 -0.40199527776436611 0.2667239403526549 0 -0.39503875045176839 0.26719263504772878 0 -0.39010408614463132 0.24621225185314899 0 -0.38909131249649259 0.25397932375631421 0 -0.39369253740391708 0.25303020028355988 0 -0.38909131249649259 0.25397932375631421 0 -0.39369253740391708 0.25303020028355988 0 -0.39135653436974638 0.25606336602271601 0 -0.39369253740391708 0.25303020028355988 0 -0.39135653436974638 0.25606336602271601 0 -0.39485268103249388 0.2572527848635825 0 -0.38792580381912678 0.25951028477208887 0 -0.39135653436974638 0.25606336602271601 0 -0.39485268103249388 0.2572527848635825 0 -0.39369253740391708 0.25303020028355988 0 -0.39485268103249388 0.2572527848635825 0 -0.39937793822423678 0.25464222373533441 0 -0.39369253740391708 0.25303020028355988 0 -0.39737267215590188 0.25003125147026389 0 -0.39937793822423678 0.25464222373533441 0 -0.39937793822423678 0.25464222373533441 0 -0.40488716479814912 0.25137799833678148 0 -0.40200809589171588 0.25958948682920729 0 -0.39737267215590188 0.25003125147026389 0 -0.39937793822423678 0.25464222373533441 0 -0.40488716479814912 0.25137799833678148 0 -0.39485268103249388 0.2572527848635825 0 -0.39937793822423678 0.25464222373533441 0 -0.40200809589171588 0.25958948682920729 0 -0.41657825059999348 0.2734090113831697 0 -0.39254247938843673 0.28578863942376459 0 -0.39965425033848789 0.27718168058843268 0 -0.41657825059999348 0.2734090113831697 0 -0.39254247938843673 0.28578863942376459 0 -0.40697687791984888 0.26902302697441932 0 -0.40199527776436611 0.2667239403526549 0 -0.40351432859988939 0.27048174587776741 0 -0.40199527776436611 0.2667239403526549 0 -0.39982459841079032 0.26926567588734251 0 -0.39503875045176839 0.26719263504772878 0 -0.40199527776436611 0.2667239403526549 0 -0.39982459841079032 0.26926567588734251 0 -0.40351432859988939 0.27048174587776741 0 -0.40351432859988939 0.27048174587776741 0 -0.40241549569868662 0.27374002083961302 0 -0.39751874410251847 0.27202623880927579 0 -0.39982459841079032 0.26926567588734251 0 -0.40351432859988939 0.27048174587776741 0 -0.39751874410251847 0.27202623880927579 0 -0.40825289270311071 0.27215463300266179 0 -0.40351432859988939 0.27048174587776741 0 -0.40241549569868662 0.27374002083961302 0 -0.40825289270311071 0.27215463300266179 0 -0.40697687791984888 0.26902302697441932 0 -0.40351432859988939 0.27048174587776741 0 -0.40825289270311071 0.27215463300266179 0 -0.40241549569868662 0.27374002083961302 0 -0.39965425033848789 0.27718168058843268 0 -0.40241549569868662 0.27374002083961302 0 -0.39965425033848789 0.27718168058843268 0 -0.39751874410251847 0.27202623880927579 0 -0.39965425033848789 0.27718168058843268 0 -0.39195244073180252 0.27601932006781632 0 -0.39751874410251847 0.27202623880927579 0 -0.39254247938843673 0.28578863942376459 0 -0.39965425033848789 0.27718168058843268 0 -0.39231340981882001 0.28067847083522052 0 -0.39965425033848789 0.27718168058843268 0 -0.39231340981882001 0.28067847083522052 0 -0.39195244073180252 0.27601932006781632 0 -0.39195244073180252 0.27601932006781632 0 -0.39189591237977689 0.27034805926210043 0 -0.39751874410251847 0.27202623880927579 0 -0.39007276251575618 0.26710060426156168 0 -0.39189591237977689 0.27034805926210043 0 -0.39503875045176839 0.26719263504772878 0 -0.39982459841079032 0.26926567588734251 0 -0.39503875045176839 0.26719263504772878 0 -0.39751874410251847 0.27202623880927579 0 -0.39189591237977689 0.27034805926210043 0 -0.39503875045176839 0.26719263504772878 0 -0.39751874410251847 0.27202623880927579 0 -0.35191215603553611 0.26731981862187842 0 -0.34799029341515858 0.27690927096555629 0 -0.34139683932906728 0.26044390248727128 0 -0.35191215603553611 0.26731981862187842 0 -0.35807711608768927 0.2712758858489499 0 -0.36018437531022951 0.26065021518573622 0 -0.35191215603553611 0.26731981862187842 0 -0.35807711608768927 0.2712758858489499 0 -0.34799029341515858 0.27690927096555629 0 -0.34799029341515858 0.27690927096555629 0 -0.36119132541323229 0.27996919812190402 0 -0.3535999392905792 0.28664720325682419 0 -0.35807711608768927 0.2712758858489499 0 -0.34799029341515858 0.27690927096555629 0 -0.36119132541323229 0.27996919812190402 0 -0.33655197151490079 0.24229062925525449 0 -0.36018437531022951 0.26065021518573622 0 -0.33655197151490079 0.24229062925525449 0 -0.35852366498609761 0.25141211286660597 0 -0.36018437531022951 0.26065021518573622 0 -0.33655197151490079 0.24229062925525449 0 -0.36018437531022951 0.26065021518573622 0 -0.34139683932906728 0.26044390248727128 0 -0.35191215603553611 0.26731981862187842 0 -0.36018437531022951 0.26065021518573622 0 -0.34139683932906728 0.26044390248727128 0 -0.38543058341235292 0.2713514379643287 0 -0.36018437531022951 0.26065021518573622 0 -0.37322473440261222 0.25546119881934742 0 -0.36850619279556551 0.24703405767702649 0 -0.35852366498609761 0.25141211286660597 0 -0.37322473440261222 0.25546119881934742 0 -0.35852366498609761 0.25141211286660597 0 -0.37322473440261222 0.25546119881934742 0 -0.35852366498609761 0.25141211286660597 0 -0.36018437531022951 0.26065021518573622 0 -0.37322473440261222 0.25546119881934742 0 -0.38049471131469081 0.2476181147904957 0 -0.36850619279556551 0.24703405767702649 0 -0.37322473440261222 0.25546119881934742 0 -0.38381677910555878 0.27900980111621743 0 -0.36018437531022951 0.26065021518573622 0 -0.38381677910555878 0.27900980111621743 0 -0.36793187449123471 0.27457314654711917 0 -0.37266413524734648 0.28251234652757817 0 -0.38381677910555878 0.27900980111621743 0 -0.36018437531022951 0.26065021518573622 0 -0.36793187449123471 0.27457314654711917 0 -0.35807711608768927 0.2712758858489499 0 -0.36018437531022951 0.26065021518573622 0 -0.36793187449123471 0.27457314654711917 0 -0.35807711608768927 0.2712758858489499 0 -0.36119132541323229 0.27996919812190402 0 -0.36793187449123471 0.27457314654711917 0 -0.36119132541323229 0.27996919812190402 0 -0.36793187449123471 0.27457314654711917 0 -0.37266413524734648 0.28251234652757817 0 -0.38115206928459899 0.2916552720803261 0 -0.37266413524734648 0.28251234652757817 0 -0.36688459394738587 0.28789733558539649 0 -0.38115206928459899 0.2916552720803261 0 -0.36688459394738587 0.28789733558539649 0 -0.35795357243670001 0.30360366181786502 0 -0.36119132541323229 0.27996919812190402 0 -0.36688459394738587 0.28789733558539649 0 -0.3535999392905792 0.28664720325682419 0 -0.36119132541323229 0.27996919812190402 0 -0.37266413524734648 0.28251234652757817 0 -0.36688459394738587 0.28789733558539649 0 -0.38115206928459899 0.2916552720803261 0 -0.36558052162985061 0.30630208818147109 0 -0.35795357243670001 0.30360366181786502 0 -0.38115206928459899 0.2916552720803261 0 -0.35795357243670001 0.30360366181786502 0 -0.37548017902234548 0.31857141996958033 0 -0.38115206928459899 0.2916552720803261 0 -0.36558052162985061 0.30630208818147109 0 -0.36558052162985061 0.30630208818147109 0 -0.35795357243670001 0.30360366181786502 0 -0.35828995903360789 0.31478066717931108 0 -0.36558052162985061 0.30630208818147109 0 -0.35795357243670001 0.30360366181786502 0 -0.35795357243670001 0.30360366181786502 0 -0.34753235792761639 0.29991662008467351 0 -0.33453980559495539 0.31566292640225257 0 -0.35795357243670001 0.30360366181786502 0 -0.33453980559495539 0.31566292640225257 0 -0.35795357243670001 0.30360366181786502 0 -0.33453980559495539 0.31566292640225257 0 -0.34889062944634341 0.31776372875994119 0 -0.36688459394738587 0.28789733558539649 0 -0.35795357243670001 0.30360366181786502 0 -0.34753235792761639 0.29991662008467351 0 -0.35795357243670001 0.30360366181786502 0 -0.34889062944634341 0.31776372875994119 0 -0.35828995903360789 0.31478066717931108 0 -0.35795357243670001 0.30360366181786502 0 -0.34753235792761639 0.29991662008467351 0 -0.36688459394738587 0.28789733558539649 0 -0.34753235792761639 0.29991662008467351 0 -0.3535999392905792 0.28664720325682419 0 -0.36688459394738587 0.28789733558539649 0 -0.34753235792761639 0.29991662008467351 0 -0.34753235792761639 0.29991662008467351 0 -0.3535999392905792 0.28664720325682419 0 -0.34021663171181871 0.28576412841921961 0 -0.34799029341515858 0.27690927096555629 0 -0.3535999392905792 0.28664720325682419 0 -0.34021663171181871 0.28576412841921961 0 -0.34021663171181871 0.28576412841921961 0 -0.32227084567469028 0.29097905816817049 0 -0.32968972225104881 0.27436848962087312 0 -0.34753235792761639 0.29991662008467351 0 -0.32227084567469028 0.29097905816817049 0 -0.34753235792761639 0.29991662008467351 0 -0.34021663171181871 0.28576412841921961 0 -0.32227084567469028 0.29097905816817049 0 -0.32227084567469028 0.29097905816817049 0 -0.32968972225104881 0.27436848962087312 0 -0.29700933342176461 0.28204149625166619 0 -0.34753235792761639 0.29991662008467351 0 -0.32437461010942797 0.31429943140967659 0 -0.34753235792761639 0.29991662008467351 0 -0.32771554550540333 0.30217497777753349 0 -0.32437461010942797 0.31429943140967659 0 -0.34753235792761639 0.29991662008467351 0 -0.32771554550540333 0.30217497777753349 0 -0.32227084567469028 0.29097905816817049 0 -0.34753235792761639 0.29991662008467351 0 -0.32437461010942797 0.31429943140967659 0 -0.33453980559495539 0.31566292640225257 0 -0.32771554550540333 0.30217497777753349 0 -0.31668436830987878 0.30350480144761321 0 -0.32437461010942797 0.31429943140967659 0 -0.32771554550540333 0.30217497777753349 0 -0.31668436830987878 0.30350480144761321 0 -0.32227084567469028 0.29097905816817049 0 -0.31668436830987878 0.30350480144761321 0 -0.31416301928798729 0.31140183081654432 0 -0.32437461010942797 0.31429943140967659 0 -0.31668436830987878 0.30350480144761321 0 -0.32227084567469028 0.29097905816817049 0 -0.31037994719946149 0.29453101213661531 0 -0.32968972225104881 0.27436848962087312 0 -0.31501683502413969 0.2575678616419691 0 -0.29700933342176461 0.28204149625166619 0 -0.34799029341515858 0.27690927096555629 0 -0.32968972225104881 0.27436848962087312 0 -0.34139683932906728 0.26044390248727128 0 -0.34799029341515858 0.27690927096555629 0 -0.34021663171181871 0.28576412841921961 0 -0.32968972225104881 0.27436848962087312 0 -0.33655197151490079 0.24229062925525449 0 -0.34139683932906728 0.26044390248727128 0 -0.31501683502413969 0.2575678616419691 0 -0.32968972225104881 0.27436848962087312 0 -0.34139683932906728 0.26044390248727128 0 -0.31501683502413969 0.2575678616419691 0 -0.30075549003935942 0.2449904063501305 0 -0.31501683502413969 0.2575678616419691 0 -0.28588718725652051 0.25656071756487392 0 -0.31501683502413969 0.2575678616419691 0 -0.28588718725652051 0.25656071756487392 0 -0.29700933342176461 0.28204149625166619 0 -0.28588718725652051 0.25656071756487392 0 -0.29700933342176461 0.28204149625166619 0 -0.28588718725652051 0.25656071756487392 0 -0.27283015605279609 0.2734868660829905 0 -0.29700933342176461 0.28204149625166619 0 -0.27283015605279609 0.2734868660829905 0 -0.29700933342176461 0.28204149625166619 0 -0.28588718725652051 0.25656071756487392 0 -0.26703533862896062 0.25406948235759119 0 -0.27283015605279609 0.2734868660829905 0 -0.27283015605279609 0.2734868660829905 0 -0.26237851262784972 0.28472462908389801 0 -0.24865097868382791 0.26493223591431392 0 -0.27283015605279609 0.2734868660829905 0 -0.24865097868382791 0.26493223591431392 0 -0.26237851262784972 0.28472462908389801 0 -0.24831149258301299 0.28313506479511791 0 -0.24865097868382791 0.26493223591431392 0 -0.26703533862896062 0.25406948235759119 0 -0.27283015605279609 0.2734868660829905 0 -0.24865097868382791 0.26493223591431392 0 -0.25304333006038349 0.24428765334769589 0 -0.26703533862896062 0.25406948235759119 0 -0.24865097868382791 0.26493223591431392 0 -0.25327283114277849 0.31241093170096879 0 -0.25356014056026133 0.29500924030690701 0 -0.26686102258637462 0.30130588189474311 0 -0.25327283114277849 0.31241093170096879 0 -0.26686102258637462 0.30130588189474311 0 -0.26798643476707851 0.31753731287469961 0 -0.25356014056026133 0.29500924030690701 0 -0.26237851262784972 0.28472462908389801 0 -0.26686102258637462 0.30130588189474311 0 -0.25356014056026133 0.29500924030690701 0 -0.26237851262784972 0.28472462908389801 0 -0.24831149258301299 0.28313506479511791 0 -0.26237851262784972 0.28472462908389801 0 -0.26686102258637462 0.30130588189474311 0 -0.28336475755409019 0.29275702984742119 0 -0.27283015605279609 0.2734868660829905 0 -0.26237851262784972 0.28472462908389801 0 -0.28336475755409019 0.29275702984742119 0 -0.26686102258637462 0.30130588189474311 0 -0.28106755939198041 0.30912159287449348 0 -0.26798643476707851 0.31753731287469961 0 -0.26686102258637462 0.30130588189474311 0 -0.28106755939198041 0.30912159287449348 0 -0.28336475755409019 0.29275702984742119 0 -0.28106755939198041 0.30912159287449348 0 -0.29475902775413532 0.30377601081596473 0 -0.28336475755409019 0.29275702984742119 0 -0.28106755939198041 0.30912159287449348 0 -0.29475902775413532 0.30377601081596473 0 -0.2928430397144961 0.31566068977111922 0 -0.29475902775413532 0.30377601081596473 0 -0.28336475755409019 0.29275702984742119 0 -0.30155983555866228 0.29246667284450312 0 -0.28336475755409019 0.29275702984742119 0 -0.29700933342176461 0.28204149625166619 0 -0.30155983555866228 0.29246667284450312 0 -0.27283015605279609 0.2734868660829905 0 -0.28336475755409019 0.29275702984742119 0 -0.29700933342176461 0.28204149625166619 0 -0.32227084567469028 0.29097905816817049 0 -0.29700933342176461 0.28204149625166619 0 -0.31037994719946149 0.29453101213661531 0 -0.32227084567469028 0.29097905816817049 0 -0.29700933342176461 0.28204149625166619 0 -0.29700933342176461 0.28204149625166619 0 -0.30155983555866228 0.29246667284450312 0 -0.29700933342176461 0.28204149625166619 0 -0.30155983555866228 0.29246667284450312 0 -0.31037994719946149 0.29453101213661531 0 -0.30155983555866228 0.29246667284450312 0 -0.31037994719946149 0.29453101213661531 0 -0.30544577590453809 0.30117865689159062 0 -0.29475902775413532 0.30377601081596473 0 -0.30604317149490229 0.31061854047863768 0 -0.2928430397144961 0.31566068977111922 0 -0.29475902775413532 0.30377601081596473 0 -0.30544577590453809 0.30117865689159062 0 -0.30604317149490229 0.31061854047863768 0 -0.29475902775413532 0.30377601081596473 0 -0.30155983555866228 0.29246667284450312 0 -0.30544577590453809 0.30117865689159062 0 -0.31668436830987878 0.30350480144761321 0 -0.31037994719946149 0.29453101213661531 0 -0.30544577590453809 0.30117865689159062 0 -0.31668436830987878 0.30350480144761321 0 -0.31416301928798729 0.31140183081654432 0 -0.30604317149490229 0.31061854047863768 0 -0.31668436830987878 0.30350480144761321 0 -0.30544577590453809 0.30117865689159062 0 -0.30604317149490229 0.31061854047863768 0 -0.31416301928798729 0.31140183081654432 0 -0.30604317149490229 0.31061854047863768 0 -0.30932467909682199 0.31693179228566359 0 -0.31112603875321188 0.32772219098664213 0 -0.30121686229124001 0.32868224273468072 0 -0.32437461010942797 0.31429943140967659 0 -0.30932467909682199 0.31693179228566359 0 -0.30121686229124001 0.32868224273468072 0 -0.32437461010942797 0.31429943140967659 0 -0.30604317149490229 0.31061854047863768 0 -0.30932467909682199 0.31693179228566359 0 -0.30082573230055198 0.31965691598877849 0 -0.30932467909682199 0.31693179228566359 0 -0.30082573230055198 0.31965691598877849 0 -0.30121686229124001 0.32868224273468072 0 -0.30082573230055198 0.31965691598877849 0 -0.30121686229124001 0.32868224273468072 0 -0.29128460125352618 0.32679752261741968 0 -0.30604317149490229 0.31061854047863768 0 -0.30082573230055198 0.31965691598877849 0 -0.2928430397144961 0.31566068977111922 0 -0.31112603875321188 0.32772219098664213 0 -0.30470315413660842 0.34264029127973772 0 -0.28771227191146842 0.33978145557103168 0 -0.31112603875321188 0.32772219098664213 0 -0.28771227191146842 0.33978145557103168 0 -0.31112603875321188 0.32772219098664213 0 -0.30121686229124001 0.32868224273468072 0 -0.28771227191146842 0.33978145557103168 0 -0.31112603875321188 0.32772219098664213 0 -0.30470315413660842 0.34264029127973772 0 -0.31720911196098589 0.33961288505566722 0 -0.30121686229124001 0.32868224273468072 0 -0.28771227191146842 0.33978145557103168 0 -0.29128460125352618 0.32679752261741968 0 -0.28771227191146842 0.33978145557103168 0 -0.29128460125352618 0.32679752261741968 0 -0.28148261633645288 0.32432303864552797 0 -0.30082573230055198 0.31965691598877849 0 -0.2928430397144961 0.31566068977111922 0 -0.29128460125352618 0.32679752261741968 0 -0.2928430397144961 0.31566068977111922 0 -0.29128460125352618 0.32679752261741968 0 -0.28148261633645288 0.32432303864552797 0 -0.28106755939198041 0.30912159287449348 0 -0.2928430397144961 0.31566068977111922 0 -0.28148261633645288 0.32432303864552797 0 -0.28106755939198041 0.30912159287449348 0 -0.28148261633645288 0.32432303864552797 0 -0.26798643476707851 0.31753731287469961 0 -0.28148261633645288 0.32432303864552797 0 -0.26798643476707851 0.31753731287469961 0 -0.27099362557933532 0.3314614845889044 0 -0.28771227191146842 0.33978145557103168 0 -0.27099362557933532 0.3314614845889044 0 -0.26429850506972502 0.35184072015542128 0 -0.28771227191146842 0.33978145557103168 0 -0.28148261633645288 0.32432303864552797 0 -0.27099362557933532 0.3314614845889044 0 -0.25498774820891451 0.32755840728688818 0 -0.26429850506972502 0.35184072015542128 0 -0.24221211393385589 0.33903767540329838 0 -0.27099362557933532 0.3314614845889044 0 -0.25498774820891451 0.32755840728688818 0 -0.26429850506972502 0.35184072015542128 0 -0.26798643476707851 0.31753731287469961 0 -0.27099362557933532 0.3314614845889044 0 -0.25498774820891451 0.32755840728688818 0 -0.25327283114277849 0.31241093170096879 0 -0.26798643476707851 0.31753731287469961 0 -0.25498774820891451 0.32755840728688818 0 -0.26429850506972502 0.35184072015542128 0 -0.26572514760383109 0.37490756803706687 0 -0.24088473822798151 0.36389998473981078 0 -0.26429850506972502 0.35184072015542128 0 -0.24088473822798151 0.36389998473981078 0 -0.28771227191146842 0.33978145557103168 0 -0.26429850506972502 0.35184072015542128 0 -0.26429850506972502 0.35184072015542128 0 -0.26572514760383109 0.37490756803706687 0 -0.28748185018649158 0.3702511522093177 0 -0.28748185018649158 0.3702511522093177 0 -0.29521143398068761 0.35450359763421407 0 -0.30647004067776018 0.36824058309663182 0 -0.28771227191146842 0.33978145557103168 0 -0.26429850506972502 0.35184072015542128 0 -0.29521143398068761 0.35450359763421407 0 -0.26429850506972502 0.35184072015542128 0 -0.28748185018649158 0.3702511522093177 0 -0.29521143398068761 0.35450359763421407 0 -0.30470315413660842 0.34264029127973772 0 -0.28771227191146842 0.33978145557103168 0 -0.29521143398068761 0.35450359763421407 0 -0.30470315413660842 0.34264029127973772 0 -0.29521143398068761 0.35450359763421407 0 -0.31225691407668837 0.35158132715113349 0 -0.29521143398068761 0.35450359763421407 0 -0.31225691407668837 0.35158132715113349 0 -0.30647004067776018 0.36824058309663182 0 -0.30470315413660842 0.34264029127973772 0 -0.31225691407668837 0.35158132715113349 0 -0.31720911196098589 0.33961288505566722 0 -0.32282509584387248 0.37380861266544052 0 -0.33950685509153089 0.35313683621661962 0 -0.32179915984918872 0.35885028073007552 0 -0.31225691407668837 0.35158132715113349 0 -0.30647004067776018 0.36824058309663182 0 -0.32179915984918872 0.35885028073007552 0 -0.30647004067776018 0.36824058309663182 0 -0.32282509584387248 0.37380861266544052 0 -0.32179915984918872 0.35885028073007552 0 -0.32282509584387248 0.37380861266544052 0 -0.34071296362639952 0.3659780539218937 0 -0.34516435936770651 0.37900406059090358 0 -0.32282509584387248 0.37380861266544052 0 -0.34071296362639952 0.3659780539218937 0 -0.33950685509153089 0.35313683621661962 0 -0.32282509584387248 0.37380861266544052 0 -0.33950685509153089 0.35313683621661962 0 -0.33950685509153089 0.35313683621661962 0 -0.32179915984918872 0.35885028073007552 0 -0.32793689355609162 0.34748404452055198 0 -0.33698138954664519 0.34647341332781828 0 -0.33962662954635559 0.34156542957750691 0 -0.34695344090464142 0.3471686982293849 0 -0.33698138954664519 0.34647341332781828 0 -0.33950685509153089 0.35313683621661962 0 -0.34695344090464142 0.3471686982293849 0 -0.33950685509153089 0.35313683621661962 0 -0.34434669049591432 0.35650172880651942 0 -0.34695344090464142 0.3471686982293849 0 -0.34071296362639952 0.3659780539218937 0 -0.33950685509153089 0.35313683621661962 0 -0.34434669049591432 0.35650172880651942 0 -0.33698138954664519 0.34647341332781828 0 -0.32793689355609162 0.34748404452055198 0 -0.33278917687408249 0.34113717198663901 0 -0.33698138954664519 0.34647341332781828 0 -0.33950685509153089 0.35313683621661962 0 -0.32793689355609162 0.34748404452055198 0 -0.31225691407668837 0.35158132715113349 0 -0.32179915984918872 0.35885028073007552 0 -0.32793689355609162 0.34748404452055198 0 -0.31225691407668837 0.35158132715113349 0 -0.32793689355609162 0.34748404452055198 0 -0.31720911196098589 0.33961288505566722 0 -0.31112603875321188 0.32772219098664213 0 -0.31720911196098589 0.33961288505566722 0 -0.32418230283818478 0.33047091737957118 0 -0.32418230283818478 0.33047091737957118 0 -0.326366443682511 0.33863382502996098 0 -0.32971473318321021 0.33446410620737521 0 -0.31720911196098589 0.33961288505566722 0 -0.32418230283818478 0.33047091737957118 0 -0.326366443682511 0.33863382502996098 0 -0.32793689355609162 0.34748404452055198 0 -0.31720911196098589 0.33961288505566722 0 -0.326366443682511 0.33863382502996098 0 -0.31112603875321188 0.32772219098664213 0 -0.32437461010942797 0.31429943140967659 0 -0.33453980559495539 0.31566292640225257 0 -0.31112603875321188 0.32772219098664213 0 -0.32418230283818478 0.33047091737957118 0 -0.33453980559495539 0.31566292640225257 0 -0.30121686229124001 0.32868224273468072 0 -0.32437461010942797 0.31429943140967659 0 -0.31112603875321188 0.32772219098664213 0 -0.33453980559495539 0.31566292640225257 0 -0.31416301928798729 0.31140183081654432 0 -0.30932467909682199 0.31693179228566359 0 -0.32437461010942797 0.31429943140967659 0 -0.32418230283818478 0.33047091737957118 0 -0.33453980559495539 0.31566292640225257 0 -0.33267127628055609 0.32829491278179918 0 -0.33453980559495539 0.31566292640225257 0 -0.3410213632876628 0.32679900038671639 0 -0.33267127628055609 0.32829491278179918 0 -0.33453980559495539 0.31566292640225257 0 -0.3410213632876628 0.32679900038671639 0 -0.34889062944634341 0.31776372875994119 0 -0.32793689355609162 0.34748404452055198 0 -0.326366443682511 0.33863382502996098 0 -0.33278917687408249 0.34113717198663901 0 -0.33278917687408249 0.34113717198663901 0 -0.32971473318321021 0.33446410620737521 0 -0.33666995149576773 0.33459684325226041 0 -0.326366443682511 0.33863382502996098 0 -0.33278917687408249 0.34113717198663901 0 -0.32971473318321021 0.33446410620737521 0 -0.32418230283818478 0.33047091737957118 0 -0.32971473318321021 0.33446410620737521 0 -0.33267127628055609 0.32829491278179918 0 -0.32971473318321021 0.33446410620737521 0 -0.33267127628055609 0.32829491278179918 0 -0.33666995149576773 0.33459684325226041 0 -0.3410213632876628 0.32679900038671639 0 -0.33267127628055609 0.32829491278179918 0 -0.33666995149576773 0.33459684325226041 0 -0.3410213632876628 0.32679900038671639 0 -0.33666995149576773 0.33459684325226041 0 -0.34448669876258642 0.33398808714034678 0 -0.33666995149576773 0.33459684325226041 0 -0.33962662954635559 0.34156542957750691 0 -0.34448669876258642 0.33398808714034678 0 -0.33278917687408249 0.34113717198663901 0 -0.33666995149576773 0.33459684325226041 0 -0.33962662954635559 0.34156542957750691 0 -0.33698138954664519 0.34647341332781828 0 -0.33278917687408249 0.34113717198663901 0 -0.33962662954635559 0.34156542957750691 0 -0.33962662954635559 0.34156542957750691 0 -0.34448669876258642 0.33398808714034678 0 -0.35246710260435488 0.3390067744716912 0 -0.33962662954635559 0.34156542957750691 0 -0.35246710260435488 0.3390067744716912 0 -0.34695344090464142 0.3471686982293849 0 -0.3410213632876628 0.32679900038671639 0 -0.34448669876258642 0.33398808714034678 0 -0.35264844687879121 0.32797238801355899 0 -0.34448669876258642 0.33398808714034678 0 -0.35246710260435488 0.3390067744716912 0 -0.35264844687879121 0.32797238801355899 0 -0.35246710260435488 0.3390067744716912 0 -0.35264844687879121 0.32797238801355899 0 -0.36259988521273961 0.33186185458903877 0 -0.3410213632876628 0.32679900038671639 0 -0.34889062944634341 0.31776372875994119 0 -0.35264844687879121 0.32797238801355899 0 -0.35264844687879121 0.32797238801355899 0 -0.35828995903360789 0.31478066717931108 0 -0.36356957694196179 0.3213472372537024 0 -0.34889062944634341 0.31776372875994119 0 -0.35264844687879121 0.32797238801355899 0 -0.35828995903360789 0.31478066717931108 0 -0.36558052162985061 0.30630208818147109 0 -0.35828995903360789 0.31478066717931108 0 -0.36356957694196179 0.3213472372537024 0 -0.35264844687879121 0.32797238801355899 0 -0.36356957694196179 0.3213472372537024 0 -0.36259988521273961 0.33186185458903877 0 -0.37548017902234548 0.31857141996958033 0 -0.36356957694196179 0.3213472372537024 0 -0.36259988521273961 0.33186185458903877 0 -0.37548017902234548 0.31857141996958033 0 -0.36558052162985061 0.30630208818147109 0 -0.36356957694196179 0.3213472372537024 0 -0.35246710260435488 0.3390067744716912 0 -0.36259988521273961 0.33186185458903877 0 -0.36980828876009419 0.34548756785883511 0 -0.37548017902234548 0.31857141996958033 0 -0.36259988521273961 0.33186185458903877 0 -0.36980828876009419 0.34548756785883511 0 -0.37548017902234548 0.31857141996958033 0 -0.36980828876009419 0.34548756785883511 0 -0.36980828876009419 0.34548756785883511 0 -0.36446034141132488 0.37086643364919741 0 -0.38201990282386061 0.36131375793366027 0 -0.36980828876009419 0.34548756785883511 0 -0.36446034141132488 0.37086643364919741 0 -0.36980828876009419 0.34548756785883511 0 -0.36446034141132488 0.37086643364919741 0 -0.35172181733297297 0.3674390313299854 0 -0.36446034141132488 0.37086643364919741 0 -0.35172181733297297 0.3674390313299854 0 -0.34516435936770651 0.37900406059090358 0 -0.34071296362639952 0.3659780539218937 0 -0.35172181733297297 0.3674390313299854 0 -0.34516435936770651 0.37900406059090358 0 -0.34071296362639952 0.3659780539218937 0 -0.35172181733297297 0.3674390313299854 0 -0.34434669049591432 0.35650172880651942 0 -0.36980828876009419 0.34548756785883511 0 -0.34434669049591432 0.35650172880651942 0 -0.36980828876009419 0.34548756785883511 0 -0.35172181733297297 0.3674390313299854 0 -0.34434669049591432 0.35650172880651942 0 -0.35246710260435488 0.3390067744716912 0 -0.36980828876009419 0.34548756785883511 0 -0.34695344090464142 0.3471686982293849 0 -0.36980828876009419 0.34548756785883511 0 -0.34434669049591432 0.35650172880651942 0 -0.34695344090464142 0.3471686982293849 0 -0.35911239406255713 0.39624529943955999 0 -0.34516435936770651 0.37900406059090358 0 -0.33271150651163123 0.39838155144392612 0 -0.35911239406255713 0.39624529943955999 0 -0.35376444671378932 0.42162416522992258 0 -0.33271150651163123 0.39838155144392612 0 -0.36446034141132488 0.37086643364919741 0 -0.35911239406255713 0.39624529943955999 0 -0.34516435936770651 0.37900406059090358 0 -0.38699167204688872 0.38124322341472971 0 -0.36446034141132488 0.37086643364919741 0 -0.35911239406255713 0.39624529943955999 0 -0.36446034141132488 0.37086643364919741 0 -0.35911239406255713 0.39624529943955999 0 -0.37627508799104259 0.41492687074768858 0 -0.38540051188702279 0.40156212935804481 0 -0.35911239406255713 0.39624529943955999 0 -0.37627508799104259 0.41492687074768858 0 -0.35911239406255713 0.39624529943955999 0 -0.35376444671378932 0.42162416522992258 0 -0.37599798409538632 0.43323129088977519 0 -0.35376444671378932 0.42162416522992258 0 -0.3484164993650215 0.44700303102028532 0 -0.37599798409538632 0.43323129088977519 0 -0.37627508799104259 0.41492687074768858 0 -0.35376444671378932 0.42162416522992258 0 -0.35376444671378932 0.42162416522992258 0 -0.33570081817552078 0.42987628435849318 0 -0.3484164993650215 0.44700303102028532 0 -0.35376444671378932 0.42162416522992258 0 -0.3484164993650215 0.44700303102028532 0 -0.35911239406255713 0.39624529943955999 0 -0.35376444671378932 0.42162416522992258 0 -0.35376444671378932 0.42162416522992258 0 -0.32875193587335949 0.41603483601786612 0 -0.33271150651163123 0.39838155144392612 0 -0.35376444671378932 0.42162416522992258 0 -0.32875193587335949 0.41603483601786612 0 -0.33570081817552078 0.42987628435849318 0 -0.33570081817552078 0.42987628435849318 0 -0.32352234532803942 0.4275213552999142 0 -0.32763351318183692 0.44501525949228771 0 -0.32875193587335949 0.41603483601786612 0 -0.33570081817552078 0.42987628435849318 0 -0.32352234532803942 0.4275213552999142 0 -0.32352234532803942 0.4275213552999142 0 -0.30915701671156193 0.43122839129214208 0 -0.32763351318183692 0.44501525949228771 0 -0.31593776869996792 0.41888062839700718 0 -0.30915701671156193 0.43122839129214208 0 -0.32352234532803942 0.4275213552999142 0 -0.31593776869996792 0.41888062839700718 0 -0.30915701671156193 0.43122839129214208 0 -0.32875193587335949 0.41603483601786612 0 -0.31593776869996792 0.41888062839700718 0 -0.30984111221612809 0.40815372671767403 0 -0.32875193587335949 0.41603483601786612 0 -0.33271150651163123 0.39838155144392612 0 -0.30984111221612809 0.40815372671767403 0 -0.32875193587335949 0.41603483601786612 0 -0.32352234532803942 0.4275213552999142 0 -0.31593776869996792 0.41888062839700718 0 -0.33271150651163123 0.39838155144392612 0 -0.30614333659621412 0.39448038911426142 0 -0.30984111221612809 0.40815372671767403 0 -0.32282509584387248 0.37380861266544052 0 -0.34516435936770651 0.37900406059090358 0 -0.33271150651163123 0.39838155144392612 0 -0.32282509584387248 0.37380861266544052 0 -0.33271150651163123 0.39838155144392612 0 -0.30614333659621412 0.39448038911426142 0 -0.32282509584387248 0.37380861266544052 0 -0.30614333659621412 0.39448038911426142 0 -0.30647004067776018 0.36824058309663182 0 -0.32282509584387248 0.37380861266544052 0 -0.30614333659621412 0.39448038911426142 0 -0.28748185018649158 0.3702511522093177 0 -0.30647004067776018 0.36824058309663182 0 -0.30614333659621412 0.39448038911426142 0 -0.30614333659621412 0.39448038911426142 0 -0.28946157734855571 0.41515216556308238 0 -0.30614333659621412 0.39448038911426142 0 -0.28946157734855571 0.41515216556308238 0 -0.30984111221612809 0.40815372671767403 0 -0.30614333659621412 0.39448038911426142 0 -0.28715321990871412 0.40100954517399873 0 -0.28946157734855571 0.41515216556308238 0 -0.30614333659621412 0.39448038911426142 0 -0.28715321990871412 0.40100954517399873 0 -0.28164602618469498 0.38710906665099459 0 -0.28748185018649158 0.3702511522093177 0 -0.30614333659621412 0.39448038911426142 0 -0.28164602618469498 0.38710906665099459 0 -0.26572514760383109 0.37490756803706687 0 -0.28164602618469498 0.38710906665099459 0 -0.26461495247675559 0.39799181043085008 0 -0.26572514760383109 0.37490756803706687 0 -0.28748185018649158 0.3702511522093177 0 -0.28164602618469498 0.38710906665099459 0 -0.28715321990871412 0.40100954517399873 0 -0.26461495247675559 0.39799181043085008 0 -0.28688598459415871 0.41461010086149619 0 -0.28715321990871412 0.40100954517399873 0 -0.28164602618469498 0.38710906665099459 0 -0.26461495247675559 0.39799181043085008 0 -0.26572514760383109 0.37490756803706687 0 -0.26461495247675559 0.39799181043085008 0 -0.24098502933582719 0.38763661908207547 0 -0.2663222826279425 0.43325948459193858 0 -0.25778856688542467 0.44269151179388111 0 -0.24877114415757531 0.4293055333612108 0 -0.26405843226919679 0.4195061973539545 0 -0.2663222826279425 0.43325948459193858 0 -0.24877114415757531 0.4293055333612108 0 -0.26461495247675559 0.39799181043085008 0 -0.26405843226919679 0.4195061973539545 0 -0.2443061355770558 0.40983005343009832 0 -0.26405843226919679 0.4195061973539545 0 -0.2443061355770558 0.40983005343009832 0 -0.24877114415757531 0.4293055333612108 0 -0.26405843226919679 0.4195061973539545 0 -0.27562955870679379 0.41631849914306812 0 -0.28016193910292819 0.42565599797046189 0 -0.26461495247675559 0.39799181043085008 0 -0.26405843226919679 0.4195061973539545 0 -0.27562955870679379 0.41631849914306812 0 -0.26461495247675559 0.39799181043085008 0 -0.28688598459415871 0.41461010086149619 0 -0.26461495247675559 0.39799181043085008 0 -0.27562955870679379 0.41631849914306812 0 -0.28688598459415871 0.41461010086149619 0 -0.27562955870679379 0.41631849914306812 0 -0.28016193910292819 0.42565599797046189 0 -0.28316985072345069 0.42034048817844921 0 -0.26405843226919679 0.4195061973539545 0 -0.28016193910292819 0.42565599797046189 0 -0.2663222826279425 0.43325948459193858 0 -0.28016193910292819 0.42565599797046189 0 -0.2663222826279425 0.43325948459193858 0 -0.28019976230769961 0.43763201654909739 0 -0.28016193910292819 0.42565599797046189 0 -0.28707473629023811 0.4322229429408877 0 -0.28019976230769961 0.43763201654909739 0 -0.28707473629023811 0.4322229429408877 0 -0.29272424932059887 0.44169687667982371 0 -0.28019976230769961 0.43763201654909739 0 -0.29000192048992179 0.4247773547387706 0 -0.28688598459415871 0.41461010086149619 0 -0.30915701671156193 0.43122839129214208 0 -0.28016193910292819 0.42565599797046189 0 -0.29000192048992179 0.4247773547387706 0 -0.28316985072345069 0.42034048817844921 0 -0.28016193910292819 0.42565599797046189 0 -0.28707473629023811 0.4322229429408877 0 -0.29000192048992179 0.4247773547387706 0 -0.28707473629023811 0.4322229429408877 0 -0.29000192048992179 0.4247773547387706 0 -0.29449063719635099 0.43177913161986359 0 -0.28707473629023811 0.4322229429408877 0 -0.29449063719635099 0.43177913161986359 0 -0.29272424932059887 0.44169687667982371 0 -0.28688598459415871 0.41461010086149619 0 -0.28946157734855571 0.41515216556308238 0 -0.30915701671156193 0.43122839129214208 0 -0.28715321990871412 0.40100954517399873 0 -0.28688598459415871 0.41461010086149619 0 -0.28946157734855571 0.41515216556308238 0 -0.29000192048992179 0.4247773547387706 0 -0.28316985072345069 0.42034048817844921 0 -0.28688598459415871 0.41461010086149619 0 -0.27562955870679379 0.41631849914306812 0 -0.28316985072345069 0.42034048817844921 0 -0.28688598459415871 0.41461010086149619 0 -0.28946157734855571 0.41515216556308238 0 -0.30580327093724052 0.41822464530899889 0 -0.30984111221612809 0.40815372671767403 0 -0.28946157734855571 0.41515216556308238 0 -0.30580327093724052 0.41822464530899889 0 -0.30915701671156193 0.43122839129214208 0 -0.31593776869996792 0.41888062839700718 0 -0.30580327093724052 0.41822464530899889 0 -0.30984111221612809 0.40815372671767403 0 -0.29000192048992179 0.4247773547387706 0 -0.29449063719635099 0.43177913161986359 0 -0.30915701671156193 0.43122839129214208 0 -0.28688598459415871 0.41461010086149619 0 -0.30915701671156193 0.43122839129214208 0 -0.29449063719635099 0.43177913161986359 0 -0.30915701671156193 0.43122839129214208 0 -0.29272424932059887 0.44169687667982371 0 -0.31593776869996792 0.41888062839700718 0 -0.30580327093724052 0.41822464530899889 0 -0.30915701671156193 0.43122839129214208 0 -0.30915701671156193 0.43122839129214208 0 -0.29656841459116923 0.45415226086142813 0 -0.31334777102237948 0.44974062554203181 0 -0.30915701671156193 0.43122839129214208 0 -0.29656841459116923 0.45415226086142813 0 -0.29272424932059887 0.44169687667982371 0 -0.30915701671156193 0.43122839129214208 0 -0.29656841459116923 0.45415226086142813 0 -0.29656841459116923 0.45415226086142813 0 -0.31313114706245321 0.46736815593503989 0 -0.31334777102237948 0.44974062554203181 0 -0.29656841459116923 0.45415226086142813 0 -0.28397981247077447 0.47707613043071301 0 -0.29656841459116923 0.45415226086142813 0 -0.27589307900438598 0.46012454879614467 0 -0.28397981247077447 0.47707613043071301 0 -0.29656841459116923 0.45415226086142813 0 -0.2831897004754988 0.44805321017288918 0 -0.27589307900438598 0.46012454879614467 0 -0.29656841459116923 0.45415226086142813 0 -0.29272424932059887 0.44169687667982371 0 -0.2831897004754988 0.44805321017288918 0 -0.29272424932059887 0.44169687667982371 0 -0.2831897004754988 0.44805321017288918 0 -0.28019976230769961 0.43763201654909739 0 -0.2831897004754988 0.44805321017288918 0 -0.28019976230769961 0.43763201654909739 0 -0.27056299715364063 0.44666034797795262 0 -0.2663222826279425 0.43325948459193858 0 -0.28019976230769961 0.43763201654909739 0 -0.27056299715364063 0.44666034797795262 0 -0.2831897004754988 0.44805321017288918 0 -0.27056299715364063 0.44666034797795262 0 -0.27589307900438598 0.46012454879614467 0 -0.27589307900438598 0.46012454879614467 0 -0.26123981008406538 0.45711535476830129 0 -0.26523762028291947 0.47456082897749929 0 -0.27056299715364063 0.44666034797795262 0 -0.27589307900438598 0.46012454879614467 0 -0.26123981008406538 0.45711535476830129 0 -0.26123981008406538 0.45711535476830129 0 -0.26523762028291947 0.47456082897749929 0 -0.24727838733476401 0.46756376812428307 0 -0.26123981008406538 0.45711535476830129 0 -0.24971484374719011 0.45264287766808442 0 -0.24727838733476401 0.46756376812428307 0 -0.25778856688542467 0.44269151179388111 0 -0.24476537046482791 0.44255728144526751 0 -0.24971484374719011 0.45264287766808442 0 -0.26123981008406538 0.45711535476830129 0 -0.25778856688542467 0.44269151179388111 0 -0.24971484374719011 0.45264287766808442 0 -0.25778856688542467 0.44269151179388111 0 -0.24476537046482791 0.44255728144526751 0 -0.24877114415757531 0.4293055333612108 0 -0.2663222826279425 0.43325948459193858 0 -0.27056299715364063 0.44666034797795262 0 -0.25778856688542467 0.44269151179388111 0 -0.27056299715364063 0.44666034797795262 0 -0.26123981008406538 0.45711535476830129 0 -0.25778856688542467 0.44269151179388111 0 -0.25244883076228808 0.48518522326918639 0 -0.26523762028291947 0.47456082897749929 0 -0.27139121035038061 0.49999999999999822 0 -0.25244883076228808 0.48518522326918639 0 -0.27139121035038061 0.49999999999999822 0 -0.24450244020988629 0.5 0 -0.25244883076228808 0.48518522326918639 0 -0.26523762028291947 0.47456082897749929 0 -0.24727838733476401 0.46756376812428307 0 -0.26523762028291947 0.47456082897749929 0 -0.27139121035038061 0.49999999999999822 0 -0.28397981247077447 0.47707613043071301 0 -0.27589307900438598 0.46012454879614467 0 -0.26523762028291947 0.47456082897749929 0 -0.28397981247077447 0.47707613043071301 0 -0.27139121035038061 0.49999999999999822 0 -0.28397981247077447 0.47707613043071301 0 -0.29277724425949753 0.5 0 -0.28397981247077447 0.47707613043071301 0 -0.30347026121405579 0.48570418306203089 0 -0.29656841459116923 0.45415226086142813 0 -0.28397981247077447 0.47707613043071301 0 -0.30347026121405579 0.48570418306203089 0 -0.29656841459116923 0.45415226086142813 0 -0.30347026121405579 0.48570418306203089 0 -0.31313114706245321 0.46736815593503989 0 -0.27139121035038061 0.49999999999999822 0 -0.29277724425949753 0.5 0 -0.28397981247077447 0.47707613043071301 0 -0.29277724425949753 0.5 0 -0.30347026121405579 0.48570418306203089 0 -0.31416327816861422 0.5 0 -0.31416327816861422 0.5 0 -0.32485629512317099 0.48745911607770198 0 -0.33554931207773109 0.49999999999999828 0 -0.30347026121405579 0.48570418306203089 0 -0.31416327816861422 0.5 0 -0.32485629512317099 0.48745911607770198 0 -0.32485629512317099 0.48745911607770198 0 -0.33772060466748322 0.49776076260100988 0 -0.34306855201625369 0.47238189681064779 0 -0.33772060466748322 0.49776076260100988 0 -0.34306855201625369 0.47238189681064779 0 -0.32485629512317099 0.48745911607770198 0 -0.33554931207773109 0.49999999999999828 0 -0.33772060466748322 0.49776076260100988 0 -0.33724874261462451 0.499999999999995 0 -0.33772060466748322 0.49776076260100988 0 -0.33554931207773109 0.49999999999999828 0 -0.33772060466748322 0.49776076260100988 0 -0.33554931207773109 0.49999999999999828 0 -0.33724874261462451 0.499999999999995 0 -0.33772060466748322 0.49776076260100988 0 -0.32485629512317099 0.48745911607770198 0 -0.34306855201625369 0.47238189681064779 0 -0.3292983169921781 0.46211236623799312 0 -0.32485629512317099 0.48745911607770198 0 -0.31313114706245321 0.46736815593503989 0 -0.3292983169921781 0.46211236623799312 0 -0.30347026121405579 0.48570418306203089 0 -0.32485629512317099 0.48745911607770198 0 -0.31313114706245321 0.46736815593503989 0 -0.31313114706245321 0.46736815593503989 0 -0.31334777102237948 0.44974062554203181 0 -0.3292983169921781 0.46211236623799312 0 -0.31334777102237948 0.44974062554203181 0 -0.32763351318183692 0.44501525949228771 0 -0.3292983169921781 0.46211236623799312 0 -0.30915701671156193 0.43122839129214208 0 -0.31334777102237948 0.44974062554203181 0 -0.32763351318183692 0.44501525949228771 0 -0.30915701671156193 0.43122839129214208 0 -0.32763351318183692 0.44501525949228771 0 -0.33570081817552078 0.42987628435849318 0 -0.32763351318183692 0.44501525949228771 0 -0.3484164993650215 0.44700303102028532 0 -0.32763351318183692 0.44501525949228771 0 -0.3292983169921781 0.46211236623799312 0 -0.3484164993650215 0.44700303102028532 0 -0.34306855201625369 0.47238189681064779 0 -0.3292983169921781 0.46211236623799312 0 -0.3484164993650215 0.44700303102028532 0 -0.34306855201625369 0.47238189681064779 0 -0.3484164993650215 0.44700303102028532 0 -0.34306855201625369 0.47238189681064779 0 -0.3549875414320286 0.46182280294113959 0 -0.3484164993650215 0.44700303102028532 0 -0.37889978532357999 0.45529298933999462 0 -0.37599798409538632 0.43323129088977519 0 -0.3484164993650215 0.44700303102028532 0 -0.37889978532357999 0.45529298933999462 0 -0.35831019499553068 0.47652687597050147 0 -0.37889978532357999 0.45529298933999462 0 -0.3549875414320286 0.46182280294113959 0 -0.3484164993650215 0.44700303102028532 0 -0.37889978532357999 0.45529298933999462 0 -0.3549875414320286 0.46182280294113959 0 -0.35831019499553068 0.47652687597050147 0 -0.38302158855869661 0.47988909059875262 0 -0.33724874261462451 0.499999999999995 0 -0.35831019499553068 0.47652687597050147 0 -0.38302158855869661 0.47988909059875262 0 -0.37889978532357999 0.45529298933999462 0 -0.35831019499553068 0.47652687597050147 0 -0.39776976750034593 0.5 0 -0.38302158855869661 0.47988909059875262 0 -0.33724874261462451 0.499999999999995 0 -0.33772060466748322 0.49776076260100988 0 -0.35831019499553068 0.47652687597050147 0 -0.33724874261462451 0.499999999999995 0 -0.33772060466748322 0.49776076260100988 0 -0.35831019499553068 0.47652687597050147 0 -0.33772060466748322 0.49776076260100988 0 -0.34306855201625369 0.47238189681064779 0 -0.35831019499553068 0.47652687597050147 0 -0.34306855201625369 0.47238189681064779 0 -0.3549875414320286 0.46182280294113959 0 -0.35831019499553068 0.47652687597050147 0 -0.15253709912421989 0.48291243613695201 0 -0.1331072216407698 0.4647185502279173 0 -0.1558018286891992 0.4690459503234618 0 -0.15253709912421989 0.48291243613695201 0 -0.1331072216407698 0.4647185502279173 0 -0.1504963506927679 0.49324037120643999 0 -0.13984707389354051 0.5 0 -0.16383612978840359 0.50000000000000044 0 -0.15253709912421989 0.48291243613695201 0 -0.1341975585614486 0.49145621806847628 0 -0.15253709912421989 0.48291243613695201 0 -0.1504963506927679 0.49324037120643999 0 -0.16206389209622751 0.4918332018267727 0 -0.1504963506927679 0.49324037120643999 0 -0.13984707389354051 0.5 0 -0.1341975585614486 0.49145621806847628 0 -0.15253709912421989 0.48291243613695201 0 -0.1504963506927679 0.49324037120643999 0 -0.1341975585614486 0.49145621806847628 0 -0.1341975585614486 0.49145621806847628 0 -0.1158580179986774 0.50000000000000067 0 -0.13984707389354051 0.5 0 -0.1341975585614486 0.49145621806847628 0 -0.1158580179986774 0.50000000000000067 0 -0.1341975585614486 0.49145621806847628 0 -0.13274172668752099 0.47857597894999471 0 -0.12061617694546541 0.48212309941062742 0 -0.15253709912421989 0.48291243613695201 0 -0.13274172668752099 0.47857597894999471 0 -0.1331072216407698 0.4647185502279173 0 -0.15253709912421989 0.48291243613695201 0 -0.1341975585614486 0.49145621806847628 0 -0.13274172668752099 0.47857597894999471 0 -0.13274172668752099 0.47857597894999471 0 -0.12325057716570149 0.47166959090600091 0 -0.12061617694546541 0.48212309941062742 0 -0.13274172668752099 0.47857597894999471 0 -0.1331072216407698 0.4647185502279173 0 -0.12325057716570149 0.47166959090600091 0 -0.1331072216407698 0.4647185502279173 0 -0.1267124749860665 0.44103703313599368 0 -0.14866818765843329 0.4435268095222798 0 -0.1558018286891992 0.4690459503234618 0 -0.14866818765843329 0.4435268095222798 0 -0.1558018286891992 0.4690459503234618 0 -0.1331072216407698 0.4647185502279173 0 -0.14866818765843329 0.4435268095222798 0 -0.1558018286891992 0.4690459503234618 0 -0.14866818765843329 0.4435268095222798 0 -0.16546125898325881 0.46094202514828458 0 -0.16546125898325881 0.46094202514828458 0 -0.1780053369386515 0.4612634555234984 0 -0.17124402883239209 0.47419749982281922 0 -0.1558018286891992 0.4690459503234618 0 -0.16546125898325881 0.46094202514828458 0 -0.17124402883239209 0.47419749982281922 0 -0.14866818765843329 0.4435268095222798 0 -0.1724331089537543 0.45039624780498549 0 -0.17150010822827011 0.43611010535689171 0 -0.14866818765843329 0.4435268095222798 0 -0.16546125898325881 0.46094202514828458 0 -0.1724331089537543 0.45039624780498549 0 -0.1724331089537543 0.45039624780498549 0 -0.18632938590097561 0.43327370256961301 0 -0.17150010822827011 0.43611010535689171 0 -0.1724331089537543 0.45039624780498549 0 -0.19167186874523839 0.44894908301259517 0 -0.18632938590097561 0.43327370256961301 0 -0.1780053369386515 0.4612634555234984 0 -0.18995095854056471 0.46548256350868711 0 -0.19167186874523839 0.44894908301259517 0 -0.1780053369386515 0.4612634555234984 0 -0.17124402883239209 0.47419749982281922 0 -0.18995095854056471 0.46548256350868711 0 -0.1724331089537543 0.45039624780498549 0 -0.1780053369386515 0.4612634555234984 0 -0.19167186874523839 0.44894908301259517 0 -0.16546125898325881 0.46094202514828458 0 -0.1724331089537543 0.45039624780498549 0 -0.1780053369386515 0.4612634555234984 0 -0.17124402883239209 0.47419749982281922 0 -0.1825520824513169 0.48568185862582292 0 -0.18995095854056471 0.46548256350868711 0 -0.17124402883239209 0.47419749982281922 0 -0.18995095854056471 0.46548256350868711 0 -0.17124402883239209 0.47419749982281922 0 -0.16882965058157171 0.48619766821468752 0 -0.1825520824513169 0.48568185862582292 0 -0.15253709912421989 0.48291243613695201 0 -0.17124402883239209 0.47419749982281922 0 -0.15253709912421989 0.48291243613695201 0 -0.17124402883239209 0.47419749982281922 0 -0.16882965058157171 0.48619766821468752 0 -0.1558018286891992 0.4690459503234618 0 -0.15253709912421989 0.48291243613695201 0 -0.17124402883239209 0.47419749982281922 0 -0.16383612978840359 0.50000000000000044 0 -0.16882965058157171 0.48619766821468752 0 -0.1825520824513169 0.48568185862582292 0 -0.15253709912421989 0.48291243613695201 0 -0.16206389209622751 0.4918332018267727 0 -0.16882965058157171 0.48619766821468752 0 -0.1504963506927679 0.49324037120643999 0 -0.16383612978840359 0.50000000000000044 0 -0.16206389209622751 0.4918332018267727 0 -0.15253709912421989 0.48291243613695201 0 -0.16206389209622751 0.4918332018267727 0 -0.16383612978840359 0.50000000000000044 0 -0.16206389209622751 0.4918332018267727 0 -0.16882965058157171 0.48619766821468752 0 -0.16383612978840359 0.50000000000000044 0 -0.1825520824513169 0.48568185862582292 0 -0.19072489992889791 0.5 0 -0.16383612978840359 0.50000000000000044 0 -0.1825520824513169 0.48568185862582292 0 -0.19072489992889791 0.5 0 -0.19793211229467761 0.48639451273295847 0 -0.217613670069392 0.5 0 -0.1825520824513169 0.48568185862582292 0 -0.19072489992889791 0.5 0 -0.19793211229467761 0.48639451273295847 0 -0.1825520824513169 0.48568185862582292 0 -0.20126803511423011 0.47136371725164522 0 -0.18995095854056471 0.46548256350868711 0 -0.1825520824513169 0.48568185862582292 0 -0.19793211229467761 0.48639451273295847 0 -0.20126803511423011 0.47136371725164522 0 -0.1825520824513169 0.48568185862582292 0 -0.20126803511423011 0.47136371725164522 0 -0.19793211229467761 0.48639451273295847 0 -0.20126803511423011 0.47136371725164522 0 -0.20993599394326631 0.48121139703149363 0 -0.20126803511423011 0.47136371725164522 0 -0.20993599394326631 0.48121139703149363 0 -0.21644330576188431 0.47112175534709472 0 -0.20993599394326631 0.48121139703149363 0 -0.21644330576188431 0.47112175534709472 0 -0.22170229608293801 0.47868300751478499 0 -0.20993599394326631 0.48121139703149363 0 -0.217613670069392 0.5 0 -0.22170229608293801 0.47868300751478499 0 -0.19793211229467761 0.48639451273295847 0 -0.20993599394326631 0.48121139703149363 0 -0.217613670069392 0.5 0 -0.217613670069392 0.5 0 -0.22170229608293801 0.47868300751478499 0 -0.23544531225177329 0.48320162229141511 0 -0.217613670069392 0.5 0 -0.23544531225177329 0.48320162229141511 0 -0.24450244020988629 0.5 0 -0.22170229608293801 0.47868300751478499 0 -0.23544531225177329 0.48320162229141511 0 -0.2299316573605128 0.46747778636386839 0 -0.21644330576188431 0.47112175534709472 0 -0.22170229608293801 0.47868300751478499 0 -0.2299316573605128 0.46747778636386839 0 -0.25244883076228808 0.48518522326918639 0 -0.23544531225177329 0.48320162229141511 0 -0.24727838733476401 0.46756376812428307 0 -0.23544531225177329 0.48320162229141511 0 -0.24727838733476401 0.46756376812428307 0 -0.2299316573605128 0.46747778636386839 0 -0.25244883076228808 0.48518522326918639 0 -0.23544531225177329 0.48320162229141511 0 -0.24450244020988629 0.5 0 -0.24476537046482791 0.44255728144526751 0 -0.23750208396686839 0.45328647220868867 0 -0.2339795057413539 0.43614308377174832 0 -0.24476537046482791 0.44255728144526751 0 -0.24971484374719011 0.45264287766808442 0 -0.23750208396686839 0.45328647220868867 0 -0.24971484374719011 0.45264287766808442 0 -0.24727838733476401 0.46756376812428307 0 -0.23750208396686839 0.45328647220868867 0 -0.24727838733476401 0.46756376812428307 0 -0.23750208396686839 0.45328647220868867 0 -0.2299316573605128 0.46747778636386839 0 -0.23750208396686839 0.45328647220868867 0 -0.2299316573605128 0.46747778636386839 0 -0.2199839877771432 0.45704557587746752 0 -0.21644330576188431 0.47112175534709472 0 -0.2299316573605128 0.46747778636386839 0 -0.2199839877771432 0.45704557587746752 0 -0.23750208396686839 0.45328647220868867 0 -0.2199839877771432 0.45704557587746752 0 -0.22485629809472349 0.44490553667014471 0 -0.2199839877771432 0.45704557587746752 0 -0.22485629809472349 0.44490553667014471 0 -0.2145859088019389 0.44842899676832138 0 -0.23750208396686839 0.45328647220868867 0 -0.22485629809472349 0.44490553667014471 0 -0.2339795057413539 0.43614308377174832 0 -0.22485629809472349 0.44490553667014471 0 -0.2145859088019389 0.44842899676832138 0 -0.2139962258952903 0.43645058013041338 0 -0.2145859088019389 0.44842899676832138 0 -0.20599165668102129 0.4445258266720668 0 -0.2139962258952903 0.43645058013041338 0 -0.2145859088019389 0.44842899676832138 0 -0.20599165668102129 0.4445258266720668 0 -0.20865788824873729 0.45676762719455488 0 -0.20599165668102129 0.4445258266720668 0 -0.20111021197619741 0.43175190161030208 0 -0.2139962258952903 0.43645058013041338 0 -0.20126803511423011 0.47136371725164522 0 -0.21644330576188431 0.47112175534709472 0 -0.2199839877771432 0.45704557587746752 0 -0.20126803511423011 0.47136371725164522 0 -0.2199839877771432 0.45704557587746752 0 -0.20865788824873729 0.45676762719455488 0 -0.20126803511423011 0.47136371725164522 0 -0.2199839877771432 0.45704557587746752 0 -0.2199839877771432 0.45704557587746752 0 -0.2145859088019389 0.44842899676832138 0 -0.20865788824873729 0.45676762719455488 0 -0.20126803511423011 0.47136371725164522 0 -0.20865788824873729 0.45676762719455488 0 -0.18995095854056471 0.46548256350868711 0 -0.20865788824873729 0.45676762719455488 0 -0.18995095854056471 0.46548256350868711 0 -0.19167186874523839 0.44894908301259517 0 -0.20865788824873729 0.45676762719455488 0 -0.18995095854056471 0.46548256350868711 0 -0.20599165668102129 0.4445258266720668 0 -0.20865788824873729 0.45676762719455488 0 -0.19167186874523839 0.44894908301259517 0 -0.20599165668102129 0.4445258266720668 0 -0.19167186874523839 0.44894908301259517 0 -0.20111021197619741 0.43175190161030208 0 -0.19167186874523839 0.44894908301259517 0 -0.20111021197619741 0.43175190161030208 0 -0.18632938590097561 0.43327370256961301 0 -0.20111021197619741 0.43175190161030208 0 -0.1936235325182353 0.41444604776793798 0 -0.18632938590097561 0.43327370256961301 0 -0.20111021197619741 0.43175190161030208 0 -0.1936235325182353 0.41444604776793798 0 -0.21390048891888591 0.42000323276985319 0 -0.21390048891888591 0.42000323276985319 0 -0.22632633677028241 0.40461902375527409 0 -0.207356482205589 0.40010286120804889 0 -0.1936235325182353 0.41444604776793798 0 -0.21390048891888591 0.42000323276985319 0 -0.207356482205589 0.40010286120804889 0 -0.21390048891888591 0.42000323276985319 0 -0.2139962258952903 0.43645058013041338 0 -0.22314180665821329 0.43053568694516092 0 -0.20111021197619741 0.43175190161030208 0 -0.21390048891888591 0.42000323276985319 0 -0.2139962258952903 0.43645058013041338 0 -0.22485629809472349 0.44490553667014471 0 -0.2139962258952903 0.43645058013041338 0 -0.22314180665821329 0.43053568694516092 0 -0.21390048891888591 0.42000323276985319 0 -0.22314180665821329 0.43053568694516092 0 -0.2301777155372256 0.42115112114158748 0 -0.22485629809472349 0.44490553667014471 0 -0.22314180665821329 0.43053568694516092 0 -0.2339795057413539 0.43614308377174832 0 -0.22314180665821329 0.43053568694516092 0 -0.2339795057413539 0.43614308377174832 0 -0.2301777155372256 0.42115112114158748 0 -0.21390048891888591 0.42000323276985319 0 -0.2301777155372256 0.42115112114158748 0 -0.22632633677028241 0.40461902375527409 0 -0.2301777155372256 0.42115112114158748 0 -0.2443061355770558 0.40983005343009832 0 -0.22632633677028241 0.40461902375527409 0 -0.2301777155372256 0.42115112114158748 0 -0.2443061355770558 0.40983005343009832 0 -0.24877114415757531 0.4293055333612108 0 -0.2339795057413539 0.43614308377174832 0 -0.2301777155372256 0.42115112114158748 0 -0.24877114415757531 0.4293055333612108 0 -0.24476537046482791 0.44255728144526751 0 -0.2339795057413539 0.43614308377174832 0 -0.24877114415757531 0.4293055333612108 0 -0.26572514760383109 0.37490756803706687 0 -0.24098502933582719 0.38763661908207547 0 -0.24088473822798151 0.36389998473981078 0 -0.24098502933582719 0.38763661908207547 0 -0.22467924235326731 0.37495592099094799 0 -0.24088473822798151 0.36389998473981078 0 -0.26461495247675559 0.39799181043085008 0 -0.2443061355770558 0.40983005343009832 0 -0.24098502933582719 0.38763661908207547 0 -0.2443061355770558 0.40983005343009832 0 -0.24098502933582719 0.38763661908207547 0 -0.22632633677028241 0.40461902375527409 0 -0.24098502933582719 0.38763661908207547 0 -0.22632633677028241 0.40461902375527409 0 -0.22123216904711099 0.38899025489998168 0 -0.24098502933582719 0.38763661908207547 0 -0.22123216904711099 0.38899025489998168 0 -0.22467924235326731 0.37495592099094799 0 -0.22123216904711099 0.38899025489998168 0 -0.20546381284224141 0.37807293830855332 0 -0.22467924235326731 0.37495592099094799 0 -0.22123216904711099 0.38899025489998168 0 -0.20546381284224141 0.37807293830855332 0 -0.207356482205589 0.40010286120804889 0 -0.22632633677028241 0.40461902375527409 0 -0.22123216904711099 0.38899025489998168 0 -0.207356482205589 0.40010286120804889 0 -0.1936235325182353 0.41444604776793798 0 -0.207356482205589 0.40010286120804889 0 -0.18540762658068599 0.39406957057539782 0 -0.20546381284224141 0.37807293830855332 0 -0.207356482205589 0.40010286120804889 0 -0.18540762658068599 0.39406957057539782 0 -0.20546381284224141 0.37807293830855332 0 -0.18540762658068599 0.39406957057539782 0 -0.18778180976472511 0.37126458375681531 0 -0.18540762658068599 0.39406957057539782 0 -0.16879995354991159 0.37423305462508538 0 -0.18778180976472511 0.37126458375681531 0 -0.16829179378081049 0.39169226681683739 0 -0.18540762658068599 0.39406957057539782 0 -0.16879995354991159 0.37423305462508538 0 -0.18540762658068599 0.39406957057539782 0 -0.18778180976472511 0.37126458375681531 0 -0.15471329556878641 0.38371142297148508 0 -0.15283217307843799 0.3676801086492954 0 -0.16879995354991159 0.37423305462508538 0 -0.16829179378081049 0.39169226681683739 0 -0.15471329556878641 0.38371142297148508 0 -0.16879995354991159 0.37423305462508538 0 -0.15958824083878129 0.39920428234093192 0 -0.16084934604385451 0.41055489260935252 0 -0.14896610538113839 0.40337956021988269 0 -0.15958824083878129 0.39920428234093192 0 -0.16829179378081049 0.39169226681683739 0 -0.15471329556878641 0.38371142297148508 0 -0.15958824083878129 0.39920428234093192 0 -0.16829179378081049 0.39169226681683739 0 -0.17294985236588731 0.40724300357128712 0 -0.15958824083878129 0.39920428234093192 0 -0.17294985236588731 0.40724300357128712 0 -0.16084934604385451 0.41055489260935252 0 -0.16829179378081049 0.39169226681683739 0 -0.18540762658068599 0.39406957057539782 0 -0.17294985236588731 0.40724300357128712 0 -0.1936235325182353 0.41444604776793798 0 -0.18540762658068599 0.39406957057539782 0 -0.17294985236588731 0.40724300357128712 0 -0.1936235325182353 0.41444604776793798 0 -0.17899199753651551 0.42131456709071458 0 -0.17294985236588731 0.40724300357128712 0 -0.17899199753651551 0.42131456709071458 0 -0.17294985236588731 0.40724300357128712 0 -0.16508661317764459 0.42296715797688877 0 -0.1936235325182353 0.41444604776793798 0 -0.17899199753651551 0.42131456709071458 0 -0.18632938590097561 0.43327370256961301 0 -0.17899199753651551 0.42131456709071458 0 -0.18632938590097561 0.43327370256961301 0 -0.17150010822827011 0.43611010535689171 0 -0.14866818765843329 0.4435268095222798 0 -0.17150010822827011 0.43611010535689171 0 -0.16508661317764459 0.42296715797688877 0 -0.17899199753651551 0.42131456709071458 0 -0.17150010822827011 0.43611010535689171 0 -0.16508661317764459 0.42296715797688877 0 -0.17294985236588731 0.40724300357128712 0 -0.16508661317764459 0.42296715797688877 0 -0.16084934604385451 0.41055489260935252 0 -0.16508661317764459 0.42296715797688877 0 -0.16084934604385451 0.41055489260935252 0 -0.15344231965757249 0.41971387609425231 0 -0.16084934604385451 0.41055489260935252 0 -0.15344231965757249 0.41971387609425231 0 -0.14896610538113839 0.40337956021988269 0 -0.15344231965757249 0.41971387609425231 0 -0.14153454662766729 0.41800766872109768 0 -0.14896610538113839 0.40337956021988269 0 -0.14866818765843329 0.4435268095222798 0 -0.16508661317764459 0.42296715797688877 0 -0.15344231965757249 0.41971387609425231 0 -0.14866818765843329 0.4435268095222798 0 -0.15344231965757249 0.41971387609425231 0 -0.14153454662766729 0.41800766872109768 0 -0.14866818765843329 0.4435268095222798 0 -0.14153454662766729 0.41800766872109768 0 -0.14866818765843329 0.4435268095222798 0 -0.14153454662766729 0.41800766872109768 0 -0.12982841103496601 0.42287004534468331 0 -0.1267124749860665 0.44103703313599368 0 -0.14866818765843329 0.4435268095222798 0 -0.12982841103496601 0.42287004534468331 0 -0.1267124749860665 0.44103703313599368 0 -0.12982841103496601 0.42287004534468331 0 -0.1216946509978903 0.42391018547391279 0 -0.12982841103496601 0.42287004534468331 0 -0.1216946509978903 0.42391018547391279 0 -0.12982841103496601 0.42287004534468331 0 -0.128047778297396 0.4081993566969141 0 -0.1216946509978903 0.42391018547391279 0 -0.14153454662766729 0.41800766872109768 0 -0.12982841103496601 0.42287004534468331 0 -0.128047778297396 0.4081993566969141 0 -0.128047778297396 0.4081993566969141 0 -0.1344009055969021 0.39248852791991551 0 -0.12082207064948911 0.3992218355721569 0 -0.14153454662766729 0.41800766872109768 0 -0.1344009055969021 0.39248852791991551 0 -0.128047778297396 0.4081993566969141 0 -0.1344009055969021 0.39248852791991551 0 -0.14153454662766729 0.41800766872109768 0 -0.128047778297396 0.4081993566969141 0 -0.1344009055969021 0.39248852791991551 0 -0.1344009055969021 0.39248852791991551 0 -0.1203729888923529 0.38555130911518332 0 -0.12082207064948911 0.3992218355721569 0 -0.1344009055969021 0.39248852791991551 0 -0.12970416573250021 0.37568690229994661 0 -0.1203729888923529 0.38555130911518332 0 -0.1344009055969021 0.39248852791991551 0 -0.12970416573250021 0.37568690229994661 0 -0.1344009055969021 0.39248852791991551 0 -0.12970416573250021 0.37568690229994661 0 -0.1368125159090911 0.38652478834640253 0 -0.12970416573250021 0.37568690229994661 0 -0.13738208002609961 0.37940892391799652 0 -0.1432137889202979 0.37457626834175972 0 -0.12970416573250021 0.37568690229994661 0 -0.13738208002609961 0.37940892391799652 0 -0.1368125159090911 0.38652478834640253 0 -0.1344009055969021 0.39248852791991551 0 -0.1368125159090911 0.38652478834640253 0 -0.1428316893367059 0.39217601076082648 0 -0.1344009055969021 0.39248852791991551 0 -0.1368125159090911 0.38652478834640253 0 -0.13738208002609961 0.37940892391799652 0 -0.1368125159090911 0.38652478834640253 0 -0.144128780016475 0.38503727080834349 0 -0.1368125159090911 0.38652478834640253 0 -0.144128780016475 0.38503727080834349 0 -0.1428316893367059 0.39217601076082648 0 -0.144128780016475 0.38503727080834349 0 -0.1498501397799229 0.39344990650958861 0 -0.1428316893367059 0.39217601076082648 0 -0.15471329556878641 0.38371142297148508 0 -0.15283217307843799 0.3676801086492954 0 -0.1432137889202979 0.37457626834175972 0 -0.13738208002609961 0.37940892391799652 0 -0.144128780016475 0.38503727080834349 0 -0.1432137889202979 0.37457626834175972 0 -0.144128780016475 0.38503727080834349 0 -0.15471329556878641 0.38371142297148508 0 -0.1432137889202979 0.37457626834175972 0 -0.144128780016475 0.38503727080834349 0 -0.15471329556878641 0.38371142297148508 0 -0.1498501397799229 0.39344990650958861 0 -0.14153454662766729 0.41800766872109768 0 -0.1344009055969021 0.39248852791991551 0 -0.14896610538113839 0.40337956021988269 0 -0.15958824083878129 0.39920428234093192 0 -0.15471329556878641 0.38371142297148508 0 -0.1498501397799229 0.39344990650958861 0 -0.15958824083878129 0.39920428234093192 0 -0.1498501397799229 0.39344990650958861 0 -0.14896610538113839 0.40337956021988269 0 -0.1498501397799229 0.39344990650958861 0 -0.14896610538113839 0.40337956021988269 0 -0.1428316893367059 0.39217601076082648 0 -0.1344009055969021 0.39248852791991551 0 -0.14896610538113839 0.40337956021988269 0 -0.1428316893367059 0.39217601076082648 0 -0.15109363048617211 0.35319495359691488 0 -0.13840557226356739 0.36080314548978309 0 -0.13976277841372309 0.34776479428108392 0 -0.15109363048617211 0.35319495359691488 0 -0.13976277841372309 0.34776479428108392 0 -0.1507982916275401 0.34010259739579191 0 -0.15109363048617211 0.35319495359691488 0 -0.1507982916275401 0.34010259739579191 0 -0.1632289510543761 0.34456273669906767 0 -0.15109363048617211 0.35319495359691488 0 -0.15283217307843799 0.3676801086492954 0 -0.16219952333505969 0.35940217469572783 0 -0.15283217307843799 0.3676801086492954 0 -0.1432137889202979 0.37457626834175972 0 -0.13840557226356739 0.36080314548978309 0 -0.15109363048617211 0.35319495359691488 0 -0.15283217307843799 0.3676801086492954 0 -0.13840557226356739 0.36080314548978309 0 -0.12970416573250021 0.37568690229994661 0 -0.1432137889202979 0.37457626834175972 0 -0.13840557226356739 0.36080314548978309 0 -0.12970416573250021 0.37568690229994661 0 -0.13840557226356739 0.36080314548978309 0 -0.1270687515957519 0.36240078821437238 0 -0.13840557226356739 0.36080314548978309 0 -0.1270687515957519 0.36240078821437238 0 -0.12711246077981619 0.35299182663537232 0 -0.13840557226356739 0.36080314548978309 0 -0.12711246077981619 0.35299182663537232 0 -0.13976277841372309 0.34776479428108392 0 -0.12711246077981619 0.35299182663537232 0 -0.12929362775513331 0.34224622142228428 0 -0.1214561958695359 0.34398190402411172 0 -0.12711246077981619 0.35299182663537232 0 -0.13976277841372309 0.34776479428108392 0 -0.12929362775513331 0.34224622142228428 0 -0.12929362775513331 0.34224622142228428 0 -0.1378009657405305 0.33320720520172897 0 -0.12414550948967359 0.33089548956304099 0 -0.13976277841372309 0.34776479428108392 0 -0.12929362775513331 0.34224622142228428 0 -0.1378009657405305 0.33320720520172897 0 -0.1342946247304122 0.31878040987196299 0 -0.12558336036025489 0.30229136909407001 0 -0.1241795480830248 0.31842829230440112 0 -0.1342946247304122 0.31878040987196299 0 -0.1241795480830248 0.31842829230440112 0 -0.12414550948967359 0.33089548956304099 0 -0.1378009657405305 0.33320720520172897 0 -0.1342946247304122 0.31878040987196299 0 -0.12414550948967359 0.33089548956304099 0 -0.1378009657405305 0.33320720520172897 0 -0.1342946247304122 0.31878040987196299 0 -0.1486759437399435 0.32162517504736388 0 -0.1486759437399435 0.32162517504736388 0 -0.16414985644792979 0.31117391056151972 0 -0.14465291083361359 0.30538024823962162 0 -0.1342946247304122 0.31878040987196299 0 -0.1486759437399435 0.32162517504736388 0 -0.14465291083361359 0.30538024823962162 0 -0.1378009657405305 0.33320720520172897 0 -0.1486759437399435 0.32162517504736388 0 -0.1507982916275401 0.34010259739579191 0 -0.1486759437399435 0.32162517504736388 0 -0.1507982916275401 0.34010259739579191 0 -0.16245168564040879 0.32800268094792229 0 -0.13976277841372309 0.34776479428108392 0 -0.1378009657405305 0.33320720520172897 0 -0.1507982916275401 0.34010259739579191 0 -0.16245168564040879 0.32800268094792229 0 -0.17438787959701049 0.33332256747139632 0 -0.1632289510543761 0.34456273669906767 0 -0.1507982916275401 0.34010259739579191 0 -0.16245168564040879 0.32800268094792229 0 -0.1632289510543761 0.34456273669906767 0 -0.17438787959701049 0.33332256747139632 0 -0.17766256074569509 0.34485977613289132 0 -0.1632289510543761 0.34456273669906767 0 -0.16245168564040879 0.32800268094792229 0 -0.17434113828430861 0.32010243265171262 0 -0.16414985644792979 0.31117391056151972 0 -0.1486759437399435 0.32162517504736388 0 -0.16245168564040879 0.32800268094792229 0 -0.16414985644792979 0.31117391056151972 0 -0.16245168564040879 0.32800268094792229 0 -0.17434113828430861 0.32010243265171262 0 -0.17438787959701049 0.33332256747139632 0 -0.17434113828430861 0.32010243265171262 0 -0.1841229628004922 0.31568441292480809 0 -0.1765432143793193 0.30302728906388998 0 -0.17434113828430861 0.32010243265171262 0 -0.18229592588918769 0.32678810948771969 0 -0.17438787959701049 0.33332256747139632 0 -0.17434113828430861 0.32010243265171262 0 -0.18229592588918769 0.32678810948771969 0 -0.1841229628004922 0.31568441292480809 0 -0.18229592588918769 0.32678810948771969 0 -0.1841229628004922 0.31568441292480809 0 -0.19253017613280321 0.32565461011965041 0 -0.17438787959701049 0.33332256747139632 0 -0.18365403651720039 0.33602342765658327 0 -0.17766256074569509 0.34485977613289132 0 -0.18229592588918769 0.32678810948771969 0 -0.18365403651720039 0.33602342765658327 0 -0.19253017613280321 0.32565461011965041 0 -0.18229592588918769 0.32678810948771969 0 -0.17438787959701049 0.33332256747139632 0 -0.18365403651720039 0.33602342765658327 0 -0.18365403651720039 0.33602342765658327 0 -0.17766256074569509 0.34485977613289132 0 -0.1901559929487642 0.34845959693823281 0 -0.17504290850640081 0.35734001990827569 0 -0.17766256074569509 0.34485977613289132 0 -0.1901559929487642 0.34845959693823281 0 -0.17504290850640081 0.35734001990827569 0 -0.18778180976472511 0.37126458375681531 0 -0.1901559929487642 0.34845959693823281 0 -0.17504290850640081 0.35734001990827569 0 -0.17766256074569509 0.34485977613289132 0 -0.1632289510543761 0.34456273669906767 0 -0.17504290850640081 0.35734001990827569 0 -0.1632289510543761 0.34456273669906767 0 -0.16219952333505969 0.35940217469572783 0 -0.15109363048617211 0.35319495359691488 0 -0.1632289510543761 0.34456273669906767 0 -0.16219952333505969 0.35940217469572783 0 -0.15283217307843799 0.3676801086492954 0 -0.16879995354991159 0.37423305462508538 0 -0.16219952333505969 0.35940217469572783 0 -0.17504290850640081 0.35734001990827569 0 -0.16879995354991159 0.37423305462508538 0 -0.16219952333505969 0.35940217469572783 0 -0.17504290850640081 0.35734001990827569 0 -0.16879995354991159 0.37423305462508538 0 -0.18778180976472511 0.37126458375681531 0 -0.20546381284224141 0.37807293830855332 0 -0.1988399342069791 0.36058606975828772 0 -0.18778180976472511 0.37126458375681531 0 -0.18778180976472511 0.37126458375681531 0 -0.1901559929487642 0.34845959693823281 0 -0.1988399342069791 0.36058606975828772 0 -0.18778180976472511 0.37126458375681531 0 -0.1901559929487642 0.34845959693823281 0 -0.1988399342069791 0.36058606975828772 0 -0.1901559929487642 0.34845959693823281 0 -0.2069330189965112 0.34127558889096482 0 -0.1988399342069791 0.36058606975828772 0 -0.21294734883634681 0.36048857168591319 0 -0.2069330189965112 0.34127558889096482 0 -0.21294734883634681 0.36048857168591319 0 -0.22397203488131651 0.3440298075618663 0 -0.2069330189965112 0.34127558889096482 0 -0.21294734883634681 0.36048857168591319 0 -0.2069330189965112 0.34127558889096482 0 -0.20546381284224141 0.37807293830855332 0 -0.21294734883634681 0.36048857168591319 0 -0.22467924235326731 0.37495592099094799 0 -0.20546381284224141 0.37807293830855332 0 -0.1988399342069791 0.36058606975828772 0 -0.21294734883634681 0.36048857168591319 0 -0.21294734883634681 0.36048857168591319 0 -0.22467924235326731 0.37495592099094799 0 -0.24088473822798151 0.36389998473981078 0 -0.21294734883634681 0.36048857168591319 0 -0.22397203488131651 0.3440298075618663 0 -0.24088473822798151 0.36389998473981078 0 -0.22397203488131651 0.3440298075618663 0 -0.24088473822798151 0.36389998473981078 0 -0.24221211393385589 0.33903767540329838 0 -0.26429850506972502 0.35184072015542128 0 -0.24088473822798151 0.36389998473981078 0 -0.24221211393385589 0.33903767540329838 0 -0.25327283114277849 0.31241093170096879 0 -0.23897743790888651 0.32308117775222212 0 -0.23485875161112801 0.3107429876852158 0 -0.25327283114277849 0.31241093170096879 0 -0.25498774820891451 0.32755840728688818 0 -0.23897743790888651 0.32308117775222212 0 -0.23897743790888651 0.32308117775222212 0 -0.24221211393385589 0.33903767540329838 0 -0.22841871213332729 0.33064770740369698 0 -0.25498774820891451 0.32755840728688818 0 -0.23897743790888651 0.32308117775222212 0 -0.24221211393385589 0.33903767540329838 0 -0.22397203488131651 0.3440298075618663 0 -0.24221211393385589 0.33903767540329838 0 -0.22841871213332729 0.33064770740369698 0 -0.22397203488131651 0.3440298075618663 0 -0.22841871213332729 0.33064770740369698 0 -0.21425349301788721 0.32843618838600941 0 -0.22841871213332729 0.33064770740369698 0 -0.2226784809246907 0.31865368791508891 0 -0.21425349301788721 0.32843618838600941 0 -0.23897743790888651 0.32308117775222212 0 -0.2226784809246907 0.31865368791508891 0 -0.23485875161112801 0.3107429876852158 0 -0.23897743790888651 0.32308117775222212 0 -0.22841871213332729 0.33064770740369698 0 -0.2226784809246907 0.31865368791508891 0 -0.2226784809246907 0.31865368791508891 0 -0.21058989521291319 0.32006706121080369 0 -0.21059323897021029 0.3109144306257941 0 -0.2226784809246907 0.31865368791508891 0 -0.21058989521291319 0.32006706121080369 0 -0.21425349301788721 0.32843618838600941 0 -0.21058989521291319 0.32006706121080369 0 -0.21425349301788721 0.32843618838600941 0 -0.2009186891566756 0.3220626060960165 0 -0.21058989521291319 0.32006706121080369 0 -0.2009186891566756 0.3220626060960165 0 -0.21059323897021029 0.3109144306257941 0 -0.2069330189965112 0.34127558889096482 0 -0.21425349301788721 0.32843618838600941 0 -0.2009186891566756 0.3220626060960165 0 -0.2069330189965112 0.34127558889096482 0 -0.2009186891566756 0.3220626060960165 0 -0.22397203488131651 0.3440298075618663 0 -0.2069330189965112 0.34127558889096482 0 -0.21425349301788721 0.32843618838600941 0 -0.1901559929487642 0.34845959693823281 0 -0.19253017613280321 0.32565461011965041 0 -0.18365403651720039 0.33602342765658327 0 -0.1901559929487642 0.34845959693823281 0 -0.19253017613280321 0.32565461011965041 0 -0.1901559929487642 0.34845959693823281 0 -0.2069330189965112 0.34127558889096482 0 -0.19253017613280321 0.32565461011965041 0 -0.2069330189965112 0.34127558889096482 0 -0.2009186891566756 0.3220626060960165 0 -0.19253017613280321 0.32565461011965041 0 -0.19253017613280321 0.32565461011965041 0 -0.19490435931684119 0.30284962330106779 0 -0.1841229628004922 0.31568441292480809 0 -0.19253017613280321 0.32565461011965041 0 -0.19490435931684119 0.30284962330106779 0 -0.2009186891566756 0.3220626060960165 0 -0.19253017613280321 0.32565461011965041 0 -0.19490435931684119 0.30284962330106779 0 -0.2009186891566756 0.3220626060960165 0 -0.19490435931684119 0.30284962330106779 0 -0.2009186891566756 0.3220626060960165 0 -0.19490435931684119 0.30284962330106779 0 -0.21059323897021029 0.3109144306257941 0 -0.19490435931684119 0.30284962330106779 0 -0.21129610057032711 0.29649724946676392 0 -0.19732008054364841 0.27964564683242832 0 -0.19490435931684119 0.30284962330106779 0 -0.1882238031126762 0.28150835755253151 0 -0.19732008054364841 0.27964564683242832 0 -0.19490435931684119 0.30284962330106779 0 -0.19732008054364841 0.27964564683242832 0 -0.19490435931684119 0.30284962330106779 0 -0.1882238031126762 0.28150835755253151 0 -0.21129610057032711 0.29649724946676392 0 -0.216833836743306 0.28555625870919149 0 -0.19732008054364841 0.27964564683242832 0 -0.21129610057032711 0.29649724946676392 0 -0.216833836743306 0.28555625870919149 0 -0.22445025858601159 0.29553998251954378 0 -0.19490435931684119 0.30284962330106779 0 -0.21129610057032711 0.29649724946676392 0 -0.21059323897021029 0.3109144306257941 0 -0.21129610057032711 0.29649724946676392 0 -0.21059323897021029 0.3109144306257941 0 -0.22332058945518041 0.30550022842515001 0 -0.2226784809246907 0.31865368791508891 0 -0.21059323897021029 0.3109144306257941 0 -0.22332058945518041 0.30550022842515001 0 -0.22332058945518041 0.30550022842515001 0 -0.2315641093280639 0.30269452607361857 0 -0.23485875161112801 0.3107429876852158 0 -0.2226784809246907 0.31865368791508891 0 -0.22332058945518041 0.30550022842515001 0 -0.23485875161112801 0.3107429876852158 0 -0.2315641093280639 0.30269452607361857 0 -0.22445025858601159 0.29553998251954378 0 -0.2318324256077347 0.29487878346729218 0 -0.21129610057032711 0.29649724946676392 0 -0.22332058945518041 0.30550022842515001 0 -0.22445025858601159 0.29553998251954378 0 -0.22332058945518041 0.30550022842515001 0 -0.2315641093280639 0.30269452607361857 0 -0.22445025858601159 0.29553998251954378 0 -0.216833836743306 0.28555625870919149 0 -0.2306658771864073 0.28877692494235191 0 -0.2152008394784295 0.27260929765307118 0 -0.216833836743306 0.28555625870919149 0 -0.22445025858601159 0.29553998251954378 0 -0.2306658771864073 0.28877692494235191 0 -0.22445025858601159 0.29553998251954378 0 -0.2306658771864073 0.28877692494235191 0 -0.2318324256077347 0.29487878346729218 0 -0.2306658771864073 0.28877692494235191 0 -0.2318324256077347 0.29487878346729218 0 -0.2306658771864073 0.28877692494235191 0 -0.24205172580592851 0.2896948294717745 0 -0.24196935416459239 0.30059392832166082 0 -0.2306658771864073 0.28877692494235191 0 -0.24196935416459239 0.30059392832166082 0 -0.2306658771864073 0.28877692494235191 0 -0.2318324256077347 0.29487878346729218 0 -0.24196935416459239 0.30059392832166082 0 -0.2306658771864073 0.28877692494235191 0 -0.24205172580592851 0.2896948294717745 0 -0.23825937015386331 0.27954901176262859 0 -0.24205172580592851 0.2896948294717745 0 -0.24831149258301299 0.28313506479511791 0 -0.23825937015386331 0.27954901176262859 0 -0.25356014056026133 0.29500924030690701 0 -0.24205172580592851 0.2896948294717745 0 -0.24196935416459239 0.30059392832166082 0 -0.25356014056026133 0.29500924030690701 0 -0.24205172580592851 0.2896948294717745 0 -0.24831149258301299 0.28313506479511791 0 -0.25327283114277849 0.31241093170096879 0 -0.23485875161112801 0.3107429876852158 0 -0.24196935416459239 0.30059392832166082 0 -0.25327283114277849 0.31241093170096879 0 -0.25356014056026133 0.29500924030690701 0 -0.24196935416459239 0.30059392832166082 0 -0.25327283114277849 0.31241093170096879 0 -0.24196935416459239 0.30059392832166082 0 -0.2315641093280639 0.30269452607361857 0 -0.23485875161112801 0.3107429876852158 0 -0.24196935416459239 0.30059392832166082 0 -0.2315641093280639 0.30269452607361857 0 -0.2318324256077347 0.29487878346729218 0 -0.24196935416459239 0.30059392832166082 0 -0.25304333006038349 0.24428765334769589 0 -0.24865097868382791 0.26493223591431392 0 -0.23132161902948861 0.25749536781731069 0 -0.24865097868382791 0.26493223591431392 0 -0.23132161902948861 0.25749536781731069 0 -0.22447180131485911 0.2563776057456385 0 -0.24865097868382791 0.26493223591431392 0 -0.22447180131485911 0.2563776057456385 0 -0.25304333006038349 0.24428765334769589 0 -0.23132161902948861 0.25749536781731069 0 -0.24831149258301299 0.28313506479511791 0 -0.24865097868382791 0.26493223591431392 0 -0.23825937015386331 0.27954901176262859 0 -0.24865097868382791 0.26493223591431392 0 -0.23825937015386331 0.27954901176262859 0 -0.22756883925063279 0.27257726534399529 0 -0.2306658771864073 0.28877692494235191 0 -0.22756883925063279 0.27257726534399529 0 -0.2152008394784295 0.27260929765307118 0 -0.2306658771864073 0.28877692494235191 0 -0.22756883925063279 0.27257726534399529 0 -0.2306658771864073 0.28877692494235191 0 -0.23825937015386331 0.27954901176262859 0 -0.22756883925063279 0.27257726534399529 0 -0.22756883925063279 0.27257726534399529 0 -0.22447180131485911 0.2563776057456385 0 -0.2152008394784295 0.27260929765307118 0 -0.2306658771864073 0.28877692494235191 0 -0.2152008394784295 0.27260929765307118 0 -0.22756883925063279 0.27257726534399529 0 -0.22447180131485911 0.2563776057456385 0 -0.24865097868382791 0.26493223591431392 0 -0.22756883925063279 0.27257726534399529 0 -0.22447180131485911 0.2563776057456385 0 -0.23132161902948861 0.25749536781731069 0 -0.22447180131485911 0.2563776057456385 0 -0.2322104692317378 0.2441407471607992 0 -0.22447180131485911 0.2563776057456385 0 -0.20062098282015811 0.24793914945207671 0 -0.22447180131485911 0.2563776057456385 0 -0.21156511566001329 0.25962930198916101 0 -0.2152008394784295 0.27260929765307118 0 -0.2152008394784295 0.27260929765307118 0 -0.19973580177045361 0.25644167036378862 0 -0.22447180131485911 0.2563776057456385 0 -0.21156511566001329 0.25962930198916101 0 -0.20062098282015811 0.24793914945207671 0 -0.21156511566001329 0.25962930198916101 0 -0.2152008394784295 0.27260929765307118 0 -0.19973580177045361 0.25644167036378862 0 -0.21156511566001329 0.25962930198916101 0 -0.19973580177045361 0.25644167036378862 0 -0.20062098282015811 0.24793914945207671 0 -0.216833836743306 0.28555625870919149 0 -0.2152008394784295 0.27260929765307118 0 -0.19732008054364841 0.27964564683242832 0 -0.2152008394784295 0.27260929765307118 0 -0.19732008054364841 0.27964564683242832 0 -0.19973580177045361 0.25644167036378862 0 -0.1882238031126762 0.28150835755253151 0 -0.19732008054364841 0.27964564683242832 0 -0.18154324690851231 0.26016709180399478 0 -0.19732008054364841 0.27964564683242832 0 -0.19973580177045361 0.25644167036378862 0 -0.19732008054364841 0.27964564683242832 0 -0.19973580177045361 0.25644167036378862 0 -0.18154324690851231 0.26016709180399478 0 -0.19973580177045361 0.25644167036378862 0 -0.18154324690851231 0.26016709180399478 0 -0.18698952370146649 0.2431163182349301 0 -0.19973580177045361 0.25644167036378862 0 -0.20062098282015811 0.24793914945207671 0 -0.18154324690851231 0.26016709180399478 0 -0.1664747379768837 0.25739242454086791 0 -0.17486269070434821 0.23882582605545821 0 -0.1664747379768837 0.25739242454086791 0 -0.15136068557724741 0.26338230590514938 0 -0.16424934818574369 0.24392777431068921 0 -0.15136068557724741 0.26338230590514938 0 -0.16424934818574369 0.24392777431068921 0 -0.18154324690851231 0.26016709180399478 0 -0.1664747379768837 0.25739242454086791 0 -0.1626320346047099 0.2719728307245316 0 -0.1664747379768837 0.25739242454086791 0 -0.1626320346047099 0.2719728307245316 0 -0.15136068557724741 0.26338230590514938 0 -0.1882238031126762 0.28150835755253151 0 -0.1626320346047099 0.2719728307245316 0 -0.1642027993426213 0.28655274417933618 0 -0.1882238031126762 0.28150835755253151 0 -0.18154324690851231 0.26016709180399478 0 -0.1882238031126762 0.28150835755253151 0 -0.18154324690851231 0.26016709180399478 0 -0.1626320346047099 0.2719728307245316 0 -0.1882238031126762 0.28150835755253151 0 -0.1765432143793193 0.30302728906388998 0 -0.1642027993426213 0.28655274417933618 0 -0.19490435931684119 0.30284962330106779 0 -0.1882238031126762 0.28150835755253151 0 -0.1765432143793193 0.30302728906388998 0 -0.1841229628004922 0.31568441292480809 0 -0.19490435931684119 0.30284962330106779 0 -0.1765432143793193 0.30302728906388998 0 -0.17434113828430861 0.32010243265171262 0 -0.1765432143793193 0.30302728906388998 0 -0.16414985644792979 0.31117391056151972 0 -0.1765432143793193 0.30302728906388998 0 -0.16414985644792979 0.31117391056151972 0 -0.157613603663046 0.29844712150252217 0 -0.1765432143793193 0.30302728906388998 0 -0.157613603663046 0.29844712150252217 0 -0.1642027993426213 0.28655274417933618 0 -0.157613603663046 0.29844712150252217 0 -0.1642027993426213 0.28655274417933618 0 -0.13847202296875119 0.28283683749960969 0 -0.157613603663046 0.29844712150252217 0 -0.14465291083361359 0.30538024823962162 0 -0.13847202296875119 0.28283683749960969 0 -0.16414985644792979 0.31117391056151972 0 -0.157613603663046 0.29844712150252217 0 -0.14465291083361359 0.30538024823962162 0 -0.1342946247304122 0.31878040987196299 0 -0.14465291083361359 0.30538024823962162 0 -0.12558336036025489 0.30229136909407001 0 -0.12558336036025489 0.30229136909407001 0 -0.13847202296875119 0.28283683749960969 0 -0.14465291083361359 0.30538024823962162 0 -0.12558336036025489 0.30229136909407001 0 -0.13847202296875119 0.28283683749960969 0 -0.12558336036025489 0.30229136909407001 0 -0.13847202296875119 0.28283683749960969 0 -0.1208968049873167 0.28732362699129771 0 -0.13847202296875119 0.28283683749960969 0 -0.13058190101532799 0.26205031577996951 0 -0.15136068557724741 0.26338230590514938 0 -0.13847202296875119 0.28283683749960969 0 -0.13058190101532799 0.26205031577996951 0 -0.1208968049873167 0.28732362699129771 0 -0.13058190101532799 0.26205031577996951 0 -0.14964453267463071 0.2493491535656335 0 -0.13058190101532799 0.26205031577996951 0 -0.1160110751609026 0.25519952342676888 0 -0.13552348719030149 0.2488112055487382 0 -0.13058190101532799 0.26205031577996951 0 -0.13552348719030149 0.2488112055487382 0 -0.14964453267463071 0.2493491535656335 0 -0.15136068557724741 0.26338230590514938 0 -0.16424934818574369 0.24392777431068921 0 -0.14964453267463071 0.2493491535656335 0 -0.13058190101532799 0.26205031577996951 0 -0.15136068557724741 0.26338230590514938 0 -0.14964453267463071 0.2493491535656335 0 -0.13847202296875119 0.28283683749960969 0 -0.15136068557724741 0.26338230590514938 0 -0.1626320346047099 0.2719728307245316 0 -0.1642027993426213 0.28655274417933618 0 -0.13847202296875119 0.28283683749960969 0 -0.1626320346047099 0.2719728307245316 0 -0.13847202296875119 0.28283683749960969 0 -0.15136068557724741 0.26338230590514938 0 -0.097790350690229788 0.27135103454970683 0 -0.1115192693560253 0.27475147799430549 0 -0.091555345549520203 0.28149329414161961 0 -0.1115192693560253 0.27475147799430549 0 -0.091555345549520203 0.28149329414161961 0 -0.092456637696721841 0.28745264020864059 0 -0.1115192693560253 0.27475147799430549 0 -0.092456637696721841 0.28745264020864059 0 -0.097790350690229788 0.27135103454970683 0 -0.10169788975168639 0.26106238856153369 0 -0.1115192693560253 0.27475147799430549 0 -0.097790350690229788 0.27135103454970683 0 -0.10169788975168639 0.26106238856153369 0 -0.086388898103687162 0.26809697750136852 0 -0.10169788975168639 0.26106238856153369 0 -0.1160110751609026 0.25519952342676888 0 -0.097849120859015579 0.24466002151156921 0 -0.10169788975168639 0.26106238856153369 0 -0.086388898103687162 0.26809697750136852 0 -0.097849120859015579 0.24466002151156921 0 -0.13058190101532799 0.26205031577996951 0 -0.1160110751609026 0.25519952342676888 0 -0.1115192693560253 0.27475147799430549 0 -0.10169788975168639 0.26106238856153369 0 -0.1160110751609026 0.25519952342676888 0 -0.1115192693560253 0.27475147799430549 0 -0.13058190101532799 0.26205031577996951 0 -0.1115192693560253 0.27475147799430549 0 -0.13058190101532799 0.26205031577996951 0 -0.1115192693560253 0.27475147799430549 0 -0.1208968049873167 0.28732362699129771 0 -0.1115192693560253 0.27475147799430549 0 -0.1208968049873167 0.28732362699129771 0 -0.1056662213229359 0.29106881405752211 0 -0.12558336036025489 0.30229136909407001 0 -0.1208968049873167 0.28732362699129771 0 -0.11210164380679651 0.29797752274963107 0 -0.1208968049873167 0.28732362699129771 0 -0.11210164380679651 0.29797752274963107 0 -0.1056662213229359 0.29106881405752211 0 -0.12558336036025489 0.30229136909407001 0 -0.11210164380679651 0.29797752274963107 0 -0.10635639243070349 0.30822467338467763 0 -0.12558336036025489 0.30229136909407001 0 -0.10635639243070349 0.30822467338467763 0 -0.1126946977517586 0.32174590068853032 0 -0.12558336036025489 0.30229136909407001 0 -0.1126946977517586 0.32174590068853032 0 -0.093032461338748651 0.29125998765653183 0 -0.096591257668414143 0.31479075842428711 0 -0.1020054399327716 0.30097913022058842 0 -0.093032461338748651 0.29125998765653183 0 -0.096591257668414143 0.31479075842428711 0 -0.10635639243070349 0.30822467338467763 0 -0.1020054399327716 0.30097913022058842 0 -0.096591257668414143 0.31479075842428711 0 -0.11210164380679651 0.29797752274963107 0 -0.10635639243070349 0.30822467338467763 0 -0.1020054399327716 0.30097913022058842 0 -0.1115192693560253 0.27475147799430549 0 -0.1056662213229359 0.29106881405752211 0 -0.092456637696721841 0.28745264020864059 0 -0.11210164380679651 0.29797752274963107 0 -0.1020054399327716 0.30097913022058842 0 -0.1056662213229359 0.29106881405752211 0 -0.1056662213229359 0.29106881405752211 0 -0.093032461338748651 0.29125998765653183 0 -0.1020054399327716 0.30097913022058842 0 -0.1056662213229359 0.29106881405752211 0 -0.093032461338748651 0.29125998765653183 0 -0.1056662213229359 0.29106881405752211 0 -0.092456637696721841 0.28745264020864059 0 -0.093032461338748651 0.29125998765653183 0 -0.091555345549520203 0.28149329414161961 0 -0.08716288574238451 0.28426692218327798 0 -0.092456637696721841 0.28745264020864059 0 -0.082895813536146834 0.28505066680869179 0 -0.074928675348361312 0.29153393349116941 0 -0.086388898103687162 0.26809697750136852 0 -0.091555345549520203 0.28149329414161961 0 -0.092456637696721841 0.28745264020864059 0 -0.08716288574238451 0.28426692218327798 0 -0.092456637696721841 0.28745264020864059 0 -0.086596178709869312 0.29135738125241811 0 -0.092456637696721841 0.28745264020864059 0 -0.093032461338748651 0.29125998765653183 0 -0.086596178709869312 0.29135738125241811 0 -0.08847596782767056 0.2967224226704378 0 -0.086596178709869312 0.29135738125241811 0 -0.084272608503819027 0.30051959924406679 0 -0.092456637696721841 0.28745264020864059 0 -0.093032461338748651 0.29125998765653183 0 -0.093032461338748651 0.29125998765653183 0 -0.08847596782767056 0.2967224226704378 0 -0.086596178709869312 0.29135738125241811 0 -0.093032461338748651 0.29125998765653183 0 -0.086596178709869312 0.29135738125241811 0 -0.092456637696721841 0.28745264020864059 0 -0.086596178709869312 0.29135738125241811 0 -0.086596178709869312 0.29135738125241811 0 -0.074928675348361312 0.29153393349116941 0 -0.086596178709869312 0.29135738125241811 0 -0.079285414643132157 0.29622844008531901 0 -0.074928675348361312 0.29153393349116941 0 -0.086596178709869312 0.29135738125241811 0 -0.079285414643132157 0.29622844008531901 0 -0.084272608503819027 0.30051959924406679 0 -0.086596178709869312 0.29135738125241811 0 -0.082895813536146834 0.28505066680869179 0 -0.074928675348361312 0.29153393349116941 0 -0.086596178709869312 0.29135738125241811 0 -0.079285414643132157 0.29622844008531901 0 -0.08716288574238451 0.28426692218327798 0 -0.086596178709869312 0.29135738125241811 0 -0.082895813536146834 0.28505066680869179 0 -0.093032461338748651 0.29125998765653183 0 -0.090002622758244916 0.30375272252873348 0 -0.096591257668414143 0.31479075842428711 0 -0.090002622758244916 0.30375272252873348 0 -0.08622842176293409 0.31747807221099572 0 -0.096591257668414143 0.31479075842428711 0 -0.093032461338748651 0.29125998765653183 0 -0.08847596782767056 0.2967224226704378 0 -0.090002622758244916 0.30375272252873348 0 -0.08847596782767056 0.2967224226704378 0 -0.090002622758244916 0.30375272252873348 0 -0.084272608503819027 0.30051959924406679 0 -0.090002622758244916 0.30375272252873348 0 -0.084272608503819027 0.30051959924406679 0 -0.077897735952554642 0.30976533275586549 0 -0.079285414643132157 0.29622844008531901 0 -0.084272608503819027 0.30051959924406679 0 -0.077897735952554642 0.30976533275586549 0 -0.090002622758244916 0.30375272252873348 0 -0.077897735952554642 0.30976533275586549 0 -0.08622842176293409 0.31747807221099572 0 -0.074928675348361312 0.29153393349116941 0 -0.06194843766376322 0.31807942617886942 0 -0.079285414643132157 0.29622844008531901 0 -0.077897735952554642 0.30976533275586549 0 -0.074928675348361312 0.29153393349116941 0 -0.077897735952554642 0.30976533275586549 0 -0.074928675348361312 0.29153393349116941 0 -0.06194843766376322 0.31807942617886942 0 -0.074928675348361312 0.29153393349116941 0 -0.0633728445505959 0.28469845414228201 0 -0.049451882843863711 0.29191944739363629 0 -0.072940005194321436 0.2813855424230276 0 -0.074928675348361312 0.29153393349116941 0 -0.0633728445505959 0.28469845414228201 0 -0.072940005194321436 0.2813855424230276 0 -0.0633728445505959 0.28469845414228201 0 -0.066589026852375222 0.27528140211134261 0 -0.072940005194321436 0.2813855424230276 0 -0.074928675348361312 0.29153393349116941 0 -0.086388898103687162 0.26809697750136852 0 -0.066589026852375222 0.27528140211134261 0 -0.07225661943367874 0.26347686137387122 0 -0.061543699801769797 0.26750787542181792 0 -0.066589026852375222 0.27528140211134261 0 -0.074543637396015633 0.27206019585240238 0 -0.07225661943367874 0.26347686137387122 0 -0.074543637396015633 0.27206019585240238 0 -0.086388898103687162 0.26809697750136852 0 -0.07225661943367874 0.26347686137387122 0 -0.072940005194321436 0.2813855424230276 0 -0.066589026852375222 0.27528140211134261 0 -0.074543637396015633 0.27206019585240238 0 -0.072940005194321436 0.2813855424230276 0 -0.074543637396015633 0.27206019585240238 0 -0.086388898103687162 0.26809697750136852 0 -0.074928675348361312 0.29153393349116941 0 -0.086388898103687162 0.26809697750136852 0 -0.08716288574238451 0.28426692218327798 0 -0.082895813536146834 0.28505066680869179 0 -0.086388898103687162 0.26809697750136852 0 -0.091555345549520203 0.28149329414161961 0 -0.08716288574238451 0.28426692218327798 0 -0.086388898103687162 0.26809697750136852 0 -0.097790350690229788 0.27135103454970683 0 -0.091555345549520203 0.28149329414161961 0 -0.086388898103687162 0.26809697750136852 0 -0.086388898103687162 0.26809697750136852 0 -0.097849120859015579 0.24466002151156921 0 -0.086388898103687162 0.26809697750136852 0 -0.083229234579399028 0.25510096302150448 0 -0.097849120859015579 0.24466002151156921 0 -0.086388898103687162 0.26809697750136852 0 -0.083229234579399028 0.25510096302150448 0 -0.07225661943367874 0.26347686137387122 0 -0.07225661943367874 0.26347686137387122 0 -0.061396534891690273 0.25894011661375471 0 -0.076422299921214631 0.24416999169920919 0 -0.083229234579399028 0.25510096302150448 0 -0.07225661943367874 0.26347686137387122 0 -0.076422299921214631 0.24416999169920919 0 -0.07225661943367874 0.26347686137387122 0 -0.061396534891690273 0.25894011661375471 0 -0.061543699801769797 0.26750787542181792 0 -0.07225661943367874 0.26347686137387122 0 -0.061396534891690273 0.25894011661375471 0 -0.061396534891690273 0.25894011661375471 0 -0.076422299921214631 0.24416999169920919 0 -0.061396534891690273 0.25894011661375471 0 -0.035146755087933378 0.2479744053876205 0 -0.061396534891690273 0.25894011661375471 0 -0.049566764162202237 0.2705686221202383 0 -0.042479990301440347 0.26407442793002012 0 -0.061396534891690273 0.25894011661375471 0 -0.049566764162202237 0.2705686221202383 0 -0.066589026852375222 0.27528140211134261 0 -0.061543699801769797 0.26750787542181792 0 -0.049566764162202237 0.2705686221202383 0 -0.066589026852375222 0.27528140211134261 0 -0.043674908884781809 0.2736121997616911 0 -0.066589026852375222 0.27528140211134261 0 -0.043674908884781809 0.2736121997616911 0 -0.053180668922072322 0.28235304789664789 0 -0.066589026852375222 0.27528140211134261 0 -0.049566764162202237 0.2705686221202383 0 -0.043674908884781809 0.2736121997616911 0 -0.0633728445505959 0.28469845414228201 0 -0.066589026852375222 0.27528140211134261 0 -0.053180668922072322 0.28235304789664789 0 -0.061396534891690273 0.25894011661375471 0 -0.061543699801769797 0.26750787542181792 0 -0.049566764162202237 0.2705686221202383 0 -0.043674908884781809 0.2736121997616911 0 -0.034797589248662553 0.26816662559081028 0 -0.020760790917188281 0.27194299741203948 0 -0.043674908884781809 0.2736121997616911 0 -0.020760790917188281 0.27194299741203948 0 -0.043674908884781809 0.2736121997616911 0 -0.040324350545696518 0.28440828170212551 0 -0.053180668922072322 0.28235304789664789 0 -0.049566764162202237 0.2705686221202383 0 -0.043674908884781809 0.2736121997616911 0 -0.042479990301440347 0.26407442793002012 0 -0.043674908884781809 0.2736121997616911 0 -0.034797589248662553 0.26816662559081028 0 -0.042479990301440347 0.26407442793002012 0 -0.043674908884781809 0.2736121997616911 0 -0.031339201738398659 0.28185175216254987 0 -0.040324350545696518 0.28440828170212551 0 -0.043674908884781809 0.2736121997616911 0 -0.029295885069239101 0.27731733429880512 0 -0.031339201738398659 0.28185175216254987 0 -0.042479990301440347 0.26407442793002012 0 -0.032274666891239728 0.26303687725949049 0 -0.035146755087933378 0.2479744053876205 0 -0.061396534891690273 0.25894011661375471 0 -0.042479990301440347 0.26407442793002012 0 -0.035146755087933378 0.2479744053876205 0 -0.034797589248662553 0.26816662559081028 0 -0.042479990301440347 0.26407442793002012 0 -0.032274666891239728 0.26303687725949049 0 -0.032274666891239728 0.26303687725949049 0 -0.022826640741406092 0.26055688079978362 0 -0.035146755087933378 0.2479744053876205 0 -0.022826640741406092 0.26055688079978362 0 -0.01161598869828236 0.25227960603375049 0 -0.035146755087933378 0.2479744053876205 0 -0.022826640741406092 0.26055688079978362 0 -0.014335002112386719 0.26755051790601658 0 -0.01161598869828236 0.25227960603375049 0 -0.032274666891239728 0.26303687725949049 0 -0.022826640741406092 0.26055688079978362 0 -0.020760790917188281 0.27194299741203948 0 -0.034797589248662553 0.26816662559081028 0 -0.032274666891239728 0.26303687725949049 0 -0.020760790917188281 0.27194299741203948 0 -0.043674908884781809 0.2736121997616911 0 -0.029295885069239101 0.27731733429880512 0 -0.020760790917188281 0.27194299741203948 0 -0.029295885069239101 0.27731733429880512 0 -0.020760790917188281 0.27194299741203948 0 -0.021408638736587649 0.28186238785894002 0 -0.029295885069239101 0.27731733429880512 0 -0.021408638736587649 0.28186238785894002 0 -0.031339201738398659 0.28185175216254987 0 -0.020760790917188281 0.27194299741203948 0 -0.015035423351243851 0.27852084373009323 0 -0.021408638736587649 0.28186238785894002 0 -0.022826640741406092 0.26055688079978362 0 -0.020760790917188281 0.27194299741203948 0 -0.014335002112386719 0.26755051790601658 0 -0.014335002112386719 0.26755051790601658 0 -0.0040916167912371194 0.26036385346038171 0 0.0021533270504053049 0.27027379506238802 0 -0.020760790917188281 0.27194299741203948 0 -0.0082193802630881156 0.27692346734389472 0 0.0021533270504053049 0.27027379506238802 0 -0.020760790917188281 0.27194299741203948 0 0.0021533270504053049 0.27027379506238802 0 -0.020760790917188281 0.27194299741203948 0 -0.014335002112386719 0.26755051790601658 0 0.0021533270504053049 0.27027379506238802 0 -0.020760790917188281 0.27194299741203948 0 -0.015035423351243851 0.27852084373009323 0 -0.0082193802630881156 0.27692346734389472 0 -0.015035423351243851 0.27852084373009323 0 -0.0082193802630881156 0.27692346734389472 0 -0.011036518909388549 0.28377828975926361 0 -0.0082193802630881156 0.27692346734389472 0 0.0021533270504053049 0.27027379506238802 0 0.0010152339694203781 0.28094894566321948 0 -0.0082193802630881156 0.27692346734389472 0 -0.011036518909388549 0.28377828975926361 0 0.0010152339694203781 0.28094894566321948 0 -0.0040916167912371194 0.26036385346038171 0 -0.01161598869828236 0.25227960603375049 0 -3.775473568293317e-05 0.2467409491748972 0 -0.014335002112386719 0.26755051790601658 0 -0.0040916167912371194 0.26036385346038171 0 -0.01161598869828236 0.25227960603375049 0 -0.014335002112386719 0.26755051790601658 0 -0.01161598869828236 0.25227960603375049 0 -0.009317134680405641 0.29509348745976011 0 0.0015017021651314161 0.29269047519856761 0 0.00063858043389025947 0.30889601004366218 0 -0.009317134680405641 0.29509348745976011 0 -0.01537324348557032 0.32237756611626789 0 -0.009317134680405641 0.29509348745976011 0 -0.01537324348557032 0.32237756611626789 0 0.00063858043389025947 0.30889601004366218 0 -0.009317134680405641 0.29509348745976011 0 -0.023975090339366109 0.29230496129610201 0 0.0015017021651314161 0.29269047519856761 0 -0.011036518909388549 0.28377828975926361 0 -0.023975090339366109 0.29230496129610201 0 0.0015017021651314161 0.29269047519856761 0 -0.023975090339366109 0.29230496129610201 0 0.0015017021651314161 0.29269047519856761 0 -0.011036518909388549 0.28377828975926361 0 0.0015017021651314161 0.29269047519856761 0 0.0010152339694203781 0.28094894566321948 0 -0.015035423351243851 0.27852084373009323 0 -0.011036518909388549 0.28377828975926361 0 -0.021408638736587649 0.28186238785894002 0 -0.011036518909388549 0.28377828975926361 0 -0.021408638736587649 0.28186238785894002 0 -0.023975090339366109 0.29230496129610201 0 -0.021408638736587649 0.28186238785894002 0 -0.023975090339366109 0.29230496129610201 0 -0.031339201738398659 0.28185175216254987 0 -0.009317134680405641 0.29509348745976011 0 -0.023975090339366109 0.29230496129610201 0 -0.01537324348557032 0.32237756611626789 0 -0.023975090339366109 0.29230496129610201 0 -0.036765646909310272 0.31136204155522468 0 -0.01537324348557032 0.32237756611626789 0 -0.023975090339366109 0.29230496129610201 0 -0.036765646909310272 0.31136204155522468 0 -0.049451882843863711 0.29191944739363629 0 -0.023975090339366109 0.29230496129610201 0 -0.040324350545696518 0.28440828170212551 0 -0.049451882843863711 0.29191944739363629 0 -0.023975090339366109 0.29230496129610201 0 -0.031339201738398659 0.28185175216254987 0 -0.040324350545696518 0.28440828170212551 0 -0.023975090339366109 0.29230496129610201 0 -0.049451882843863711 0.29191944739363629 0 -0.074928675348361312 0.29153393349116941 0 -0.049451882843863711 0.29191944739363629 0 -0.040324350545696518 0.28440828170212551 0 -0.053180668922072322 0.28235304789664789 0 -0.049451882843863711 0.29191944739363629 0 -0.0633728445505959 0.28469845414228201 0 -0.053180668922072322 0.28235304789664789 0 -0.049451882843863711 0.29191944739363629 0 -0.036765646909310272 0.31136204155522468 0 -0.049451882843863711 0.29191944739363629 0 -0.06194843766376322 0.31807942617886942 0 -0.074928675348361312 0.29153393349116941 0 -0.049451882843863711 0.29191944739363629 0 -0.06194843766376322 0.31807942617886942 0 -0.06194843766376322 0.31807942617886942 0 -0.035806291536646058 0.33005188729602919 0 -0.048968199979167751 0.34462491886657082 0 -0.06194843766376322 0.31807942617886942 0 -0.048968199979167751 0.34462491886657082 0 -0.06194843766376322 0.31807942617886942 0 -0.048968199979167751 0.34462491886657082 0 -0.070832487848187325 0.34298554143395271 0 -0.035806291536646058 0.33005188729602919 0 -0.021429352290735001 0.34966164477277578 0 -0.048968199979167751 0.34462491886657082 0 -0.036765646909310272 0.31136204155522468 0 -0.06194843766376322 0.31807942617886942 0 -0.035806291536646058 0.33005188729602919 0 -0.036765646909310272 0.31136204155522468 0 -0.035806291536646058 0.33005188729602919 0 -0.01537324348557032 0.32237756611626789 0 -0.01537324348557032 0.32237756611626789 0 -0.021429352290735001 0.34966164477277578 0 -0.035806291536646058 0.33005188729602919 0 -0.01537324348557032 0.32237756611626789 0 -0.021429352290735001 0.34966164477277578 0 -0.0010712282531860321 0.33265491181379869 0 -0.01537324348557032 0.32237756611626789 0 -0.021429352290735001 0.34966164477277578 0 -0.0010712282531860321 0.33265491181379869 0 -0.01537324348557032 0.32237756611626789 0 0.00063858043389025947 0.30889601004366218 0 -0.01061784832627341 0.36894032905053581 0 0.0059516532193365779 0.37750163967520423 0 0.0021689880820419658 0.35400789128812599 0 -0.01061784832627341 0.36894032905053581 0 -0.021429352290735001 0.34966164477277578 0 0.0021689880820419658 0.35400789128812599 0 -0.0010712282531860321 0.33265491181379869 0 -0.021429352290735001 0.34966164477277578 0 0.0021689880820419658 0.35400789128812599 0 -0.021429352290735001 0.34966164477277578 0 -0.044101535184805057 0.36617732942061831 0 -0.02748546109589969 0.37694572342928379 0 -0.021429352290735001 0.34966164477277578 0 -0.02748546109589969 0.37694572342928379 0 -0.01061784832627341 0.36894032905053581 0 -0.021429352290735001 0.34966164477277578 0 -0.02748546109589969 0.37694572342928379 0 -0.044101535184805057 0.36617732942061831 0 -0.040227014682440998 0.38137991552123851 0 -0.02748546109589969 0.37694572342928379 0 -0.021429352290735001 0.34966164477277578 0 -0.044101535184805057 0.36617732942061831 0 -0.048968199979167751 0.34462491886657082 0 -0.044101535184805057 0.36617732942061831 0 -0.048968199979167751 0.34462491886657082 0 -0.06971864891314053 0.36280252190922108 0 -0.06971864891314053 0.36280252190922108 0 -0.053406380649336442 0.38431480639142968 0 -0.044101535184805057 0.36617732942061831 0 -0.06971864891314053 0.36280252190922108 0 -0.053406380649336442 0.38431480639142968 0 -0.06971864891314053 0.36280252190922108 0 -0.084436543511087842 0.36858470612471461 0 -0.071523817366333717 0.38139678970771052 0 -0.06971864891314053 0.36280252190922108 0 -0.084436543511087842 0.36858470612471461 0 -0.087095355138614938 0.35381895079074882 0 -0.084436543511087842 0.36858470612471461 0 -0.09346156871962373 0.36424211089444453 0 -0.087095355138614938 0.35381895079074882 0 -0.084436543511087842 0.36858470612471461 0 -0.098605525901051205 0.37271248670251661 0 -0.0873123529988616 0.38257145401360371 0 -0.084436543511087842 0.36858470612471461 0 -0.09346156871962373 0.36424211089444453 0 -0.098605525901051205 0.37271248670251661 0 -0.087095355138614938 0.35381895079074882 0 -0.070832487848187325 0.34298554143395271 0 -0.085468644746465261 0.33774131131902418 0 -0.048968199979167751 0.34462491886657082 0 -0.06971864891314053 0.36280252190922108 0 -0.070832487848187325 0.34298554143395271 0 -0.06971864891314053 0.36280252190922108 0 -0.087095355138614938 0.35381895079074882 0 -0.070832487848187325 0.34298554143395271 0 -0.06194843766376322 0.31807942617886942 0 -0.070832487848187325 0.34298554143395271 0 -0.079255952761431089 0.32635622715379781 0 -0.077897735952554642 0.30976533275586549 0 -0.06194843766376322 0.31807942617886942 0 -0.079255952761431089 0.32635622715379781 0 -0.077897735952554642 0.30976533275586549 0 -0.079255952761431089 0.32635622715379781 0 -0.08622842176293409 0.31747807221099572 0 -0.079255952761431089 0.32635622715379781 0 -0.090009373986015315 0.32722430802457952 0 -0.08622842176293409 0.31747807221099572 0 -0.090009373986015315 0.32722430802457952 0 -0.08622842176293409 0.31747807221099572 0 -0.096591257668414143 0.31479075842428711 0 -0.070832487848187325 0.34298554143395271 0 -0.079255952761431089 0.32635622715379781 0 -0.085468644746465261 0.33774131131902418 0 -0.087095355138614938 0.35381895079074882 0 -0.085468644746465261 0.33774131131902418 0 -0.1001500539980776 0.3383215291920425 0 -0.079255952761431089 0.32635622715379781 0 -0.090009373986015315 0.32722430802457952 0 -0.085468644746465261 0.33774131131902418 0 -0.090009373986015315 0.32722430802457952 0 -0.085468644746465261 0.33774131131902418 0 -0.1001500539980776 0.3383215291920425 0 -0.1001500539980776 0.3383215291920425 0 -0.096591257668414143 0.31479075842428711 0 -0.11102859125125331 0.33400021862817952 0 -0.1001500539980776 0.3383215291920425 0 -0.11102859125125331 0.33400021862817952 0 -0.1076470714122187 0.34848745291292532 0 -0.10635639243070349 0.30822467338467763 0 -0.11102859125125331 0.33400021862817952 0 -0.090009373986015315 0.32722430802457952 0 -0.1001500539980776 0.3383215291920425 0 -0.096591257668414143 0.31479075842428711 0 -0.10635639243070349 0.30822467338467763 0 -0.096591257668414143 0.31479075842428711 0 -0.11102859125125331 0.33400021862817952 0 -0.1001500539980776 0.3383215291920425 0 -0.096591257668414143 0.31479075842428711 0 -0.12558336036025489 0.30229136909407001 0 -0.1126946977517586 0.32174590068853032 0 -0.1241795480830248 0.31842829230440112 0 -0.10635639243070349 0.30822467338467763 0 -0.1126946977517586 0.32174590068853032 0 -0.11102859125125331 0.33400021862817952 0 -0.1126946977517586 0.32174590068853032 0 -0.1241795480830248 0.31842829230440112 0 -0.12414550948967359 0.33089548956304099 0 -0.1126946977517586 0.32174590068853032 0 -0.11102859125125331 0.33400021862817952 0 -0.12414550948967359 0.33089548956304099 0 -0.11102859125125331 0.33400021862817952 0 -0.12414550948967359 0.33089548956304099 0 -0.1214561958695359 0.34398190402411172 0 -0.12929362775513331 0.34224622142228428 0 -0.12414550948967359 0.33089548956304099 0 -0.1214561958695359 0.34398190402411172 0 -0.11102859125125331 0.33400021862817952 0 -0.1157007900718031 0.35977576387168142 0 -0.12711246077981619 0.35299182663537232 0 -0.1214561958695359 0.34398190402411172 0 -0.1157007900718031 0.35977576387168142 0 -0.11102859125125331 0.33400021862817952 0 -0.1214561958695359 0.34398190402411172 0 -0.1157007900718031 0.35977576387168142 0 -0.11102859125125331 0.33400021862817952 0 -0.1157007900718031 0.35977576387168142 0 -0.1076470714122187 0.34848745291292532 0 -0.1270687515957519 0.36240078821437238 0 -0.12711246077981619 0.35299182663537232 0 -0.1157007900718031 0.35977576387168142 0 -0.12970416573250021 0.37568690229994661 0 -0.1270687515957519 0.36240078821437238 0 -0.1157007900718031 0.35977576387168142 0 -0.12970416573250021 0.37568690229994661 0 -0.1157007900718031 0.35977576387168142 0 -0.1203729888923529 0.38555130911518332 0 -0.1111848228915622 0.37441635065186712 0 -0.1157007900718031 0.35977576387168142 0 -0.1203729888923529 0.38555130911518332 0 -0.1157007900718031 0.35977576387168142 0 -0.1203729888923529 0.38555130911518332 0 -0.1111848228915622 0.37441635065186712 0 -0.1157007900718031 0.35977576387168142 0 -0.10370885032774101 0.36185229995979812 0 -0.09346156871962373 0.36424211089444453 0 -0.087095355138614938 0.35381895079074882 0 -0.10370885032774101 0.36185229995979812 0 -0.1111848228915622 0.37441635065186712 0 -0.10370885032774101 0.36185229995979812 0 -0.098605525901051205 0.37271248670251661 0 -0.09346156871962373 0.36424211089444453 0 -0.10370885032774101 0.36185229995979812 0 -0.098605525901051205 0.37271248670251661 0 -0.1001500539980776 0.3383215291920425 0 -0.10370885032774101 0.36185229995979812 0 -0.1076470714122187 0.34848745291292532 0 -0.1001500539980776 0.3383215291920425 0 -0.10370885032774101 0.36185229995979812 0 -0.087095355138614938 0.35381895079074882 0 -0.1001500539980776 0.3383215291920425 0 -0.10370885032774101 0.36185229995979812 0 -0.1157007900718031 0.35977576387168142 0 -0.10370885032774101 0.36185229995979812 0 -0.1076470714122187 0.34848745291292532 0 -0.10399335683700101 0.39909865506318548 0 -0.088887357093955607 0.41146622637182878 0 -0.088425627705679702 0.39810477237523639 0 -0.1111848228915622 0.37441635065186712 0 -0.098605525901051205 0.37271248670251661 0 -0.10399335683700101 0.39909865506318548 0 -0.098605525901051205 0.37271248670251661 0 -0.10399335683700101 0.39909865506318548 0 -0.098605525901051205 0.37271248670251661 0 -0.10399335683700101 0.39909865506318548 0 -0.0873123529988616 0.38257145401360371 0 -0.1111848228915622 0.37441635065186712 0 -0.10399335683700101 0.39909865506318548 0 -0.1203729888923529 0.38555130911518332 0 -0.10399335683700101 0.39909865506318548 0 -0.12082207064948911 0.3992218355721569 0 -0.1172953236237934 0.41077132906558628 0 -0.10399335683700101 0.39909865506318548 0 -0.1203729888923529 0.38555130911518332 0 -0.12082207064948911 0.3992218355721569 0 -0.128047778297396 0.4081993566969141 0 -0.12082207064948911 0.3992218355721569 0 -0.1172953236237934 0.41077132906558628 0 -0.128047778297396 0.4081993566969141 0 -0.1216946509978903 0.42391018547391279 0 -0.128047778297396 0.4081993566969141 0 -0.1172953236237934 0.41077132906558628 0 -0.1216946509978903 0.42391018547391279 0 -0.10399335683700101 0.39909865506318548 0 -0.1172953236237934 0.41077132906558628 0 -0.1093811877729531 0.42548482342385407 0 -0.1172953236237934 0.41077132906558628 0 -0.1216946509978903 0.42391018547391279 0 -0.1093811877729531 0.42548482342385407 0 -0.1216946509978903 0.42391018547391279 0 -0.1136884915520006 0.44026533998388923 0 -0.1122689145086605 0.43962707189709682 0 -0.1267124749860665 0.44103703313599368 0 -0.1216946509978903 0.42391018547391279 0 -0.1132990344270203 0.44467194392828929 0 -0.1216946509978903 0.42391018547391279 0 -0.1136884915520006 0.44026533998388923 0 -0.1132990344270203 0.44467194392828929 0 -0.1216946509978903 0.42391018547391279 0 -0.1132990344270203 0.44467194392828929 0 -0.1216946509978903 0.42391018547391279 0 -0.1093811877729531 0.42548482342385407 0 -0.1122689145086605 0.43962707189709682 0 -0.1216946509978903 0.42391018547391279 0 -0.1093811877729531 0.42548482342385407 0 -0.1093811877729531 0.42548482342385407 0 -0.1122689145086605 0.43962707189709682 0 -0.1093811877729531 0.42548482342385407 0 -0.098905986418063863 0.41589576158492592 0 -0.093357444343362406 0.42749737301387208 0 -0.1093811877729531 0.42548482342385407 0 -0.100808114794932 0.43447408443457841 0 -0.093357444343362406 0.42749737301387208 0 -0.1093811877729531 0.42548482342385407 0 -0.093357444343362406 0.42749737301387208 0 -0.1093811877729531 0.42548482342385407 0 -0.100808114794932 0.43447408443457841 0 -0.1122689145086605 0.43962707189709682 0 -0.100808114794932 0.43447408443457841 0 -0.1122689145086605 0.43962707189709682 0 -0.100808114794932 0.43447408443457841 0 -0.087140632488557343 0.42832893167664809 0 -0.100808114794932 0.43447408443457841 0 -0.087140632488557343 0.42832893167664809 0 -0.093357444343362406 0.42749737301387208 0 -0.100808114794932 0.43447408443457841 0 -0.093357444343362406 0.42749737301387208 0 -0.10399335683700101 0.39909865506318548 0 -0.1093811877729531 0.42548482342385407 0 -0.098905986418063863 0.41589576158492592 0 -0.10399335683700101 0.39909865506318548 0 -0.098905986418063863 0.41589576158492592 0 -0.088887357093955607 0.41146622637182878 0 -0.10399335683700101 0.39909865506318548 0 -0.1093811877729531 0.42548482342385407 0 -0.088887357093955607 0.41146622637182878 0 -0.087140632488557343 0.42832893167664809 0 -0.077310992065588363 0.41376799154796401 0 -0.098905986418063863 0.41589576158492592 0 -0.088887357093955607 0.41146622637182878 0 -0.093357444343362406 0.42749737301387208 0 -0.088887357093955607 0.41146622637182878 0 -0.077310992065588363 0.41376799154796401 0 -0.073509443892900636 0.39928275405232772 0 -0.087140632488557343 0.42832893167664809 0 -0.066107963988488075 0.43101857612546762 0 -0.083316910109520109 0.4441091130439625 0 -0.088887357093955607 0.41146622637182878 0 -0.087140632488557343 0.42832893167664809 0 -0.093357444343362406 0.42749737301387208 0 -0.100808114794932 0.43447408443457841 0 -0.087140632488557343 0.42832893167664809 0 -0.083316910109520109 0.4441091130439625 0 -0.087140632488557343 0.42832893167664809 0 -0.093357444343362406 0.42749737301387208 0 -0.087140632488557343 0.42832893167664809 0 -0.066107963988488075 0.43101857612546762 0 -0.087140632488557343 0.42832893167664809 0 -0.066107963988488075 0.43101857612546762 0 -0.059706534786939568 0.4159940540910515 0 -0.087140632488557343 0.42832893167664809 0 -0.059706534786939568 0.4159940540910515 0 -0.077310992065588363 0.41376799154796401 0 -0.073509443892900636 0.39928275405232772 0 -0.059706534786939568 0.4159940540910515 0 -0.087140632488557343 0.42832893167664809 0 -0.077310992065588363 0.41376799154796401 0 -0.059706534786939568 0.4159940540910515 0 -0.073509443892900636 0.39928275405232772 0 -0.059706534786939568 0.4159940540910515 0 -0.073509443892900636 0.39928275405232772 0 -0.055066647232626269 0.40121891724494912 0 -0.059706534786939568 0.4159940540910515 0 -0.073509443892900636 0.39928275405232772 0 -0.088425627705679702 0.39810477237523639 0 -0.0873123529988616 0.38257145401360371 0 -0.10399335683700101 0.39909865506318548 0 -0.088425627705679702 0.39810477237523639 0 -0.0873123529988616 0.38257145401360371 0 -0.088887357093955607 0.41146622637182878 0 -0.073509443892900636 0.39928275405232772 0 -0.088425627705679702 0.39810477237523639 0 -0.073509443892900636 0.39928275405232772 0 -0.0873123529988616 0.38257145401360371 0 -0.084436543511087842 0.36858470612471461 0 -0.0873123529988616 0.38257145401360371 0 -0.071523817366333717 0.38139678970771052 0 -0.073509443892900636 0.39928275405232772 0 -0.0873123529988616 0.38257145401360371 0 -0.071523817366333717 0.38139678970771052 0 -0.06971864891314053 0.36280252190922108 0 -0.071523817366333717 0.38139678970771052 0 -0.053406380649336442 0.38431480639142968 0 -0.073509443892900636 0.39928275405232772 0 -0.071523817366333717 0.38139678970771052 0 -0.053406380649336442 0.38431480639142968 0 -0.073509443892900636 0.39928275405232772 0 -0.053406380649336442 0.38431480639142968 0 -0.055066647232626269 0.40121891724494912 0 -0.053406380649336442 0.38431480639142968 0 -0.055066647232626269 0.40121891724494912 0 -0.03709411238553293 0.40582709087363861 0 -0.035914681799722792 0.39808180284362199 0 -0.033541569901064182 0.40422980208579168 0 -0.02748546109589969 0.37694572342928379 0 -0.053406380649336442 0.38431480639142968 0 -0.03709411238553293 0.40582709087363861 0 -0.053406380649336442 0.38431480639142968 0 -0.035914681799722792 0.39808180284362199 0 -0.03709411238553293 0.40582709087363861 0 -0.035914681799722792 0.39808180284362199 0 -0.033541569901064182 0.40422980208579168 0 -0.035914681799722792 0.39808180284362199 0 -0.033541569901064182 0.40422980208579168 0 -0.03709411238553293 0.40582709087363861 0 -0.033541569901064182 0.40422980208579168 0 -0.03709411238553293 0.40582709087363861 0 -0.035914681799722792 0.39808180284362199 0 -0.040227014682440998 0.38137991552123851 0 -0.02748546109589969 0.37694572342928379 0 -0.044101535184805057 0.36617732942061831 0 -0.053406380649336442 0.38431480639142968 0 -0.040227014682440998 0.38137991552123851 0 -0.053406380649336442 0.38431480639142968 0 -0.035914681799722792 0.39808180284362199 0 -0.040227014682440998 0.38137991552123851 0 -0.01061784832627341 0.36894032905053581 0 -0.02748546109589969 0.37694572342928379 0 -0.012295069546110879 0.38658474608728888 0 -0.033541569901064182 0.40422980208579168 0 -0.02748546109589969 0.37694572342928379 0 -0.02748546109589969 0.37694572342928379 0 -0.022128712830507959 0.39909837052210961 0 -0.012295069546110879 0.38658474608728888 0 -0.033541569901064182 0.40422980208579168 0 -0.02748546109589969 0.37694572342928379 0 -0.022128712830507959 0.39909837052210961 0 -0.033541569901064182 0.40422980208579168 0 -0.022128712830507959 0.39909837052210961 0 -0.033541569901064182 0.40422980208579168 0 -0.022128712830507959 0.39909837052210961 0 -0.025735672583155091 0.40633353124205379 0 -0.022128712830507959 0.39909837052210961 0 -0.01182840167310705 0.40424856355306132 0 -0.025735672583155091 0.40633353124205379 0 -0.022128712830507959 0.39909837052210961 0 -0.01182840167310705 0.40424856355306132 0 -0.012295069546110879 0.38658474608728888 0 -0.00025536080174594551 0.39434028735229981 0 -0.01182840167310705 0.40424856355306132 0 -0.012295069546110879 0.38658474608728888 0 -0.00025536080174594551 0.39434028735229981 0 -0.01182840167310705 0.40424856355306132 0 0.0088835680686152642 0.41039702809863449 0 -0.01061784832627341 0.36894032905053581 0 -0.012295069546110879 0.38658474608728888 0 0.0059516532193365779 0.37750163967520423 0 -0.00025536080174594551 0.39434028735229981 0 -0.012295069546110879 0.38658474608728888 0 0.0059516532193365779 0.37750163967520423 0 -0.01517519433711517 0.43473330998272769 0 -0.01074399790722287 0.41790739274830391 0 -0.018831407609378639 0.41550338041675411 0 -0.01517519433711517 0.43473330998272769 0 -0.01074399790722287 0.41790739274830391 0 0.0055561814427249733 0.43119658166542341 0 -0.01074399790722287 0.41790739274830391 0 0.0088835680686152642 0.41039702809863449 0 -0.01182840167310705 0.40424856355306132 0 -0.01074399790722287 0.41790739274830391 0 0.0088835680686152642 0.41039702809863449 0 -0.01182840167310705 0.40424856355306132 0 -0.01074399790722287 0.41790739274830391 0 -0.018831407609378639 0.41550338041675411 0 -0.01517519433711517 0.43473330998272769 0 -0.018831407609378639 0.41550338041675411 0 -0.030673771546293211 0.41429410455762322 0 -0.01182840167310705 0.40424856355306132 0 -0.018831407609378639 0.41550338041675411 0 -0.025735672583155091 0.40633353124205379 0 -0.033541569901064182 0.40422980208579168 0 -0.025735672583155091 0.40633353124205379 0 -0.030673771546293211 0.41429410455762322 0 -0.018831407609378639 0.41550338041675411 0 -0.025735672583155091 0.40633353124205379 0 -0.030673771546293211 0.41429410455762322 0 -0.030673771546293211 0.41429410455762322 0 -0.032044635987266729 0.42453935418969391 0 -0.022754022057614749 0.43879316330905888 0 -0.030673771546293211 0.41429410455762322 0 -0.022754022057614749 0.43879316330905888 0 -0.01517519433711517 0.43473330998272769 0 -0.030673771546293211 0.41429410455762322 0 -0.022754022057614749 0.43879316330905888 0 -0.01517519433711517 0.43473330998272769 0 -0.030673771546293211 0.41429410455762322 0 -0.032286843906428608 0.43286479631971148 0 -0.032044635987266729 0.42453935418969391 0 -0.022754022057614749 0.43879316330905888 0 -0.032286843906428608 0.43286479631971148 0 -0.032312183513429529 0.43966555215448577 0 -0.022754022057614749 0.43879316330905888 0 -0.034954590042245978 0.42649130048352818 0 -0.039800794451969032 0.43242896106225992 0 -0.034620263874498958 0.40908955149987741 0 -0.036020411991068681 0.43353383934610001 0 -0.032286843906428608 0.43286479631971148 0 -0.032312183513429529 0.43966555215448577 0 -0.036020411991068681 0.43353383934610001 0 -0.039895950645093013 0.43437055194257368 0 -0.032312183513429529 0.43966555215448577 0 -0.036020411991068681 0.43353383934610001 0 -0.034954590042245978 0.42649130048352818 0 -0.039800794451969032 0.43242896106225992 0 -0.036020411991068681 0.43353383934610001 0 -0.039895950645093013 0.43437055194257368 0 -0.039800794451969032 0.43242896106225992 0 -0.036020411991068681 0.43353383934610001 0 -0.032286843906428608 0.43286479631971148 0 -0.034954590042245978 0.42649130048352818 0 -0.032286843906428608 0.43286479631971148 0 -0.032044635987266729 0.42453935418969391 0 -0.034954590042245978 0.42649130048352818 0 -0.045075295488418821 0.43370822057428682 0 -0.039800794451969032 0.43242896106225992 0 -0.043259400197471369 0.41940957562022252 0 -0.045075295488418821 0.43370822057428682 0 -0.039895950645093013 0.43437055194257368 0 -0.045075295488418821 0.43370822057428682 0 -0.039895950645093013 0.43437055194257368 0 -0.039800794451969032 0.43242896106225992 0 -0.03709411238553293 0.40582709087363861 0 -0.043259400197471369 0.41940957562022252 0 -0.059706534786939568 0.4159940540910515 0 -0.039800794451969032 0.43242896106225992 0 -0.034620263874498958 0.40908955149987741 0 -0.032044635987266729 0.42453935418969391 0 -0.034954590042245978 0.42649130048352818 0 -0.034620263874498958 0.40908955149987741 0 -0.039800794451969032 0.43242896106225992 0 -0.034620263874498958 0.40908955149987741 0 -0.043259400197471369 0.41940957562022252 0 -0.033541569901064182 0.40422980208579168 0 -0.030673771546293211 0.41429410455762322 0 -0.034620263874498958 0.40908955149987741 0 -0.03709411238553293 0.40582709087363861 0 -0.034620263874498958 0.40908955149987741 0 -0.043259400197471369 0.41940957562022252 0 -0.033541569901064182 0.40422980208579168 0 -0.030673771546293211 0.41429410455762322 0 -0.03709411238553293 0.40582709087363861 0 -0.034620263874498958 0.40908955149987741 0 -0.033541569901064182 0.40422980208579168 0 -0.03709411238553293 0.40582709087363861 0 -0.034620263874498958 0.40908955149987741 0 -0.033541569901064182 0.40422980208579168 0 -0.034620263874498958 0.40908955149987741 0 -0.030673771546293211 0.41429410455762322 0 -0.034620263874498958 0.40908955149987741 0 -0.030673771546293211 0.41429410455762322 0 -0.032044635987266729 0.42453935418969391 0 -0.034620263874498958 0.40908955149987741 0 -0.055066647232626269 0.40121891724494912 0 -0.03709411238553293 0.40582709087363861 0 -0.059706534786939568 0.4159940540910515 0 -0.03709411238553293 0.40582709087363861 0 -0.059706534786939568 0.4159940540910515 0 -0.066107963988488075 0.43101857612546762 0 -0.045075295488418821 0.43370822057428682 0 -0.045075295488418821 0.43370822057428682 0 -0.043259400197471369 0.41940957562022252 0 -0.059706534786939568 0.4159940540910515 0 -0.066107963988488075 0.43101857612546762 0 -0.045075295488418821 0.43370822057428682 0 -0.048004330057611407 0.44348486654566549 0 -0.066107963988488075 0.43101857612546762 0 -0.045075295488418821 0.43370822057428682 0 -0.059706534786939568 0.4159940540910515 0 -0.045075295488418821 0.43370822057428682 0 -0.059706534786939568 0.4159940540910515 0 -0.066107963988488075 0.43101857612546762 0 -0.055555100651439038 0.45145643507876382 0 -0.048004330057611407 0.44348486654566549 0 -0.055555100651439038 0.45145643507876382 0 -0.048004330057611407 0.44348486654566549 0 -0.040800845469650467 0.45644368018361631 0 -0.055555100651439038 0.45145643507876382 0 -0.049570088169639148 0.46830863476091072 0 -0.064688226202934754 0.46442552137525001 0 -0.055555100651439038 0.45145643507876382 0 -0.049570088169639148 0.46830863476091072 0 -0.040800845469650467 0.45644368018361631 0 -0.040800845469650467 0.45644368018361631 0 -0.026728896974733671 0.45396157645668822 0 -0.031534994363227091 0.47274217343958452 0 -0.049570088169639148 0.46830863476091072 0 -0.040800845469650467 0.45644368018361631 0 -0.031534994363227091 0.47274217343958452 0 -0.045075295488418821 0.43370822057428682 0 -0.039895950645093013 0.43437055194257368 0 -0.036186975505638472 0.44446938555278248 0 -0.045075295488418821 0.43370822057428682 0 -0.048004330057611407 0.44348486654566549 0 -0.036186975505638472 0.44446938555278248 0 -0.045075295488418821 0.43370822057428682 0 -0.036186975505638472 0.44446938555278248 0 -0.048004330057611407 0.44348486654566549 0 -0.040800845469650467 0.45644368018361631 0 -0.036186975505638472 0.44446938555278248 0 -0.036186975505638472 0.44446938555278248 0 -0.032312183513429529 0.43966555215448577 0 -0.026728896974733671 0.45396157645668822 0 -0.040800845469650467 0.45644368018361631 0 -0.036186975505638472 0.44446938555278248 0 -0.026728896974733671 0.45396157645668822 0 -0.039895950645093013 0.43437055194257368 0 -0.036186975505638472 0.44446938555278248 0 -0.032312183513429529 0.43966555215448577 0 -0.022754022057614749 0.43879316330905888 0 -0.014834272568935261 0.46329222206049431 0 -0.01451219680815063 0.44507488146340202 0 -0.022754022057614749 0.43879316330905888 0 -0.026728896974733671 0.45396157645668822 0 -0.014834272568935261 0.46329222206049431 0 -0.032312183513429529 0.43966555215448577 0 -0.022754022057614749 0.43879316330905888 0 -0.026728896974733671 0.45396157645668822 0 -0.022754022057614749 0.43879316330905888 0 -0.014834272568935261 0.46329222206049431 0 -0.01517519433711517 0.43473330998272769 0 -0.022754022057614749 0.43879316330905888 0 -0.01451219680815063 0.44507488146340202 0 -0.026728896974733671 0.45396157645668822 0 -0.014834272568935261 0.46329222206049431 0 -0.031534994363227091 0.47274217343958452 0 -0.026728896974733671 0.45396157645668822 0 -0.014834272568935261 0.46329222206049431 0 -0.014834272568935261 0.46329222206049431 0 -0.0062355617526431706 0.45131066357723942 0 -0.01451219680815063 0.44507488146340202 0 -0.014834272568935261 0.46329222206049431 0 0.0085631025914626371 0.48164611103024751 0 0.00032338287206229568 0.45517251540783299 0 -0.014834272568935261 0.46329222206049431 0 -0.0062355617526431706 0.45131066357723942 0 0.00032338287206229568 0.45517251540783299 0 -0.0062355617526431706 0.45131066357723942 0 0.00032338287206229568 0.45517251540783299 0 -0.01517519433711517 0.43473330998272769 0 -0.0062355617526431706 0.45131066357723942 0 -0.01451219680815063 0.44507488146340202 0 -0.01517519433711517 0.43473330998272769 0 0.00032338287206229568 0.45517251540783299 0 -0.01517519433711517 0.43473330998272769 0 -0.0062355617526431706 0.45131066357723942 0 0.00032338287206229568 0.45517251540783299 0 -0.01517519433711517 0.43473330998272769 0 0.00032338287206229568 0.45517251540783299 0 0.0055561814427249733 0.43119658166542341 0 -0.002967840943277505 0.49999999999999822 0 -0.0089010567561065047 0.48164611103024618 0 -0.031190385207127469 0.5 0 -0.002967840943277505 0.49999999999999822 0 -0.0089010567561065047 0.48164611103024618 0 0.0085631025914626371 0.48164611103024751 0 -0.002967840943277505 0.49999999999999822 0 -0.0089010567561065047 0.48164611103024618 0 -0.014834272568935261 0.46329222206049431 0 0.0085631025914626371 0.48164611103024751 0 -0.014834272568935261 0.46329222206049431 0 -0.0089010567561065047 0.48164611103024618 0 -0.014834272568935261 0.46329222206049431 0 -0.0089010567561065047 0.48164611103024618 0 0.0085631025914626371 0.48164611103024751 0 -0.014834272568935261 0.46329222206049431 0 -0.0089010567561065047 0.48164611103024618 0 -0.031534994363227091 0.47274217343958452 0 -0.0089010567561065047 0.48164611103024618 0 -0.031190385207127469 0.5 0 -0.031534994363227091 0.47274217343958452 0 -0.031190385207127469 0.5 0 -0.045525595444986543 0.48583219385945159 0 -0.031534994363227091 0.47274217343958452 0 -0.031190385207127469 0.5 0 -0.045525595444986543 0.48583219385945159 0 -0.059412929470977538 0.5 0 -0.049570088169639148 0.46830863476091072 0 -0.045525595444986543 0.48583219385945159 0 -0.031534994363227091 0.47274217343958452 0 -0.049570088169639148 0.46830863476091072 0 -0.045525595444986543 0.48583219385945159 0 -0.05908728850426756 0.47895931705378469 0 -0.049570088169639148 0.46830863476091072 0 -0.05908728850426756 0.47895931705378469 0 -0.064688226202934754 0.46442552137525001 0 -0.045525595444986543 0.48583219385945159 0 -0.05908728850426756 0.47895931705378469 0 -0.059412929470977538 0.5 0 -0.05908728850426756 0.47895931705378469 0 -0.059412929470977538 0.5 0 -0.078197769888376872 0.47961683191402033 0 -0.059412929470977538 0.5 0 -0.087635473734827385 0.5 0 -0.078197769888376872 0.47961683191402033 0 -0.087635473734827385 0.5 0 -0.078197769888376872 0.47961683191402033 0 -0.099993642198725599 0.47757522592702378 0 -0.078197769888376872 0.47961683191402033 0 -0.091364433006692447 0.46251503053831122 0 -0.099993642198725599 0.47757522592702378 0 -0.05908728850426756 0.47895931705378469 0 -0.078197769888376872 0.47961683191402033 0 -0.064688226202934754 0.46442552137525001 0 -0.078197769888376872 0.47961683191402033 0 -0.064688226202934754 0.46442552137525001 0 -0.076814252620437451 0.45890608303956082 0 -0.064688226202934754 0.46442552137525001 0 -0.076814252620437451 0.45890608303956082 0 -0.068904857383448481 0.44930582640445921 0 -0.055555100651439038 0.45145643507876382 0 -0.064688226202934754 0.46442552137525001 0 -0.068904857383448481 0.44930582640445921 0 -0.066107963988488075 0.43101857612546762 0 -0.068904857383448481 0.44930582640445921 0 -0.083316910109520109 0.4441091130439625 0 -0.066107963988488075 0.43101857612546762 0 -0.055555100651439038 0.45145643507876382 0 -0.068904857383448481 0.44930582640445921 0 -0.076814252620437451 0.45890608303956082 0 -0.068904857383448481 0.44930582640445921 0 -0.083316910109520109 0.4441091130439625 0 -0.083316910109520109 0.4441091130439625 0 -0.091364433006692447 0.46251503053831122 0 -0.098507374435521336 0.44929168123598301 0 -0.078197769888376872 0.47961683191402033 0 -0.076814252620437451 0.45890608303956082 0 -0.091364433006692447 0.46251503053831122 0 -0.076814252620437451 0.45890608303956082 0 -0.083316910109520109 0.4441091130439625 0 -0.091364433006692447 0.46251503053831122 0 -0.091364433006692447 0.46251503053831122 0 -0.10642657629904451 0.46166704064767777 0 -0.099993642198725599 0.47757522592702378 0 -0.091364433006692447 0.46251503053831122 0 -0.10642657629904451 0.46166704064767777 0 -0.098507374435521336 0.44929168123598301 0 -0.10642657629904451 0.46166704064767777 0 -0.098507374435521336 0.44929168123598301 0 -0.1132990344270203 0.44467194392828929 0 -0.100808114794932 0.43447408443457841 0 -0.083316910109520109 0.4441091130439625 0 -0.098507374435521336 0.44929168123598301 0 -0.100808114794932 0.43447408443457841 0 -0.1122689145086605 0.43962707189709682 0 -0.1132990344270203 0.44467194392828929 0 -0.100808114794932 0.43447408443457841 0 -0.098507374435521336 0.44929168123598301 0 -0.1132990344270203 0.44467194392828929 0 -0.100808114794932 0.43447408443457841 0 -0.1132990344270203 0.44467194392828929 0 -0.1331072216407698 0.4647185502279173 0 -0.1267124749860665 0.44103703313599368 0 -0.1136773441573202 0.44652466431888199 0 -0.10642657629904451 0.46166704064767777 0 -0.1132990344270203 0.44467194392828929 0 -0.1136773441573202 0.44652466431888199 0 -0.1136884915520006 0.44026533998388923 0 -0.1122689145086605 0.43962707189709682 0 -0.1136884915520006 0.44026533998388923 0 -0.1122689145086605 0.43962707189709682 0 -0.1132990344270203 0.44467194392828929 0 -0.1122689145086605 0.43962707189709682 0 -0.1132990344270203 0.44467194392828929 0 -0.1132990344270203 0.44467194392828929 0 -0.1136773441573202 0.44652466431888199 0 -0.1267124749860665 0.44103703313599368 0 -0.1132990344270203 0.44467194392828929 0 -0.1136773441573202 0.44652466431888199 0 -0.1331072216407698 0.4647185502279173 0 -0.1136773441573202 0.44652466431888199 0 -0.11658273203017271 0.4607534058064176 0 -0.10642657629904451 0.46166704064767777 0 -0.1132990344270203 0.44467194392828929 0 -0.1331072216407698 0.4647185502279173 0 -0.11658273203017271 0.4607534058064176 0 -0.12325057716570149 0.47166959090600091 0 -0.1331072216407698 0.4647185502279173 0 -0.1136773441573202 0.44652466431888199 0 -0.10642657629904451 0.46166704064767777 0 -0.11658273203017271 0.4607534058064176 0 -0.1124945815929496 0.47265735029721828 0 -0.10642657629904451 0.46166704064767777 0 -0.1136773441573202 0.44652466431888199 0 -0.11658273203017271 0.4607534058064176 0 -0.1136773441573202 0.44652466431888199 0 -0.11658273203017271 0.4607534058064176 0 -0.11658273203017271 0.4607534058064176 0 -0.12325057716570149 0.47166959090600091 0 -0.1124945815929496 0.47265735029721828 0 -0.12325057716570149 0.47166959090600091 0 -0.1124945815929496 0.47265735029721828 0 -0.12061617694546541 0.48212309941062742 0 -0.1124945815929496 0.47265735029721828 0 -0.12061617694546541 0.48212309941062742 0 -0.10811049626902119 0.48794232887334632 0 -0.1341975585614486 0.49145621806847628 0 -0.12061617694546541 0.48212309941062742 0 -0.1158580179986774 0.50000000000000067 0 -0.12061617694546541 0.48212309941062742 0 -0.1158580179986774 0.50000000000000067 0 -0.10811049626902119 0.48794232887334632 0 -0.087635473734827385 0.5 0 -0.10811049626902119 0.48794232887334632 0 -0.099993642198725599 0.47757522592702378 0 -0.087635473734827385 0.5 0 -0.1158580179986774 0.50000000000000067 0 -0.10811049626902119 0.48794232887334632 0 -0.10642657629904451 0.46166704064767777 0 -0.1124945815929496 0.47265735029721828 0 -0.099993642198725599 0.47757522592702378 0 -0.10642657629904451 0.46166704064767777 0 -0.099993642198725599 0.47757522592702378 0 -0.1124945815929496 0.47265735029721828 0 -0.10811049626902119 0.48794232887334632 0 -0.099993642198725599 0.47757522592702378 0 -0.1586393788102074 0.074981782573504713 0 -0.17081813271406421 0.074525478462967115 0 -0.16421852517717189 0.094142213826840626 0 -0.17081813271406421 0.074525478462967115 0 -0.17786800235187819 0.089181150468584325 0 -0.16421852517717189 0.094142213826840626 0 -0.1586393788102074 0.074981782573504713 0 -0.16421852517717189 0.094142213826840626 0 -0.14670702602276769 0.080265936681562844 0 -0.17081813271406421 0.074525478462967115 0 -0.16421852517717189 0.094142213826840626 0 -0.1586393788102074 0.074981782573504713 0 -0.16346423671351709 0.064023330336213061 0 -0.16459430748659279 0.071165206870888023 0 -0.1586393788102074 0.074981782573504713 0 -0.16346423671351709 0.064023330336213061 0 -0.14989291592393481 0.061912440585291113 0 -0.16346423671351709 0.064023330336213061 0 -0.16993433029821389 0.069433415752224475 0 -0.17546813457731139 0.061767092742164811 0 -0.16346423671351709 0.064023330336213061 0 -0.16993433029821389 0.069433415752224475 0 -0.16459430748659279 0.071165206870888023 0 -0.1586393788102074 0.074981782573504713 0 -0.16459430748659279 0.071165206870888023 0 -0.17081813271406421 0.074525478462967115 0 -0.16993433029821389 0.069433415752224475 0 -0.16459430748659279 0.071165206870888023 0 -0.17081813271406421 0.074525478462967115 0 -0.1753268399995839 0.075685970348889381 0 -0.17546813457731139 0.061767092742164811 0 -0.18951358764267151 0.059317047980458247 0 -0.1753268399995839 0.075685970348889381 0 -0.18951358764267151 0.059317047980458247 0 -0.1933728274761318 0.076994007354746888 0 -0.1753268399995839 0.075685970348889381 0 -0.18951358764267151 0.059317047980458247 0 -0.16993433029821389 0.069433415752224475 0 -0.17081813271406421 0.074525478462967115 0 -0.1753268399995839 0.075685970348889381 0 -0.16993433029821389 0.069433415752224475 0 -0.1753268399995839 0.075685970348889381 0 -0.17546813457731139 0.061767092742164811 0 -0.1753268399995839 0.075685970348889381 0 -0.18466815250584981 0.083230003687449594 0 -0.1933728274761318 0.076994007354746888 0 -0.1753268399995839 0.075685970348889381 0 -0.18466815250584981 0.083230003687449594 0 -0.17786800235187819 0.089181150468584325 0 -0.17081813271406421 0.074525478462967115 0 -0.1753268399995839 0.075685970348889381 0 -0.17786800235187819 0.089181150468584325 0 -0.18466815250584981 0.083230003687449594 0 -0.17786800235187819 0.089181150468584325 0 -0.19210494019580521 0.091058886577577769 0 -0.17786800235187819 0.089181150468584325 0 -0.18489109760574321 0.1059726080531086 0 -0.1717962448622094 0.1033110103908252 0 -0.17786800235187819 0.089181150468584325 0 -0.18489109760574321 0.1059726080531086 0 -0.19210494019580521 0.091058886577577769 0 -0.18489109760574321 0.1059726080531086 0 -0.17438468153597389 0.1135001304148785 0 -0.1717962448622094 0.1033110103908252 0 -0.18489109760574321 0.1059726080531086 0 -0.17794715505235759 0.1168735269755337 0 -0.19707924446973621 0.11980483771678151 0 -0.18489109760574321 0.1059726080531086 0 -0.17438468153597389 0.1135001304148785 0 -0.17794715505235759 0.1168735269755337 0 -0.17438468153597389 0.1135001304148785 0 -0.17794715505235759 0.1168735269755337 0 -0.17794715505235759 0.1168735269755337 0 -0.15761891764027941 0.1137589491907141 0 -0.17438468153597389 0.1135001304148785 0 -0.17794715505235759 0.1168735269755337 0 -0.15761891764027941 0.1137589491907141 0 -0.17794715505235759 0.1168735269755337 0 -0.15761891764027941 0.1137589491907141 0 -0.1670944383616797 0.12686451804384041 0 -0.17438468153597389 0.1135001304148785 0 -0.15761891764027941 0.1137589491907141 0 -0.1717962448622094 0.1033110103908252 0 -0.15761891764027941 0.1137589491907141 0 -0.1670944383616797 0.12686451804384041 0 -0.1524963646215656 0.1289852738462019 0 -0.15761891764027941 0.1137589491907141 0 -0.16421852517717189 0.094142213826840626 0 -0.1717962448622094 0.1033110103908252 0 -0.15761891764027941 0.1137589491907141 0 -0.16421852517717189 0.094142213826840626 0 -0.17786800235187819 0.089181150468584325 0 -0.16421852517717189 0.094142213826840626 0 -0.1717962448622094 0.1033110103908252 0 -0.15761891764027941 0.1137589491907141 0 -0.16421852517717189 0.094142213826840626 0 -0.1456191647274751 0.096515363367462359 0 -0.15761891764027941 0.1137589491907141 0 -0.1456191647274751 0.096515363367462359 0 -0.12986575450919499 0.1095067662004012 0 -0.15761891764027941 0.1137589491907141 0 -0.12986575450919499 0.1095067662004012 0 -0.1524963646215656 0.1289852738462019 0 -0.15761891764027941 0.1137589491907141 0 -0.12986575450919499 0.1095067662004012 0 -0.15761891764027941 0.1137589491907141 0 -0.1524963646215656 0.1289852738462019 0 -0.12986575450919499 0.1095067662004012 0 -0.13142846132360839 0.1309587912673395 0 -0.1159542377670703 0.1179984796026123 0 -0.12986575450919499 0.1095067662004012 0 -0.1524963646215656 0.1289852738462019 0 -0.13142846132360839 0.1309587912673395 0 -0.1456191647274751 0.096515363367462359 0 -0.12986575450919499 0.1095067662004012 0 -0.12991214213761401 0.086842793423374087 0 -0.12991214213761401 0.086842793423374087 0 -0.14670702602276769 0.080265936681562844 0 -0.1320796184193698 0.069977068624910599 0 -0.1456191647274751 0.096515363367462359 0 -0.12991214213761401 0.086842793423374087 0 -0.14670702602276769 0.080265936681562844 0 -0.16421852517717189 0.094142213826840626 0 -0.1456191647274751 0.096515363367462359 0 -0.14670702602276769 0.080265936681562844 0 -0.1586393788102074 0.074981782573504713 0 -0.14670702602276769 0.080265936681562844 0 -0.14989291592393481 0.061912440585291113 0 -0.14670702602276769 0.080265936681562844 0 -0.1320796184193698 0.069977068624910599 0 -0.14989291592393481 0.061912440585291113 0 -0.1320796184193698 0.069977068624910599 0 -0.13615405866132679 0.055419863455433663 0 -0.1167535360829265 0.063156768162268881 0 -0.1320796184193698 0.069977068624910599 0 -0.13615405866132679 0.055419863455433663 0 -0.14989291592393481 0.061912440585291113 0 -0.13703272320952781 0.034011762422654773 0 -0.1238032711953954 0.02377673679527461 0 -0.1169541450338762 0.042722454918850621 0 -0.13615405866132679 0.055419863455433663 0 -0.13703272320952781 0.034011762422654773 0 -0.13615405866132679 0.055419863455433663 0 -0.13703272320952781 0.034011762422654773 0 -0.1481062336567221 0.047969242394273727 0 -0.13615405866132679 0.055419863455433663 0 -0.13703272320952781 0.034011762422654773 0 -0.1169541450338762 0.042722454918850621 0 -0.13703272320952781 0.034011762422654773 0 -0.15548592832989969 0.037891516704196757 0 -0.1481062336567221 0.047969242394273727 0 -0.13703272320952781 0.034011762422654773 0 -0.15548592832989969 0.037891516704196757 0 -0.1534351763616518 0.0282183050913212 0 -0.15548592832989969 0.037891516704196757 0 -0.1481062336567221 0.047969242394273727 0 -0.16196554215892159 0.050610628803792322 0 -0.14989291592393481 0.061912440585291113 0 -0.1481062336567221 0.047969242394273727 0 -0.16196554215892159 0.050610628803792322 0 -0.13615405866132679 0.055419863455433663 0 -0.14989291592393481 0.061912440585291113 0 -0.1481062336567221 0.047969242394273727 0 -0.12811938589261601 -0.0038740722286955912 0 -0.13793630684459571 0.011996523739471431 0 -0.1133083836320004 0.00072062920631781914 0 -0.13793630684459571 0.011996523739471431 0 -0.1153759954155526 0.0086656609987068572 0 -0.13793630684459571 0.011996523739471431 0 -0.1153759954155526 0.0086656609987068572 0 -0.1238032711953954 0.02377673679527461 0 -0.13793630684459571 0.011996523739471431 0 -0.1133083836320004 0.00072062920631781914 0 -0.14009627332082719 0.01298546438098996 0 -0.13793630684459571 0.011996523739471431 0 -0.13703272320952781 0.034011762422654773 0 -0.13793630684459571 0.011996523739471431 0 -0.1238032711953954 0.02377673679527461 0 -0.13703272320952781 0.034011762422654773 0 -0.13793630684459571 0.011996523739471431 0 -0.14536024773625719 0.021830198106283061 0 -0.13703272320952781 0.034011762422654773 0 -0.13793630684459571 0.011996523739471431 0 -0.14009627332082719 0.01298546438098996 0 -0.1660265431901663 0.01751671066852396 0 -0.15832567803155509 0.021331797246573029 0 -0.14009627332082719 0.01298546438098996 0 -0.14536024773625719 0.021830198106283061 0 -0.15832567803155509 0.021331797246573029 0 -0.14009627332082719 0.01298546438098996 0 -0.15832567803155509 0.021331797246573029 0 -0.13703272320952781 0.034011762422654773 0 -0.1534351763616518 0.0282183050913212 0 -0.14536024773625719 0.021830198106283061 0 -0.1534351763616518 0.0282183050913212 0 -0.14536024773625719 0.021830198106283061 0 -0.15832567803155509 0.021331797246573029 0 -0.14009627332082719 0.01298546438098996 0 -0.1660265431901663 0.01751671066852396 0 -0.14009627332082719 0.01298546438098996 0 -0.15431607014499149 0.0079353612233126342 0 -0.1660265431901663 0.01751671066852396 0 -0.14009627332082719 0.01298546438098996 0 -0.13793630684459571 0.011996523739471431 0 -0.14536024773625719 0.021830198106283061 0 -0.14009627332082719 0.01298546438098996 0 -0.15431607014499149 0.0079353612233126342 0 -0.14455064019903169 0.0076185374893422142 0 -0.14009627332082719 0.01298546438098996 0 -0.13793630684459571 0.011996523739471431 0 -0.14455064019903169 0.0076185374893422142 0 -0.14585391048571231 -0.0024431993864051501 0 -0.13793630684459571 0.011996523739471431 0 -0.14455064019903169 0.0076185374893422142 0 -0.14585391048571231 -0.0024431993864051501 0 -0.15431607014499149 0.0079353612233126342 0 -0.14455064019903169 0.0076185374893422142 0 -0.1647793876409058 -0.0073474749609078434 0 -0.15431607014499149 0.0079353612233126342 0 -0.1683336632591772 0.005823524523354588 0 -0.15431607014499149 0.0079353612233126342 0 -0.1683336632591772 0.005823524523354588 0 -0.1660265431901663 0.01751671066852396 0 -0.1683336632591772 0.005823524523354588 0 -0.1660265431901663 0.01751671066852396 0 -0.17853641434747181 0.01185503361861035 0 -0.1660265431901663 0.01751671066852396 0 -0.15832567803155509 0.021331797246573029 0 -0.1765550827422829 0.02967813011215609 0 -0.15832567803155509 0.021331797246573029 0 -0.1765550827422829 0.02967813011215609 0 -0.16175238865608119 0.031577681954719883 0 -0.15832567803155509 0.021331797246573029 0 -0.1765550827422829 0.02967813011215609 0 -0.1534351763616518 0.0282183050913212 0 -0.15832567803155509 0.021331797246573029 0 -0.16175238865608119 0.031577681954719883 0 -0.1660265431901663 0.01751671066852396 0 -0.17853641434747181 0.01185503361861035 0 -0.1919568130595054 0.02204795695605798 0 -0.1660265431901663 0.01751671066852396 0 -0.1919568130595054 0.02204795695605798 0 -0.1765550827422829 0.02967813011215609 0 -0.18818010454036721 0.039340510293358243 0 -0.1919568130595054 0.02204795695605798 0 -0.1660265431901663 0.01751671066852396 0 -0.1765550827422829 0.02967813011215609 0 -0.1919568130595054 0.02204795695605798 0 -0.1683336632591772 0.005823524523354588 0 -0.17853641434747181 0.01185503361861035 0 -0.1904125160149038 0.002788245026313058 0 -0.17853641434747181 0.01185503361861035 0 -0.1904125160149038 0.002788245026313058 0 -0.1919568130595054 0.02204795695605798 0 -0.1647793876409058 -0.0073474749609078434 0 -0.1683336632591772 0.005823524523354588 0 -0.1904125160149038 0.002788245026313058 0 -0.16196554215892159 0.050610628803792322 0 -0.17634305868651989 0.04659041783912736 0 -0.17546813457731139 0.061767092742164811 0 -0.16346423671351709 0.064023330336213061 0 -0.16196554215892159 0.050610628803792322 0 -0.17546813457731139 0.061767092742164811 0 -0.16346423671351709 0.064023330336213061 0 -0.14989291592393481 0.061912440585291113 0 -0.16196554215892159 0.050610628803792322 0 -0.15548592832989969 0.037891516704196757 0 -0.16196554215892159 0.050610628803792322 0 -0.16496007781501659 0.040768660619352318 0 -0.15548592832989969 0.037891516704196757 0 -0.16175238865608119 0.031577681954719883 0 -0.16496007781501659 0.040768660619352318 0 -0.15548592832989969 0.037891516704196757 0 -0.1534351763616518 0.0282183050913212 0 -0.16175238865608119 0.031577681954719883 0 -0.1765550827422829 0.02967813011215609 0 -0.16175238865608119 0.031577681954719883 0 -0.16496007781501659 0.040768660619352318 0 -0.16196554215892159 0.050610628803792322 0 -0.16496007781501659 0.040768660619352318 0 -0.17634305868651989 0.04659041783912736 0 -0.1765550827422829 0.02967813011215609 0 -0.17634305868651989 0.04659041783912736 0 -0.18818010454036721 0.039340510293358243 0 -0.1765550827422829 0.02967813011215609 0 -0.16496007781501659 0.040768660619352318 0 -0.17634305868651989 0.04659041783912736 0 -0.17634305868651989 0.04659041783912736 0 -0.18951358764267151 0.059317047980458247 0 -0.18818010454036721 0.039340510293358243 0 -0.17634305868651989 0.04659041783912736 0 -0.17546813457731139 0.061767092742164811 0 -0.18951358764267151 0.059317047980458247 0 -0.18951358764267151 0.059317047980458247 0 -0.20370033528575909 0.042948125612027092 0 -0.2092454192701669 0.063599949035854267 0 -0.18951358764267151 0.059317047980458247 0 -0.20370033528575909 0.042948125612027092 0 -0.18951358764267151 0.059317047980458247 0 -0.18818010454036721 0.039340510293358243 0 -0.20370033528575909 0.042948125612027092 0 -0.18818010454036721 0.039340510293358243 0 -0.20370033528575909 0.042948125612027092 0 -0.1919568130595054 0.02204795695605798 0 -0.20370033528575909 0.042948125612027092 0 -0.21788708292884421 0.02657920324359371 0 -0.20370033528575909 0.042948125612027092 0 -0.21788708292884421 0.02657920324359371 0 -0.22000797384949669 0.042749556575859347 0 -0.20370033528575909 0.042948125612027092 0 -0.22000797384949669 0.042749556575859347 0 -0.2092454192701669 0.063599949035854267 0 -0.1904125160149038 0.002788245026313058 0 -0.1919568130595054 0.02204795695605798 0 -0.21604564438890189 0.012923965013533999 0 -0.1919568130595054 0.02204795695605798 0 -0.21788708292884421 0.02657920324359371 0 -0.20370033528575909 0.042948125612027092 0 -0.1919568130595054 0.02204795695605798 0 -0.21788708292884421 0.02657920324359371 0 -0.1919568130595054 0.02204795695605798 0 -0.21788708292884421 0.02657920324359371 0 -0.21604564438890189 0.012923965013533999 0 -0.1904125160149038 0.002788245026313058 0 -0.21604564438890189 0.012923965013533999 0 -0.2083861203033745 -0.0049981216447641669 0 -0.21604564438890189 0.012923965013533999 0 -0.22381999198347211 0.0069041934395632013 0 -0.2083861203033745 -0.0049981216447641669 0 -0.1904125160149038 0.002788245026313058 0 -0.21604564438890189 0.012923965013533999 0 -0.21604564438890189 0.012923965013533999 0 -0.22612497089678349 0.01690948054067086 0 -0.2369431023644577 0.010346071243579851 0 -0.21604564438890189 0.012923965013533999 0 -0.22381999198347211 0.0069041934395632013 0 -0.2369431023644577 0.010346071243579851 0 -0.23379007600127369 -0.003718801751831164 0 -0.22381999198347211 0.0069041934395632013 0 -0.2369431023644577 0.010346071243579851 0 -0.21604564438890189 0.012923965013533999 0 -0.22612497089678349 0.01690948054067086 0 -0.22612497089678349 0.01690948054067086 0 -0.24167877276290001 0.023059685000754952 0 -0.22612497089678349 0.01690948054067086 0 -0.22748716376320699 0.028256792056200832 0 -0.24167877276290001 0.023059685000754952 0 -0.21788708292884421 0.02657920324359371 0 -0.21604564438890189 0.012923965013533999 0 -0.22612497089678349 0.01690948054067086 0 -0.21788708292884421 0.02657920324359371 0 -0.22612497089678349 0.01690948054067086 0 -0.21788708292884421 0.02657920324359371 0 -0.22612497089678349 0.01690948054067086 0 -0.22748716376320699 0.028256792056200832 0 -0.21788708292884421 0.02657920324359371 0 -0.22748716376320699 0.028256792056200832 0 -0.22748716376320699 0.028256792056200832 0 -0.24167877276290001 0.023059685000754952 0 -0.2367437852867294 0.035778159447808482 0 -0.22612497089678349 0.01690948054067086 0 -0.24167877276290001 0.023059685000754952 0 -0.2369431023644577 0.010346071243579851 0 -0.2476812857265574 -0.00048874240363525783 0 -0.25922367882670783 0.01177406324393533 0 -0.2369431023644577 0.010346071243579851 0 -0.25922367882670783 0.01177406324393533 0 -0.24167877276290001 0.023059685000754952 0 -0.2369431023644577 0.010346071243579851 0 -0.23379007600127369 -0.003718801751831164 0 -0.2476812857265574 -0.00048874240363525783 0 -0.2369431023644577 0.010346071243579851 0 -0.23048781577507499 0.06193486665809448 0 -0.22000797384949669 0.042749556575859347 0 -0.2092454192701669 0.063599949035854267 0 -0.23048781577507499 0.06193486665809448 0 -0.22000797384949669 0.042749556575859347 0 -0.24162147800221201 0.047994600011292167 0 -0.22748716376320699 0.028256792056200832 0 -0.22000797384949669 0.042749556575859347 0 -0.2367437852867294 0.035778159447808482 0 -0.21788708292884421 0.02657920324359371 0 -0.22748716376320699 0.028256792056200832 0 -0.22000797384949669 0.042749556575859347 0 -0.22000797384949669 0.042749556575859347 0 -0.2367437852867294 0.035778159447808482 0 -0.24162147800221201 0.047994600011292167 0 -0.24167877276290001 0.023059685000754952 0 -0.2367437852867294 0.035778159447808482 0 -0.2493236397861846 0.03802887252306017 0 -0.2367437852867294 0.035778159447808482 0 -0.2493236397861846 0.03802887252306017 0 -0.24162147800221201 0.047994600011292167 0 -0.23048781577507499 0.06193486665809448 0 -0.24162147800221201 0.047994600011292167 0 -0.24945842255855349 0.063645980770078089 0 -0.25606733521099673 0.084324349327204812 0 -0.24945842255855349 0.063645980770078089 0 -0.23917524666659101 0.074730083163198832 0 -0.23048781577507499 0.06193486665809448 0 -0.24945842255855349 0.063645980770078089 0 -0.23917524666659101 0.074730083163198832 0 -0.25606733521099673 0.084324349327204812 0 -0.23572200021985321 0.088876632958739737 0 -0.24213173602150809 0.103909100708085 0 -0.25606733521099673 0.084324349327204812 0 -0.23917524666659101 0.074730083163198832 0 -0.23572200021985321 0.088876632958739737 0 -0.23572200021985321 0.088876632958739737 0 -0.22355086362905291 0.078217318839502073 0 -0.2196781277999201 0.093775281317292181 0 -0.23917524666659101 0.074730083163198832 0 -0.23572200021985321 0.088876632958739737 0 -0.22355086362905291 0.078217318839502073 0 -0.23048781577507499 0.06193486665809448 0 -0.22355086362905291 0.078217318839502073 0 -0.2092454192701669 0.063599949035854267 0 -0.23048781577507499 0.06193486665809448 0 -0.23917524666659101 0.074730083163198832 0 -0.22355086362905291 0.078217318839502073 0 -0.2092454192701669 0.063599949035854267 0 -0.20731459442420669 0.084774992177156144 0 -0.1933728274761318 0.076994007354746888 0 -0.22355086362905291 0.078217318839502073 0 -0.2092454192701669 0.063599949035854267 0 -0.20731459442420669 0.084774992177156144 0 -0.22355086362905291 0.078217318839502073 0 -0.20731459442420669 0.084774992177156144 0 -0.2196781277999201 0.093775281317292181 0 -0.20731459442420669 0.084774992177156144 0 -0.19210494019580521 0.091058886577577769 0 -0.1933728274761318 0.076994007354746888 0 -0.20731459442420669 0.084774992177156144 0 -0.19210494019580521 0.091058886577577769 0 -0.20606789749978641 0.1043327983851817 0 -0.18466815250584981 0.083230003687449594 0 -0.19210494019580521 0.091058886577577769 0 -0.1933728274761318 0.076994007354746888 0 -0.18951358764267151 0.059317047980458247 0 -0.2092454192701669 0.063599949035854267 0 -0.1933728274761318 0.076994007354746888 0 -0.18489109760574321 0.1059726080531086 0 -0.19707924446973621 0.11980483771678151 0 -0.20606789749978641 0.1043327983851817 0 -0.17794715505235759 0.1168735269755337 0 -0.19707924446973621 0.11980483771678151 0 -0.19796153429909361 0.13582565049420689 0 -0.17794715505235759 0.1168735269755337 0 -0.19707924446973621 0.11980483771678151 0 -0.18489109760574321 0.1059726080531086 0 -0.19210494019580521 0.091058886577577769 0 -0.20606789749978641 0.1043327983851817 0 -0.20606789749978641 0.1043327983851817 0 -0.22695114744211561 0.1098074224323826 0 -0.2196781277999201 0.093775281317292181 0 -0.20731459442420669 0.084774992177156144 0 -0.20606789749978641 0.1043327983851817 0 -0.2196781277999201 0.093775281317292181 0 -0.20606789749978641 0.1043327983851817 0 -0.21621133388711489 0.1227361484580272 0 -0.22695114744211561 0.1098074224323826 0 -0.19707924446973621 0.11980483771678151 0 -0.21621133388711489 0.1227361484580272 0 -0.19707924446973621 0.11980483771678151 0 -0.20606789749978641 0.1043327983851817 0 -0.21621133388711489 0.1227361484580272 0 -0.22695114744211561 0.1098074224323826 0 -0.24519667620019761 0.12420112868403391 0 -0.2287507018037139 0.12877759500635191 0 -0.21621133388711489 0.1227361484580272 0 -0.22695114744211561 0.1098074224323826 0 -0.2287507018037139 0.12877759500635191 0 -0.23572200021985321 0.088876632958739737 0 -0.22695114744211561 0.1098074224323826 0 -0.2196781277999201 0.093775281317292181 0 -0.23572200021985321 0.088876632958739737 0 -0.22695114744211561 0.1098074224323826 0 -0.24213173602150809 0.103909100708085 0 -0.25459818759909481 0.11380077835847691 0 -0.24213173602150809 0.103909100708085 0 -0.24519667620019761 0.12420112868403391 0 -0.22695114744211561 0.1098074224323826 0 -0.24213173602150809 0.103909100708085 0 -0.24519667620019761 0.12420112868403391 0 -0.24519667620019761 0.12420112868403391 0 -0.2287507018037139 0.12877759500635191 0 -0.23969799745787751 0.14830936451592219 0 -0.25814383389963658 0.13754269296079971 0 -0.24519667620019761 0.12420112868403391 0 -0.23969799745787751 0.14830936451592219 0 -0.2287507018037139 0.12877759500635191 0 -0.23969799745787751 0.14830936451592219 0 -0.21795305921874419 0.1384519698985795 0 -0.21621133388711489 0.1227361484580272 0 -0.2287507018037139 0.12877759500635191 0 -0.21795305921874419 0.1384519698985795 0 -0.23969799745787751 0.14830936451592219 0 -0.21795305921874419 0.1384519698985795 0 -0.2179759135458279 0.1547777740128819 0 -0.25152250743242349 0.1658649348156136 0 -0.23969799745787751 0.14830936451592219 0 -0.23799029279256209 0.17372989753155679 0 -0.25362864727702522 0.18265657121000431 0 -0.25152250743242349 0.1658649348156136 0 -0.23799029279256209 0.17372989753155679 0 -0.25800467203929611 0.19268202105023169 0 -0.25362864727702522 0.18265657121000431 0 -0.23799029279256209 0.17372989753155679 0 -0.25800467203929611 0.19268202105023169 0 -0.23799029279256209 0.17372989753155679 0 -0.23799029279256209 0.17372989753155679 0 -0.21434742797573769 0.18346907123304099 0 -0.23546568541867149 0.200254633206532 0 -0.23799029279256209 0.17372989753155679 0 -0.2179759135458279 0.1547777740128819 0 -0.23969799745787751 0.14830936451592219 0 -0.23799029279256209 0.17372989753155679 0 -0.2179759135458279 0.1547777740128819 0 -0.23799029279256209 0.17372989753155679 0 -0.21434742797573769 0.18346907123304099 0 -0.2179759135458279 0.1547777740128819 0 -0.21434742797573769 0.18346907123304099 0 -0.19759140048399509 0.1707024787561317 0 -0.2179759135458279 0.1547777740128819 0 -0.21434742797573769 0.18346907123304099 0 -0.19759140048399509 0.1707024787561317 0 -0.189686814239277 0.19022856021338569 0 -0.19759140048399509 0.1707024787561317 0 -0.189686814239277 0.19022856021338569 0 -0.1766156835900522 0.17935815792932261 0 -0.19759140048399509 0.1707024787561317 0 -0.1936638674059496 0.15322041924803781 0 -0.2179759135458279 0.1547777740128819 0 -0.19759140048399509 0.1707024787561317 0 -0.1936638674059496 0.15322041924803781 0 -0.17794704658347921 0.16386464031489439 0 -0.1936638674059496 0.15322041924803781 0 -0.19796153429909361 0.13582565049420689 0 -0.18182250738208011 0.13615102770211521 0 -0.17794715505235759 0.1168735269755337 0 -0.19796153429909361 0.13582565049420689 0 -0.21621133388711489 0.1227361484580272 0 -0.19796153429909361 0.13582565049420689 0 -0.21795305921874419 0.1384519698985795 0 -0.19707924446973621 0.11980483771678151 0 -0.21621133388711489 0.1227361484580272 0 -0.19796153429909361 0.13582565049420689 0 -0.1936638674059496 0.15322041924803781 0 -0.19796153429909361 0.13582565049420689 0 -0.2179759135458279 0.1547777740128819 0 -0.19796153429909361 0.13582565049420689 0 -0.21795305921874419 0.1384519698985795 0 -0.2179759135458279 0.1547777740128819 0 -0.19796153429909361 0.13582565049420689 0 -0.2179759135458279 0.1547777740128819 0 -0.2322104692317378 0.2441407471607992 0 -0.23952132435321721 0.2321907677612231 0 -0.21994461066662849 0.23269725408091699 0 -0.22447180131485911 0.2563776057456385 0 -0.21994461066662849 0.23269725408091699 0 -0.22447180131485911 0.2563776057456385 0 -0.2322104692317378 0.2441407471607992 0 -0.21994461066662849 0.23269725408091699 0 -0.25304333006038349 0.24428765334769589 0 -0.23132161902948861 0.25749536781731069 0 -0.2322104692317378 0.2441407471607992 0 -0.25304333006038349 0.24428765334769589 0 -0.2322104692317378 0.2441407471607992 0 -0.23952132435321721 0.2321907677612231 0 -0.25586129915106498 0.22582089692809421 0 -0.25304333006038349 0.24428765334769589 0 -0.23952132435321721 0.2321907677612231 0 -0.25586129915106498 0.22582089692809421 0 -0.23952132435321721 0.2321907677612231 0 -0.24270155500488011 0.21983517190402041 0 -0.23952132435321721 0.2321907677612231 0 -0.24270155500488011 0.21983517190402041 0 -0.2281188331646285 0.2189692593536382 0 -0.23952132435321721 0.2321907677612231 0 -0.2281188331646285 0.2189692593536382 0 -0.21994461066662849 0.23269725408091699 0 -0.2281188331646285 0.2189692593536382 0 -0.21994461066662849 0.23269725408091699 0 -0.2154174200184002 0.2090169024161953 0 -0.2281188331646285 0.2189692593536382 0 -0.23546568541867149 0.200254633206532 0 -0.2154174200184002 0.2090169024161953 0 -0.24270155500488011 0.21983517190402041 0 -0.2281188331646285 0.2189692593536382 0 -0.23546568541867149 0.200254633206532 0 -0.25112440798004088 0.2079531670713029 0 -0.24270155500488011 0.21983517190402041 0 -0.23546568541867149 0.200254633206532 0 -0.25112440798004088 0.2079531670713029 0 -0.25586129915106498 0.22582089692809421 0 -0.24270155500488011 0.21983517190402041 0 -0.25800467203929611 0.19268202105023169 0 -0.25112440798004088 0.2079531670713029 0 -0.23546568541867149 0.200254633206532 0 -0.25800467203929611 0.19268202105023169 0 -0.23799029279256209 0.17372989753155679 0 -0.23546568541867149 0.200254633206532 0 -0.21434742797573769 0.18346907123304099 0 -0.23546568541867149 0.200254633206532 0 -0.2154174200184002 0.2090169024161953 0 -0.21434742797573769 0.18346907123304099 0 -0.20470112325674039 0.19664084888763389 0 -0.2154174200184002 0.2090169024161953 0 -0.21434742797573769 0.18346907123304099 0 -0.20470112325674039 0.19664084888763389 0 -0.189686814239277 0.19022856021338569 0 -0.20470112325674039 0.19664084888763389 0 -0.189686814239277 0.19022856021338569 0 -0.1980129540973278 0.20863572311966011 0 -0.189686814239277 0.19022856021338569 0 -0.1980129540973278 0.20863572311966011 0 -0.18173360973507291 0.2108009150041836 0 -0.1980129540973278 0.20863572311966011 0 -0.19485656312380259 0.21980184604835809 0 -0.18173360973507291 0.2108009150041836 0 -0.1980129540973278 0.20863572311966011 0 -0.20685028787136639 0.22180178632081871 0 -0.19485656312380259 0.21980184604835809 0 -0.20470112325674039 0.19664084888763389 0 -0.1980129540973278 0.20863572311966011 0 -0.2154174200184002 0.2090169024161953 0 -0.1980129540973278 0.20863572311966011 0 -0.2154174200184002 0.2090169024161953 0 -0.20685028787136639 0.22180178632081871 0 -0.21994461066662849 0.23269725408091699 0 -0.2154174200184002 0.2090169024161953 0 -0.21994461066662849 0.23269725408091699 0 -0.2154174200184002 0.2090169024161953 0 -0.20685028787136639 0.22180178632081871 0 -0.21994461066662849 0.23269725408091699 0 -0.2083144216955079 0.2309723377961275 0 -0.20685028787136639 0.22180178632081871 0 -0.2083144216955079 0.2309723377961275 0 -0.2023801156078327 0.2310419696957822 0 -0.210712140291132 0.24028870453632589 0 -0.2083144216955079 0.2309723377961275 0 -0.20685028787136639 0.22180178632081871 0 -0.20168495404057979 0.2290319743467937 0 -0.2083144216955079 0.2309723377961275 0 -0.20168495404057979 0.2290319743467937 0 -0.2023801156078327 0.2310419696957822 0 -0.20685028787136639 0.22180178632081871 0 -0.19485656312380259 0.21980184604835809 0 -0.20168495404057979 0.2290319743467937 0 -0.19485656312380259 0.21980184604835809 0 -0.18596217094273379 0.22654425048451671 0 -0.18173360973507291 0.2108009150041836 0 -0.1969474016028771 0.23295800235028921 0 -0.20168495404057979 0.2290319743467937 0 -0.18596217094273379 0.22654425048451671 0 -0.20168495404057979 0.2290319743467937 0 -0.18596217094273379 0.22654425048451671 0 -0.19485656312380259 0.21980184604835809 0 -0.20168495404057979 0.2290319743467937 0 -0.18596217094273379 0.22654425048451671 0 -0.1969474016028771 0.23295800235028921 0 -0.19115807881653679 0.2368254200260809 0 -0.18596217094273379 0.22654425048451671 0 -0.1969474016028771 0.23295800235028921 0 -0.20168495404057979 0.2290319743467937 0 -0.2023801156078327 0.2310419696957822 0 -0.2023801156078327 0.2310419696957822 0 -0.20062098282015811 0.24793914945207671 0 -0.1969474016028771 0.23295800235028921 0 -0.19115807881653679 0.2368254200260809 0 -0.20062098282015811 0.24793914945207671 0 -0.1969474016028771 0.23295800235028921 0 -0.2023801156078327 0.2310419696957822 0 -0.20062098282015811 0.24793914945207671 0 -0.19973580177045361 0.25644167036378862 0 -0.18698952370146649 0.2431163182349301 0 -0.20062098282015811 0.24793914945207671 0 -0.18698952370146649 0.2431163182349301 0 -0.19115807881653679 0.2368254200260809 0 -0.20062098282015811 0.24793914945207671 0 -0.18698952370146649 0.2431163182349301 0 -0.19973580177045361 0.25644167036378862 0 -0.20062098282015811 0.24793914945207671 0 -0.18698952370146649 0.2431163182349301 0 -0.22447180131485911 0.2563776057456385 0 -0.20062098282015811 0.24793914945207671 0 -0.210712140291132 0.24028870453632589 0 -0.22447180131485911 0.2563776057456385 0 -0.21994461066662849 0.23269725408091699 0 -0.210712140291132 0.24028870453632589 0 -0.2023801156078327 0.2310419696957822 0 -0.20062098282015811 0.24793914945207671 0 -0.210712140291132 0.24028870453632589 0 -0.21994461066662849 0.23269725408091699 0 -0.2083144216955079 0.2309723377961275 0 -0.210712140291132 0.24028870453632589 0 -0.16870716433392899 0.23664799135129111 0 -0.14964453267463071 0.2493491535656335 0 -0.1664747379768837 0.25739242454086791 0 -0.16424934818574369 0.24392777431068921 0 -0.17486269070434821 0.23882582605545821 0 -0.16870716433392899 0.23664799135129111 0 -0.16424934818574369 0.24392777431068921 0 -0.14964453267463071 0.2493491535656335 0 -0.16870716433392899 0.23664799135129111 0 -0.16424934818574369 0.24392777431068921 0 -0.17486269070434821 0.23882582605545821 0 -0.16870716433392899 0.23664799135129111 0 -0.17486269070434821 0.23882582605545821 0 -0.16870716433392899 0.23664799135129111 0 -0.17323630699851611 0.23363028756816509 0 -0.18154324690851231 0.26016709180399478 0 -0.18698952370146649 0.2431163182349301 0 -0.17486269070434821 0.23882582605545821 0 -0.18154324690851231 0.26016709180399478 0 -0.17486269070434821 0.23882582605545821 0 -0.18698952370146649 0.2431163182349301 0 -0.17508890636085631 0.23067504590772869 0 -0.19115807881653679 0.2368254200260809 0 -0.18698952370146649 0.2431163182349301 0 -0.1843523346852142 0.23418116301084141 0 -0.18698952370146649 0.2431163182349301 0 -0.17486269070434821 0.23882582605545821 0 -0.18698952370146649 0.2431163182349301 0 -0.17508890636085631 0.23067504590772869 0 -0.1843523346852142 0.23418116301084141 0 -0.18698952370146649 0.2431163182349301 0 -0.17486269070434821 0.23882582605545821 0 -0.17542135685785881 0.2321744197107814 0 -0.18698952370146649 0.2431163182349301 0 -0.17508890636085631 0.23067504590772869 0 -0.17542135685785881 0.2321744197107814 0 -0.17486269070434821 0.23882582605545821 0 -0.17323630699851611 0.23363028756816509 0 -0.17486269070434821 0.23882582605545821 0 -0.17323630699851611 0.23363028756816509 0 -0.17542135685785881 0.2321744197107814 0 -0.16870716433392899 0.23664799135129111 0 -0.17486269070434821 0.23882582605545821 0 -0.17323630699851611 0.23363028756816509 0 -0.18108739380590241 0.23008858847793179 0 -0.18596217094273379 0.22654425048451671 0 -0.17023938784488771 0.22405652662223999 0 -0.17323630699851611 0.23363028756816509 0 -0.17508890636085631 0.23067504590772869 0 -0.17023938784488771 0.22405652662223999 0 -0.17508890636085631 0.23067504590772869 0 -0.18108739380590241 0.23008858847793179 0 -0.17023938784488771 0.22405652662223999 0 -0.18596217094273379 0.22654425048451671 0 -0.17023938784488771 0.22405652662223999 0 -0.18173360973507291 0.2108009150041836 0 -0.18596217094273379 0.22654425048451671 0 -0.17023938784488771 0.22405652662223999 0 -0.17323630699851611 0.23363028756816509 0 -0.17508890636085631 0.23067504590772869 0 -0.17542135685785881 0.2321744197107814 0 -0.17323630699851611 0.23363028756816509 0 -0.17542135685785881 0.2321744197107814 0 -0.17508890636085631 0.23067504590772869 0 -0.18108739380590241 0.23008858847793179 0 -0.1843523346852142 0.23418116301084141 0 -0.19115807881653679 0.2368254200260809 0 -0.1843523346852142 0.23418116301084141 0 -0.18596217094273379 0.22654425048451671 0 -0.18108739380590241 0.23008858847793179 0 -0.1843523346852142 0.23418116301084141 0 -0.18596217094273379 0.22654425048451671 0 -0.17023938784488771 0.22405652662223999 0 -0.14612381850596221 0.22024086135970361 0 -0.16870716433392899 0.23664799135129111 0 -0.17023938784488771 0.22405652662223999 0 -0.14814639677141059 0.2293735601414302 0 -0.16870716433392899 0.23664799135129111 0 -0.14814639677141059 0.2293735601414302 0 -0.17323630699851611 0.23363028756816509 0 -0.17023938784488771 0.22405652662223999 0 -0.16870716433392899 0.23664799135129111 0 -0.17323630699851611 0.23363028756816509 0 -0.17023938784488771 0.22405652662223999 0 -0.17023938784488771 0.22405652662223999 0 -0.1651008405928126 0.20764126131849481 0 -0.17023938784488771 0.22405652662223999 0 -0.1651008405928126 0.20764126131849481 0 -0.14612381850596221 0.22024086135970361 0 -0.1651008405928126 0.20764126131849481 0 -0.18173360973507291 0.2108009150041836 0 -0.17236131598181051 0.1945877806744713 0 -0.17023938784488771 0.22405652662223999 0 -0.1651008405928126 0.20764126131849481 0 -0.18173360973507291 0.2108009150041836 0 -0.189686814239277 0.19022856021338569 0 -0.17236131598181051 0.1945877806744713 0 -0.1766156835900522 0.17935815792932261 0 -0.189686814239277 0.19022856021338569 0 -0.18173360973507291 0.2108009150041836 0 -0.17236131598181051 0.1945877806744713 0 -0.1651008405928126 0.20764126131849481 0 -0.15916773957513031 0.19526914960862041 0 -0.14776054259889931 0.2000854090970883 0 -0.1651008405928126 0.20764126131849481 0 -0.17236131598181051 0.1945877806744713 0 -0.15916773957513031 0.19526914960862041 0 -0.15916773957513031 0.19526914960862041 0 -0.15023580382746579 0.1885956971594058 0 -0.16038019487466321 0.18543559979364199 0 -0.17236131598181051 0.1945877806744713 0 -0.15916773957513031 0.19526914960862041 0 -0.16038019487466321 0.18543559979364199 0 -0.15916773957513031 0.19526914960862041 0 -0.15023580382746579 0.1885956971594058 0 -0.14776054259889931 0.2000854090970883 0 -0.14776054259889931 0.2000854090970883 0 -0.1423640795046521 0.18999345193060951 0 -0.13696799707844931 0.19589488982172679 0 -0.15023580382746579 0.1885956971594058 0 -0.14776054259889931 0.2000854090970883 0 -0.1423640795046521 0.18999345193060951 0 -0.1423640795046521 0.18999345193060951 0 -0.13696799707844931 0.19589488982172679 0 -0.13730585294273989 0.1843222780152621 0 -0.12539129191530141 0.1960341312441293 0 -0.13696799707844931 0.19589488982172679 0 -0.13730585294273989 0.1843222780152621 0 -0.12539129191530141 0.1960341312441293 0 -0.13730585294273989 0.1843222780152621 0 -0.13274930974474911 0.18768160503998199 0 -0.12539129191530141 0.1960341312441293 0 -0.1219486468967996 0.1889798259970199 0 -0.13274930974474911 0.18768160503998199 0 -0.12539129191530141 0.1960341312441293 0 -0.13730585294273989 0.1843222780152621 0 -0.12539129191530141 0.1960341312441293 0 -0.1302057261149121 0.20155599198095051 0 -0.12369978846683979 0.20622966664466089 0 -0.12539129191530141 0.1960341312441293 0 -0.1302057261149121 0.20155599198095051 0 -0.13696799707844931 0.19589488982172679 0 -0.1302057261149121 0.20155599198095051 0 -0.13696799707844931 0.19589488982172679 0 -0.1347638269990582 0.2080652802132851 0 -0.14776054259889931 0.2000854090970883 0 -0.13696799707844931 0.19589488982172679 0 -0.1347638269990582 0.2080652802132851 0 -0.14612381850596221 0.22024086135970361 0 -0.12200824916703699 0.21642519609716579 0 -0.1347638269990582 0.2080652802132851 0 -0.14612381850596221 0.22024086135970361 0 -0.12200824916703699 0.21642519609716579 0 -0.1347638269990582 0.2080652802132851 0 -0.12200824916703699 0.21642519609716579 0 -0.12369978846683979 0.20622966664466089 0 -0.1302057261149121 0.20155599198095051 0 -0.1347638269990582 0.2080652802132851 0 -0.12369978846683979 0.20622966664466089 0 -0.1651008405928126 0.20764126131849481 0 -0.14776054259889931 0.2000854090970883 0 -0.14612381850596221 0.22024086135970361 0 -0.14776054259889931 0.2000854090970883 0 -0.1347638269990582 0.2080652802132851 0 -0.14612381850596221 0.22024086135970361 0 -0.14814639677141059 0.2293735601414302 0 -0.12758562920888969 0.22209912893157599 0 -0.14861613934777429 0.2434937086636616 0 -0.17023938784488771 0.22405652662223999 0 -0.14612381850596221 0.22024086135970361 0 -0.14814639677141059 0.2293735601414302 0 -0.12758562920888969 0.22209912893157599 0 -0.14861613934777429 0.2434937086636616 0 -0.14612381850596221 0.22024086135970361 0 -0.12758562920888969 0.22209912893157599 0 -0.12200824916703699 0.21642519609716579 0 -0.12758562920888969 0.22209912893157599 0 -0.1326550096350062 0.23856644357711759 0 -0.1188947827930585 0.23986173116449699 0 -0.14612381850596221 0.22024086135970361 0 -0.14814639677141059 0.2293735601414302 0 -0.12758562920888969 0.22209912893157599 0 -0.14814639677141059 0.2293735601414302 0 -0.12758562920888969 0.22209912893157599 0 -0.12758562920888969 0.22209912893157599 0 -0.1326550096350062 0.23856644357711759 0 -0.14861613934777429 0.2434937086636616 0 -0.1326550096350062 0.23856644357711759 0 -0.13552348719030149 0.2488112055487382 0 -0.1188947827930585 0.23986173116449699 0 -0.1326550096350062 0.23856644357711759 0 -0.13552348719030149 0.2488112055487382 0 -0.14861613934777429 0.2434937086636616 0 -0.16870716433392899 0.23664799135129111 0 -0.14814639677141059 0.2293735601414302 0 -0.14861613934777429 0.2434937086636616 0 -0.13552348719030149 0.2488112055487382 0 -0.14861613934777429 0.2434937086636616 0 -0.14964453267463071 0.2493491535656335 0 -0.16870716433392899 0.23664799135129111 0 -0.14861613934777429 0.2434937086636616 0 -0.14964453267463071 0.2493491535656335 0 -0.15916380746110381 0.15198094784282901 0 -0.1724455417913201 0.1479710237489554 0 -0.16635519165152951 0.15937177731588931 0 -0.15916380746110381 0.15198094784282901 0 -0.1594596264554945 0.13948636455107671 0 -0.1724455417913201 0.1479710237489554 0 -0.1594596264554945 0.13948636455107671 0 -0.1670944383616797 0.12686451804384041 0 -0.1724455417913201 0.1479710237489554 0 -0.1594596264554945 0.13948636455107671 0 -0.1670944383616797 0.12686451804384041 0 -0.1524963646215656 0.1289852738462019 0 -0.17794715505235759 0.1168735269755337 0 -0.1670944383616797 0.12686451804384041 0 -0.18182250738208011 0.13615102770211521 0 -0.1670944383616797 0.12686451804384041 0 -0.18182250738208011 0.13615102770211521 0 -0.1724455417913201 0.1479710237489554 0 -0.17794715505235759 0.1168735269755337 0 -0.19796153429909361 0.13582565049420689 0 -0.18182250738208011 0.13615102770211521 0 -0.1936638674059496 0.15322041924803781 0 -0.18182250738208011 0.13615102770211521 0 -0.1724455417913201 0.1479710237489554 0 -0.1936638674059496 0.15322041924803781 0 -0.1724455417913201 0.1479710237489554 0 -0.17794704658347921 0.16386464031489439 0 -0.1724455417913201 0.1479710237489554 0 -0.17794704658347921 0.16386464031489439 0 -0.16635519165152951 0.15937177731588931 0 -0.17794704658347921 0.16386464031489439 0 -0.1766156835900522 0.17935815792932261 0 -0.16159387934945121 0.17164726495398769 0 -0.19759140048399509 0.1707024787561317 0 -0.17794704658347921 0.16386464031489439 0 -0.1766156835900522 0.17935815792932261 0 -0.17236131598181051 0.1945877806744713 0 -0.1766156835900522 0.17935815792932261 0 -0.16038019487466321 0.18543559979364199 0 -0.1766156835900522 0.17935815792932261 0 -0.16038019487466321 0.18543559979364199 0 -0.16159387934945121 0.17164726495398769 0 -0.16038019487466321 0.18543559979364199 0 -0.16159387934945121 0.17164726495398769 0 -0.15165622697026421 0.178622454323007 0 -0.17794704658347921 0.16386464031489439 0 -0.16635519165152951 0.15937177731588931 0 -0.16159387934945121 0.17164726495398769 0 -0.16635519165152951 0.15937177731588931 0 -0.16159387934945121 0.17164726495398769 0 -0.15769281724627271 0.16121957092518921 0 -0.15916380746110381 0.15198094784282901 0 -0.16635519165152951 0.15937177731588931 0 -0.15769281724627271 0.16121957092518921 0 -0.15769281724627271 0.16121957092518921 0 -0.15102898593892819 0.15717774215375949 0 -0.14885578891734061 0.16583240296268539 0 -0.15916380746110381 0.15198094784282901 0 -0.15769281724627271 0.16121957092518921 0 -0.15102898593892819 0.15717774215375949 0 -0.14885578891734061 0.16583240296268539 0 -0.14195378284267079 0.16032214284219681 0 -0.13653375408248941 0.17643268718270369 0 -0.16159387934945121 0.17164726495398769 0 -0.15769281724627271 0.16121957092518921 0 -0.14885578891734061 0.16583240296268539 0 -0.14885578891734061 0.16583240296268539 0 -0.13653375408248941 0.17643268718270369 0 -0.15102898593892819 0.15717774215375949 0 -0.14885578891734061 0.16583240296268539 0 -0.14195378284267079 0.16032214284219681 0 -0.15023580382746579 0.1885956971594058 0 -0.15165622697026421 0.178622454323007 0 -0.14411178565889321 0.18066668682360859 0 -0.15023580382746579 0.1885956971594058 0 -0.16038019487466321 0.18543559979364199 0 -0.15165622697026421 0.178622454323007 0 -0.16159387934945121 0.17164726495398769 0 -0.14885578891734061 0.16583240296268539 0 -0.15165622697026421 0.178622454323007 0 -0.14885578891734061 0.16583240296268539 0 -0.15165622697026421 0.178622454323007 0 -0.14411178565889321 0.18066668682360859 0 -0.14885578891734061 0.16583240296268539 0 -0.14411178565889321 0.18066668682360859 0 -0.13653375408248941 0.17643268718270369 0 -0.15023580382746579 0.1885956971594058 0 -0.1423640795046521 0.18999345193060951 0 -0.14411178565889321 0.18066668682360859 0 -0.1423640795046521 0.18999345193060951 0 -0.14411178565889321 0.18066668682360859 0 -0.13730585294273989 0.1843222780152621 0 -0.13274930974474911 0.18768160503998199 0 -0.13653375408248941 0.17643268718270369 0 -0.14411178565889321 0.18066668682360859 0 -0.13730585294273989 0.1843222780152621 0 -0.13653375408248941 0.17643268718270369 0 -0.13274930974474911 0.18768160503998199 0 -0.13730585294273989 0.1843222780152621 0 -0.13653375408248941 0.17643268718270369 0 -0.13653375408248941 0.17643268718270369 0 -0.12593802864416781 0.1768071867429423 0 -0.13479563559351501 0.1709803139439359 0 -0.12593802864416781 0.1768071867429423 0 -0.13479563559351501 0.1709803139439359 0 -0.12542291095201091 0.1681665419366617 0 -0.13653375408248941 0.17643268718270369 0 -0.1219486468967996 0.1889798259970199 0 -0.13653375408248941 0.17643268718270369 0 -0.12593802864416781 0.1768071867429423 0 -0.1219486468967996 0.1889798259970199 0 -0.13274930974474911 0.18768160503998199 0 -0.13653375408248941 0.17643268718270369 0 -0.1219486468967996 0.1889798259970199 0 -0.13479563559351501 0.1709803139439359 0 -0.1242758984584114 0.15324227162626311 0 -0.14195378284267079 0.16032214284219681 0 -0.13653375408248941 0.17643268718270369 0 -0.13479563559351501 0.1709803139439359 0 -0.13479563559351501 0.1709803139439359 0 -0.12542291095201091 0.1681665419366617 0 -0.1242758984584114 0.15324227162626311 0 -0.14195378284267079 0.16032214284219681 0 -0.13653375408248941 0.17643268718270369 0 -0.14195378284267079 0.16032214284219681 0 -0.13479563559351501 0.1709803139439359 0 -0.1242758984584114 0.15324227162626311 0 -0.14195378284267079 0.16032214284219681 0 -0.1473738116028506 0.14421159850168919 0 -0.1242758984584114 0.15324227162626311 0 -0.1473738116028506 0.14421159850168919 0 -0.13142846132360839 0.1309587912673395 0 -0.1242758984584114 0.15324227162626311 0 -0.1473738116028506 0.14421159850168919 0 -0.1242758984584114 0.15324227162626311 0 -0.14195378284267079 0.16032214284219681 0 -0.1473738116028506 0.14421159850168919 0 -0.15102898593892819 0.15717774215375949 0 -0.14195378284267079 0.16032214284219681 0 -0.1473738116028506 0.14421159850168919 0 -0.1594596264554945 0.13948636455107671 0 -0.1473738116028506 0.14421159850168919 0 -0.15916380746110381 0.15198094784282901 0 -0.1594596264554945 0.13948636455107671 0 -0.1473738116028506 0.14421159850168919 0 -0.15916380746110381 0.15198094784282901 0 -0.15102898593892819 0.15717774215375949 0 -0.1473738116028506 0.14421159850168919 0 -0.1473738116028506 0.14421159850168919 0 -0.1524963646215656 0.1289852738462019 0 -0.13142846132360839 0.1309587912673395 0 -0.1473738116028506 0.14421159850168919 0 -0.1524963646215656 0.1289852738462019 0 -0.1594596264554945 0.13948636455107671 0 -0.1473738116028506 0.14421159850168919 0 -0.1524963646215656 0.1289852738462019 0 -0.13142846132360839 0.1309587912673395 0 -0.1125066411457552 0.13339732858459349 0 -0.1159542377670703 0.1179984796026123 0 -0.13142846132360839 0.1309587912673395 0 -0.1125066411457552 0.13339732858459349 0 -0.1242758984584114 0.15324227162626311 0 -0.1125066411457552 0.13339732858459349 0 -0.09147344547904851 0.13444878336492949 0 -0.091312490714290234 0.1219534062952142 0 -0.1125066411457552 0.13339732858459349 0 -0.097969694410768429 0.1468741354446135 0 -0.09147344547904851 0.13444878336492949 0 -0.097969694410768429 0.1468741354446135 0 -0.1242758984584114 0.15324227162626311 0 -0.101157736158919 0.162280861634896 0 -0.097969694410768429 0.1468741354446135 0 -0.101157736158919 0.162280861634896 0 -0.088098770421815353 0.1588129091428 0 -0.1125066411457552 0.13339732858459349 0 -0.097969694410768429 0.1468741354446135 0 -0.1242758984584114 0.15324227162626311 0 -0.1125066411457552 0.13339732858459349 0 -0.1242758984584114 0.15324227162626311 0 -0.12542291095201091 0.1681665419366617 0 -0.1242758984584114 0.15324227162626311 0 -0.1166820811119494 0.17163639543350551 0 -0.1242758984584114 0.15324227162626311 0 -0.101157736158919 0.162280861634896 0 -0.1242758984584114 0.15324227162626311 0 -0.1166820811119494 0.17163639543350551 0 -0.101157736158919 0.162280861634896 0 -0.1166820811119494 0.17163639543350551 0 -0.1219486468967996 0.1889798259970199 0 -0.10935532532070399 0.18769432682166379 0 -0.1166820811119494 0.17163639543350551 0 -0.103402730807109 0.17762205281038959 0 -0.10935532532070399 0.18769432682166379 0 -0.12593802864416781 0.1768071867429423 0 -0.1166820811119494 0.17163639543350551 0 -0.1219486468967996 0.1889798259970199 0 -0.12593802864416781 0.1768071867429423 0 -0.12542291095201091 0.1681665419366617 0 -0.1166820811119494 0.17163639543350551 0 -0.103402730807109 0.17762205281038959 0 -0.09304491705014413 0.1869604653707371 0 -0.10935532532070399 0.18769432682166379 0 -0.103402730807109 0.17762205281038959 0 -0.09304491705014413 0.1869604653707371 0 -0.092551298388961395 0.173124952459485 0 -0.1166820811119494 0.17163639543350551 0 -0.103402730807109 0.17762205281038959 0 -0.101157736158919 0.162280861634896 0 -0.103402730807109 0.17762205281038959 0 -0.101157736158919 0.162280861634896 0 -0.092551298388961395 0.173124952459485 0 -0.101157736158919 0.162280861634896 0 -0.088098770421815353 0.1588129091428 0 -0.078039573859426503 0.17131945164352891 0 -0.101157736158919 0.162280861634896 0 -0.092551298388961395 0.173124952459485 0 -0.078039573859426503 0.17131945164352891 0 -0.101157736158919 0.162280861634896 0 -0.078039573859426503 0.17131945164352891 0 -0.088098770421815353 0.1588129091428 0 -0.08007878055663302 0.1611657802790353 0 -0.078039573859426503 0.17131945164352891 0 -0.088098770421815353 0.1588129091428 0 -0.08007878055663302 0.1611657802790353 0 -0.083248067123329827 0.15242431671192641 0 -0.09304491705014413 0.1869604653707371 0 -0.080507081118134427 0.18278929582299691 0 -0.078039573859426503 0.17131945164352891 0 -0.09304491705014413 0.1869604653707371 0 -0.078039573859426503 0.17131945164352891 0 -0.09304491705014413 0.1869604653707371 0 -0.092551298388961395 0.173124952459485 0 -0.078039573859426503 0.17131945164352891 0 -0.080507081118134427 0.18278929582299691 0 -0.066818112361940185 0.17595484665788669 0 -0.083439000671274424 0.19584790533322741 0 -0.066818112361940185 0.17595484665788669 0 -0.083439000671274424 0.19584790533322741 0 -0.080507081118134427 0.18278929582299691 0 -0.066818112361940185 0.17595484665788669 0 -0.078039573859426503 0.17131945164352891 0 -0.066818112361940185 0.17595484665788669 0 -0.071329417714891846 0.19079526972826841 0 -0.06232162261591237 0.1886840427446779 0 -0.08007878055663302 0.1611657802790353 0 -0.064407671728213794 0.15782746648953569 0 -0.074858611676500847 0.15441772635120701 0 -0.066818112361940185 0.17595484665788669 0 -0.078039573859426503 0.17131945164352891 0 -0.064407671728213794 0.15782746648953569 0 -0.08007878055663302 0.1611657802790353 0 -0.078039573859426503 0.17131945164352891 0 -0.064407671728213794 0.15782746648953569 0 -0.078039573859426503 0.17131945164352891 0 -0.064407671728213794 0.15782746648953569 0 -0.064407671728213794 0.15782746648953569 0 -0.074858611676500847 0.15441772635120701 0 -0.071076213344193062 0.1455310643791809 0 -0.064407671728213794 0.15782746648953569 0 -0.071076213344193062 0.1455310643791809 0 -0.059386968921548822 0.1464092473977035 0 -0.074858611676500847 0.15441772635120701 0 -0.071076213344193062 0.1455310643791809 0 -0.083248067123329827 0.15242431671192641 0 -0.071076213344193062 0.1455310643791809 0 -0.061422504713943817 0.13515595056114041 0 -0.059386968921548822 0.1464092473977035 0 -0.071076213344193062 0.1455310643791809 0 -0.077194618987175057 0.12897096154952661 0 -0.083389497531936835 0.14161447291879259 0 -0.071076213344193062 0.1455310643791809 0 -0.077194618987175057 0.12897096154952661 0 -0.061422504713943817 0.13515595056114041 0 -0.077194618987175057 0.12897096154952661 0 -0.061422504713943817 0.13515595056114041 0 -0.063935844882227977 0.12115124138483629 0 -0.077194618987175057 0.12897096154952661 0 -0.09147344547904851 0.13444878336492949 0 -0.083389497531936835 0.14161447291879259 0 -0.077194618987175057 0.12897096154952661 0 -0.09147344547904851 0.13444878336492949 0 -0.091312490714290234 0.1219534062952142 0 -0.097969694410768429 0.1468741354446135 0 -0.09147344547904851 0.13444878336492949 0 -0.083389497531936835 0.14161447291879259 0 -0.097969694410768429 0.1468741354446135 0 -0.083248067123329827 0.15242431671192641 0 -0.083389497531936835 0.14161447291879259 0 -0.097969694410768429 0.1468741354446135 0 -0.088098770421815353 0.1588129091428 0 -0.083248067123329827 0.15242431671192641 0 -0.08007878055663302 0.1611657802790353 0 -0.074858611676500847 0.15441772635120701 0 -0.083248067123329827 0.15242431671192641 0 -0.071076213344193062 0.1455310643791809 0 -0.083248067123329827 0.15242431671192641 0 -0.083389497531936835 0.14161447291879259 0 -0.097849120859015579 0.24466002151156921 0 -0.10845028555839439 0.23013009805248599 0 -0.091448064950739413 0.22939986678466401 0 -0.097849120859015579 0.24466002151156921 0 -0.1188947827930585 0.23986173116449699 0 -0.10845028555839439 0.23013009805248599 0 -0.1160110751609026 0.25519952342676888 0 -0.13552348719030149 0.2488112055487382 0 -0.1188947827930585 0.23986173116449699 0 -0.1160110751609026 0.25519952342676888 0 -0.097849120859015579 0.24466002151156921 0 -0.1188947827930585 0.23986173116449699 0 -0.12758562920888969 0.22209912893157599 0 -0.1188947827930585 0.23986173116449699 0 -0.10845028555839439 0.23013009805248599 0 -0.12758562920888969 0.22209912893157599 0 -0.10845028555839439 0.23013009805248599 0 -0.10647382998026871 0.21462974187012329 0 -0.12758562920888969 0.22209912893157599 0 -0.12200824916703699 0.21642519609716579 0 -0.10647382998026871 0.21462974187012329 0 -0.090102782573933227 0.21637588659731211 0 -0.091448064950739413 0.22939986678466401 0 -0.10845028555839439 0.23013009805248599 0 -0.10647382998026871 0.21462974187012329 0 -0.091448064950739413 0.22939986678466401 0 -0.10647382998026871 0.21462974187012329 0 -0.091448064950739413 0.22939986678466401 0 -0.096311842393882574 0.21103441502117359 0 -0.10647382998026871 0.21462974187012329 0 -0.090102782573933227 0.21637588659731211 0 -0.096311842393882574 0.21103441502117359 0 -0.10647382998026871 0.21462974187012329 0 -0.096311842393882574 0.21103441502117359 0 -0.1073635397111103 0.20152696481133681 0 -0.095201584390140939 0.19892643935832419 0 -0.096311842393882574 0.21103441502117359 0 -0.1073635397111103 0.20152696481133681 0 -0.096311842393882574 0.21103441502117359 0 -0.10590648574328081 0.20873427654390811 0 -0.1073635397111103 0.20152696481133681 0 -0.10590648574328081 0.20873427654390811 0 -0.11347673088786291 0.20774598447299639 0 -0.1073635397111103 0.20152696481133681 0 -0.10590648574328081 0.20873427654390811 0 -0.10647382998026871 0.21462974187012329 0 -0.11347673088786291 0.20774598447299639 0 -0.096311842393882574 0.21103441502117359 0 -0.10590648574328081 0.20873427654390811 0 -0.10647382998026871 0.21462974187012329 0 -0.10647382998026871 0.21462974187012329 0 -0.12200824916703699 0.21642519609716579 0 -0.12758562920888969 0.22209912893157599 0 -0.10647382998026871 0.21462974187012329 0 -0.10647382998026871 0.21462974187012329 0 -0.12200824916703699 0.21642519609716579 0 -0.11347673088786291 0.20774598447299639 0 -0.12758562920888969 0.22209912893157599 0 -0.10647382998026871 0.21462974187012329 0 -0.12200824916703699 0.21642519609716579 0 -0.10647382998026871 0.21462974187012329 0 -0.11347673088786291 0.20774598447299639 0 -0.12200824916703699 0.21642519609716579 0 -0.11347673088786291 0.20774598447299639 0 -0.12200824916703699 0.21642519609716579 0 -0.12369978846683979 0.20622966664466089 0 -0.11347673088786291 0.20774598447299639 0 -0.12539129191530141 0.1960341312441293 0 -0.12369978846683979 0.20622966664466089 0 -0.11347673088786291 0.20774598447299639 0 -0.11347673088786291 0.20774598447299639 0 -0.1073635397111103 0.20152696481133681 0 -0.11347673088786291 0.20774598447299639 0 -0.1170450523527681 0.19857172663137099 0 -0.1073635397111103 0.20152696481133681 0 -0.1170450523527681 0.19857172663137099 0 -0.1219486468967996 0.1889798259970199 0 -0.1073635397111103 0.20152696481133681 0 -0.12539129191530141 0.1960341312441293 0 -0.11347673088786291 0.20774598447299639 0 -0.1170450523527681 0.19857172663137099 0 -0.12539129191530141 0.1960341312441293 0 -0.11347673088786291 0.20774598447299639 0 -0.12539129191530141 0.1960341312441293 0 -0.1170450523527681 0.19857172663137099 0 -0.1219486468967996 0.1889798259970199 0 -0.1219486468967996 0.1889798259970199 0 -0.1073635397111103 0.20152696481133681 0 -0.1219486468967996 0.1889798259970199 0 -0.10935532532070399 0.18769432682166379 0 -0.1073635397111103 0.20152696481133681 0 -0.09304491705014413 0.1869604653707371 0 -0.10935532532070399 0.18769432682166379 0 -0.1073635397111103 0.20152696481133681 0 -0.09304491705014413 0.1869604653707371 0 -0.1073635397111103 0.20152696481133681 0 -0.095201584390140939 0.19892643935832419 0 -0.09304491705014413 0.1869604653707371 0 -0.1073635397111103 0.20152696481133681 0 -0.09304491705014413 0.1869604653707371 0 -0.095201584390140939 0.19892643935832419 0 -0.083439000671274424 0.19584790533322741 0 -0.096311842393882574 0.21103441502117359 0 -0.095201584390140939 0.19892643935832419 0 -0.083439000671274424 0.19584790533322741 0 -0.09304491705014413 0.1869604653707371 0 -0.080507081118134427 0.18278929582299691 0 -0.083439000671274424 0.19584790533322741 0 -0.066818112361940185 0.17595484665788669 0 -0.083439000671274424 0.19584790533322741 0 -0.071329417714891846 0.19079526972826841 0 -0.071329417714891846 0.19079526972826841 0 -0.072738935210440461 0.20269428417728191 0 -0.06232162261591237 0.1886840427446779 0 -0.083439000671274424 0.19584790533322741 0 -0.071329417714891846 0.19079526972826841 0 -0.072738935210440461 0.20269428417728191 0 -0.079020965165821341 0.21258088273426609 0 -0.069968972010974143 0.2264594236675144 0 -0.059503957101521898 0.2144423507036993 0 -0.072738935210440461 0.20269428417728191 0 -0.079020965165821341 0.21258088273426609 0 -0.059503957101521898 0.2144423507036993 0 -0.096311842393882574 0.21103441502117359 0 -0.072738935210440461 0.20269428417728191 0 -0.096311842393882574 0.21103441502117359 0 -0.072738935210440461 0.20269428417728191 0 -0.079020965165821341 0.21258088273426609 0 -0.096311842393882574 0.21103441502117359 0 -0.083439000671274424 0.19584790533322741 0 -0.072738935210440461 0.20269428417728191 0 -0.096311842393882574 0.21103441502117359 0 -0.079020965165821341 0.21258088273426609 0 -0.090102782573933227 0.21637588659731211 0 -0.079020965165821341 0.21258088273426609 0 -0.090102782573933227 0.21637588659731211 0 -0.081392616924536546 0.22579721029659319 0 -0.096311842393882574 0.21103441502117359 0 -0.090102782573933227 0.21637588659731211 0 -0.091448064950739413 0.22939986678466401 0 -0.081392616924536546 0.22579721029659319 0 -0.076422299921214631 0.24416999169920919 0 -0.090102782573933227 0.21637588659731211 0 -0.091448064950739413 0.22939986678466401 0 -0.081392616924536546 0.22579721029659319 0 -0.079020965165821341 0.21258088273426609 0 -0.081392616924536546 0.22579721029659319 0 -0.069968972010974143 0.2264594236675144 0 -0.081392616924536546 0.22579721029659319 0 -0.069968972010974143 0.2264594236675144 0 -0.076422299921214631 0.24416999169920919 0 -0.069968972010974143 0.2264594236675144 0 -0.076422299921214631 0.24416999169920919 0 -0.05496885827226422 0.23448953935415409 0 -0.061396534891690273 0.25894011661375471 0 -0.076422299921214631 0.24416999169920919 0 -0.05496885827226422 0.23448953935415409 0 -0.097849120859015579 0.24466002151156921 0 -0.091448064950739413 0.22939986678466401 0 -0.076422299921214631 0.24416999169920919 0 -0.083229234579399028 0.25510096302150448 0 -0.097849120859015579 0.24466002151156921 0 -0.076422299921214631 0.24416999169920919 0 -0.091448064950739413 0.22939986678466401 0 -0.076422299921214631 0.24416999169920919 0 -0.035146755087933378 0.2479744053876205 0 -0.05496885827226422 0.23448953935415409 0 -0.031159983922632511 0.21607582095559011 0 -0.061396534891690273 0.25894011661375471 0 -0.035146755087933378 0.2479744053876205 0 -0.05496885827226422 0.23448953935415409 0 -0.05496885827226422 0.23448953935415409 0 -0.059503957101521898 0.2144423507036993 0 -0.031159983922632511 0.21607582095559011 0 -0.069968972010974143 0.2264594236675144 0 -0.05496885827226422 0.23448953935415409 0 -0.059503957101521898 0.2144423507036993 0 -0.059503957101521898 0.2144423507036993 0 -0.049166028026998751 0.19435415333338929 0 -0.031159983922632511 0.21607582095559011 0 -0.072738935210440461 0.20269428417728191 0 -0.059503957101521898 0.2144423507036993 0 -0.049166028026998751 0.19435415333338929 0 -0.072738935210440461 0.20269428417728191 0 -0.049166028026998751 0.19435415333338929 0 -0.06232162261591237 0.1886840427446779 0 -0.072738935210440461 0.20269428417728191 0 -0.049166028026998751 0.19435415333338929 0 -0.049166028026998751 0.19435415333338929 0 -0.031159983922632511 0.21607582095559011 0 -0.025593120843557152 0.18601402248949661 0 -0.049166028026998751 0.19435415333338929 0 -0.025593120843557152 0.18601402248949661 0 -0.014096405418830629 0.19863189959779889 0 -0.025593120843557152 0.18601402248949661 0 -0.0089330992207545933 0.18645384145790039 0 -0.014096405418830629 0.19863189959779889 0 -0.031159983922632511 0.21607582095559011 0 -0.025593120843557152 0.18601402248949661 0 -0.00027921551059563888 0.18860839964433301 0 -0.014096405418830629 0.19863189959779889 0 -0.0045880953973868122 0.21280854690290871 0 -0.00027921551059563888 0.18860839964433301 0 -0.0045880953973868122 0.21280854690290871 0 -0.00027921551059563888 0.18860839964433301 0 -0.014096405418830629 0.19863189959779889 0 -0.0089330992207545933 0.18645384145790039 0 -0.014096405418830629 0.19863189959779889 0 -0.0045880953973868122 0.21280854690290871 0 -0.031159983922632511 0.21607582095559011 0 -0.035146755087933378 0.2479744053876205 0 -0.031159983922632511 0.21607582095559011 0 -0.0088969752841771433 0.23700869416148451 0 -0.0045880953973868122 0.21280854690290871 0 -0.031159983922632511 0.21607582095559011 0 -0.0088969752841771433 0.23700869416148451 0 -0.0045880953973868122 0.21280854690290871 0 -0.0088969752841771433 0.23700869416148451 0 0.0060981779341146526 0.21838056878989859 0 -0.0045880953973868122 0.21280854690290871 0 -0.0088969752841771433 0.23700869416148451 0 -0.01161598869828236 0.25227960603375049 0 -0.0088969752841771433 0.23700869416148451 0 -3.775473568293317e-05 0.2467409491748972 0 -0.01161598869828236 0.25227960603375049 0 -0.0088969752841771433 0.23700869416148451 0 -0.01161598869828236 0.25227960603375049 0 -0.035146755087933378 0.2479744053876205 0 -0.0088969752841771433 0.23700869416148451 0 -0.035146755087933378 0.2479744053876205 0 -0.0088969752841771433 0.23700869416148451 0 -0.033500033010367698 0.1529951732439869 0 -0.033576335743271672 0.13616872930720511 0 -0.05019722405260596 0.15606178798254591 0 -0.033576335743271672 0.13616872930720511 0 -0.049831230768787489 0.13746996757611449 0 -0.05019722405260596 0.15606178798254591 0 -0.033576335743271672 0.13616872930720511 0 -0.05019722405260596 0.15606178798254591 0 -0.033576335743271672 0.13616872930720511 0 -0.026730051478866059 0.1188212421492895 0 -0.04205124659859695 0.1231907771724237 0 -0.033576335743271672 0.13616872930720511 0 -0.049831230768787489 0.13746996757611449 0 -0.04205124659859695 0.1231907771724237 0 -0.049831230768787489 0.13746996757611449 0 -0.053775042776244092 0.1259842504947481 0 -0.04205124659859695 0.1231907771724237 0 -0.053775042776244092 0.1259842504947481 0 -0.061422504713943817 0.13515595056114041 0 -0.063935844882227977 0.12115124138483629 0 -0.049831230768787489 0.13746996757611449 0 -0.053775042776244092 0.1259842504947481 0 -0.061422504713943817 0.13515595056114041 0 -0.049831230768787489 0.13746996757611449 0 -0.061422504713943817 0.13515595056114041 0 -0.059386968921548822 0.1464092473977035 0 -0.049831230768787489 0.13746996757611449 0 -0.059386968921548822 0.1464092473977035 0 -0.05019722405260596 0.15606178798254591 0 -0.064407671728213794 0.15782746648953569 0 -0.059386968921548822 0.1464092473977035 0 -0.05019722405260596 0.15606178798254591 0 -0.066818112361940185 0.17595484665788669 0 -0.05019722405260596 0.15606178798254591 0 -0.066818112361940185 0.17595484665788669 0 -0.064407671728213794 0.15782746648953569 0 -0.05019722405260596 0.15606178798254591 0 -0.066818112361940185 0.17595484665788669 0 -0.05019722405260596 0.15606178798254591 0 -0.049108215094681273 0.17788519888823279 0 -0.066818112361940185 0.17595484665788669 0 -0.06232162261591237 0.1886840427446779 0 -0.049108215094681273 0.17788519888823279 0 -0.049166028026998751 0.19435415333338929 0 -0.06232162261591237 0.1886840427446779 0 -0.049108215094681273 0.17788519888823279 0 -0.049108215094681273 0.17788519888823279 0 -0.03677674566727402 0.16634684276921721 0 -0.025593120843557152 0.18601402248949661 0 -0.049166028026998751 0.19435415333338929 0 -0.049108215094681273 0.17788519888823279 0 -0.025593120843557152 0.18601402248949661 0 -0.033500033010367698 0.1529951732439869 0 -0.05019722405260596 0.15606178798254591 0 -0.03677674566727402 0.16634684276921721 0 -0.05019722405260596 0.15606178798254591 0 -0.049108215094681273 0.17788519888823279 0 -0.03677674566727402 0.16634684276921721 0 -0.03677674566727402 0.16634684276921721 0 -0.020756579169507759 0.16294501538425979 0 -0.025593120843557152 0.18601402248949661 0 -0.033500033010367698 0.1529951732439869 0 -0.03677674566727402 0.16634684276921721 0 -0.020756579169507759 0.16294501538425979 0 -0.020756579169507759 0.16294501538425979 0 -0.025593120843557152 0.18601402248949661 0 -0.0020202136601158651 0.1776738916456031 0 -0.025593120843557152 0.18601402248949661 0 -0.0020202136601158651 0.1776738916456031 0 -0.025593120843557152 0.18601402248949661 0 -0.0089330992207545933 0.18645384145790039 0 -0.0020202136601158651 0.1776738916456031 0 -0.0020202136601158651 0.1776738916456031 0 -0.0026765406706740322 0.18134099391226929 0 -0.0089330992207545933 0.18645384145790039 0 -0.0020202136601158651 0.1776738916456031 0 -0.0026765406706740322 0.18134099391226929 0 -0.00027921551059563888 0.18860839964433301 0 -0.0089330992207545933 0.18645384145790039 0 -0.0026765406706740322 0.18134099391226929 0 -0.00027921551059563888 0.18860839964433301 0 -0.0020202136601158651 0.1776738916456031 0 -0.0026765406706740322 0.18134099391226929 0 -0.020756579169507759 0.16294501538425979 0 -0.0020202136601158651 0.1776738916456031 0 0.002327000955342445 0.15338465729498249 0 -0.020756579169507759 0.16294501538425979 0 -0.020040693667051159 0.1478291251058671 0 0.002327000955342445 0.15338465729498249 0 -0.020040693667051159 0.1478291251058671 0 -0.014697521367451149 0.13365205029890129 0 0.002327000955342445 0.15338465729498249 0 -0.033500033010367698 0.1529951732439869 0 -0.033576335743271672 0.13616872930720511 0 -0.020040693667051159 0.1478291251058671 0 -0.033500033010367698 0.1529951732439869 0 -0.020756579169507759 0.16294501538425979 0 -0.020040693667051159 0.1478291251058671 0 -0.033576335743271672 0.13616872930720511 0 -0.014697521367451149 0.13365205029890129 0 -0.026730051478866059 0.1188212421492895 0 -0.033576335743271672 0.13616872930720511 0 -0.020040693667051159 0.1478291251058671 0 -0.014697521367451149 0.13365205029890129 0 -0.014697521367451149 0.13365205029890129 0 0.0066742155708027582 0.1290954229443623 0 0.002327000955342445 0.15338465729498249 0 -0.014697521367451149 0.13365205029890129 0 -0.013079950868864361 0.115303636196807 0 0.0066742155708027582 0.1290954229443623 0 -0.013079950868864361 0.115303636196807 0 0.01102143018626172 0.1048061885937419 0 -0.013079950868864361 0.115303636196807 0 -0.0088832574227819885 0.10121304069371161 0 0.01102143018626172 0.1048061885937419 0 -0.0088832574227819885 0.10121304069371161 0 -0.001974177383956163 0.092630081914044093 0 -0.017475224851508649 0.091736849665960907 0 -0.013079950868864361 0.115303636196807 0 -0.0088832574227819885 0.10121304069371161 0 -0.022232205494790259 0.101796461396626 0 -0.022232205494790259 0.101796461396626 0 -0.02608253359974318 0.082856848472366545 0 -0.03406689009917007 0.1030238128223951 0 -0.022232205494790259 0.101796461396626 0 -0.026730051478866059 0.1188212421492895 0 -0.03406689009917007 0.1030238128223951 0 -0.0088832574227819885 0.10121304069371161 0 -0.022232205494790259 0.101796461396626 0 -0.017475224851508649 0.091736849665960907 0 -0.014697521367451149 0.13365205029890129 0 -0.013079950868864361 0.115303636196807 0 -0.026730051478866059 0.1188212421492895 0 -0.013079950868864361 0.115303636196807 0 -0.022232205494790259 0.101796461396626 0 -0.026730051478866059 0.1188212421492895 0 -0.01020885417408884 0.073932002574156205 0 -0.020300111546366441 0.068251551299623042 0 -0.0051802318338099104 0.060749150217080487 0 -0.01020885417408884 0.073932002574156205 0 -0.0051802318338099104 0.060749150217080487 0 0.0053854133228681666 0.070718210852718469 0 -0.01020885417408884 0.073932002574156205 0 5.9848894296964113e-05 0.079285014747615762 0 0.0053854133228681666 0.070718210852718469 0 -0.0095136977771528401 0.086373842417279634 0 -0.01866523776744352 0.081843423341497815 0 5.9848894296964113e-05 0.079285014747615762 0 -0.01866523776744352 0.081843423341497815 0 5.9848894296964113e-05 0.079285014747615762 0 -0.01020885417408884 0.073932002574156205 0 -0.01866523776744352 0.081843423341497815 0 5.9848894296964113e-05 0.079285014747615762 0 -0.001974177383956163 0.092630081914044093 0 -0.0095136977771528401 0.086373842417279634 0 5.9848894296964113e-05 0.079285014747615762 0 -0.001974177383956163 0.092630081914044093 0 -0.0095136977771528401 0.086373842417279634 0 -0.017475224851508649 0.091736849665960907 0 -0.0095136977771528401 0.086373842417279634 0 -0.017475224851508649 0.091736849665960907 0 -0.01866523776744352 0.081843423341497815 0 -0.022232205494790259 0.101796461396626 0 -0.017475224851508649 0.091736849665960907 0 -0.02608253359974318 0.082856848472366545 0 -0.02608253359974318 0.082856848472366545 0 -0.03406689009917007 0.1030238128223951 0 -0.017475224851508649 0.091736849665960907 0 -0.01866523776744352 0.081843423341497815 0 -0.017475224851508649 0.091736849665960907 0 -0.02608253359974318 0.082856848472366545 0 -0.01866523776744352 0.081843423341497815 0 -0.02608253359974318 0.082856848472366545 0 -0.01866523776744352 0.081843423341497815 0 -0.01866523776744352 0.081843423341497815 0 -0.020300111546366441 0.068251551299623042 0 -0.02608253359974318 0.082856848472366545 0 -0.020300111546366441 0.068251551299623042 0 -0.01020885417408884 0.073932002574156205 0 -0.01866523776744352 0.081843423341497815 0 -0.020300111546366441 0.068251551299623042 0 -0.02608253359974318 0.082856848472366545 0 -0.01866523776744352 0.081843423341497815 0 -0.020300111546366441 0.068251551299623042 0 -0.02608253359974318 0.082856848472366545 0 -0.020300111546366441 0.068251551299623042 0 -0.033057028883485148 0.072661323476178097 0 -0.020300111546366441 0.068251551299623042 0 -0.033057028883485148 0.072661323476178097 0 -0.033093247584513229 0.058371043286656502 0 -0.042932535045326507 0.06775688741461236 0 -0.033057028883485148 0.072661323476178097 0 -0.053733388609206359 0.086634784797164466 0 -0.042932535045326507 0.06775688741461236 0 -0.033057028883485148 0.072661323476178097 0 -0.033093247584513229 0.058371043286656502 0 -0.02608253359974318 0.082856848472366545 0 -0.033057028883485148 0.072661323476178097 0 -0.053733388609206359 0.086634784797164466 0 -0.02608253359974318 0.082856848472366545 0 -0.053733388609206359 0.086634784797164466 0 -0.02608253359974318 0.082856848472366545 0 -0.053733388609206359 0.086634784797164466 0 -0.03406689009917007 0.1030238128223951 0 -0.042932535045326507 0.06775688741461236 0 -0.053733388609206359 0.086634784797164466 0 -0.055118098485167771 0.067025103634641744 0 -0.053733388609206359 0.086634784797164466 0 -0.055118098485167771 0.067025103634641744 0 -0.069017902516565491 0.068325412113366624 0 -0.042932535045326507 0.06775688741461236 0 -0.055118098485167771 0.067025103634641744 0 -0.044328410879941313 0.057014792825103522 0 -0.04205124659859695 0.1231907771724237 0 -0.03406689009917007 0.1030238128223951 0 -0.04205124659859695 0.1231907771724237 0 -0.03406689009917007 0.1030238128223951 0 -0.053636032855098423 0.1092755338266494 0 -0.026730051478866059 0.1188212421492895 0 -0.04205124659859695 0.1231907771724237 0 -0.03406689009917007 0.1030238128223951 0 -0.053733388609206359 0.086634784797164466 0 -0.053636032855098423 0.1092755338266494 0 -0.065727553065795113 0.09798327042810516 0 -0.053733388609206359 0.086634784797164466 0 -0.03406689009917007 0.1030238128223951 0 -0.053636032855098423 0.1092755338266494 0 -0.053636032855098423 0.1092755338266494 0 -0.067889577088987837 0.1085389814272454 0 -0.065727553065795113 0.09798327042810516 0 -0.053775042776244092 0.1259842504947481 0 -0.04205124659859695 0.1231907771724237 0 -0.053636032855098423 0.1092755338266494 0 -0.053636032855098423 0.1092755338266494 0 -0.063935844882227977 0.12115124138483629 0 -0.067889577088987837 0.1085389814272454 0 -0.053775042776244092 0.1259842504947481 0 -0.053636032855098423 0.1092755338266494 0 -0.063935844882227977 0.12115124138483629 0 -0.063935844882227977 0.12115124138483629 0 -0.073500576060794118 0.1165680410519965 0 -0.067889577088987837 0.1085389814272454 0 -0.073500576060794118 0.1165680410519965 0 -0.07978745666105469 0.10868895277755231 0 -0.067889577088987837 0.1085389814272454 0 -0.077194618987175057 0.12897096154952661 0 -0.063935844882227977 0.12115124138483629 0 -0.073500576060794118 0.1165680410519965 0 -0.077194618987175057 0.12897096154952661 0 -0.073500576060794118 0.1165680410519965 0 -0.082633470968073719 0.11615199269241989 0 -0.077194618987175057 0.12897096154952661 0 -0.082633470968073719 0.11615199269241989 0 -0.091312490714290234 0.1219534062952142 0 -0.073500576060794118 0.1165680410519965 0 -0.082633470968073719 0.11615199269241989 0 -0.07978745666105469 0.10868895277755231 0 -0.082633470968073719 0.11615199269241989 0 -0.087435328999577941 0.10802889854392481 0 -0.07978745666105469 0.10868895277755231 0 -0.082633470968073719 0.11615199269241989 0 -0.091312490714290234 0.1219534062952142 0 -0.087435328999577941 0.10802889854392481 0 -0.091312490714290234 0.1219534062952142 0 -0.087435328999577941 0.10802889854392481 0 -0.1007373838330991 0.11355238554292391 0 -0.087435328999577941 0.10802889854392481 0 -0.088968126520443058 0.093707442501254234 0 -0.1007373838330991 0.11355238554292391 0 -0.087435328999577941 0.10802889854392481 0 -0.082549830284180184 0.1002926915167478 0 -0.088968126520443058 0.093707442501254234 0 -0.07978745666105469 0.10868895277755231 0 -0.082549830284180184 0.1002926915167478 0 -0.075173995621155565 0.10062544263904501 0 -0.087435328999577941 0.10802889854392481 0 -0.07978745666105469 0.10868895277755231 0 -0.082549830284180184 0.1002926915167478 0 -0.082549830284180184 0.1002926915167478 0 -0.081384243618669666 0.090412721121962386 0 -0.088968126520443058 0.093707442501254234 0 -0.082549830284180184 0.1002926915167478 0 -0.075173995621155565 0.10062544263904501 0 -0.081384243618669666 0.090412721121962386 0 -0.075173995621155565 0.10062544263904501 0 -0.065727553065795113 0.09798327042810516 0 -0.081384243618669666 0.090412721121962386 0 -0.07978745666105469 0.10868895277755231 0 -0.075173995621155565 0.10062544263904501 0 -0.067889577088987837 0.1085389814272454 0 -0.075173995621155565 0.10062544263904501 0 -0.067889577088987837 0.1085389814272454 0 -0.065727553065795113 0.09798327042810516 0 -0.053733388609206359 0.086634784797164466 0 -0.081384243618669666 0.090412721121962386 0 -0.053733388609206359 0.086634784797164466 0 -0.065727553065795113 0.09798327042810516 0 -0.081384243618669666 0.090412721121962386 0 -0.053733388609206359 0.086634784797164466 0 -0.078311831475297022 0.077649266083493651 0 -0.081384243618669666 0.090412721121962386 0 -0.069017902516565491 0.068325412113366624 0 -0.084828868884537223 0.064058846376414957 0 -0.078311831475297022 0.077649266083493651 0 -0.053733388609206359 0.086634784797164466 0 -0.069017902516565491 0.068325412113366624 0 -0.078311831475297022 0.077649266083493651 0 -0.084828868884537223 0.064058846376414957 0 -0.078311831475297022 0.077649266083493651 0 -0.092349681432226147 0.073821176167606375 0 -0.084828868884537223 0.064058846376414957 0 -0.092349681432226147 0.073821176167606375 0 -0.09967601138342691 0.058683971299926169 0 -0.078311831475297022 0.077649266083493651 0 -0.081384243618669666 0.090412721121962386 0 -0.087741169208318842 0.084066423350722563 0 -0.078311831475297022 0.077649266083493651 0 -0.092349681432226147 0.073821176167606375 0 -0.087741169208318842 0.084066423350722563 0 -0.092349681432226147 0.073821176167606375 0 -0.087741169208318842 0.084066423350722563 0 -0.09785662288549736 0.082563025760973741 0 -0.081384243618669666 0.090412721121962386 0 -0.087741169208318842 0.084066423350722563 0 -0.088968126520443058 0.093707442501254234 0 -0.087741169208318842 0.084066423350722563 0 -0.088968126520443058 0.093707442501254234 0 -0.09785662288549736 0.082563025760973741 0 -0.088968126520443058 0.093707442501254234 0 -0.09785662288549736 0.082563025760973741 0 -0.1024233771524368 0.091645861871767112 0 -0.09785662288549736 0.082563025760973741 0 -0.1042501283867803 0.07071801239212161 0 -0.1114072546127791 0.08141923828237066 0 -0.09785662288549736 0.082563025760973741 0 -0.1024233771524368 0.091645861871767112 0 -0.1114072546127791 0.08141923828237066 0 -0.1042501283867803 0.07071801239212161 0 -0.1167535360829265 0.063156768162268881 0 -0.09967601138342691 0.058683971299926169 0 -0.092349681432226147 0.073821176167606375 0 -0.1042501283867803 0.07071801239212161 0 -0.09967601138342691 0.058683971299926169 0 -0.092349681432226147 0.073821176167606375 0 -0.09785662288549736 0.082563025760973741 0 -0.1042501283867803 0.07071801239212161 0 -0.1320796184193698 0.069977068624910599 0 -0.1167535360829265 0.063156768162268881 0 -0.1114072546127791 0.08141923828237066 0 -0.1042501283867803 0.07071801239212161 0 -0.1167535360829265 0.063156768162268881 0 -0.1114072546127791 0.08141923828237066 0 -0.12991214213761401 0.086842793423374087 0 -0.1320796184193698 0.069977068624910599 0 -0.1114072546127791 0.08141923828237066 0 -0.12991214213761401 0.086842793423374087 0 -0.1114072546127791 0.08141923828237066 0 -0.1150989155880965 0.094545880100484356 0 -0.1024233771524368 0.091645861871767112 0 -0.1114072546127791 0.08141923828237066 0 -0.1150989155880965 0.094545880100484356 0 -0.12986575450919499 0.1095067662004012 0 -0.10211259137811041 0.1052545832100899 0 -0.12986575450919499 0.1095067662004012 0 -0.12991214213761401 0.086842793423374087 0 -0.1150989155880965 0.094545880100484356 0 -0.12986575450919499 0.1095067662004012 0 -0.1150989155880965 0.094545880100484356 0 -0.10211259137811041 0.1052545832100899 0 -0.1125066411457552 0.13339732858459349 0 -0.1159542377670703 0.1179984796026123 0 -0.1007373838330991 0.11355238554292391 0 -0.12986575450919499 0.1095067662004012 0 -0.1159542377670703 0.1179984796026123 0 -0.10211259137811041 0.1052545832100899 0 -0.1125066411457552 0.13339732858459349 0 -0.091312490714290234 0.1219534062952142 0 -0.1007373838330991 0.11355238554292391 0 -0.1125066411457552 0.13339732858459349 0 -0.1007373838330991 0.11355238554292391 0 -0.1159542377670703 0.1179984796026123 0 -0.1007373838330991 0.11355238554292391 0 -0.10211259137811041 0.1052545832100899 0 -0.088968126520443058 0.093707442501254234 0 -0.1007373838330991 0.11355238554292391 0 -0.1007373838330991 0.11355238554292391 0 -0.098560369721022334 0.1010400682815088 0 -0.10211259137811041 0.1052545832100899 0 -0.088968126520443058 0.093707442501254234 0 -0.1007373838330991 0.11355238554292391 0 -0.098560369721022334 0.1010400682815088 0 -0.088968126520443058 0.093707442501254234 0 -0.1024233771524368 0.091645861871767112 0 -0.098560369721022334 0.1010400682815088 0 -0.1024233771524368 0.091645861871767112 0 -0.098560369721022334 0.1010400682815088 0 -0.10211259137811041 0.1052545832100899 0 -0.1024233771524368 0.091645861871767112 0 -0.1150989155880965 0.094545880100484356 0 -0.10211259137811041 0.1052545832100899 0 -0.1036174927738942 0.025115638094001039 0 -0.1153759954155526 0.0086656609987068572 0 -0.09284060307338092 0.0047276606075373666 0 -0.1153759954155526 0.0086656609987068572 0 -0.09284060307338092 0.0047276606075373666 0 -0.1153759954155526 0.0086656609987068572 0 -0.1133083836320004 0.00072062920631781914 0 -0.09284060307338092 0.0047276606075373666 0 -0.13793630684459571 0.011996523739471431 0 -0.1153759954155526 0.0086656609987068572 0 -0.1133083836320004 0.00072062920631781914 0 -0.1036174927738942 0.025115638094001039 0 -0.1153759954155526 0.0086656609987068572 0 -0.1238032711953954 0.02377673679527461 0 -0.1036174927738942 0.025115638094001039 0 -0.1238032711953954 0.02377673679527461 0 -0.1169541450338762 0.042722454918850621 0 -0.1167535360829265 0.063156768162268881 0 -0.1169541450338762 0.042722454918850621 0 -0.09967601138342691 0.058683971299926169 0 -0.13615405866132679 0.055419863455433663 0 -0.1167535360829265 0.063156768162268881 0 -0.1169541450338762 0.042722454918850621 0 -0.1169541450338762 0.042722454918850621 0 -0.09967601138342691 0.058683971299926169 0 -0.099941508087799294 0.043346964180313551 0 -0.1036174927738942 0.025115638094001039 0 -0.1169541450338762 0.042722454918850621 0 -0.099941508087799294 0.043346964180313551 0 -0.1036174927738942 0.025115638094001039 0 -0.099941508087799294 0.043346964180313551 0 -0.091570040978348893 0.033095578033780847 0 -0.091570040978348893 0.033095578033780847 0 -0.080873391620329721 0.048648489863804018 0 -0.078011955486726736 0.032061778599371357 0 -0.099941508087799294 0.043346964180313551 0 -0.091570040978348893 0.033095578033780847 0 -0.080873391620329721 0.048648489863804018 0 -0.09967601138342691 0.058683971299926169 0 -0.099941508087799294 0.043346964180313551 0 -0.080873391620329721 0.048648489863804018 0 -0.069017902516565491 0.068325412113366624 0 -0.084828868884537223 0.064058846376414957 0 -0.080873391620329721 0.048648489863804018 0 -0.084828868884537223 0.064058846376414957 0 -0.09967601138342691 0.058683971299926169 0 -0.080873391620329721 0.048648489863804018 0 -0.069017902516565491 0.068325412113366624 0 -0.080873391620329721 0.048648489863804018 0 -0.056297627145646727 0.051543739347467518 0 -0.080873391620329721 0.048648489863804018 0 -0.065582895582386141 0.037993915358030157 0 -0.078011955486726736 0.032061778599371357 0 -0.080873391620329721 0.048648489863804018 0 -0.065582895582386141 0.037993915358030157 0 -0.056297627145646727 0.051543739347467518 0 -0.065582895582386141 0.037993915358030157 0 -0.078011955486726736 0.032061778599371357 0 -0.067930348778265676 0.021346189564736159 0 -0.078011955486726736 0.032061778599371357 0 -0.067930348778265676 0.021346189564736159 0 -0.084103100474303194 0.01922472017650562 0 -0.1036174927738942 0.025115638094001039 0 -0.091570040978348893 0.033095578033780847 0 -0.084103100474303194 0.01922472017650562 0 -0.091570040978348893 0.033095578033780847 0 -0.078011955486726736 0.032061778599371357 0 -0.084103100474303194 0.01922472017650562 0 -0.1036174927738942 0.025115638094001039 0 -0.084103100474303194 0.01922472017650562 0 -0.09284060307338092 0.0047276606075373666 0 -0.09284060307338092 0.0047276606075373666 0 -0.070305210731209267 0.00078966021636795716 0 -0.084103100474303194 0.01922472017650562 0 -0.09284060307338092 0.0047276606075373666 0 -0.070305210731209267 0.00078966021636795716 0 -0.067930348778265676 0.021346189564736159 0 -0.070305210731209267 0.00078966021636795716 0 -0.051607135352098009 0.01519483634690927 0 -0.067930348778265676 0.021346189564736159 0 -0.084103100474303194 0.01922472017650562 0 -0.070305210731209267 0.00078966021636795716 0 -0.067930348778265676 0.021346189564736159 0 -0.070305210731209267 0.00078966021636795716 0 -0.053515934265007059 -0.0021442215766564292 0 -0.070305210731209267 0.00078966021636795716 0 -0.051607135352098009 0.01519483634690927 0 -0.053515934265007059 -0.0021442215766564292 0 -0.051607135352098009 0.01519483634690927 0 -0.039507246808043371 0.0039799439019462561 0 -0.065582895582386141 0.037993915358030157 0 -0.067930348778265676 0.021346189564736159 0 -0.04492517926030077 0.031308119865608448 0 -0.067930348778265676 0.021346189564736159 0 -0.051607135352098009 0.01519483634690927 0 -0.04492517926030077 0.031308119865608448 0 -0.04492517926030077 0.031308119865608448 0 -0.023454441587173861 0.042027355373767429 0 -0.02660877162798184 0.01580315944791191 0 -0.051607135352098009 0.01519483634690927 0 -0.04492517926030077 0.031308119865608448 0 -0.02660877162798184 0.01580315944791191 0 -0.051607135352098009 0.01519483634690927 0 -0.039507246808043371 0.0039799439019462561 0 -0.02660877162798184 0.01580315944791191 0 -0.029763101668789819 -0.010421036477943509 0 -0.039507246808043371 0.0039799439019462561 0 -0.02660877162798184 0.01580315944791191 0 -0.055118098485167771 0.067025103634641744 0 -0.069017902516565491 0.068325412113366624 0 -0.056297627145646727 0.051543739347467518 0 -0.055118098485167771 0.067025103634641744 0 -0.056297627145646727 0.051543739347467518 0 -0.044328410879941313 0.057014792825103522 0 -0.065582895582386141 0.037993915358030157 0 -0.056297627145646727 0.051543739347467518 0 -0.04492517926030077 0.031308119865608448 0 -0.04492517926030077 0.031308119865608448 0 -0.038602635375553702 0.045169316091932407 0 -0.023454441587173861 0.042027355373767429 0 -0.056297627145646727 0.051543739347467518 0 -0.04492517926030077 0.031308119865608448 0 -0.038602635375553702 0.045169316091932407 0 -0.038602635375553702 0.045169316091932407 0 -0.033093247584513229 0.058371043286656502 0 -0.023454441587173861 0.042027355373767429 0 -0.056297627145646727 0.051543739347467518 0 -0.038602635375553702 0.045169316091932407 0 -0.044328410879941313 0.057014792825103522 0 -0.038602635375553702 0.045169316091932407 0 -0.033093247584513229 0.058371043286656502 0 -0.044328410879941313 0.057014792825103522 0 -0.042932535045326507 0.06775688741461236 0 -0.033093247584513229 0.058371043286656502 0 -0.044328410879941313 0.057014792825103522 0 -0.020300111546366441 0.068251551299623042 0 -0.023454441587173861 0.042027355373767429 0 -0.011430995654219371 0.045849853175791093 0 -0.020300111546366441 0.068251551299623042 0 -0.023454441587173861 0.042027355373767429 0 -0.020300111546366441 0.068251551299623042 0 -0.011430995654219371 0.045849853175791093 0 -0.020300111546366441 0.068251551299623042 0 -0.033093247584513229 0.058371043286656502 0 -0.023454441587173861 0.042027355373767429 0 -0.023454441587173861 0.042027355373767429 0 -0.011430995654219371 0.045849853175791093 0 -0.015715585397479699 0.029310896908651511 0 -0.011430995654219371 0.045849853175791093 0 -0.015715585397479699 0.029310896908651511 0 -0.00256187976207168 0.02344815505195931 0 -0.011430995654219371 0.045849853175791093 0 -0.00256187976207168 0.02344815505195931 0 0.00058909739286622026 0.037293771600724009 0 -0.011430995654219371 0.045849853175791093 0 -0.00256187976207168 0.02344815505195931 0 -0.011430995654219371 0.045849853175791093 0 0.001558192610061277 0.048701786713332147 0 0.00058909739286622026 0.037293771600724009 0 -0.020300111546366441 0.068251551299623042 0 -0.011430995654219371 0.045849853175791093 0 -0.0051802318338099104 0.060749150217080487 0 -0.011430995654219371 0.045849853175791093 0 -0.0051802318338099104 0.060749150217080487 0 0.001558192610061277 0.048701786713332147 0 -0.029763101668789819 -0.010421036477943509 0 -0.02660877162798184 0.01580315944791191 0 -0.01197704106536252 0.001359318301099606 0 -0.029763101668789819 -0.010421036477943509 0 -0.02660877162798184 0.01580315944791191 0 -0.02660877162798184 0.01580315944791191 0 -0.01342908851048151 0.017773615465836539 0 -0.01197704106536252 0.001359318301099606 0 -0.023454441587173861 0.042027355373767429 0 -0.02660877162798184 0.01580315944791191 0 -0.015715585397479699 0.029310896908651511 0 -0.023454441587173861 0.042027355373767429 0 -0.02660877162798184 0.01580315944791191 0 -0.02660877162798184 0.01580315944791191 0 -0.015715585397479699 0.029310896908651511 0 -0.01342908851048151 0.017773615465836539 0 -0.015715585397479699 0.029310896908651511 0 -0.01342908851048151 0.017773615465836539 0 -0.00256187976207168 0.02344815505195931 0 -0.01342908851048151 0.017773615465836539 0 -0.00256187976207168 0.02344815505195931 0 -0.005415193301959915 0.01090688643675573 0 -0.00256187976207168 0.02344815505195931 0 -0.005415193301959915 0.01090688643675573 0 0.0063072361300760427 0.0010464569281274649 0 -0.01342908851048151 0.017773615465836539 0 -0.01197704106536252 0.001359318301099606 0 -0.005415193301959915 0.01090688643675573 0 -0.01197704106536252 0.001359318301099606 0 -0.005415193301959915 0.01090688643675573 0 0.0063072361300760427 0.0010464569281274649 0 0.0063072361300760427 0.0010464569281274649 0 0.0094071883567736353 0.01663508701688321 0 0.02562639929764892 -1.2320488383444491e-05 0 -0.00256187976207168 0.02344815505195931 0 0.0063072361300760427 0.0010464569281274649 0 -0.00256187976207168 0.02344815505195931 0 0.0063072361300760427 0.0010464569281274649 0 0.0094071883567736353 0.01663508701688321 0 -0.00256187976207168 0.02344815505195931 0 0.0055163096970322631 0.028790157077560979 0 0.0094071883567736353 0.01663508701688321 0 -0.00256187976207168 0.02344815505195931 0 0.0055163096970322631 0.028790157077560979 0 0.00058909739286622026 0.037293771600724009 0 0.0055163096970322631 0.028790157077560979 0 0.0094071883567736353 0.01663508701688321 0 0.015477111230338261 0.031415671834655823 0 0.0094071883567736353 0.01663508701688321 0 0.0279668411026332 0.029654303971570779 0 0.0094071883567736353 0.01663508701688321 0 0.023122268707708411 0.016821982388057679 0 0.0279668411026332 0.029654303971570779 0 0.0094071883567736353 0.01663508701688321 0 0.0279668411026332 0.029654303971570779 0 0.015477111230338261 0.031415671834655823 0 0.023122268707708411 0.016821982388057679 0 0.0279668411026332 0.029654303971570779 0 0.036076446573070353 0.021330600218937821 0 0.0094071883567736353 0.01663508701688321 0 0.023122268707708411 0.016821982388057679 0 0.02562639929764892 -1.2320488383444491e-05 0 0.023122268707708411 0.016821982388057679 0 0.036076446573070353 0.021330600218937821 0 0.02562639929764892 -1.2320488383444491e-05 0 0.036076446573070353 0.021330600218937821 0 0.02562639929764892 -1.2320488383444491e-05 0 0.0048596640762999087 0.058922830802475117 0 0.01315648063236727 0.051746088072644428 0 0.01552362699550742 0.066210074259289889 0 -0.0051802318338099104 0.060749150217080487 0 0.0048596640762999087 0.058922830802475117 0 0.001558192610061277 0.048701786713332147 0 0.0048596640762999087 0.058922830802475117 0 0.001558192610061277 0.048701786713332147 0 0.01315648063236727 0.051746088072644428 0 0.001558192610061277 0.048701786713332147 0 0.01315648063236727 0.051746088072644428 0 0.0098638600735286089 0.039678905984976517 0 0.001558192610061277 0.048701786713332147 0 0.0098638600735286089 0.039678905984976517 0 0.00058909739286622026 0.037293771600724009 0 0.0055163096970322631 0.028790157077560979 0 0.0098638600735286089 0.039678905984976517 0 0.00058909739286622026 0.037293771600724009 0 0.0055163096970322631 0.028790157077560979 0 0.0098638600735286089 0.039678905984976517 0 0.015477111230338261 0.031415671834655823 0 0.0098638600735286089 0.039678905984976517 0 0.015477111230338261 0.031415671834655823 0 0.024631356921723579 0.042319905122287588 0 0.0279668411026332 0.029654303971570779 0 0.015477111230338261 0.031415671834655823 0 0.024631356921723579 0.042319905122287588 0 0.0279668411026332 0.029654303971570779 0 0.024631356921723579 0.042319905122287588 0 0.035549442079543657 0.0430394863553724 0 0.01315648063236727 0.051746088072644428 0 0.0098638600735286089 0.039678905984976517 0 0.024631356921723579 0.042319905122287588 0 0.01315648063236727 0.051746088072644428 0 0.024631356921723579 0.042319905122287588 0 0.023761083233565398 0.05538839895049278 0 0.024631356921723579 0.042319905122287588 0 0.023761083233565398 0.05538839895049278 0 0.034899354018739913 0.05160551427097574 0 0.023761083233565398 0.05538839895049278 0 0.033568176504909328 0.061774053025302873 0 0.025499607951643761 0.06414458164132214 0 0.023761083233565398 0.05538839895049278 0 0.033568176504909328 0.061774053025302873 0 0.034899354018739913 0.05160551427097574 0 0.023761083233565398 0.05538839895049278 0 0.025499607951643761 0.06414458164132214 0 0.01552362699550742 0.066210074259289889 0 0.01315648063236727 0.051746088072644428 0 0.023761083233565398 0.05538839895049278 0 0.01552362699550742 0.066210074259289889 0 0.042796927795115042 0.05850451529646207 0 0.033568176504909328 0.061774053025302873 0 0.034899354018739913 0.05160551427097574 0 0.034899354018739913 0.05160551427097574 0 0.043723164506128932 0.048944187485769619 0 0.035549442079543657 0.0430394863553724 0 0.042796927795115042 0.05850451529646207 0 0.034899354018739913 0.05160551427097574 0 0.043723164506128932 0.048944187485769619 0 0.043723164506128932 0.048944187485769619 0 0.047765310531370932 0.045203649789482832 0 0.048523116325590497 0.054248679510622178 0 0.042796927795115042 0.05850451529646207 0 0.043723164506128932 0.048944187485769619 0 0.048523116325590497 0.054248679510622178 0 0.0279668411026332 0.029654303971570779 0 0.046526493848492362 0.042673520926258757 0 0.046526493848492362 0.042673520926258757 0 0.054662750560346869 0.034481579975592341 0 0.036076446573070353 0.021330600218937821 0 0.0279668411026332 0.029654303971570779 0 0.046526493848492362 0.042673520926258757 0 0.035549442079543657 0.0430394863553724 0 0.046526493848492362 0.042673520926258757 0 0.036076446573070353 0.021330600218937821 0 0.043723164506128932 0.048944187485769619 0 0.046526493848492362 0.042673520926258757 0 0.035549442079543657 0.0430394863553724 0 0.043723164506128932 0.048944187485769619 0 0.046526493848492362 0.042673520926258757 0 0.047765310531370932 0.045203649789482832 0 0.024631356921723579 0.042319905122287588 0 0.034899354018739913 0.05160551427097574 0 0.035549442079543657 0.0430394863553724 0 0.054662750560346869 0.034481579975592341 0 0.058455171333762421 0.051041244303941871 0 0.069417043581901344 0.029950191887770199 0 0.046526493848492362 0.042673520926258757 0 0.054662750560346869 0.034481579975592341 0 0.058455171333762421 0.051041244303941871 0 0.046526493848492362 0.042673520926258757 0 0.047765310531370932 0.045203649789482832 0 0.058455171333762421 0.051041244303941871 0 0.046526493848492362 0.042673520926258757 0 0.058455171333762421 0.051041244303941871 0 0.046526493848492362 0.042673520926258757 0 0.047765310531370932 0.045203649789482832 0 0.058455171333762421 0.051041244303941871 0 0.049875007461575298 0.067549800677454294 0 0.058455171333762421 0.051041244303941871 0 0.049875007461575298 0.067549800677454294 0 0.059993430961574147 0.064120414307129489 0 0.048523116325590497 0.054248679510622178 0 0.058455171333762421 0.051041244303941871 0 0.049875007461575298 0.067549800677454294 0 0.047765310531370932 0.045203649789482832 0 0.048523116325590497 0.054248679510622178 0 0.058455171333762421 0.051041244303941871 0 0.042796927795115042 0.05850451529646207 0 0.048523116325590497 0.054248679510622178 0 0.049875007461575298 0.067549800677454294 0 0.040919504615666541 0.0075697357018399084 0 0.036076446573070353 0.021330600218937821 0 0.02562639929764892 -1.2320488383444491e-05 0 0.040919504615666541 0.0075697357018399084 0 0.036076446573070353 0.021330600218937821 0 0.050171883420679762 0.01633679047936976 0 0.040919504615666541 0.0075697357018399084 0 0.053854106895414901 0.0052689662719634734 0 0.038868686891518761 -0.0050753579726880577 0 0.040919504615666541 0.0075697357018399084 0 0.02562639929764892 -1.2320488383444491e-05 0 0.038868686891518761 -0.0050753579726880577 0 0.0279668411026332 0.029654303971570779 0 0.046526493848492362 0.042673520926258757 0 0.036076446573070353 0.021330600218937821 0 0.054662750560346869 0.034481579975592341 0 0.036076446573070353 0.021330600218937821 0 0.050171883420679762 0.01633679047936976 0 0.054662750560346869 0.034481579975592341 0 0.050171883420679762 0.01633679047936976 0 0.065675897584881598 0.01214551585539852 0 0.054662750560346869 0.034481579975592341 0 0.065675897584881598 0.01214551585539852 0 0.050171883420679762 0.01633679047936976 0 0.053854106895414901 0.0052689662719634734 0 0.065675897584881598 0.01214551585539852 0 0.040919504615666541 0.0075697357018399084 0 0.050171883420679762 0.01633679047936976 0 0.053854106895414901 0.0052689662719634734 0 0.053854106895414901 0.0052689662719634734 0 0.065675897584881598 0.01214551585539852 0 0.062537180315139301 -0.00087497464723947094 0 0.065675897584881598 0.01214551585539852 0 0.07668904460941621 -0.01019054826479532 0 0.065675897584881598 0.01214551585539852 0 0.08037891583004024 0.0088591394715984983 0 0.07668904460941621 -0.01019054826479532 0 0.065675897584881598 0.01214551585539852 0 0.07668904460941621 -0.01019054826479532 0 0.062537180315139301 -0.00087497464723947094 0 0.08037891583004024 0.0088591394715984983 0 0.091233984485157626 0.0080752956512665369 0 0.07668904460941621 -0.01019054826479532 0 0.08037891583004024 0.0088591394715984983 0 0.091233984485157626 0.0080752956512665369 0 0.089384056408237586 0.02112500876292003 0 0.08037891583004024 0.0088591394715984983 0 0.089384056408237586 0.02112500876292003 0 0.077504150090657517 0.027783456895369572 0 0.089384056408237586 0.02112500876292003 0 0.077504150090657517 0.027783456895369572 0 0.092024307274442149 0.034566012229033972 0 0.08037891583004024 0.0088591394715984983 0 0.069417043581901344 0.029950191887770199 0 0.065675897584881598 0.01214551585539852 0 0.08037891583004024 0.0088591394715984983 0 0.069417043581901344 0.029950191887770199 0 0.054662750560346869 0.034481579975592341 0 0.065675897584881598 0.01214551585539852 0 0.069417043581901344 0.029950191887770199 0 0.08037891583004024 0.0088591394715984983 0 0.069417043581901344 0.029950191887770199 0 0.077504150090657517 0.027783456895369572 0 0.077504150090657517 0.027783456895369572 0 0.074273805429601547 0.043827564437003377 0 0.082189459503508006 0.038833839819065491 0 0.077504150090657517 0.027783456895369572 0 0.074273805429601547 0.043827564437003377 0 0.058455171333762421 0.051041244303941871 0 0.069417043581901344 0.029950191887770199 0 0.069417043581901344 0.029950191887770199 0 0.077504150090657517 0.027783456895369572 0 0.074273805429601547 0.043827564437003377 0 0.058455171333762421 0.051041244303941871 0 0.069417043581901344 0.029950191887770199 0 0.074273805429601547 0.043827564437003377 0 0.074273805429601547 0.043827564437003377 0 0.071043460768544453 0.059871671978637013 0 0.058455171333762421 0.051041244303941871 0 0.074273805429601547 0.043827564437003377 0 0.071043460768544453 0.059871671978637013 0 0.074273805429601547 0.043827564437003377 0 0.071043460768544453 0.059871671978637013 0 0.085220108062007666 0.052027236297640389 0 0.058455171333762421 0.051041244303941871 0 0.071043460768544453 0.059871671978637013 0 0.058455171333762421 0.051041244303941871 0 0.071043460768544453 0.059871671978637013 0 0.059993430961574147 0.064120414307129489 0 0.085220108062007666 0.052027236297640389 0 0.1028960710683246 0.054672484143855178 0 0.088427230384745176 0.066879919947765237 0 0.085220108062007666 0.052027236297640389 0 0.092024307274442149 0.034566012229033972 0 0.1028960710683246 0.054672484143855178 0 0.081234601781395202 0.061745499367798128 0 0.085220108062007666 0.052027236297640389 0 0.088427230384745176 0.066879919947765237 0 0.071043460768544453 0.059871671978637013 0 0.081234601781395202 0.061745499367798128 0 0.085220108062007666 0.052027236297640389 0 0.085220108062007666 0.052027236297640389 0 0.082189459503508006 0.038833839819065491 0 0.092024307274442149 0.034566012229033972 0 0.077504150090657517 0.027783456895369572 0 0.082189459503508006 0.038833839819065491 0 0.092024307274442149 0.034566012229033972 0 0.074273805429601547 0.043827564437003377 0 0.085220108062007666 0.052027236297640389 0 0.082189459503508006 0.038833839819065491 0 0.1028960710683246 0.054672484143855178 0 0.1117784504071468 0.03387547159395099 0 0.1057789243608946 0.02634113956733199 0 0.1028960710683246 0.054672484143855178 0 0.1057789243608946 0.02634113956733199 0 0.092024307274442149 0.034566012229033972 0 0.1028960710683246 0.054672484143855178 0 0.1057789243608946 0.02634113956733199 0 0.1028960710683246 0.054672484143855178 0 0.1189936152105935 0.047135591389191447 0 0.12226632998145889 0.062429746574226612 0 0.1189936152105935 0.047135591389191447 0 0.12226632998145889 0.062429746574226612 0 0.1301761357721177 0.052927253333610043 0 0.1028960710683246 0.054672484143855178 0 0.1189936152105935 0.047135591389191447 0 0.1117784504071468 0.03387547159395099 0 0.1189936152105935 0.047135591389191447 0 0.1233110703120837 0.033877782055872337 0 0.13099349597781451 0.040065960768624731 0 0.1189936152105935 0.047135591389191447 0 0.1117784504071468 0.03387547159395099 0 0.1233110703120837 0.033877782055872337 0 0.1117784504071468 0.03387547159395099 0 0.12228846285876641 0.019350583522008819 0 0.1057789243608946 0.02634113956733199 0 0.1117784504071468 0.03387547159395099 0 0.1233110703120837 0.033877782055872337 0 0.12228846285876641 0.019350583522008819 0 0.12228846285876641 0.019350583522008819 0 0.12290637425548311 0.0038199371557853272 0 0.10843214682600651 0.00026650021914649552 0 0.12228846285876641 0.019350583522008819 0 0.10843214682600651 0.00026650021914649552 0 0.1057789243608946 0.02634113956733199 0 0.10843214682600651 0.00026650021914649552 0 0.1057789243608946 0.02634113956733199 0 0.091233984485157626 0.0080752956512665369 0 0.10843214682600651 0.00026650021914649552 0 0.1057789243608946 0.02634113956733199 0 0.091233984485157626 0.0080752956512665369 0 0.089384056408237586 0.02112500876292003 0 0.1057789243608946 0.02634113956733199 0 0.091233984485157626 0.0080752956512665369 0 0.1057789243608946 0.02634113956733199 0 0.089384056408237586 0.02112500876292003 0 0.092024307274442149 0.034566012229033972 0 0.1057789243608946 0.02634113956733199 0 0.1117784504071468 0.03387547159395099 0 0.1057789243608946 0.02634113956733199 0 0.097130364483193121 0.1113351732969025 0 0.1000132177757589 0.083003828720378786 0 0.1000444717628199 0.1041428725545302 0 0.11059126951348081 0.11206430086046321 0 0.1159061894154637 0.099408522202780403 0 0.1000444717628199 0.1041428725545302 0 0.1159061894154637 0.099408522202780403 0 0.1000444717628199 0.1041428725545302 0 0.1159061894154637 0.099408522202780403 0 0.1109378513473526 0.090905341124671954 0 0.1000444717628199 0.1041428725545302 0 0.097130364483193121 0.1113351732969025 0 0.1000132177757589 0.083003828720378786 0 0.1000444717628199 0.1041428725545302 0 0.097130364483193121 0.1113351732969025 0 0.11059126951348081 0.11206430086046321 0 0.097130364483193121 0.1113351732969025 0 0.11059126951348081 0.11206430086046321 0 0.11027173660254901 0.1275187806701249 0 0.11059126951348081 0.11206430086046321 0 0.11027173660254901 0.1275187806701249 0 0.12960358530337829 0.1179161555779778 0 0.11059126951348081 0.11206430086046321 0 0.1159061894154637 0.099408522202780403 0 0.12960358530337829 0.1179161555779778 0 0.1159061894154637 0.099408522202780403 0 0.13176790706810729 0.094674171851030123 0 0.1159061894154637 0.099408522202780403 0 0.1221436003498254 0.089871025108145694 0 0.13176790706810729 0.094674171851030123 0 0.11658177743289511 0.078100457037524718 0 0.13064163026914569 0.074616060755680336 0 0.12566812762462329 0.082584506653402334 0 0.1221436003498254 0.089871025108145694 0 0.11658177743289511 0.078100457037524718 0 0.12566812762462329 0.082584506653402334 0 0.1221436003498254 0.089871025108145694 0 0.1109378513473526 0.090905341124671954 0 0.11658177743289511 0.078100457037524718 0 0.1159061894154637 0.099408522202780403 0 0.1221436003498254 0.089871025108145694 0 0.1109378513473526 0.090905341124671954 0 0.1028960710683246 0.054672484143855178 0 0.12226632998145889 0.062429746574226612 0 0.11658177743289511 0.078100457037524718 0 0.12226632998145889 0.062429746574226612 0 0.11658177743289511 0.078100457037524718 0 0.13064163026914569 0.074616060755680336 0 0.1028960710683246 0.054672484143855178 0 0.11658177743289511 0.078100457037524718 0 0.1000132177757589 0.083003828720378786 0 0.1028960710683246 0.054672484143855178 0 0.1000132177757589 0.083003828720378786 0 0.1028960710683246 0.054672484143855178 0 0.1000132177757589 0.083003828720378786 0 0.088427230384745176 0.066879919947765237 0 0.1000444717628199 0.1041428725545302 0 0.1109378513473526 0.090905341124671954 0 0.1000132177757589 0.083003828720378786 0 0.1109378513473526 0.090905341124671954 0 0.11658177743289511 0.078100457037524718 0 0.1000132177757589 0.083003828720378786 0 0.1000132177757589 0.083003828720378786 0 0.083286654821134176 0.077506515387918695 0 0.076830698601387831 0.090172707962844642 0 0.1000132177757589 0.083003828720378786 0 0.088427230384745176 0.066879919947765237 0 0.083286654821134176 0.077506515387918695 0 0.083286654821134176 0.077506515387918695 0 0.079243593641948135 0.069193895294834745 0 0.071918533701830864 0.078282225013769996 0 0.088427230384745176 0.066879919947765237 0 0.083286654821134176 0.077506515387918695 0 0.079243593641948135 0.069193895294834745 0 0.081234601781395202 0.061745499367798128 0 0.088427230384745176 0.066879919947765237 0 0.079243593641948135 0.069193895294834745 0 0.071043460768544453 0.059871671978637013 0 0.066896220405259943 0.080469712550528483 0 0.059993430961574147 0.064120414307129489 0 0.071043460768544453 0.059871671978637013 0 0.071918533701830864 0.078282225013769996 0 0.066896220405259943 0.080469712550528483 0 0.071043460768544453 0.059871671978637013 0 0.066896220405259943 0.080469712550528483 0 0.071043460768544453 0.059871671978637013 0 0.079243593641948135 0.069193895294834745 0 0.071918533701830864 0.078282225013769996 0 0.071043460768544453 0.059871671978637013 0 0.081234601781395202 0.061745499367798128 0 0.079243593641948135 0.069193895294834745 0 0.066896220405259943 0.080469712550528483 0 0.063621540106473265 0.09673402128251507 0 0.076830698601387831 0.090172707962844642 0 0.066896220405259943 0.080469712550528483 0 0.063621540106473265 0.09673402128251507 0 0.076830698601387831 0.090172707962844642 0 0.071918533701830864 0.078282225013769996 0 0.066896220405259943 0.080469712550528483 0 0.083286654821134176 0.077506515387918695 0 0.076830698601387831 0.090172707962844642 0 0.071918533701830864 0.078282225013769996 0 0.071918533701830864 0.078282225013769996 0 0.066896220405259943 0.080469712550528483 0 0.063621540106473265 0.09673402128251507 0 0.065604115166762511 0.1081991725311623 0 0.060346859807690223 0.11299833001450239 0 0.063621540106473265 0.09673402128251507 0 0.065604115166762511 0.1081991725311623 0 0.076620692015056446 0.10402486741337059 0 0.065604115166762511 0.1081991725311623 0 0.076620692015056446 0.10402486741337059 0 0.079916741717465406 0.1136832619934285 0 0.076830698601387831 0.090172707962844642 0 0.063621540106473265 0.09673402128251507 0 0.076620692015056446 0.10402486741337059 0 0.097130364483193121 0.1113351732969025 0 0.076830698601387831 0.090172707962844642 0 0.076620692015056446 0.10402486741337059 0 0.097130364483193121 0.1113351732969025 0 0.1000132177757589 0.083003828720378786 0 0.076830698601387831 0.090172707962844642 0 0.097130364483193121 0.1113351732969025 0 0.076620692015056446 0.10402486741337059 0 0.079916741717465406 0.1136832619934285 0 0.097130364483193121 0.1113351732969025 0 0.079916741717465406 0.1136832619934285 0 0.082270052373034044 0.1242913141865841 0 0.079916741717465406 0.1136832619934285 0 0.082270052373034044 0.1242913141865841 0 0.071437366341703154 0.1174469001381889 0 0.060346859807690223 0.11299833001450239 0 0.070819613724593944 0.12699435062955231 0 0.0642966871457199 0.13152993493513709 0 0.082270052373034044 0.1242913141865841 0 0.071437366341703154 0.1174469001381889 0 0.070819613724593944 0.12699435062955231 0 0.065604115166762511 0.1081991725311623 0 0.079916741717465406 0.1136832619934285 0 0.071437366341703154 0.1174469001381889 0 0.065604115166762511 0.1081991725311623 0 0.071437366341703154 0.1174469001381889 0 0.060346859807690223 0.11299833001450239 0 0.065604115166762511 0.1081991725311623 0 0.060346859807690223 0.11299833001450239 0 0.071437366341703154 0.1174469001381889 0 0.060346859807690223 0.11299833001450239 0 0.070819613724593944 0.12699435062955231 0 0.060346859807690223 0.11299833001450239 0 0.041574461330525413 0.13013497080492081 0 0.060346859807690223 0.11299833001450239 0 0.04446079464393192 0.10585510399111379 0 0.041574461330525413 0.13013497080492081 0 0.063621540106473265 0.09673402128251507 0 0.060346859807690223 0.11299833001450239 0 0.063621540106473265 0.09673402128251507 0 0.060346859807690223 0.11299833001450239 0 0.04446079464393192 0.10585510399111379 0 0.063621540106473265 0.09673402128251507 0 0.04446079464393192 0.10585510399111379 0 0.048271290332262233 0.088581871231603562 0 0.04446079464393192 0.10585510399111379 0 0.027624930465374588 0.1103212457006386 0 0.029646360259261789 0.096694029912672397 0 0.04446079464393192 0.10585510399111379 0 0.048271290332262233 0.088581871231603562 0 0.029646360259261789 0.096694029912672397 0 0.04446079464393192 0.10585510399111379 0 0.027624930465374588 0.1103212457006386 0 0.041574461330525413 0.13013497080492081 0 0.066896220405259943 0.080469712550528483 0 0.059993430961574147 0.064120414307129489 0 0.054093994098552693 0.077534040448348829 0 0.049875007461575298 0.067549800677454294 0 0.054093994098552693 0.077534040448348829 0 0.041294843589388133 0.084058357050966703 0 0.049875007461575298 0.067549800677454294 0 0.059993430961574147 0.064120414307129489 0 0.054093994098552693 0.077534040448348829 0 0.066896220405259943 0.080469712550528483 0 0.063621540106473265 0.09673402128251507 0 0.048271290332262233 0.088581871231603562 0 0.066896220405259943 0.080469712550528483 0 0.048271290332262233 0.088581871231603562 0 0.066896220405259943 0.080469712550528483 0 0.054093994098552693 0.077534040448348829 0 0.048271290332262233 0.088581871231603562 0 0.054093994098552693 0.077534040448348829 0 0.048271290332262233 0.088581871231603562 0 0.041294843589388133 0.084058357050966703 0 0.048271290332262233 0.088581871231603562 0 0.041294843589388133 0.084058357050966703 0 0.029646360259261789 0.096694029912672397 0 0.048271290332262233 0.088581871231603562 0 0.029646360259261789 0.096694029912672397 0 0.041294843589388133 0.084058357050966703 0 0.02880740015494929 0.082919589140575706 0 0.029646360259261789 0.096694029912672397 0 0.041294843589388133 0.084058357050966703 0 0.037287199372914602 0.071279588718084347 0 0.02880740015494929 0.082919589140575706 0 0.049875007461575298 0.067549800677454294 0 0.041294843589388133 0.084058357050966703 0 0.049875007461575298 0.067549800677454294 0 0.041294843589388133 0.084058357050966703 0 0.037287199372914602 0.071279588718084347 0 0.033568176504909328 0.061774053025302873 0 0.037287199372914602 0.071279588718084347 0 0.02738084073155049 0.072871217117744538 0 0.042796927795115042 0.05850451529646207 0 0.033568176504909328 0.061774053025302873 0 0.037287199372914602 0.071279588718084347 0 0.042796927795115042 0.05850451529646207 0 0.049875007461575298 0.067549800677454294 0 0.037287199372914602 0.071279588718084347 0 0.025499607951643761 0.06414458164132214 0 0.02738084073155049 0.072871217117744538 0 0.01552362699550742 0.066210074259289889 0 0.033568176504909328 0.061774053025302873 0 0.025499607951643761 0.06414458164132214 0 0.02738084073155049 0.072871217117744538 0 0.037287199372914602 0.071279588718084347 0 0.02738084073155049 0.072871217117744538 0 0.02880740015494929 0.082919589140575706 0 0.02738084073155049 0.072871217117744538 0 0.018323574190891749 0.075594878364986046 0 0.02880740015494929 0.082919589140575706 0 0.02738084073155049 0.072871217117744538 0 0.018323574190891749 0.075594878364986046 0 0.01552362699550742 0.066210074259289889 0 0.018323574190891749 0.075594878364986046 0 0.02880740015494929 0.082919589140575706 0 0.01452058974958338 0.085255300454601668 0 0.02880740015494929 0.082919589140575706 0 0.01452058974958338 0.085255300454601668 0 0.029646360259261789 0.096694029912672397 0 -0.001974177383956163 0.092630081914044093 0 5.9848894296964113e-05 0.079285014747615762 0 0.01452058974958338 0.085255300454601668 0 5.9848894296964113e-05 0.079285014747615762 0 0.01452058974958338 0.085255300454601668 0 0.0053854133228681666 0.070718210852718469 0 0.018323574190891749 0.075594878364986046 0 0.0053854133228681666 0.070718210852718469 0 0.01552362699550742 0.066210074259289889 0 0.018323574190891749 0.075594878364986046 0 0.01452058974958338 0.085255300454601668 0 0.0053854133228681666 0.070718210852718469 0 -0.0051802318338099104 0.060749150217080487 0 0.0048596640762999087 0.058922830802475117 0 0.0053854133228681666 0.070718210852718469 0 0.0048596640762999087 0.058922830802475117 0 0.0053854133228681666 0.070718210852718469 0 0.01552362699550742 0.066210074259289889 0 0.023665737729072919 0.12316401753495899 0 0.027624930465374588 0.1103212457006386 0 0.041574461330525413 0.13013497080492081 0 0.02041856309448388 0.1135627563225784 0 0.016947776743719129 0.1210376607070353 0 0.014241816859297729 0.1070533015838811 0 0.02041856309448388 0.1135627563225784 0 0.027624930465374588 0.1103212457006386 0 0.014241816859297729 0.1070533015838811 0 0.02041856309448388 0.1135627563225784 0 0.016947776743719129 0.1210376607070353 0 0.023665737729072919 0.12316401753495899 0 0.016947776743719129 0.1210376607070353 0 0.023665737729072919 0.12316401753495899 0 0.01748692370433013 0.1275850553371157 0 0.02041856309448388 0.1135627563225784 0 0.023665737729072919 0.12316401753495899 0 0.027624930465374588 0.1103212457006386 0 0.027624930465374588 0.1103212457006386 0 0.029646360259261789 0.096694029912672397 0 0.014241816859297729 0.1070533015838811 0 0.029646360259261789 0.096694029912672397 0 0.014241816859297729 0.1070533015838811 0 0.01102143018626172 0.1048061885937419 0 0.029646360259261789 0.096694029912672397 0 0.01102143018626172 0.1048061885937419 0 0.01452058974958338 0.085255300454601668 0 0.029646360259261789 0.096694029912672397 0 0.01102143018626172 0.1048061885937419 0 -0.001974177383956163 0.092630081914044093 0 0.01452058974958338 0.085255300454601668 0 0.01102143018626172 0.1048061885937419 0 -0.0088832574227819885 0.10121304069371161 0 -0.001974177383956163 0.092630081914044093 0 0.01102143018626172 0.1048061885937419 0 0.01452058974958338 0.085255300454601668 0 0.01102143018626172 0.1048061885937419 0 0.01102143018626172 0.1048061885937419 0 0.0066742155708027582 0.1290954229443623 0 0.016947776743719129 0.1210376607070353 0 0.014241816859297729 0.1070533015838811 0 0.0091357406177466211 0.13573077698481931 0 0.014241816859297729 0.1070533015838811 0 0.0091357406177466211 0.13573077698481931 0 0.014241816859297729 0.1070533015838811 0 0.0066742155708027582 0.1290954229443623 0 0.0091357406177466211 0.13573077698481931 0 -0.013079950868864361 0.115303636196807 0 0.01102143018626172 0.1048061885937419 0 0.0066742155708027582 0.1290954229443623 0 0.014241816859297729 0.1070533015838811 0 0.01102143018626172 0.1048061885937419 0 0.0066742155708027582 0.1290954229443623 0 0.0066742155708027582 0.1290954229443623 0 0.0091357406177466211 0.13573077698481931 0 0.002327000955342445 0.15338465729498249 0 0.016947776743719129 0.1210376607070353 0 0.0091357406177466211 0.13573077698481931 0 0.01748692370433013 0.1275850553371157 0 0.0091357406177466211 0.13573077698481931 0 0.01748692370433013 0.1275850553371157 0 0.0218136099647986 0.1340453327853143 0 0.023665737729072919 0.12316401753495899 0 0.01748692370433013 0.1275850553371157 0 0.0218136099647986 0.1340453327853143 0 0.023665737729072919 0.12316401753495899 0 0.0218136099647986 0.1340453327853143 0 0.041574461330525413 0.13013497080492081 0 0.0218136099647986 0.1340453327853143 0 0.022802062853360699 0.1472716115953393 0 0.041574461330525413 0.13013497080492081 0 0.0091357406177466211 0.13573077698481931 0 0.0218136099647986 0.1340453327853143 0 0.022802062853360699 0.1472716115953393 0 0.022802062853360699 0.1472716115953393 0 0.0040296643761958788 0.16440825238575749 0 0.0091357406177466211 0.13573077698481931 0 0.002327000955342445 0.15338465729498249 0 0.0040296643761958788 0.16440825238575749 0 0.0091357406177466211 0.13573077698481931 0 0.022802062853360699 0.1472716115953393 0 0.0040296643761958788 0.16440825238575749 0 0.0066742155708027582 0.1290954229443623 0 0.002327000955342445 0.15338465729498249 0 0.0091357406177466211 0.13573077698481931 0 0.0040296643761958788 0.16440825238575749 0 0.002327000955342445 0.15338465729498249 0 0.001256820928540688 0.1669394804644892 0 0.0040296643761958788 0.16440825238575749 0 -0.0020202136601158651 0.1776738916456031 0 0.002327000955342445 0.15338465729498249 0 -0.0020202136601158651 0.1776738916456031 0 0.002327000955342445 0.15338465729498249 0 0.001256820928540688 0.1669394804644892 0 -0.0020202136601158651 0.1776738916456031 0 0.001256820928540688 0.1669394804644892 0 0.0040296643761958788 0.16440825238575749 0 0.001256820928540688 0.1669394804644892 0 0.0040296643761958788 0.16440825238575749 0 -0.00027921551059563888 0.18860839964433301 0 0.0040296643761958788 0.16440825238575749 0 0.025429224587540399 0.17430836456415891 0 -0.00027921551059563888 0.18860839964433301 0 0.0040296643761958788 0.16440825238575749 0 -0.00027921551059563888 0.18860839964433301 0 -0.0020202136601158651 0.1776738916456031 0 0.0040296643761958788 0.16440825238575749 0 0.022802062853360699 0.1472716115953393 0 0.025429224587540399 0.17430836456415891 0 0.03908444349262058 0.15051911555742559 0 0.022802062853360699 0.1472716115953393 0 0.0040296643761958788 0.16440825238575749 0 0.025429224587540399 0.17430836456415891 0 0.025429224587540399 0.17430836456415891 0 0.050295359191887427 0.1629209772103051 0 0.03908444349262058 0.15051911555742559 0 0.025429224587540399 0.17430836456415891 0 0.050295359191887427 0.1629209772103051 0 0.045269608883985929 0.1878823008082065 0 0.025429224587540399 0.17430836456415891 0 0.028290422254503161 0.1974502937710195 0 0.045269608883985929 0.1878823008082065 0 0.050295359191887427 0.1629209772103051 0 0.045269608883985929 0.1878823008082065 0 0.059106286005382418 0.17204424718097541 0 0.045269608883985929 0.1878823008082065 0 0.066832384061564346 0.18210277068578271 0 0.059106286005382418 0.17204424718097541 0 0.050295359191887427 0.1629209772103051 0 0.045269608883985929 0.1878823008082065 0 0.059106286005382418 0.17204424718097541 0 0.050295359191887427 0.1629209772103051 0 0.063598782494420886 0.16018322017795089 0 0.050295359191887427 0.1629209772103051 0 0.05532110949978894 0.13795965361240381 0 0.050295359191887427 0.1629209772103051 0 0.05532110949978894 0.13795965361240381 0 0.03908444349262058 0.15051911555742559 0 0.050295359191887427 0.1629209772103051 0 0.05532110949978894 0.13795965361240381 0 0.063598782494420886 0.16018322017795089 0 0.060365180927277412 0.1382636696701191 0 0.063598782494420886 0.16018322017795089 0 0.060365180927277412 0.1382636696701191 0 0.05532110949978894 0.13795965361240381 0 0.063598782494420886 0.16018322017795089 0 0.060346859807690223 0.11299833001450239 0 0.05532110949978894 0.13795965361240381 0 0.0642966871457199 0.13152993493513709 0 0.060346859807690223 0.11299833001450239 0 0.05532110949978894 0.13795965361240381 0 0.060365180927277412 0.1382636696701191 0 0.05532110949978894 0.13795965361240381 0 0.0642966871457199 0.13152993493513709 0 0.060346859807690223 0.11299833001450239 0 0.05532110949978894 0.13795965361240381 0 0.041574461330525413 0.13013497080492081 0 0.05532110949978894 0.13795965361240381 0 0.041574461330525413 0.13013497080492081 0 0.03908444349262058 0.15051911555742559 0 0.022802062853360699 0.1472716115953393 0 0.041574461330525413 0.13013497080492081 0 0.022802062853360699 0.1472716115953393 0 0.041574461330525413 0.13013497080492081 0 0.03908444349262058 0.15051911555742559 0 0.02405572794581012 0.24585111789682271 0 0.035299009341620807 0.23740313777672309 0 0.031153629197742332 0.25799193922294372 0 0.02405572794581012 0.24585111789682271 0 0.01527370710066109 0.22691151524599379 0 0.035299009341620807 0.23740313777672309 0 0.02405572794581012 0.24585111789682271 0 0.012338829365104239 0.2481479793477685 0 0.01527370710066109 0.22691151524599379 0 -3.775473568293317e-05 0.2467409491748972 0 0.012338829365104239 0.2481479793477685 0 0.01527370710066109 0.22691151524599379 0 -0.0088969752841771433 0.23700869416148451 0 -3.775473568293317e-05 0.2467409491748972 0 0.01527370710066109 0.22691151524599379 0 -0.0088969752841771433 0.23700869416148451 0 0.01527370710066109 0.22691151524599379 0 -0.0088969752841771433 0.23700869416148451 0 0.01527370710066109 0.22691151524599379 0 0.0060981779341146526 0.21838056878989859 0 0.01527370710066109 0.22691151524599379 0 0.0168846513207286 0.21325370028169019 0 0.0060981779341146526 0.21838056878989859 0 0.01527370710066109 0.22691151524599379 0 0.039444389485499269 0.21681433633050259 0 0.035299009341620807 0.23740313777672309 0 0.01527370710066109 0.22691151524599379 0 0.039444389485499269 0.21681433633050259 0 0.01527370710066109 0.22691151524599379 0 0.0168846513207286 0.21325370028169019 0 0.039444389485499269 0.21681433633050259 0 0.0168846513207286 0.21325370028169019 0 0.011960610177581229 0.20088770271272571 0 0.028290422254503161 0.1974502937710195 0 0.0168846513207286 0.21325370028169019 0 0.040243858576083417 0.21284362440610771 0 0.0168846513207286 0.21325370028169019 0 0.028290422254503161 0.1974502937710195 0 0.040243858576083417 0.21284362440610771 0 0.0168846513207286 0.21325370028169019 0 0.0060981779341146526 0.21838056878989859 0 0.011960610177581229 0.20088770271272571 0 -0.0045880953973868122 0.21280854690290871 0 0.0060981779341146526 0.21838056878989859 0 0.011960610177581229 0.20088770271272571 0 -0.00027921551059563888 0.18860839964433301 0 -0.0045880953973868122 0.21280854690290871 0 0.011960610177581229 0.20088770271272571 0 -0.00027921551059563888 0.18860839964433301 0 0.025429224587540399 0.17430836456415891 0 0.011960610177581229 0.20088770271272571 0 0.025429224587540399 0.17430836456415891 0 0.011960610177581229 0.20088770271272571 0 0.028290422254503161 0.1974502937710195 0 0.028290422254503161 0.1974502937710195 0 0.045269608883985929 0.1878823008082065 0 0.040243858576083417 0.21284362440610771 0 0.045269608883985929 0.1878823008082065 0 0.040243858576083417 0.21284362440610771 0 0.045269608883985929 0.1878823008082065 0 0.054348646227200141 0.19990702157470999 0 0.040243858576083417 0.21284362440610771 0 0.045269608883985929 0.1878823008082065 0 0.054348646227200141 0.19990702157470999 0 0.066832384061564346 0.18210277068578271 0 0.049331393985661019 0.21268409077984249 0 0.060132145799049713 0.22123222550954871 0 0.071286921786494734 0.21229865679706689 0 0.054348646227200141 0.19990702157470999 0 0.049331393985661019 0.21268409077984249 0 0.070065985628706709 0.20402232119361449 0 0.049331393985661019 0.21268409077984249 0 0.070065985628706709 0.20402232119361449 0 0.049331393985661019 0.21268409077984249 0 0.071286921786494734 0.21229865679706689 0 0.054348646227200141 0.19990702157470999 0 0.049331393985661019 0.21268409077984249 0 0.040243858576083417 0.21284362440610771 0 0.0168846513207286 0.21325370028169019 0 0.039444389485499269 0.21681433633050259 0 0.040243858576083417 0.21284362440610771 0 0.049331393985661019 0.21268409077984249 0 0.039444389485499269 0.21681433633050259 0 0.040243858576083417 0.21284362440610771 0 0.049331393985661019 0.21268409077984249 0 0.039444389485499269 0.21681433633050259 0 0.047121372477260733 0.22262044765731789 0 0.049331393985661019 0.21268409077984249 0 0.039444389485499269 0.21681433633050259 0 0.049331393985661019 0.21268409077984249 0 0.040243858576083417 0.21284362440610771 0 0.039444389485499269 0.21681433633050259 0 0.040243858576083417 0.21284362440610771 0 0.039444389485499269 0.21681433633050259 0 0.035299009341620807 0.23740313777672309 0 0.047121372477260733 0.22262044765731789 0 0.05107421941279984 0.23056227681674249 0 0.035299009341620807 0.23740313777672309 0 0.039444389485499269 0.21681433633050259 0 0.047121372477260733 0.22262044765731789 0 0.035299009341620807 0.23740313777672309 0 0.049331393985661019 0.21268409077984249 0 0.047121372477260733 0.22262044765731789 0 0.060132145799049713 0.22123222550954871 0 0.047121372477260733 0.22262044765731789 0 0.060132145799049713 0.22123222550954871 0 0.05107421941279984 0.23056227681674249 0 0.060132145799049713 0.22123222550954871 0 0.060006917004182217 0.23382301342476169 0 0.05107421941279984 0.23056227681674249 0 0.060006917004182217 0.23382301342476169 0 0.05107421941279984 0.23056227681674249 0 0.050119844279953918 0.2413403256093555 0 0.060006917004182217 0.23382301342476169 0 0.050119844279953918 0.2413403256093555 0 0.064502368825845133 0.24389403963387599 0 0.050119844279953918 0.2413403256093555 0 0.064502368825845133 0.24389403963387599 0 0.05667878986757971 0.25018030947401371 0 0.050119844279953918 0.2413403256093555 0 0.042556608557515703 0.25009240664990567 0 0.05667878986757971 0.25018030947401371 0 0.05107421941279984 0.23056227681674249 0 0.050119844279953918 0.2413403256093555 0 0.035299009341620807 0.23740313777672309 0 0.035299009341620807 0.23740313777672309 0 0.031153629197742332 0.25799193922294372 0 0.042556608557515703 0.25009240664990567 0 0.035299009341620807 0.23740313777672309 0 0.031153629197742332 0.25799193922294372 0 0.050119844279953918 0.2413403256093555 0 0.035299009341620807 0.23740313777672309 0 0.042556608557515703 0.25009240664990567 0 0.083133859472317204 0.24255170063850831 0 0.07420600670326255 0.2320861995542858 0 0.077125091620026759 0.25187374231150528 0 0.083133859472317204 0.24255170063850831 0 0.09524329244375164 0.24085815515125811 0 0.096045470654293696 0.25626432982488823 0 0.083133859472317204 0.24255170063850831 0 0.093063446217469439 0.22714687493889901 0 0.083133859472317204 0.24255170063850831 0 0.093063446217469439 0.22714687493889901 0 0.09524329244375164 0.24085815515125811 0 0.083133859472317204 0.24255170063850831 0 0.082693380146158055 0.22732892366502491 0 0.083133859472317204 0.24255170063850831 0 0.077125091620026759 0.25187374231150528 0 0.07420600670326255 0.2320861995542858 0 0.077125091620026759 0.25187374231150528 0 0.064502368825845133 0.24389403963387599 0 0.07420600670326255 0.2320861995542858 0 0.077125091620026759 0.25187374231150528 0 0.064502368825845133 0.24389403963387599 0 0.067149280220290958 0.25412742749873302 0 0.077125091620026759 0.25187374231150528 0 0.064502368825845133 0.24389403963387599 0 0.05667878986757971 0.25018030947401371 0 0.067149280220290958 0.25412742749873302 0 0.060006917004182217 0.23382301342476169 0 0.064502368825845133 0.24389403963387599 0 0.07420600670326255 0.2320861995542858 0 0.07420600670326255 0.2320861995542858 0 0.077609802363978547 0.22095498167697991 0 0.071286921786494734 0.21229865679706689 0 0.07420600670326255 0.2320861995542858 0 0.071286921786494734 0.21229865679706689 0 0.060132145799049713 0.22123222550954871 0 0.07420600670326255 0.2320861995542858 0 0.071286921786494734 0.21229865679706689 0 0.060132145799049713 0.22123222550954871 0 0.060006917004182217 0.23382301342476169 0 0.07420600670326255 0.2320861995542858 0 0.077609802363978547 0.22095498167697991 0 0.082693380146158055 0.22732892366502491 0 0.082252900819998892 0.21210614669154149 0 0.082693380146158055 0.22732892366502491 0 0.082252900819998892 0.21210614669154149 0 0.082693380146158055 0.22732892366502491 0 0.089022783548874079 0.21957317640998961 0 0.082252900819998892 0.21210614669154149 0 0.083133859472317204 0.24255170063850831 0 0.07420600670326255 0.2320861995542858 0 0.082693380146158055 0.22732892366502491 0 0.07420600670326255 0.2320861995542858 0 0.077609802363978547 0.22095498167697991 0 0.082693380146158055 0.22732892366502491 0 0.083133859472317204 0.24255170063850831 0 0.082693380146158055 0.22732892366502491 0 0.093063446217469439 0.22714687493889901 0 0.082693380146158055 0.22732892366502491 0 0.093063446217469439 0.22714687493889901 0 0.089022783548874079 0.21957317640998961 0 0.089022783548874079 0.21957317640998961 0 0.082252900819998892 0.21210614669154149 0 0.1029930329626219 0.2117420492392898 0 0.082252900819998892 0.21210614669154149 0 0.1029930329626219 0.2117420492392898 0 0.082252900819998892 0.21210614669154149 0 0.087965683111212126 0.20140140960286229 0 0.1029930329626219 0.2117420492392898 0 0.082252900819998892 0.21210614669154149 0 0.081876232505812593 0.19908865097877609 0 0.087965683111212126 0.20140140960286229 0 0.082252900819998892 0.21210614669154149 0 0.081876232505812593 0.19908865097877609 0 0.082252900819998892 0.21210614669154149 0 0.07660195078226692 0.20717141255567789 0 0.081876232505812593 0.19908865097877609 0 0.077609802363978547 0.22095498167697991 0 0.082252900819998892 0.21210614669154149 0 0.071286921786494734 0.21229865679706689 0 0.049331393985661019 0.21268409077984249 0 0.071286921786494734 0.21229865679706689 0 0.070065985628706709 0.20402232119361449 0 0.082252900819998892 0.21210614669154149 0 0.071286921786494734 0.21229865679706689 0 0.082252900819998892 0.21210614669154149 0 0.071286921786494734 0.21229865679706689 0 0.07660195078226692 0.20717141255567789 0 0.070065985628706709 0.20402232119361449 0 0.07660195078226692 0.20717141255567789 0 0.081876232505812593 0.19908865097877609 0 0.071286921786494734 0.21229865679706689 0 0.070065985628706709 0.20402232119361449 0 0.071286921786494734 0.21229865679706689 0 0.070065985628706709 0.20402232119361449 0 0.07660195078226692 0.20717141255567789 0 0.054348646227200141 0.19990702157470999 0 0.070065985628706709 0.20402232119361449 0 0.066832384061564346 0.18210277068578271 0 0.070065985628706709 0.20402232119361449 0 0.081876232505812593 0.19908865097877609 0 0.070065985628706709 0.20402232119361449 0 0.075012082365041047 0.190870017643339 0 0.066832384061564346 0.18210277068578271 0 0.070065985628706709 0.20402232119361449 0 0.066832384061564346 0.18210277068578271 0 0.070065985628706709 0.20402232119361449 0 0.075012082365041047 0.190870017643339 0 0.081876232505812593 0.19908865097877609 0 0.081876232505812593 0.19908865097877609 0 0.08127372726408201 0.17826632771518619 0 0.075012082365041047 0.190870017643339 0 0.081876232505812593 0.19908865097877609 0 0.08127372726408201 0.17826632771518619 0 0.081876232505812593 0.19908865097877609 0 0.088481804605499093 0.1963292070264735 0 0.08127372726408201 0.17826632771518619 0 0.081876232505812593 0.19908865097877609 0 0.088481804605499093 0.1963292070264735 0 0.081876232505812593 0.19908865097877609 0 0.088481804605499093 0.1963292070264735 0 0.087965683111212126 0.20140140960286229 0 0.088481804605499093 0.1963292070264735 0 0.087965683111212126 0.20140140960286229 0 0.099079562699382479 0.19953304639695721 0 0.088481804605499093 0.1963292070264735 0 0.087965683111212126 0.20140140960286229 0 0.088481804605499093 0.1963292070264735 0 0.10445089983629979 0.18965819918745269 0 0.100739193475059 0.1805191694201263 0 0.088481804605499093 0.1963292070264735 0 0.099079562699382479 0.19953304639695721 0 0.10445089983629979 0.18965819918745269 0 0.088481804605499093 0.1963292070264735 0 0.10445089983629979 0.18965819918745269 0 0.099079562699382479 0.19953304639695721 0 0.10445089983629979 0.18965819918745269 0 0.11150639298127681 0.19853436692870111 0 0.10445089983629979 0.18965819918745269 0 0.11150639298127681 0.19853436692870111 0 0.1200197529999318 0.1853266846181125 0 0.120419995067098 0.18298719134842589 0 0.1200197529999318 0.1853266846181125 0 0.13089407790561569 0.2046308942147147 0 0.11150639298127681 0.19853436692870111 0 0.1200197529999318 0.1853266846181125 0 0.1201487593895129 0.1981392942882621 0 0.1200197529999318 0.1853266846181125 0 0.13089407790561569 0.2046308942147147 0 0.1201487593895129 0.1981392942882621 0 0.11150639298127681 0.19853436692870111 0 0.1200197529999318 0.1853266846181125 0 0.1201487593895129 0.1981392942882621 0 0.1181748136712284 0.20406523139152069 0 0.13089407790561569 0.2046308942147147 0 0.1201487593895129 0.1981392942882621 0 0.11150639298127681 0.19853436692870111 0 0.1181748136712284 0.20406523139152069 0 0.11150639298127681 0.19853436692870111 0 0.1181748136712284 0.20406523139152069 0 0.1029930329626219 0.2117420492392898 0 0.1214153162075583 0.2186751005805857 0 0.1029930329626219 0.2117420492392898 0 0.1094758012655669 0.2226993699478772 0 0.1214153162075583 0.2186751005805857 0 0.1029930329626219 0.2117420492392898 0 0.12637159294692701 0.21133163362241111 0 0.1181748136712284 0.20406523139152069 0 0.1029930329626219 0.2117420492392898 0 0.12637159294692701 0.21133163362241111 0 0.1029930329626219 0.2117420492392898 0 0.12637159294692701 0.21133163362241111 0 0.1214153162075583 0.2186751005805857 0 0.12637159294692701 0.21133163362241111 0 0.099079562699382479 0.19953304639695721 0 0.11150639298127681 0.19853436692870111 0 0.1029930329626219 0.2117420492392898 0 0.11150639298127681 0.19853436692870111 0 0.1029930329626219 0.2117420492392898 0 0.087965683111212126 0.20140140960286229 0 0.099079562699382479 0.19953304639695721 0 0.1029930329626219 0.2117420492392898 0 0.093063446217469439 0.22714687493889901 0 0.1094758012655669 0.2226993699478772 0 0.10873039343092621 0.23746971520273691 0 0.093063446217469439 0.22714687493889901 0 0.1029930329626219 0.2117420492392898 0 0.1094758012655669 0.2226993699478772 0 0.093063446217469439 0.22714687493889901 0 0.089022783548874079 0.21957317640998961 0 0.1029930329626219 0.2117420492392898 0 0.093063446217469439 0.22714687493889901 0 0.1029930329626219 0.2117420492392898 0 0.1214153162075583 0.2186751005805857 0 0.1231201778203057 0.2361478485372013 0 0.10873039343092621 0.23746971520273691 0 0.1214153162075583 0.2186751005805857 0 0.1094758012655669 0.2226993699478772 0 0.10873039343092621 0.23746971520273691 0 0.1214153162075583 0.2186751005805857 0 0.10873039343092621 0.23746971520273691 0 0.1231201778203057 0.2361478485372013 0 0.1193790001008955 0.24900223717342401 0 0.10873039343092621 0.23746971520273691 0 0.1193790001008955 0.24900223717342401 0 0.10873039343092621 0.23746971520273691 0 0.1080891379227769 0.25627107200771992 0 0.1231201778203057 0.2361478485372013 0 0.1193790001008955 0.24900223717342401 0 0.13206607158972661 0.24372007015438901 0 0.10873039343092621 0.23746971520273691 0 0.096045470654293696 0.25626432982488823 0 0.093063446217469439 0.22714687493889901 0 0.10873039343092621 0.23746971520273691 0 0.09524329244375164 0.24085815515125811 0 0.10873039343092621 0.23746971520273691 0 0.09524329244375164 0.24085815515125811 0 0.096045470654293696 0.25626432982488823 0 0.080068716780621371 0.13662168118800669 0 0.080671222022351691 0.15744400445159651 0 0.094247511190627381 0.1396665178734261 0 0.093091272207750264 0.15102949812676611 0 0.080671222022351691 0.15744400445159651 0 0.094247511190627381 0.1396665178734261 0 0.080068716780621371 0.13662168118800669 0 0.080671222022351691 0.15744400445159651 0 0.093091272207750264 0.15102949812676611 0 0.094247511190627381 0.1396665178734261 0 0.097130364483193121 0.1113351732969025 0 0.082270052373034044 0.1242913141865841 0 0.094247511190627381 0.1396665178734261 0 0.082270052373034044 0.1242913141865841 0 0.080068716780621371 0.13662168118800669 0 0.094247511190627381 0.1396665178734261 0 0.080068716780621371 0.13662168118800669 0 0.070269768151326753 0.13807649651304721 0 0.072003797395504388 0.14708359115158759 0 0.080068716780621371 0.13662168118800669 0 0.070819613724593944 0.12699435062955231 0 0.070269768151326753 0.13807649651304721 0 0.082270052373034044 0.1242913141865841 0 0.080068716780621371 0.13662168118800669 0 0.070819613724593944 0.12699435062955231 0 0.070819613724593944 0.12699435062955231 0 0.0642966871457199 0.13152993493513709 0 0.070269768151326753 0.13807649651304721 0 0.060365180927277412 0.1382636696701191 0 0.0642966871457199 0.13152993493513709 0 0.070269768151326753 0.13807649651304721 0 0.060365180927277412 0.1382636696701191 0 0.070269768151326753 0.13807649651304721 0 0.066559382242132356 0.14590174437817621 0 0.060365180927277412 0.1382636696701191 0 0.066559382242132356 0.14590174437817621 0 0.063598782494420886 0.16018322017795089 0 0.070269768151326753 0.13807649651304721 0 0.066559382242132356 0.14590174437817621 0 0.072003797395504388 0.14708359115158759 0 0.080068716780621371 0.13662168118800669 0 0.072003797395504388 0.14708359115158759 0 0.080671222022351691 0.15744400445159651 0 0.072003797395504388 0.14708359115158759 0 0.063598782494420886 0.16018322017795089 0 0.080671222022351691 0.15744400445159651 0 0.066559382242132356 0.14590174437817621 0 0.072003797395504388 0.14708359115158759 0 0.063598782494420886 0.16018322017795089 0 0.063598782494420886 0.16018322017795089 0 0.066832384061564346 0.18210277068578271 0 0.059106286005382418 0.17204424718097541 0 0.063598782494420886 0.16018322017795089 0 0.066832384061564346 0.18210277068578271 0 0.063598782494420886 0.16018322017795089 0 0.073351561598529735 0.16879810357230121 0 0.066832384061564346 0.18210277068578271 0 0.063598782494420886 0.16018322017795089 0 0.073351561598529735 0.16879810357230121 0 0.080671222022351691 0.15744400445159651 0 0.073351561598529735 0.16879810357230121 0 0.066832384061564346 0.18210277068578271 0 0.08127372726408201 0.17826632771518619 0 0.075012082365041047 0.190870017643339 0 0.066832384061564346 0.18210277068578271 0 0.08127372726408201 0.17826632771518619 0 0.088481804605499093 0.1963292070264735 0 0.091364657898061641 0.1679978624499496 0 0.100739193475059 0.1805191694201263 0 0.088481804605499093 0.1963292070264735 0 0.08127372726408201 0.17826632771518619 0 0.091364657898061641 0.1679978624499496 0 0.088481804605499093 0.1963292070264735 0 0.091364657898061641 0.1679978624499496 0 0.073351561598529735 0.16879810357230121 0 0.08127372726408201 0.17826632771518619 0 0.080671222022351691 0.15744400445159651 0 0.08127372726408201 0.17826632771518619 0 0.080671222022351691 0.15744400445159651 0 0.091364657898061641 0.1679978624499496 0 0.093091272207750264 0.15102949812676611 0 0.080671222022351691 0.15744400445159651 0 0.091364657898061641 0.1679978624499496 0 0.08127372726408201 0.17826632771518619 0 0.080671222022351691 0.15744400445159651 0 0.093091272207750264 0.15102949812676611 0 0.091364657898061641 0.1679978624499496 0 0.091364657898061641 0.1679978624499496 0 0.1080930758438484 0.1692341414172385 0 0.1045322510803418 0.15737250116861079 0 0.093091272207750264 0.15102949812676611 0 0.091364657898061641 0.1679978624499496 0 0.1045322510803418 0.15737250116861079 0 0.091364657898061641 0.1679978624499496 0 0.1080930758438484 0.1692341414172385 0 0.100739193475059 0.1805191694201263 0 0.1080930758438484 0.1692341414172385 0 0.100739193475059 0.1805191694201263 0 0.1113055291915893 0.17937643701951739 0 0.10445089983629979 0.18965819918745269 0 0.100739193475059 0.1805191694201263 0 0.1113055291915893 0.17937643701951739 0 0.10445089983629979 0.18965819918745269 0 0.120419995067098 0.18298719134842589 0 0.10445089983629979 0.18965819918745269 0 0.1113055291915893 0.17937643701951739 0 0.120419995067098 0.18298719134842589 0 0.10445089983629979 0.18965819918745269 0 0.120419995067098 0.18298719134842589 0 0.1200197529999318 0.1853266846181125 0 0.1080930758438484 0.1692341414172385 0 0.1113055291915893 0.17937643701951739 0 0.1144432013602068 0.17561801460109261 0 0.1080930758438484 0.1692341414172385 0 0.1144432013602068 0.17561801460109261 0 0.1184347268579351 0.17186724095232611 0 0.1113055291915893 0.17937643701951739 0 0.1144432013602068 0.17561801460109261 0 0.120419995067098 0.18298719134842589 0 0.1144432013602068 0.17561801460109261 0 0.120419995067098 0.18298719134842589 0 0.1184347268579351 0.17186724095232611 0 0.1080930758438484 0.1692341414172385 0 0.1045322510803418 0.15737250116861079 0 0.11648936053163859 0.15637570429410519 0 0.1080930758438484 0.1692341414172385 0 0.11648936053163859 0.15637570429410519 0 0.1184347268579351 0.17186724095232611 0 0.11648936053163859 0.15637570429410519 0 0.1184347268579351 0.17186724095232611 0 0.1252878943059223 0.16426102978665949 0 0.1106079335254216 0.1461286866269359 0 0.12743926353865059 0.14115813930492571 0 0.11648936053163859 0.15637570429410519 0 0.12743926353865059 0.14115813930492571 0 0.1252878943059223 0.16426102978665949 0 0.11648936053163859 0.15637570429410519 0 0.1106079335254216 0.1461286866269359 0 0.12743926353865059 0.14115813930492571 0 0.1045322510803418 0.15737250116861079 0 0.11648936053163859 0.15637570429410519 0 0.1106079335254216 0.1461286866269359 0 0.093091272207750264 0.15102949812676611 0 0.1106079335254216 0.1461286866269359 0 0.093091272207750264 0.15102949812676611 0 0.1045322510803418 0.15737250116861079 0 0.1106079335254216 0.1461286866269359 0 0.093091272207750264 0.15102949812676611 0 0.1106079335254216 0.1461286866269359 0 0.094247511190627381 0.1396665178734261 0 0.097130364483193121 0.1113351732969025 0 0.094247511190627381 0.1396665178734261 0 0.097130364483193121 0.1113351732969025 0 0.094247511190627381 0.1396665178734261 0 0.11027173660254901 0.1275187806701249 0 0.1106079335254216 0.1461286866269359 0 0.094247511190627381 0.1396665178734261 0 0.11027173660254901 0.1275187806701249 0 0.11027173660254901 0.1275187806701249 0 0.12743926353865059 0.14115813930492571 0 0.12960358530337829 0.1179161555779778 0 0.1106079335254216 0.1461286866269359 0 0.11027173660254901 0.1275187806701249 0 0.12743926353865059 0.14115813930492571 0 0.12743926353865059 0.14115813930492571 0 0.12960358530337829 0.1179161555779778 0 0.13829954931144831 0.12646997782668221 0 0.12743926353865059 0.14115813930492571 0 0.12960358530337829 0.1179161555779778 0 0.13829954931144831 0.12646997782668221 0 0.14688750157195779 0.1291825962340874 0 0.12743926353865059 0.14115813930492571 0 0.1550153471040373 0.13225877870350911 0 0.12743926353865059 0.14115813930492571 0 0.14688750157195779 0.1291825962340874 0 0.1550153471040373 0.13225877870350911 0 0.12743926353865059 0.14115813930492571 0 0.1550153471040373 0.13225877870350911 0 0.146103910151056 0.14158900584632109 0 0.12743926353865059 0.14115813930492571 0 0.15431055720731149 0.13992320089714111 0 0.1550153471040373 0.13225877870350911 0 0.146103910151056 0.14158900584632109 0 0.1550153471040373 0.13225877870350911 0 0.15578653589457739 0.12873848252996589 0 0.1576599660409416 0.12785723952551911 0 0.1550153471040373 0.13225877870350911 0 0.15578653589457739 0.12873848252996589 0 0.15313349069736021 0.12813028520268729 0 0.14688750157195779 0.1291825962340874 0 0.1550153471040373 0.13225877870350911 0 0.15313349069736021 0.12813028520268729 0 0.15590224942129019 0.12604445266398781 0 0.15313349069736021 0.12813028520268729 0 0.15197830000497389 0.12405173441279641 0 0.15578653589457739 0.12873848252996589 0 0.15590224942129019 0.12604445266398781 0 0.15313349069736021 0.12813028520268729 0 0.14688750157195779 0.1291825962340874 0 0.15313349069736021 0.12813028520268729 0 0.15197830000497389 0.12405173441279641 0 0.15581953515566899 0.15536447862017749 0 0.14680498674589451 0.15068094489231079 0 0.1509827350389405 0.16144707061121891 0 0.15581953515566899 0.15536447862017749 0 0.15424904833763781 0.14917245313411831 0 0.14680498674589451 0.15068094489231079 0 0.15424904833763781 0.14917245313411831 0 0.1515314845450052 0.14502507788709909 0 0.15689707825327001 0.14459784983897561 0 0.15431055720731149 0.13992320089714111 0 0.1515314845450052 0.14502507788709909 0 0.146103910151056 0.14158900584632109 0 0.15431055720731149 0.13992320089714111 0 0.1515314845450052 0.14502507788709909 0 0.15689707825327001 0.14459784983897561 0 0.15424904833763781 0.14917245313411831 0 0.1515314845450052 0.14502507788709909 0 0.14680498674589451 0.15068094489231079 0 0.146103910151056 0.14158900584632109 0 0.14680498674589451 0.15068094489231079 0 0.13895987934125731 0.14663505059963081 0 0.1515314845450052 0.14502507788709909 0 0.146103910151056 0.14158900584632109 0 0.14680498674589451 0.15068094489231079 0 0.14680498674589451 0.15068094489231079 0 0.1354913569294281 0.15311211235496561 0 0.14301803521471829 0.16342607191374739 0 0.146103910151056 0.14158900584632109 0 0.13895987934125731 0.14663505059963081 0 0.12743926353865059 0.14115813930492571 0 0.1354913569294281 0.15311211235496561 0 0.12743926353865059 0.14115813930492571 0 0.1252878943059223 0.16426102978665949 0 0.12743926353865059 0.14115813930492571 0 0.1252878943059223 0.16426102978665949 0 0.14680498674589451 0.15068094489231079 0 0.1354913569294281 0.15311211235496561 0 0.13895987934125731 0.14663505059963081 0 0.1354913569294281 0.15311211235496561 0 0.13895987934125731 0.14663505059963081 0 0.12743926353865059 0.14115813930492571 0 0.1252878943059223 0.16426102978665949 0 0.13788519449463291 0.17569119363488281 0 0.14301803521471829 0.16342607191374739 0 0.1354913569294281 0.15311211235496561 0 0.1252878943059223 0.16426102978665949 0 0.14301803521471829 0.16342607191374739 0 0.1184347268579351 0.17186724095232611 0 0.1252878943059223 0.16426102978665949 0 0.13788519449463291 0.17569119363488281 0 0.13788519449463291 0.17569119363488281 0 0.1433561267521597 0.17525794289047511 0 0.13995000477755301 0.19121318102863141 0 0.120419995067098 0.18298719134842589 0 0.13788519449463291 0.17569119363488281 0 0.13995000477755301 0.19121318102863141 0 0.120419995067098 0.18298719134842589 0 0.13788519449463291 0.17569119363488281 0 0.120419995067098 0.18298719134842589 0 0.1184347268579351 0.17186724095232611 0 0.13788519449463291 0.17569119363488281 0 0.13788519449463291 0.17569119363488281 0 0.1433561267521597 0.17525794289047511 0 0.15535039392216901 0.16839519592134269 0 0.1433561267521597 0.17525794289047511 0 0.1490059316494918 0.17779546784254921 0 0.13995000477755301 0.19121318102863141 0 0.13788519449463291 0.17569119363488281 0 0.15535039392216901 0.16839519592134269 0 0.1490059316494918 0.17779546784254921 0 0.13995000477755301 0.19121318102863141 0 0.1433561267521597 0.17525794289047511 0 0.1490059316494918 0.17779546784254921 0 0.1490059316494918 0.17779546784254921 0 0.15535039392216901 0.16839519592134269 0 0.15879768393051119 0.17680512117189781 0 0.1433561267521597 0.17525794289047511 0 0.1490059316494918 0.17779546784254921 0 0.15535039392216901 0.16839519592134269 0 0.1490059316494918 0.17779546784254921 0 0.15535039392216901 0.16839519592134269 0 0.13788519449463291 0.17569119363488281 0 0.14301803521471829 0.16342607191374739 0 0.15535039392216901 0.16839519592134269 0 0.14680498674589451 0.15068094489231079 0 0.14301803521471829 0.16342607191374739 0 0.1509827350389405 0.16144707061121891 0 0.14301803521471829 0.16342607191374739 0 0.15535039392216901 0.16839519592134269 0 0.1509827350389405 0.16144707061121891 0 0.15581953515566899 0.15536447862017749 0 0.15535039392216901 0.16839519592134269 0 0.1509827350389405 0.16144707061121891 0 0.15535039392216901 0.16839519592134269 0 0.1664297832066402 0.1519794198447286 0 0.15581953515566899 0.15536447862017749 0 0.15535039392216901 0.16839519592134269 0 0.1664297832066402 0.1519794198447286 0 0.15535039392216901 0.16839519592134269 0 0.16092779902280929 0.16156934430250761 0 0.1664297832066402 0.1519794198447286 0 0.16092779902280929 0.16156934430250761 0 0.16352310276605819 0.16498108861120969 0 0.16690349339600019 0.1583921429655539 0 0.16092779902280929 0.16156934430250761 0 0.16352310276605819 0.16498108861120969 0 0.15535039392216901 0.16839519592134269 0 0.16352310276605819 0.16498108861120969 0 0.16339964964053821 0.17495732158704791 0 0.15535039392216901 0.16839519592134269 0 0.16352310276605819 0.16498108861120969 0 0.15535039392216901 0.16839519592134269 0 0.16092779902280929 0.16156934430250761 0 0.16352310276605819 0.16498108861120969 0 0.16352310276605819 0.16498108861120969 0 0.17235410921185329 0.1612919808455533 0 0.17551533795062771 0.16690777609633431 0 0.16352310276605819 0.16498108861120969 0 0.17193564082181251 0.1733568317032492 0 0.17551533795062771 0.16690777609633431 0 0.16352310276605819 0.16498108861120969 0 0.17235410921185329 0.1612919808455533 0 0.16092779902280929 0.16156934430250761 0 0.16690349339600019 0.1583921429655539 0 0.1664297832066402 0.1519794198447286 0 0.16690349339600019 0.1583921429655539 0 0.17235410921185329 0.1612919808455533 0 0.17604699787743491 0.15157130832916479 0 0.16352310276605819 0.16498108861120969 0 0.16690349339600019 0.1583921429655539 0 0.17235410921185329 0.1612919808455533 0 0.1490059316494918 0.17779546784254921 0 0.15879768393051119 0.17680512117189781 0 0.16743476050984771 0.1860724993366551 0 0.1490059316494918 0.17779546784254921 0 0.16743476050984771 0.1860724993366551 0 0.15286490413344619 0.1966237819327713 0 0.1490059316494918 0.17779546784254921 0 0.16743476050984771 0.1860724993366551 0 0.15879768393051119 0.17680512117189781 0 0.16339964964053821 0.17495732158704791 0 0.16743476050984771 0.1860724993366551 0 0.15535039392216901 0.16839519592134269 0 0.15879768393051119 0.17680512117189781 0 0.16339964964053821 0.17495732158704791 0 0.16352310276605819 0.16498108861120969 0 0.17469334606812709 0.17966530972098729 0 0.17193564082181251 0.1733568317032492 0 0.16352310276605819 0.16498108861120969 0 0.16339964964053821 0.17495732158704791 0 0.17469334606812709 0.17966530972098729 0 0.16352310276605819 0.16498108861120969 0 0.17469334606812709 0.17966530972098729 0 0.16339964964053821 0.17495732158704791 0 0.16743476050984771 0.1860724993366551 0 0.17469334606812709 0.17966530972098729 0 0.17193564082181251 0.1733568317032492 0 0.1954712466973195 0.1816090280044374 0 0.16743476050984771 0.1860724993366551 0 0.17469334606812709 0.17966530972098729 0 0.18586358937020531 0.19434953083075779 0 0.17193564082181251 0.1733568317032492 0 0.19024731348925039 0.17192708438432361 0 0.1954712466973195 0.1816090280044374 0 0.17193564082181251 0.1733568317032492 0 0.18279604178912609 0.18262119440821101 0 0.1954712466973195 0.1816090280044374 0 0.17469334606812709 0.17966530972098729 0 0.17193564082181251 0.1733568317032492 0 0.18279604178912609 0.18262119440821101 0 0.17469334606812709 0.17966530972098729 0 0.18586358937020531 0.19434953083075779 0 0.17469334606812709 0.17966530972098729 0 0.18279604178912609 0.18262119440821101 0 0.18586358937020531 0.19434953083075779 0 0.17193564082181251 0.1733568317032492 0 0.18285049965923961 0.16742810525635829 0 0.19024731348925039 0.17192708438432361 0 0.17235410921185329 0.1612919808455533 0 0.1806562816883491 0.15968339160526671 0 0.17604699787743491 0.15157130832916479 0 0.17235410921185329 0.1612919808455533 0 0.17551533795062771 0.16690777609633431 0 0.1806562816883491 0.15968339160526671 0 0.17193564082181251 0.1733568317032492 0 0.17551533795062771 0.16690777609633431 0 0.18285049965923961 0.16742810525635829 0 0.17551533795062771 0.16690777609633431 0 0.18285049965923961 0.16742810525635829 0 0.1806562816883491 0.15968339160526671 0 0.18285049965923961 0.16742810525635829 0 0.1806562816883491 0.15968339160526671 0 0.19061698466952809 0.16062047569707141 0 0.1806562816883491 0.15968339160526671 0 0.18490864339992669 0.15264658950046581 0 0.19061698466952809 0.16062047569707141 0 0.17604699787743491 0.15157130832916479 0 0.1775091724911082 0.13556364376811239 0 0.1664297832066402 0.1519794198447286 0 0.17604699787743491 0.15157130832916479 0 0.1843337904635248 0.14220534039662061 0 0.1775091724911082 0.13556364376811239 0 0.1806562816883491 0.15968339160526671 0 0.18490864339992669 0.15264658950046581 0 0.17604699787743491 0.15157130832916479 0 0.1775091724911082 0.13556364376811239 0 0.1664297832066402 0.1519794198447286 0 0.18490864339992669 0.15264658950046581 0 0.17604699787743491 0.15157130832916479 0 0.1843337904635248 0.14220534039662061 0 0.1843337904635248 0.14220534039662061 0 0.1844252800390864 0.13232190881866121 0 0.1775091724911082 0.13556364376811239 0 0.1843337904635248 0.14220534039662061 0 0.1844252800390864 0.13232190881866121 0 0.1897644927786247 0.1350297090608471 0 0.1550153471040373 0.13225877870350911 0 0.18312963537960339 0.12471192689044371 0 0.17974319569910191 0.1231449777087576 0 0.1844252800390864 0.13232190881866121 0 0.17896470267774359 0.1306637672793268 0 0.1775091724911082 0.13556364376811239 0 0.1844252800390864 0.13232190881866121 0 0.19277492539414259 0.12752595591089291 0 0.18312963537960339 0.12471192689044371 0 0.1844252800390864 0.13232190881866121 0 0.17896470267774359 0.1306637672793268 0 0.18312963537960339 0.12471192689044371 0 0.17896470267774359 0.1306637672793268 0 0.17035855497894781 0.1334066314231411 0 0.18312963537960339 0.12471192689044371 0 0.17896470267774359 0.1306637672793268 0 0.1775091724911082 0.13556364376811239 0 0.17035855497894781 0.1334066314231411 0 0.1775091724911082 0.13556364376811239 0 0.1686652373561201 0.14008706263508519 0 0.17035855497894781 0.1334066314231411 0 0.1550153471040373 0.13225877870350911 0 0.16758165303935399 0.12558085119994641 0 0.17974319569910191 0.1231449777087576 0 0.1550153471040373 0.13225877870350911 0 0.17974319569910191 0.1231449777087576 0 0.17035855497894781 0.1334066314231411 0 0.16616003668039789 0.1368721108336087 0 0.15978430753483699 0.13727191319415899 0 0.1550153471040373 0.13225877870350911 0 0.17035855497894781 0.1334066314231411 0 0.18312963537960339 0.12471192689044371 0 0.1686652373561201 0.14008706263508519 0 0.17035855497894781 0.1334066314231411 0 0.16616003668039789 0.1368721108336087 0 0.1550153471040373 0.13225877870350911 0 0.18312963537960339 0.12471192689044371 0 0.1686652373561201 0.14008706263508519 0 0.16616003668039789 0.1368721108336087 0 0.1628686394235063 0.14261350730583491 0 0.16758165303935399 0.12558085119994641 0 0.16218489415780901 0.12707700435105879 0 0.16430302658531501 0.12309908126601141 0 0.1550153471040373 0.13225877870350911 0 0.16758165303935399 0.12558085119994641 0 0.16218489415780901 0.12707700435105879 0 0.16218489415780901 0.12707700435105879 0 0.1594222333830681 0.1248413576333061 0 0.16430302658531501 0.12309908126601141 0 0.1550153471040373 0.13225877870350911 0 0.16218489415780901 0.12707700435105879 0 0.1576599660409416 0.12785723952551911 0 0.16218489415780901 0.12707700435105879 0 0.1576599660409416 0.12785723952551911 0 0.1594222333830681 0.1248413576333061 0 0.15578653589457739 0.12873848252996589 0 0.15590224942129019 0.12604445266398781 0 0.1576599660409416 0.12785723952551911 0 0.15590224942129019 0.12604445266398781 0 0.1576599660409416 0.12785723952551911 0 0.1594222333830681 0.1248413576333061 0 0.1550153471040373 0.13225877870350911 0 0.17035855497894781 0.1334066314231411 0 0.15978430753483699 0.13727191319415899 0 0.16616003668039789 0.1368721108336087 0 0.15978430753483699 0.13727191319415899 0 0.1628686394235063 0.14261350730583491 0 0.15978430753483699 0.13727191319415899 0 0.15803332512609 0.14088936291285961 0 0.1628686394235063 0.14261350730583491 0 0.15431055720731149 0.13992320089714111 0 0.1550153471040373 0.13225877870350911 0 0.15978430753483699 0.13727191319415899 0 0.15431055720731149 0.13992320089714111 0 0.15978430753483699 0.13727191319415899 0 0.15803332512609 0.14088936291285961 0 0.1775091724911082 0.13556364376811239 0 0.1686652373561201 0.14008706263508519 0 0.1664297832066402 0.1519794198447286 0 0.1628686394235063 0.14261350730583491 0 0.15925281687534459 0.148745541748767 0 0.1664297832066402 0.1519794198447286 0 0.15803332512609 0.14088936291285961 0 0.1628686394235063 0.14261350730583491 0 0.15689707825327001 0.14459784983897561 0 0.15431055720731149 0.13992320089714111 0 0.15803332512609 0.14088936291285961 0 0.15689707825327001 0.14459784983897561 0 0.1628686394235063 0.14261350730583491 0 0.15689707825327001 0.14459784983897561 0 0.15925281687534459 0.148745541748767 0 0.15424904833763781 0.14917245313411831 0 0.15689707825327001 0.14459784983897561 0 0.15925281687534459 0.148745541748767 0 0.15581953515566899 0.15536447862017749 0 0.15424904833763781 0.14917245313411831 0 0.15925281687534459 0.148745541748767 0 0.15581953515566899 0.15536447862017749 0 0.15925281687534459 0.148745541748767 0 0.1664297832066402 0.1519794198447286 0 0.16690349339600019 0.1583921429655539 0 0.17604699787743491 0.15157130832916479 0 0.1664297832066402 0.1519794198447286 0 0.1686652373561201 0.14008706263508519 0 0.1628686394235063 0.14261350730583491 0 0.1664297832066402 0.1519794198447286 0 0.14997559948457481 0.24406105623068311 0 0.14202348334375389 0.22762875933523349 0 0.14997559948457481 0.24406105623068311 0 0.1356954578460661 0.23136807840563489 0 0.14997559948457481 0.24406105623068311 0 0.13206607158972661 0.24372007015438901 0 0.13216012269679051 0.25802113042500258 0 0.14997559948457481 0.24406105623068311 0 0.13206607158972661 0.24372007015438901 0 0.1356954578460661 0.23136807840563489 0 0.1231201778203057 0.2361478485372013 0 0.13206607158972661 0.24372007015438901 0 0.1356954578460661 0.23136807840563489 0 0.1214153162075583 0.2186751005805857 0 0.1231201778203057 0.2361478485372013 0 0.1356954578460661 0.23136807840563489 0 0.14202348334375389 0.22762875933523349 0 0.13407136720293039 0.21119646243978499 0 0.1318388950260114 0.22046937738853681 0 0.14202348334375389 0.22762875933523349 0 0.13407136720293039 0.21119646243978499 0 0.1214153162075583 0.2186751005805857 0 0.1356954578460661 0.23136807840563489 0 0.1214153162075583 0.2186751005805857 0 0.1356954578460661 0.23136807840563489 0 0.1318388950260114 0.22046937738853681 0 0.1356954578460661 0.23136807840563489 0 0.1318388950260114 0.22046937738853681 0 0.14202348334375389 0.22762875933523349 0 0.14997559948457481 0.24406105623068311 0 0.1356954578460661 0.23136807840563489 0 0.14202348334375389 0.22762875933523349 0 0.14202348334375389 0.22762875933523349 0 0.15084944114711721 0.21090191976596559 0 0.1609929569092674 0.22997288131851301 0 0.14997559948457481 0.24406105623068311 0 0.14202348334375389 0.22762875933523349 0 0.1609929569092674 0.22997288131851301 0 0.15084944114711721 0.21090191976596559 0 0.13407136720293039 0.21119646243978499 0 0.15084944114711721 0.21090191976596559 0 0.1423217716253645 0.2031522465306822 0 0.13407136720293039 0.21119646243978499 0 0.14202348334375389 0.22762875933523349 0 0.15084944114711721 0.21090191976596559 0 0.13407136720293039 0.21119646243978499 0 0.15084944114711721 0.21090191976596559 0 0.1423217716253645 0.2031522465306822 0 0.15286490413344619 0.1966237819327713 0 0.1214153162075583 0.2186751005805857 0 0.1318388950260114 0.22046937738853681 0 0.12637159294692701 0.21133163362241111 0 0.1318388950260114 0.22046937738853681 0 0.13407136720293039 0.21119646243978499 0 0.12637159294692701 0.21133163362241111 0 0.13407136720293039 0.21119646243978499 0 0.12637159294692701 0.21133163362241111 0 0.1181748136712284 0.20406523139152069 0 0.12637159294692701 0.21133163362241111 0 0.13089407790561569 0.2046308942147147 0 0.12637159294692701 0.21133163362241111 0 0.13089407790561569 0.2046308942147147 0 0.13407136720293039 0.21119646243978499 0 0.12637159294692701 0.21133163362241111 0 0.13089407790561569 0.2046308942147147 0 0.13407136720293039 0.21119646243978499 0 0.13089407790561569 0.2046308942147147 0 0.1423217716253645 0.2031522465306822 0 0.13407136720293039 0.21119646243978499 0 0.13089407790561569 0.2046308942147147 0 0.120419995067098 0.18298719134842589 0 0.13089407790561569 0.2046308942147147 0 0.1423217716253645 0.2031522465306822 0 0.13089407790561569 0.2046308942147147 0 0.13995000477755301 0.19121318102863141 0 0.13089407790561569 0.2046308942147147 0 0.13995000477755301 0.19121318102863141 0 0.120419995067098 0.18298719134842589 0 0.13089407790561569 0.2046308942147147 0 0.13995000477755301 0.19121318102863141 0 0.1490059316494918 0.17779546784254921 0 0.13995000477755301 0.19121318102863141 0 0.15286490413344619 0.1966237819327713 0 0.1423217716253645 0.2031522465306822 0 0.13995000477755301 0.19121318102863141 0 0.15286490413344619 0.1966237819327713 0 0.16743476050984771 0.1860724993366551 0 0.15286490413344619 0.1966237819327713 0 0.167627515091304 0.21060737709214469 0 0.16743476050984771 0.1860724993366551 0 0.17867185793953039 0.20323528348586459 0 0.167627515091304 0.21060737709214469 0 0.16743476050984771 0.1860724993366551 0 0.18586358937020531 0.19434953083075779 0 0.17867185793953039 0.20323528348586459 0 0.16743476050984771 0.1860724993366551 0 0.18586358937020531 0.19434953083075779 0 0.18586358937020531 0.19434953083075779 0 0.17867185793953039 0.20323528348586459 0 0.18796026347217429 0.2092160388268117 0 0.17867185793953039 0.20323528348586459 0 0.18319557006314799 0.21698829690944299 0 0.167627515091304 0.21060737709214469 0 0.18319557006314799 0.21698829690944299 0 0.167627515091304 0.21060737709214469 0 0.17568842119391079 0.2262445940966944 0 0.17867185793953039 0.20323528348586459 0 0.18319557006314799 0.21698829690944299 0 0.18796026347217429 0.2092160388268117 0 0.15084944114711721 0.21090191976596559 0 0.15286490413344619 0.1966237819327713 0 0.167627515091304 0.21060737709214469 0 0.15084944114711721 0.21090191976596559 0 0.167627515091304 0.21060737709214469 0 0.1609929569092674 0.22997288131851301 0 0.15084944114711721 0.21090191976596559 0 0.167627515091304 0.21060737709214469 0 0.1609929569092674 0.22997288131851301 0 0.17568842119391079 0.2262445940966944 0 0.17540225250715 0.24334044325400661 0 0.167627515091304 0.21060737709214469 0 0.1609929569092674 0.22997288131851301 0 0.17568842119391079 0.2262445940966944 0 0.17568842119391079 0.2262445940966944 0 0.17540225250715 0.24334044325400661 0 0.1912238113986848 0.23031397190936481 0 0.18319557006314799 0.21698829690944299 0 0.17568842119391079 0.2262445940966944 0 0.1912238113986848 0.23031397190936481 0 0.17540225250715 0.24334044325400661 0 0.1649960966936283 0.24570944633742789 0 0.1721129117887481 0.25297936628848011 0 0.14997559948457481 0.24406105623068311 0 0.1609929569092674 0.22997288131851301 0 0.1649960966936283 0.24570944633742789 0 0.1609929569092674 0.22997288131851301 0 0.17540225250715 0.24334044325400661 0 0.1649960966936283 0.24570944633742789 0 0.21446291532395531 0.2388596089882869 0 0.19740814053402059 0.24050090215699449 0 0.20220375196931159 0.25664886493290762 0 0.21446291532395531 0.2388596089882869 0 0.19740814053402059 0.24050090215699449 0 0.20313140795696591 0.23282950675407191 0 0.21446291532395531 0.2388596089882869 0 0.20220375196931159 0.25664886493290762 0 0.21446291532395531 0.2388596089882869 0 0.20220375196931159 0.25664886493290762 0 0.21752909380222851 0.25111892824869442 0 0.21446291532395531 0.2388596089882869 0 0.22343601983933301 0.24346778907879399 0 0.21752909380222851 0.25111892824869442 0 0.17540225250715 0.24334044325400661 0 0.19740814053402059 0.24050090215699449 0 0.20220375196931159 0.25664886493290762 0 0.17540225250715 0.24334044325400661 0 0.19740814053402059 0.24050090215699449 0 0.1912238113986848 0.23031397190936481 0 0.17540225250715 0.24334044325400661 0 0.20220375196931159 0.25664886493290762 0 0.19740814053402059 0.24050090215699449 0 0.1912238113986848 0.23031397190936481 0 0.20313140795696591 0.23282950675407191 0 0.1912238113986848 0.23031397190936481 0 0.19993404256430719 0.22493928787224621 0 0.20313140795696591 0.23282950675407191 0 0.18319557006314799 0.21698829690944299 0 0.1912238113986848 0.23031397190936481 0 0.19282444032095511 0.21956543607088 0 0.1912238113986848 0.23031397190936481 0 0.19282444032095511 0.21956543607088 0 0.19993404256430719 0.22493928787224621 0 0.19282444032095511 0.21956543607088 0 0.19993404256430719 0.22493928787224621 0 0.19924585966703329 0.21194164683711261 0 0.19993404256430719 0.22493928787224621 0 0.21262812996386191 0.22953376284346691 0 0.19924585966703329 0.21194164683711261 0 0.21262812996386191 0.22953376284346691 0 0.21135295861898259 0.21551675504759751 0 0.19924585966703329 0.21194164683711261 0 0.21262812996386191 0.22953376284346691 0 0.19924585966703329 0.21194164683711261 0 0.21446291532395531 0.2388596089882869 0 0.21262812996386191 0.22953376284346691 0 0.22672207867859931 0.22107035304366621 0 0.19993404256430719 0.22493928787224621 0 0.20313140795696591 0.23282950675407191 0 0.21262812996386191 0.22953376284346691 0 0.21446291532395531 0.2388596089882869 0 0.20313140795696591 0.23282950675407191 0 0.21262812996386191 0.22953376284346691 0 0.21262812996386191 0.22953376284346691 0 0.21135295861898259 0.21551675504759751 0 0.22672207867859931 0.22107035304366621 0 0.21863112102414359 0.2090665751713795 0 0.2022473551971746 0.20170805300106831 0 0.21135295861898259 0.21551675504759751 0 0.21863112102414359 0.2090665751713795 0 0.2022473551971746 0.20170805300106831 0 0.21135295861898259 0.21551675504759751 0 0.19924585966703329 0.21194164683711261 0 0.2022473551971746 0.20170805300106831 0 0.18586358937020531 0.19434953083075779 0 0.19924585966703329 0.21194164683711261 0 0.18796026347217429 0.2092160388268117 0 0.18586358937020531 0.19434953083075779 0 0.19924585966703329 0.21194164683711261 0 0.19282444032095511 0.21956543607088 0 0.19924585966703329 0.21194164683711261 0 0.18796026347217429 0.2092160388268117 0 0.18319557006314799 0.21698829690944299 0 0.19282444032095511 0.21956543607088 0 0.18796026347217429 0.2092160388268117 0 0.18586358937020531 0.19434953083075779 0 0.19924585966703329 0.21194164683711261 0 0.2022473551971746 0.20170805300106831 0 0.18586358937020531 0.19434953083075779 0 0.2022473551971746 0.20170805300106831 0 0.18586358937020531 0.19434953083075779 0 0.2022473551971746 0.20170805300106831 0 0.2006916234206349 0.19158940472521049 0 0.18586358937020531 0.19434953083075779 0 0.2006916234206349 0.19158940472521049 0 0.1954712466973195 0.1816090280044374 0 0.21863112102414359 0.2090665751713795 0 0.2022473551971746 0.20170805300106831 0 0.20999925390106039 0.19513567329326281 0 0.2006916234206349 0.19158940472521049 0 0.21900685257282651 0.18986122430562549 0 0.1954712466973195 0.1816090280044374 0 0.2006916234206349 0.19158940472521049 0 0.20999925390106039 0.19513567329326281 0 0.21900685257282651 0.18986122430562549 0 0.2022473551971746 0.20170805300106831 0 0.2006916234206349 0.19158940472521049 0 0.20999925390106039 0.19513567329326281 0 0.21900685257282651 0.18986122430562549 0 0.24254245844833369 0.19811342060681339 0 0.23898124203324009 0.20328109709904341 0 0.21863112102414359 0.2090665751713795 0 0.20999925390106039 0.19513567329326281 0 0.23898124203324009 0.20328109709904341 0 0.20999925390106039 0.19513567329326281 0 0.21900685257282651 0.18986122430562549 0 0.23898124203324009 0.20328109709904341 0 0.21900685257282651 0.18986122430562549 0 0.23550124904762201 0.19020982013452251 0 0.22946046065037121 0.18636215201330519 0 0.20999925390106039 0.19513567329326281 0 0.23898124203324009 0.20328109709904341 0 0.21900685257282651 0.18986122430562549 0 0.24254245844833369 0.19811342060681339 0 0.21900685257282651 0.18986122430562549 0 0.23550124904762201 0.19020982013452251 0 0.24254245844833369 0.19811342060681339 0 0.23550124904762201 0.19020982013452251 0 0.2485805719854664 0.18935152193335669 0 0.23659144644453439 0.1834520397599689 0 0.2485805719854664 0.18935152193335669 0 0.24254245844833369 0.19811342060681339 0 0.23550124904762201 0.19020982013452251 0 0.2485805719854664 0.18935152193335669 0 0.24254245844833369 0.19811342060681339 0 0.2485805719854664 0.18935152193335669 0 0.24828177434787149 0.20012577421640601 0 0.24254245844833369 0.19811342060681339 0 0.24828177434787149 0.20012577421640601 0 0.24254245844833369 0.19811342060681339 0 0.23898124203324009 0.20328109709904341 0 0.24828177434787149 0.20012577421640601 0 0.24254245844833369 0.19811342060681339 0 0.24254245844833369 0.19811342060681339 0 0.23898124203324009 0.20328109709904341 0 0.23898124203324009 0.20328109709904341 0 0.2432760146068868 0.2189442794711399 0 0.26108018085539531 0.20949203133666169 0 0.24828177434787149 0.20012577421640601 0 0.23898124203324009 0.20328109709904341 0 0.26108018085539531 0.20949203133666169 0 0.23898124203324009 0.20328109709904341 0 0.22672207867859931 0.22107035304366621 0 0.2432760146068868 0.2189442794711399 0 0.21863112102414359 0.2090665751713795 0 0.23898124203324009 0.20328109709904341 0 0.22672207867859931 0.22107035304366621 0 0.23898124203324009 0.20328109709904341 0 0.22672207867859931 0.22107035304366621 0 0.21135295861898259 0.21551675504759751 0 0.21863112102414359 0.2090665751713795 0 0.22672207867859931 0.22107035304366621 0 0.21446291532395531 0.2388596089882869 0 0.22624836327036749 0.23422388985382869 0 0.22672207867859931 0.22107035304366621 0 0.21446291532395531 0.2388596089882869 0 0.22672207867859931 0.22107035304366621 0 0.22624836327036749 0.23422388985382869 0 0.22672207867859931 0.22107035304366621 0 0.23792092196112249 0.23178761420676611 0 0.2432760146068868 0.2189442794711399 0 0.23792092196112249 0.23178761420676611 0 0.25490134515791402 0.2323397017723034 0 0.22672207867859931 0.22107035304366621 0 0.2432760146068868 0.2189442794711399 0 0.23792092196112249 0.23178761420676611 0 0.23792092196112249 0.23178761420676611 0 0.2424015497302314 0.24153524138347321 0 0.23220831497417471 0.24086529619521829 0 0.2424015497302314 0.24153524138347321 0 0.24958104109450691 0.25230577208951122 0 0.25490134515791402 0.2323397017723034 0 0.23792092196112249 0.23178761420676611 0 0.2424015497302314 0.24153524138347321 0 0.25490134515791402 0.2323397017723034 0 0.2424015497302314 0.24153524138347321 0 0.24958104109450691 0.25230577208951122 0 0.23739612546343911 0.25037782265356662 0 0.2424015497302314 0.24153524138347321 0 0.23220831497417471 0.24086529619521829 0 0.23739612546343911 0.25037782265356662 0 0.23220831497417471 0.24086529619521829 0 0.22343601983933301 0.24346778907879399 0 0.22673141182593909 0.25227122210794167 0 0.23220831497417471 0.24086529619521829 0 0.22673141182593909 0.25227122210794167 0 0.23739612546343911 0.25037782265356662 0 0.22624836327036749 0.23422388985382869 0 0.23792092196112249 0.23178761420676611 0 0.23220831497417471 0.24086529619521829 0 0.22624836327036749 0.23422388985382869 0 0.23220831497417471 0.24086529619521829 0 0.22343601983933301 0.24346778907879399 0 0.21446291532395531 0.2388596089882869 0 0.22624836327036749 0.23422388985382869 0 0.22343601983933301 0.24346778907879399 0 0.22343601983933301 0.24346778907879399 0 0.21752909380222851 0.25111892824869442 0 0.22673141182593909 0.25227122210794167 0 0.20548183928685321 0.143596856197657 0 0.20064234671116549 0.15519961852868669 0 0.2121471955840655 0.1575749634601365 0 0.20548183928685321 0.143596856197657 0 0.21703185953897941 0.14414639163310231 0 0.2121471955840655 0.1575749634601365 0 0.20548183928685321 0.143596856197657 0 0.21703185953897941 0.14414639163310231 0 0.21418839045019991 0.13247174240680759 0 0.21418839045019991 0.13247174240680759 0 0.20907923254168759 0.12644963622594449 0 0.2141058919829838 0.12344812568973849 0 0.21418839045019991 0.13247174240680759 0 0.2225782237776788 0.121633810535065 0 0.2141058919829838 0.12344812568973849 0 0.20907923254168759 0.12644963622594449 0 0.20496318869744401 0.13262483592569721 0 0.20116387027773069 0.12721465642427671 0 0.21418839045019991 0.13247174240680759 0 0.20907923254168759 0.12644963622594449 0 0.20496318869744401 0.13262483592569721 0 0.20548183928685321 0.143596856197657 0 0.21418839045019991 0.13247174240680759 0 0.20496318869744401 0.13262483592569721 0 0.20548183928685321 0.143596856197657 0 0.20496318869744401 0.13262483592569721 0 0.1979160787716272 0.13534848273697381 0 0.20496318869744401 0.13262483592569721 0 0.1979160787716272 0.13534848273697381 0 0.20116387027773069 0.12721465642427671 0 0.1979160787716272 0.13534848273697381 0 0.20116387027773069 0.12721465642427671 0 0.19277492539414259 0.12752595591089291 0 0.1844252800390864 0.13232190881866121 0 0.19277492539414259 0.12752595591089291 0 0.1897644927786247 0.1350297090608471 0 0.1979160787716272 0.13534848273697381 0 0.19277492539414259 0.12752595591089291 0 0.1897644927786247 0.1350297090608471 0 0.1979160787716272 0.13534848273697381 0 0.1897644927786247 0.1350297090608471 0 0.19334815619496801 0.14609888290247211 0 0.18490864339992669 0.15264658950046581 0 0.1843337904635248 0.14220534039662061 0 0.19334815619496801 0.14609888290247211 0 0.1843337904635248 0.14220534039662061 0 0.1897644927786247 0.1350297090608471 0 0.19334815619496801 0.14609888290247211 0 0.20548183928685321 0.143596856197657 0 0.19334815619496801 0.14609888290247211 0 0.20064234671116549 0.15519961852868669 0 0.20548183928685321 0.143596856197657 0 0.1979160787716272 0.13534848273697381 0 0.19334815619496801 0.14609888290247211 0 0.18490864339992669 0.15264658950046581 0 0.19334815619496801 0.14609888290247211 0 0.19061698466952809 0.16062047569707141 0 0.19334815619496801 0.14609888290247211 0 0.20064234671116549 0.15519961852868669 0 0.19061698466952809 0.16062047569707141 0 0.19061698466952809 0.16062047569707141 0 0.2016175578204128 0.16810691438609679 0 0.19024731348925039 0.17192708438432361 0 0.18285049965923961 0.16742810525635829 0 0.19061698466952809 0.16062047569707141 0 0.19024731348925039 0.17192708438432361 0 0.20064234671116549 0.15519961852868669 0 0.19061698466952809 0.16062047569707141 0 0.2016175578204128 0.16810691438609679 0 0.18279604178912609 0.18262119440821101 0 0.18586358937020531 0.19434953083075779 0 0.1954712466973195 0.1816090280044374 0 0.2016175578204128 0.16810691438609679 0 0.19024731348925039 0.17192708438432361 0 0.1954712466973195 0.1816090280044374 0 0.2016175578204128 0.16810691438609679 0 0.1954712466973195 0.1816090280044374 0 0.20875737408237779 0.17965439288227381 0 0.21900685257282651 0.18986122430562549 0 0.1954712466973195 0.1816090280044374 0 0.21900685257282651 0.18986122430562549 0 0.20875737408237779 0.17965439288227381 0 0.22608006696821301 0.1799711528263328 0 0.21900685257282651 0.18986122430562549 0 0.1954712466973195 0.1816090280044374 0 0.20875737408237779 0.17965439288227381 0 0.20875737408237779 0.17965439288227381 0 0.22626338462798179 0.16715798991536421 0 0.2016175578204128 0.16810691438609679 0 0.20875737408237779 0.17965439288227381 0 0.2121963780287095 0.1681235651609678 0 0.20875737408237779 0.17965439288227381 0 0.2121963780287095 0.1681235651609678 0 0.22626338462798179 0.16715798991536421 0 0.20064234671116549 0.15519961852868669 0 0.2016175578204128 0.16810691438609679 0 0.2121471955840655 0.1575749634601365 0 0.2016175578204128 0.16810691438609679 0 0.2121963780287095 0.1681235651609678 0 0.2121471955840655 0.1575749634601365 0 0.2121963780287095 0.1681235651609678 0 0.2121471955840655 0.1575749634601365 0 0.22626338462798179 0.16715798991536421 0 0.22626338462798179 0.16715798991536421 0 0.24376939517358601 0.15466158694845461 0 0.2293652865863032 0.1492628850671168 0 0.2121471955840655 0.1575749634601365 0 0.22626338462798179 0.16715798991536421 0 0.2293652865863032 0.1492628850671168 0 0.20875737408237779 0.17965439288227381 0 0.22626338462798179 0.16715798991536421 0 0.22608006696821301 0.1799711528263328 0 0.21900685257282651 0.18986122430562549 0 0.22608006696821301 0.1799711528263328 0 0.22946046065037121 0.18636215201330519 0 0.22608006696821301 0.1799711528263328 0 0.23659144644453439 0.1834520397599689 0 0.237747478667789 0.1725608333212475 0 0.22626338462798179 0.16715798991536421 0 0.22608006696821301 0.1799711528263328 0 0.237747478667789 0.1725608333212475 0 0.22608006696821301 0.1799711528263328 0 0.22946046065037121 0.18636215201330519 0 0.23659144644453439 0.1834520397599689 0 0.23550124904762201 0.19020982013452251 0 0.22946046065037121 0.18636215201330519 0 0.23659144644453439 0.1834520397599689 0 0.2485805719854664 0.18935152193335669 0 0.24901157607054161 0.17206173630581131 0 0.24298276829208301 0.17935653283009609 0 0.23659144644453439 0.1834520397599689 0 0.237747478667789 0.1725608333212475 0 0.24298276829208301 0.17935653283009609 0 0.237747478667789 0.1725608333212475 0 0.24901157607054161 0.17206173630581131 0 0.24298276829208301 0.17935653283009609 0 0.2485805719854664 0.18935152193335669 0 0.23659144644453439 0.1834520397599689 0 0.24298276829208301 0.17935653283009609 0 0.2485805719854664 0.18935152193335669 0 0.23659144644453439 0.1834520397599689 0 0.22626338462798179 0.16715798991536421 0 0.237747478667789 0.1725608333212475 0 0.24376939517358601 0.15466158694845461 0 0.24901157607054161 0.17206173630581131 0 0.24376939517358601 0.15466158694845461 0 0.25379803220492553 0.16123186900820269 0 0.237747478667789 0.1725608333212475 0 0.24901157607054161 0.17206173630581131 0 0.24376939517358601 0.15466158694845461 0 0.22626338462798179 0.16715798991536421 0 0.24376939517358601 0.15466158694845461 0 0.24376939517358601 0.15466158694845461 0 0.24333866203151361 0.1362887177115289 0 0.26127540571918889 0.14216518398154329 0 0.24376939517358601 0.15466158694845461 0 0.2293652865863032 0.1492628850671168 0 0.24333866203151361 0.1362887177115289 0 0.21703185953897941 0.14414639163310231 0 0.2121471955840655 0.1575749634601365 0 0.2293652865863032 0.1492628850671168 0 0.21703185953897941 0.14414639163310231 0 0.2293652865863032 0.1492628850671168 0 0.22776910378912379 0.13470238081805819 0 0.22776910378912379 0.13470238081805819 0 0.2387358891423545 0.11933352568039141 0 0.2225782237776788 0.121633810535065 0 0.21418839045019991 0.13247174240680759 0 0.22776910378912379 0.13470238081805819 0 0.2225782237776788 0.121633810535065 0 0.21703185953897941 0.14414639163310231 0 0.21418839045019991 0.13247174240680759 0 0.22776910378912379 0.13470238081805819 0 0.2293652865863032 0.1492628850671168 0 0.22776910378912379 0.13470238081805819 0 0.24333866203151361 0.1362887177115289 0 0.22776910378912379 0.13470238081805819 0 0.24333866203151361 0.1362887177115289 0 0.2387358891423545 0.11933352568039141 0 0.24333866203151361 0.1362887177115289 0 0.2387358891423545 0.11933352568039141 0 0.25760107360174339 0.11898437935302331 0 0.2387358891423545 0.11933352568039141 0 0.24486564927940621 0.1097597138692932 0 0.25760107360174339 0.11898437935302331 0 0.2387358891423545 0.11933352568039141 0 0.24486564927940621 0.1097597138692932 0 0.22919889288923101 0.10491737571925459 0 0.22919889288923101 0.10491737571925459 0 0.25392674148429573 0.095803574724503654 0 0.22919889288923101 0.10491737571925459 0 0.24011078773733049 0.091363831039947899 0 0.25392674148429573 0.095803574724503654 0 0.24486564927940621 0.1097597138692932 0 0.22919889288923101 0.10491737571925459 0 0.25392674148429573 0.095803574724503654 0 0.22919889288923101 0.10491737571925459 0 0.22442047509445351 0.088046220441177603 0 0.24011078773733049 0.091363831039947899 0 0.22919889288923101 0.10491737571925459 0 0.218686434888479 0.097265836114406617 0 0.22442047509445351 0.088046220441177603 0 0.22919889288923101 0.10491737571925459 0 0.218686434888479 0.097265836114406617 0 0.2107495360653289 0.10315684587580511 0 0.22919889288923101 0.10491737571925459 0 0.2225782237776788 0.121633810535065 0 0.21097482130007969 0.11648882068320281 0 0.2387358891423545 0.11933352568039141 0 0.22919889288923101 0.10491737571925459 0 0.2225782237776788 0.121633810535065 0 0.2225782237776788 0.121633810535065 0 0.2141058919829838 0.12344812568973849 0 0.21097482130007969 0.11648882068320281 0 0.22919889288923101 0.10491737571925459 0 0.20447104429416649 0.11403117671400601 0 0.22919889288923101 0.10491737571925459 0 0.20447104429416649 0.11403117671400601 0 0.21097482130007969 0.11648882068320281 0 0.20907923254168759 0.12644963622594449 0 0.2141058919829838 0.12344812568973849 0 0.21097482130007969 0.11648882068320281 0 0.20907923254168759 0.12644963622594449 0 0.20116387027773069 0.12721465642427671 0 0.21097482130007969 0.11648882068320281 0 0.22919889288923101 0.10491737571925459 0 0.20447104429416649 0.11403117671400601 0 0.2107495360653289 0.10315684587580511 0 0.218686434888479 0.097265836114406617 0 0.2107495360653289 0.10315684587580511 0 0.2103768355049028 0.092942902421389223 0 0.2107495360653289 0.10315684587580511 0 0.19972804923084231 0.1010093316957633 0 0.2103768355049028 0.092942902421389223 0 0.20447104429416649 0.11403117671400601 0 0.2107495360653289 0.10315684587580511 0 0.20235620705419571 0.1070127490732178 0 0.2107495360653289 0.10315684587580511 0 0.20235620705419571 0.1070127490732178 0 0.19972804923084231 0.1010093316957633 0 0.19972804923084231 0.1010093316957633 0 0.19349005426242499 0.088931170328694797 0 0.2103768355049028 0.092942902421389223 0 0.20235620705419571 0.1070127490732178 0 0.19606018806619871 0.1076291147543532 0 0.19972804923084231 0.1010093316957633 0 0.19972804923084231 0.1010093316957633 0 0.19349005426242499 0.088931170328694797 0 0.18748841447886611 0.10233738810184161 0 0.19606018806619871 0.1076291147543532 0 0.19972804923084231 0.1010093316957633 0 0.18748841447886611 0.10233738810184161 0 0.19606018806619871 0.1076291147543532 0 0.18666972252285879 0.11317562421481631 0 0.18748841447886611 0.10233738810184161 0 0.20447104429416649 0.11403117671400601 0 0.18312963537960339 0.12471192689044371 0 0.17974319569910191 0.1231449777087576 0 0.19277492539414259 0.12752595591089291 0 0.21097482130007969 0.11648882068320281 0 0.18312963537960339 0.12471192689044371 0 0.20447104429416649 0.11403117671400601 0 0.18666972252285879 0.11317562421481631 0 0.17974319569910191 0.1231449777087576 0 0.20447104429416649 0.11403117671400601 0 0.21097482130007969 0.11648882068320281 0 0.18312963537960339 0.12471192689044371 0 0.20447104429416649 0.11403117671400601 0 0.19606018806619871 0.1076291147543532 0 0.18666972252285879 0.11317562421481631 0 0.20116387027773069 0.12721465642427671 0 0.19277492539414259 0.12752595591089291 0 0.21097482130007969 0.11648882068320281 0 0.21097482130007969 0.11648882068320281 0 0.18312963537960339 0.12471192689044371 0 0.20447104429416649 0.11403117671400601 0 0.17974319569910191 0.1231449777087576 0 0.20447104429416649 0.11403117671400601 0 0.20235620705419571 0.1070127490732178 0 0.19606018806619871 0.1076291147543532 0 0.19662631641819101 0.075315459267383214 0 0.19203024658415949 0.055437173733187482 0 0.17958936617943971 0.065393615334326929 0 0.19662631641819101 0.075315459267383214 0 0.21271555552289351 0.058457734656455269 0 0.19203024658415949 0.055437173733187482 0 0.19662631641819101 0.075315459267383214 0 0.19349005426242499 0.088931170328694797 0 0.17500684663482971 0.081768363461932378 0 0.19662631641819101 0.075315459267383214 0 0.19349005426242499 0.088931170328694797 0 0.21099924565797709 0.078088454665142748 0 0.19349005426242499 0.088931170328694797 0 0.2103768355049028 0.092942902421389223 0 0.21099924565797709 0.078088454665142748 0 0.218686434888479 0.097265836114406617 0 0.2103768355049028 0.092942902421389223 0 0.22442047509445351 0.088046220441177603 0 0.2103768355049028 0.092942902421389223 0 0.21099924565797709 0.078088454665142748 0 0.22442047509445351 0.088046220441177603 0 0.19662631641819101 0.075315459267383214 0 0.21099924565797709 0.078088454665142748 0 0.21271555552289351 0.058457734656455269 0 0.21099924565797709 0.078088454665142748 0 0.2239722567084062 0.071887992772308548 0 0.21271555552289351 0.058457734656455269 0 0.2239722567084062 0.071887992772308548 0 0.23750662249475629 0.078674750811121533 0 0.23408830025674771 0.061512649551538567 0 0.2239722567084062 0.071887992772308548 0 0.23408830025674771 0.061512649551538567 0 0.21271555552289351 0.058457734656455269 0 0.22442047509445351 0.088046220441177603 0 0.24011078773733049 0.091363831039947899 0 0.23750662249475629 0.078674750811121533 0 0.21099924565797709 0.078088454665142748 0 0.2239722567084062 0.071887992772308548 0 0.22442047509445351 0.088046220441177603 0 0.2239722567084062 0.071887992772308548 0 0.22442047509445351 0.088046220441177603 0 0.23750662249475629 0.078674750811121533 0 0.23750662249475629 0.078674750811121533 0 0.24750218216726619 0.070779404123979775 0 0.2524803748395158 0.086678666702512744 0 0.24011078773733049 0.091363831039947899 0 0.23750662249475629 0.078674750811121533 0 0.2524803748395158 0.086678666702512744 0 0.24011078773733049 0.091363831039947899 0 0.2524803748395158 0.086678666702512744 0 0.25392674148429573 0.095803574724503654 0 0.23750662249475629 0.078674750811121533 0 0.24750218216726619 0.070779404123979775 0 0.23408830025674771 0.061512649551538567 0 0.24750218216726619 0.070779404123979775 0 0.23408830025674771 0.061512649551538567 0 0.25241456432054732 0.053491376617146237 0 0.2304186203266165 0.03578463832822016 0 0.23408830025674771 0.061512649551538567 0 0.25241456432054732 0.053491376617146237 0 0.2304186203266165 0.03578463832822016 0 0.25241456432054732 0.053491376617146237 0 0.2304186203266165 0.03578463832822016 0 0.25206775426450562 0.023560084385940479 0 0.25241456432054732 0.053491376617146237 0 0.2304186203266165 0.03578463832822016 0 0.23408830025674771 0.061512649551538567 0 0.21271555552289351 0.058457734656455269 0 0.2328295479746289 0.0066318064645420338 0 0.25206775426450562 0.023560084385940479 0 0.25868691773078378 -0.0042192312531555004 0 0.2304186203266165 0.03578463832822016 0 0.2328295479746289 0.0066318064645420338 0 0.25206775426450562 0.023560084385940479 0 0.2304186203266165 0.03578463832822016 0 0.2328295479746289 0.0066318064645420338 0 0.21453253666683511 0.018197505146391641 0 0.21453253666683511 0.018197505146391641 0 0.18947729304303221 0.012577952637505069 0 0.2062918539355883 -0.002159798344136636 0 0.2328295479746289 0.0066318064645420338 0 0.21453253666683511 0.018197505146391641 0 0.2062918539355883 -0.002159798344136636 0 0.2304186203266165 0.03578463832822016 0 0.21453253666683511 0.018197505146391641 0 0.2022249248361844 0.034744956510096299 0 0.18947729304303221 0.012577952637505069 0 0.2022249248361844 0.034744956510096299 0 0.1826635216606535 0.034766617985585252 0 0.21453253666683511 0.018197505146391641 0 0.18947729304303221 0.012577952637505069 0 0.2022249248361844 0.034744956510096299 0 0.18947729304303221 0.012577952637505069 0 0.1789975143158159 -0.0065475400622667969 0 0.2062918539355883 -0.002159798344136636 0 0.2304186203266165 0.03578463832822016 0 0.21271555552289351 0.058457734656455269 0 0.2022249248361844 0.034744956510096299 0 0.2022249248361844 0.034744956510096299 0 0.19203024658415949 0.055437173733187482 0 0.1826635216606535 0.034766617985585252 0 0.21271555552289351 0.058457734656455269 0 0.2022249248361844 0.034744956510096299 0 0.19203024658415949 0.055437173733187482 0 0.19203024658415949 0.055437173733187482 0 0.1732486364847079 0.050894221647312859 0 0.1826635216606535 0.034766617985585252 0 0.19203024658415949 0.055437173733187482 0 0.1732486364847079 0.050894221647312859 0 0.17958936617943971 0.065393615334326929 0 0.1732486364847079 0.050894221647312859 0 0.1826635216606535 0.034766617985585252 0 0.1686257026606526 0.034144316470072267 0 0.1732486364847079 0.050894221647312859 0 0.1686257026606526 0.034144316470072267 0 0.15744807605433669 0.049569030568674517 0 0.1686257026606526 0.034144316470072267 0 0.15744807605433669 0.049569030568674517 0 0.15568243793730169 0.035655184766820391 0 0.1732486364847079 0.050894221647312859 0 0.15744807605433669 0.049569030568674517 0 0.16103478477531011 0.063552858561818693 0 0.1732486364847079 0.050894221647312859 0 0.17958936617943971 0.065393615334326929 0 0.16103478477531011 0.063552858561818693 0 0.18947729304303221 0.012577952637505069 0 0.17224435452985651 0.0066443108239060411 0 0.1703743263551844 0.020801086915337521 0 0.18947729304303221 0.012577952637505069 0 0.17224435452985651 0.0066443108239060411 0 0.1789975143158159 -0.0065475400622667969 0 0.18947729304303221 0.012577952637505069 0 0.1826635216606535 0.034766617985585252 0 0.1703743263551844 0.020801086915337521 0 0.1826635216606535 0.034766617985585252 0 0.1686257026606526 0.034144316470072267 0 0.1703743263551844 0.020801086915337521 0 0.1703743263551844 0.020801086915337521 0 0.1552549715865712 0.010058784547623781 0 0.1527386557541178 0.023207462861663489 0 0.1686257026606526 0.034144316470072267 0 0.1527386557541178 0.023207462861663489 0 0.15568243793730169 0.035655184766820391 0 0.1686257026606526 0.034144316470072267 0 0.1703743263551844 0.020801086915337521 0 0.1527386557541178 0.023207462861663489 0 0.17224435452985651 0.0066443108239060411 0 0.1552549715865712 0.010058784547623781 0 0.162912293445549 -0.0053503340765510771 0 0.17224435452985651 0.0066443108239060411 0 0.1703743263551844 0.020801086915337521 0 0.1552549715865712 0.010058784547623781 0 0.1552549715865712 0.010058784547623781 0 0.13607434700244139 0.00460352784239182 0 0.1495199560174405 -0.0041019919792444296 0 0.1552549715865712 0.010058784547623781 0 0.1402002024935286 0.020273047751112171 0 0.13607434700244139 0.00460352784239182 0 0.1552549715865712 0.010058784547623781 0 0.1495199560174405 -0.0041019919792444296 0 0.162912293445549 -0.0053503340765510771 0 0.1552549715865712 0.010058784547623781 0 0.1527386557541178 0.023207462861663489 0 0.1402002024935286 0.020273047751112171 0 0.1527386557541178 0.023207462861663489 0 0.1402002024935286 0.020273047751112171 0 0.14271651775373881 0.03491818507261573 0 0.12228846285876641 0.019350583522008819 0 0.13234530429609331 0.029152840080882741 0 0.1402002024935286 0.020273047751112171 0 0.13234530429609331 0.029152840080882741 0 0.1402002024935286 0.020273047751112171 0 0.14271651775373881 0.03491818507261573 0 0.1233110703120837 0.033877782055872337 0 0.12228846285876641 0.019350583522008819 0 0.13234530429609331 0.029152840080882741 0 0.12228846285876641 0.019350583522008819 0 0.1402002024935286 0.020273047751112171 0 0.13607434700244139 0.00460352784239182 0 0.12228846285876641 0.019350583522008819 0 0.12290637425548311 0.0038199371557853272 0 0.13607434700244139 0.00460352784239182 0 0.1437345293864877 0.052510326328510173 0 0.14364874472334269 0.068357721975919383 0 0.16103478477531011 0.063552858561818693 0 0.15744807605433669 0.049569030568674517 0 0.1437345293864877 0.052510326328510173 0 0.16103478477531011 0.063552858561818693 0 0.1437345293864877 0.052510326328510173 0 0.15568243793730169 0.035655184766820391 0 0.14271651775373881 0.03491818507261573 0 0.15744807605433669 0.049569030568674517 0 0.1437345293864877 0.052510326328510173 0 0.15568243793730169 0.035655184766820391 0 0.1527386557541178 0.023207462861663489 0 0.15568243793730169 0.035655184766820391 0 0.14271651775373881 0.03491818507261573 0 0.1437345293864877 0.052510326328510173 0 0.14271651775373881 0.03491818507261573 0 0.13099349597781451 0.040065960768624731 0 0.13234530429609331 0.029152840080882741 0 0.14271651775373881 0.03491818507261573 0 0.13099349597781451 0.040065960768624731 0 0.1233110703120837 0.033877782055872337 0 0.13234530429609331 0.029152840080882741 0 0.13099349597781451 0.040065960768624731 0 0.1189936152105935 0.047135591389191447 0 0.13099349597781451 0.040065960768624731 0 0.1301761357721177 0.052927253333610043 0 0.1437345293864877 0.052510326328510173 0 0.13432182667728859 0.062261484597562998 0 0.14364874472334269 0.068357721975919383 0 0.1437345293864877 0.052510326328510173 0 0.13099349597781451 0.040065960768624731 0 0.1301761357721177 0.052927253333610043 0 0.1437345293864877 0.052510326328510173 0 0.1301761357721177 0.052927253333610043 0 0.13432182667728859 0.062261484597562998 0 0.12226632998145889 0.062429746574226612 0 0.1301761357721177 0.052927253333610043 0 0.13432182667728859 0.062261484597562998 0 0.12226632998145889 0.062429746574226612 0 0.13432182667728859 0.062261484597562998 0 0.13064163026914569 0.074616060755680336 0 0.13064163026914569 0.074616060755680336 0 0.14364874472334269 0.068357721975919383 0 0.14287296624532941 0.078853409496913052 0 0.13432182667728859 0.062261484597562998 0 0.13064163026914569 0.074616060755680336 0 0.14364874472334269 0.068357721975919383 0 0.14364874472334269 0.068357721975919383 0 0.1542723706161046 0.075343629143754698 0 0.16103478477531011 0.063552858561818693 0 0.14364874472334269 0.068357721975919383 0 0.1542723706161046 0.075343629143754698 0 0.14287296624532941 0.078853409496913052 0 0.15338737685146861 0.088221267656481528 0 0.14287296624532941 0.078853409496913052 0 0.13241470876658529 0.087728367952729314 0 0.15338737685146861 0.088221267656481528 0 0.13176790706810729 0.094674171851030123 0 0.1542723706161046 0.075343629143754698 0 0.15338737685146861 0.088221267656481528 0 0.14287296624532941 0.078853409496913052 0 0.15338737685146861 0.088221267656481528 0 0.13241470876658529 0.087728367952729314 0 0.13176790706810729 0.094674171851030123 0 0.13064163026914569 0.074616060755680336 0 0.14287296624532941 0.078853409496913052 0 0.13241470876658529 0.087728367952729314 0 0.13064163026914569 0.074616060755680336 0 0.12566812762462329 0.082584506653402334 0 0.13241470876658529 0.087728367952729314 0 0.1221436003498254 0.089871025108145694 0 0.13241470876658529 0.087728367952729314 0 0.13176790706810729 0.094674171851030123 0 0.1221436003498254 0.089871025108145694 0 0.12566812762462329 0.082584506653402334 0 0.13241470876658529 0.087728367952729314 0 0.13241470876658529 0.087728367952729314 0 0.13176790706810729 0.094674171851030123 0 0.13176790706810729 0.094674171851030123 0 0.12960358530337829 0.1179161555779778 0 0.1159061894154637 0.099408522202780403 0 0.13176790706810729 0.094674171851030123 0 0.12960358530337829 0.1179161555779778 0 0.13176790706810729 0.094674171851030123 0 0.12960358530337829 0.1179161555779778 0 0.14295900523855079 0.10917081995338331 0 0.13829954931144831 0.12646997782668221 0 0.12960358530337829 0.1179161555779778 0 0.147181294409302 0.1189481920649777 0 0.12960358530337829 0.1179161555779778 0 0.147181294409302 0.1189481920649777 0 0.14295900523855079 0.10917081995338331 0 0.13829954931144831 0.12646997782668221 0 0.14688750157195779 0.1291825962340874 0 0.147181294409302 0.1189481920649777 0 0.147181294409302 0.1189481920649777 0 0.15296502142395579 0.11286485087507191 0 0.14295900523855079 0.10917081995338331 0 0.147181294409302 0.1189481920649777 0 0.15296502142395579 0.11286485087507191 0 0.15610875072281061 0.1206478775555069 0 0.147181294409302 0.1189481920649777 0 0.15610875072281061 0.1206478775555069 0 0.15197830000497389 0.12405173441279641 0 0.14688750157195779 0.1291825962340874 0 0.147181294409302 0.1189481920649777 0 0.15197830000497389 0.12405173441279641 0 0.15590224942129019 0.12604445266398781 0 0.15610875072281061 0.1206478775555069 0 0.15197830000497389 0.12405173441279641 0 0.13176790706810729 0.094674171851030123 0 0.14295900523855079 0.10917081995338331 0 0.15367511573258361 0.10173044047548831 0 0.15338737685146861 0.088221267656481528 0 0.13176790706810729 0.094674171851030123 0 0.15367511573258361 0.10173044047548831 0 0.15296502142395579 0.11286485087507191 0 0.15367511573258361 0.10173044047548831 0 0.16085282955525551 0.1099941330037649 0 0.15296502142395579 0.11286485087507191 0 0.14295900523855079 0.10917081995338331 0 0.15367511573258361 0.10173044047548831 0 0.15338737685146861 0.088221267656481528 0 0.15367511573258361 0.10173044047548831 0 0.16804498728834921 0.094656324414503168 0 0.15367511573258361 0.10173044047548831 0 0.16802392380142861 0.1046243391660427 0 0.16804498728834921 0.094656324414503168 0 0.15367511573258361 0.10173044047548831 0 0.16802392380142861 0.1046243391660427 0 0.16085282955525551 0.1099941330037649 0 0.16802392380142861 0.1046243391660427 0 0.16852933237009601 0.1136434091595659 0 0.17364525839521919 0.10932058672701581 0 0.16802392380142861 0.1046243391660427 0 0.16804498728834921 0.094656324414503168 0 0.17659950767602989 0.1020355217606138 0 0.16043186369954071 0.12122580090268829 0 0.1594222333830681 0.1248413576333061 0 0.16430302658531501 0.12309908126601141 0 0.15590224942129019 0.12604445266398781 0 0.15610875072281061 0.1206478775555069 0 0.1594222333830681 0.1248413576333061 0 0.15610875072281061 0.1206478775555069 0 0.16043186369954071 0.12122580090268829 0 0.1594222333830681 0.1248413576333061 0 0.15610875072281061 0.1206478775555069 0 0.16043186369954071 0.12122580090268829 0 0.16179384308574579 0.1168202446161698 0 0.16043186369954071 0.12122580090268829 0 0.16179384308574579 0.1168202446161698 0 0.16430302658531501 0.12309908126601141 0 0.15296502142395579 0.11286485087507191 0 0.15610875072281061 0.1206478775555069 0 0.16179384308574579 0.1168202446161698 0 0.15296502142395579 0.11286485087507191 0 0.16179384308574579 0.1168202446161698 0 0.16085282955525551 0.1099941330037649 0 0.16179384308574579 0.1168202446161698 0 0.16085282955525551 0.1099941330037649 0 0.16852933237009601 0.1136434091595659 0 0.16802392380142861 0.1046243391660427 0 0.16085282955525551 0.1099941330037649 0 0.16852933237009601 0.1136434091595659 0 0.16852933237009601 0.1136434091595659 0 0.17155816545332001 0.11881513145762911 0 0.17533370543672899 0.1153330643546511 0 0.16179384308574579 0.1168202446161698 0 0.16852933237009601 0.1136434091595659 0 0.16730146454090719 0.1192432389628892 0 0.16179384308574579 0.1168202446161698 0 0.16730146454090719 0.1192432389628892 0 0.16430302658531501 0.12309908126601141 0 0.16852933237009601 0.1136434091595659 0 0.16730146454090719 0.1192432389628892 0 0.17155816545332001 0.11881513145762911 0 0.16730146454090719 0.1192432389628892 0 0.17155816545332001 0.11881513145762911 0 0.16894358589182901 0.1222147902097363 0 0.16758165303935399 0.12558085119994641 0 0.16894358589182901 0.1222147902097363 0 0.17317611526268309 0.1227693571832158 0 0.17155816545332001 0.11881513145762911 0 0.16894358589182901 0.1222147902097363 0 0.17317611526268309 0.1227693571832158 0 0.16730146454090719 0.1192432389628892 0 0.16894358589182901 0.1222147902097363 0 0.16430302658531501 0.12309908126601141 0 0.16758165303935399 0.12558085119994641 0 0.16894358589182901 0.1222147902097363 0 0.16430302658531501 0.12309908126601141 0 0.16758165303935399 0.12558085119994641 0 0.17317611526268309 0.1227693571832158 0 0.17974319569910191 0.1231449777087576 0 0.17317611526268309 0.1227693571832158 0 0.1760647892176756 0.11968692887571621 0 0.17974319569910191 0.1231449777087576 0 0.17155816545332001 0.11881513145762911 0 0.17317611526268309 0.1227693571832158 0 0.1760647892176756 0.11968692887571621 0 0.17155816545332001 0.11881513145762911 0 0.1760647892176756 0.11968692887571621 0 0.17533370543672899 0.1153330643546511 0 0.1760647892176756 0.11968692887571621 0 0.17533370543672899 0.1153330643546511 0 0.17971525965897819 0.11680582269533769 0 0.1760647892176756 0.11968692887571621 0 0.17971525965897819 0.11680582269533769 0 0.17974319569910191 0.1231449777087576 0 0.17533370543672899 0.1153330643546511 0 0.18008118237464871 0.11001506380813 0 0.17971525965897819 0.11680582269533769 0 0.16852933237009601 0.1136434091595659 0 0.17533370543672899 0.1153330643546511 0 0.17364525839521919 0.10932058672701581 0 0.17533370543672899 0.1153330643546511 0 0.18008118237464871 0.11001506380813 0 0.17364525839521919 0.10932058672701581 0 0.18008118237464871 0.11001506380813 0 0.18666972252285879 0.11317562421481631 0 0.17971525965897819 0.11680582269533769 0 0.18666972252285879 0.11317562421481631 0 0.17971525965897819 0.11680582269533769 0 0.17974319569910191 0.1231449777087576 0 0.16804498728834921 0.094656324414503168 0 0.17659950767602989 0.1020355217606138 0 0.1801259620681 0.093945753613517147 0 0.16802392380142861 0.1046243391660427 0 0.17659950767602989 0.1020355217606138 0 0.17364525839521919 0.10932058672701581 0 0.18008118237464871 0.11001506380813 0 0.17659950767602989 0.1020355217606138 0 0.17364525839521919 0.10932058672701581 0 0.18008118237464871 0.11001506380813 0 0.18666972252285879 0.11317562421481631 0 0.18748841447886611 0.10233738810184161 0 0.18008118237464871 0.11001506380813 0 0.17659950767602989 0.1020355217606138 0 0.18748841447886611 0.10233738810184161 0 0.19349005426242499 0.088931170328694797 0 0.18748841447886611 0.10233738810184161 0 0.1801259620681 0.093945753613517147 0 0.17659950767602989 0.1020355217606138 0 0.18748841447886611 0.10233738810184161 0 0.1801259620681 0.093945753613517147 0 0.19662631641819101 0.075315459267383214 0 0.17500684663482971 0.081768363461932378 0 0.19349005426242499 0.088931170328694797 0 0.1801259620681 0.093945753613517147 0 0.17500684663482971 0.081768363461932378 0 0.16804498728834921 0.094656324414503168 0 0.1801259620681 0.093945753613517147 0 0.17500684663482971 0.081768363461932378 0 0.17500684663482971 0.081768363461932378 0 0.17958936617943971 0.065393615334326929 0 0.16103478477531011 0.063552858561818693 0 0.19662631641819101 0.075315459267383214 0 0.17500684663482971 0.081768363461932378 0 0.17958936617943971 0.065393615334326929 0 0.1542723706161046 0.075343629143754698 0 0.17500684663482971 0.081768363461932378 0 0.16103478477531011 0.063552858561818693 0 0.1542723706161046 0.075343629143754698 0 0.15338737685146861 0.088221267656481528 0 0.17500684663482971 0.081768363461932378 0 0.15338737685146861 0.088221267656481528 0 0.16804498728834921 0.094656324414503168 0 0.17500684663482971 0.081768363461932378 0 0.15338737685146861 0.088221267656481528 0 0.17500684663482971 0.081768363461932378 0 0.1178708597866415 0.48509576999964771 0 0.11688265310412931 0.46760341565575742 0 0.093168153015813118 0.47372453459061192 0 0.1062538433107796 0.5 0 0.1178708597866415 0.48509576999964771 0 0.093168153015813118 0.47372453459061192 0 0.1062538433107796 0.5 0 0.1178708597866415 0.48509576999964771 0 0.13604958859145369 0.5 0 0.1178708597866415 0.48509576999964771 0 0.11688265310412931 0.46760341565575742 0 0.1340430795009071 0.47643387377016638 0 0.11688265310412931 0.46760341565575742 0 0.11071142651901 0.44701758752934878 0 0.1020408689425594 0.45992744065885788 0 0.11688265310412931 0.46760341565575742 0 0.11071142651901 0.44701758752934878 0 0.12902061185395949 0.46022673586911828 0 0.11688265310412931 0.46760341565575742 0 0.11071142651901 0.44701758752934878 0 0.11071142651901 0.44701758752934878 0 0.12789522948134599 0.43317794333639031 0 0.1361044574630719 0.44650465773720072 0 0.11071142651901 0.44701758752934878 0 0.085739266060767885 0.44837830628499648 0 0.1045401999338889 0.42643175940294059 0 0.11071142651901 0.44701758752934878 0 0.1020408689425594 0.45992744065885788 0 0.085739266060767885 0.44837830628499648 0 0.11688265310412931 0.46760341565575742 0 0.1020408689425594 0.45992744065885788 0 0.093168153015813118 0.47372453459061192 0 0.085739266060767885 0.44837830628499648 0 0.066938332187647664 0.47032485316705291 0 0.093168153015813118 0.47372453459061192 0 0.1020408689425594 0.45992744065885788 0 0.085739266060767885 0.44837830628499648 0 0.093168153015813118 0.47372453459061192 0 0.085739266060767885 0.44837830628499648 0 0.067005657427396587 0.44877556632739302 0 0.078949154078107597 0.43372858890511429 0 0.085739266060767885 0.44837830628499648 0 0.067005657427396587 0.44877556632739302 0 0.066938332187647664 0.47032485316705291 0 0.085739266060767885 0.44837830628499648 0 0.066938332187647664 0.47032485316705291 0 0.066938332187647664 0.47032485316705291 0 0.093168153015813118 0.47372453459061192 0 0.076458098030105559 0.49999999999999978 0 0.1062538433107796 0.5 0 0.093168153015813118 0.47372453459061192 0 0.076458098030105559 0.49999999999999978 0 0.066938332187647664 0.47032485316705291 0 0.076458098030105559 0.49999999999999978 0 0.051079859644090952 0.4850575051359442 0 0.076458098030105559 0.49999999999999978 0 0.051079859644090952 0.4850575051359442 0 0.051079859644090952 0.4850575051359442 0 0.05538656334622527 0.5 0 0.034315028662344919 0.50000000000000122 0 0.076458098030105559 0.49999999999999978 0 0.051079859644090952 0.4850575051359442 0 0.05538656334622527 0.5 0 0.066938332187647664 0.47032485316705291 0 0.051079859644090952 0.4850575051359442 0 0.047553728968437417 0.46368211333720227 0 0.051079859644090952 0.4850575051359442 0 0.02570162125807653 0.47011501027188879 0 0.047553728968437417 0.46368211333720227 0 0.051079859644090952 0.4850575051359442 0 0.02570162125807653 0.47011501027188879 0 0.051079859644090952 0.4850575051359442 0 0.03480588070132868 0.48367476073754051 0 0.02570162125807653 0.47011501027188879 0 0.051079859644090952 0.4850575051359442 0 0.03480588070132868 0.48367476073754051 0 0.034315028662344919 0.50000000000000122 0 0.03480588070132868 0.48367476073754051 0 0.034315028662344919 0.50000000000000122 0 0.017319205767203551 0.47758625770391722 0 0.03196047775186045 0.50000000000000067 0 0.0085631025914626371 0.48164611103024751 0 0.03196047775186045 0.50000000000000067 0 0.017319205767203551 0.47758625770391722 0 0.0085631025914626371 0.48164611103024751 0 0.03196047775186045 0.50000000000000067 0 0.034315028662344919 0.50000000000000122 0 0.017319205767203551 0.47758625770391722 0 0.03196047775186045 0.50000000000000067 0 0.0085631025914626371 0.48164611103024751 0 0.014496318404291501 0.5 0 0.034315028662344919 0.50000000000000122 0 0.017319205767203551 0.47758625770391722 0 0.03480588070132868 0.48367476073754051 0 0.02570162125807653 0.47011501027188879 0 0.017319205767203551 0.47758625770391722 0 0.017319205767203551 0.47758625770391722 0 0.0085631025914626371 0.48164611103024751 0 0.00032338287206229568 0.45517251540783299 0 -0.002967840943277505 0.49999999999999822 0 0.0085631025914626371 0.48164611103024751 0 0.014496318404291501 0.5 0 0.00032338287206229568 0.45517251540783299 0 0.02417209797056203 0.44290371147976682 0 0.0055561814427249733 0.43119658166542341 0 0.017319205767203551 0.47758625770391722 0 0.00032338287206229568 0.45517251540783299 0 0.02570162125807653 0.47011501027188879 0 0.00032338287206229568 0.45517251540783299 0 0.02570162125807653 0.47011501027188879 0 0.017319205767203551 0.47758625770391722 0 0.00032338287206229568 0.45517251540783299 0 0.02570162125807653 0.47011501027188879 0 0.00032338287206229568 0.45517251540783299 0 0.02417209797056203 0.44290371147976682 0 0.02570162125807653 0.47011501027188879 0 0.02417209797056203 0.44290371147976682 0 0.038815447921104612 0.45070024963194683 0 0.038815447921104612 0.45070024963194683 0 0.053070008641861233 0.44481812433083129 0 0.043579782766585848 0.43198228874004452 0 0.038815447921104612 0.45070024963194683 0 0.047553728968437417 0.46368211333720227 0 0.053070008641861233 0.44481812433083129 0 0.02417209797056203 0.44290371147976682 0 0.038815447921104612 0.45070024963194683 0 0.043579782766585848 0.43198228874004452 0 0.02570162125807653 0.47011501027188879 0 0.038815447921104612 0.45070024963194683 0 0.047553728968437417 0.46368211333720227 0 0.067005657427396587 0.44877556632739302 0 0.066938332187647664 0.47032485316705291 0 0.047553728968437417 0.46368211333720227 0 0.067005657427396587 0.44877556632739302 0 0.053070008641861233 0.44481812433083129 0 0.064835304422146064 0.42536331919157683 0 0.067005657427396587 0.44877556632739302 0 0.047553728968437417 0.46368211333720227 0 0.053070008641861233 0.44481812433083129 0 0.048914619943108813 0.41557099950151422 0 0.043579782766585848 0.43198228874004452 0 0.064835304422146064 0.42536331919157683 0 0.053070008641861233 0.44481812433083129 0 0.043579782766585848 0.43198228874004452 0 0.064835304422146064 0.42536331919157683 0 0.048914619943108813 0.41557099950151422 0 0.060687187176165981 0.40612296637659911 0 0.064835304422146064 0.42536331919157683 0 0.048914619943108813 0.41557099950151422 0 0.028161980178613322 0.42175493157019378 0 0.02851113404445341 0.40288666344896518 0 0.048914619943108813 0.41557099950151422 0 0.043579782766585848 0.43198228874004452 0 0.028161980178613322 0.42175493157019378 0 0.02417209797056203 0.44290371147976682 0 0.043579782766585848 0.43198228874004452 0 0.028161980178613322 0.42175493157019378 0 0.02417209797056203 0.44290371147976682 0 0.028161980178613322 0.42175493157019378 0 0.0055561814427249733 0.43119658166542341 0 0.028161980178613322 0.42175493157019378 0 0.0088835680686152642 0.41039702809863449 0 0.02851113404445341 0.40288666344896518 0 0.0088835680686152642 0.41039702809863449 0 0.02851113404445341 0.40288666344896518 0 0.028161980178613322 0.42175493157019378 0 0.0088835680686152642 0.41039702809863449 0 0.0055561814427249733 0.43119658166542341 0 -0.01074399790722287 0.41790739274830391 0 0.0088835680686152642 0.41039702809863449 0 0.0055561814427249733 0.43119658166542341 0 -0.00025536080174594551 0.39434028735229981 0 0.0059516532193365779 0.37750163967520423 0 0.01430839014963655 0.39371135942276808 0 -0.00025536080174594551 0.39434028735229981 0 0.0088835680686152642 0.41039702809863449 0 0.01430839014963655 0.39371135942276808 0 0.0088835680686152642 0.41039702809863449 0 0.01430839014963655 0.39371135942276808 0 0.02851113404445341 0.40288666344896518 0 0.01430839014963655 0.39371135942276808 0 0.02851113404445341 0.40288666344896518 0 0.028450956217523461 0.38343117853873709 0 0.0059516532193365779 0.37750163967520423 0 0.01430839014963655 0.39371135942276808 0 0.028450956217523461 0.38343117853873709 0 0.028450956217523461 0.38343117853873709 0 0.048138700020291518 0.3953762987992957 0 0.047197946359841002 0.37089150591199688 0 0.048914619943108813 0.41557099950151422 0 0.02851113404445341 0.40288666344896518 0 0.048138700020291518 0.3953762987992957 0 0.02851113404445341 0.40288666344896518 0 0.028450956217523461 0.38343117853873709 0 0.048138700020291518 0.3953762987992957 0 0.02851113404445341 0.40288666344896518 0 0.048138700020291518 0.3953762987992957 0 0.048914619943108813 0.41557099950151422 0 0.048138700020291518 0.3953762987992957 0 0.048914619943108813 0.41557099950151422 0 0.060687187176165981 0.40612296637659911 0 0.048138700020291518 0.3953762987992957 0 0.060687187176165981 0.40612296637659911 0 0.048138700020291518 0.3953762987992957 0 0.063259639388404953 0.38959036647126938 0 0.048138700020291518 0.3953762987992957 0 0.063259639388404953 0.38959036647126938 0 0.048138700020291518 0.3953762987992957 0 0.047197946359841002 0.37089150591199688 0 0.063259639388404953 0.38959036647126938 0 0.063486411626754391 0.37213079254401682 0 0.047197946359841002 0.37089150591199688 0 0.048138700020291518 0.3953762987992957 0 0.063259639388404953 0.38959036647126938 0 0.047197946359841002 0.37089150591199688 0 0.063259639388404953 0.38959036647126938 0 0.070843671967852351 0.37835243311385708 0 0.063486411626754391 0.37213079254401682 0 0.063259639388404953 0.38959036647126938 0 0.070843671967852351 0.37835243311385708 0 0.078380578756518229 0.38380443414324261 0 0.063259639388404953 0.38959036647126938 0 0.078380578756518229 0.38380443414324261 0 0.070843671967852351 0.37835243311385708 0 0.078380578756518229 0.38380443414324261 0 0.073043024974957738 0.37033384025495109 0 0.083472873342474621 0.38185589965398692 0 0.078380578756518229 0.38380443414324261 0 0.078481483123568785 0.36109506758339938 0 0.083472873342474621 0.38185589965398692 0 0.092697671255202035 0.38692773915688489 0 0.084131513440594288 0.35835295745944751 0 0.083472873342474621 0.38185589965398692 0 0.078380578756518229 0.38380443414324261 0 0.085121844126460802 0.39232239690393828 0 0.083472873342474621 0.38185589965398692 0 0.078380578756518229 0.38380443414324261 0 0.083472873342474621 0.38185589965398692 0 0.092697671255202035 0.38692773915688489 0 0.085121844126460802 0.39232239690393828 0 0.078380578756518229 0.38380443414324261 0 0.085121844126460802 0.39232239690393828 0 0.078287672106878536 0.40471384791933929 0 0.078380578756518229 0.38380443414324261 0 0.078287672106878536 0.40471384791933929 0 0.087861267211609653 0.40197921444669582 0 0.094107795370053524 0.40855226394938021 0 0.095137803870202042 0.40176760907441622 0 0.087861267211609653 0.40197921444669582 0 0.089857764323049996 0.39572289623013912 0 0.095137803870202042 0.40176760907441622 0 0.087861267211609653 0.40197921444669582 0 0.089857764323049996 0.39572289623013912 0 0.085121844126460802 0.39232239690393828 0 0.092697671255202035 0.38692773915688489 0 0.089857764323049996 0.39572289623013912 0 0.095137803870202042 0.40176760907441622 0 0.092697671255202035 0.38692773915688489 0 0.089857764323049996 0.39572289623013912 0 0.085121844126460802 0.39232239690393828 0 0.087861267211609653 0.40197921444669582 0 0.078287672106878536 0.40471384791933929 0 0.09050550156710227 0.4106851682985605 0 0.087861267211609653 0.40197921444669582 0 0.085121844126460802 0.39232239690393828 0 0.078287672106878536 0.40471384791933929 0 0.060687187176165981 0.40612296637659911 0 0.063259639388404953 0.38959036647126938 0 0.078287672106878536 0.40471384791933929 0 0.063259639388404953 0.38959036647126938 0 0.078380578756518229 0.38380443414324261 0 0.078287672106878536 0.40471384791933929 0 0.060687187176165981 0.40612296637659911 0 0.078287672106878536 0.40471384791933929 0 0.064835304422146064 0.42536331919157683 0 0.078287672106878536 0.40471384791933929 0 0.064835304422146064 0.42536331919157683 0 0.085744395989589176 0.41869358099607379 0 0.067005657427396587 0.44877556632739302 0 0.064835304422146064 0.42536331919157683 0 0.078949154078107597 0.43372858890511429 0 0.064835304422146064 0.42536331919157683 0 0.078949154078107597 0.43372858890511429 0 0.085744395989589176 0.41869358099607379 0 0.085739266060767885 0.44837830628499648 0 0.078949154078107597 0.43372858890511429 0 0.091421146490638205 0.42743217172553138 0 0.078949154078107597 0.43372858890511429 0 0.091421146490638205 0.42743217172553138 0 0.085744395989589176 0.41869358099607379 0 0.078287672106878536 0.40471384791933929 0 0.085744395989589176 0.41869358099607379 0 0.09050550156710227 0.4106851682985605 0 0.085744395989589176 0.41869358099607379 0 0.09050550156710227 0.4106851682985605 0 0.095063784586756211 0.41784921283541843 0 0.091421146490638205 0.42743217172553138 0 0.085744395989589176 0.41869358099607379 0 0.095063784586756211 0.41784921283541843 0 0.09050550156710227 0.4106851682985605 0 0.094107795370053524 0.40855226394938021 0 0.095770575131543523 0.41282680707290598 0 0.087861267211609653 0.40197921444669582 0 0.09050550156710227 0.4106851682985605 0 0.094107795370053524 0.40855226394938021 0 0.094107795370053524 0.40855226394938021 0 0.1012638290698101 0.41550252085432232 0 0.095137803870202042 0.40176760907441622 0 0.094107795370053524 0.40855226394938021 0 0.095770575131543523 0.41282680707290598 0 0.1012638290698101 0.41550252085432232 0 0.09050550156710227 0.4106851682985605 0 0.095770575131543523 0.41282680707290598 0 0.095063784586756211 0.41784921283541843 0 0.095770575131543523 0.41282680707290598 0 0.095063784586756211 0.41784921283541843 0 0.1012638290698101 0.41550252085432232 0 0.095063784586756211 0.41784921283541843 0 0.10177072961731611 0.41719342741952781 0 0.098137327104062547 0.4222451207224564 0 0.095063784586756211 0.41784921283541843 0 0.1012638290698101 0.41550252085432232 0 0.10177072961731611 0.41719342741952781 0 0.1012638290698101 0.41550252085432232 0 0.10177072961731611 0.41719342741952781 0 0.1012638290698101 0.41550252085432232 0 0.10177072961731611 0.41719342741952781 0 0.11507653093421009 0.41413257874393949 0 0.10177072961731611 0.41719342741952781 0 0.1045401999338889 0.42643175940294059 0 0.11507653093421009 0.41413257874393949 0 0.10177072961731611 0.41719342741952781 0 0.1045401999338889 0.42643175940294059 0 0.1012638290698101 0.41550252085432232 0 0.11507653093421009 0.41413257874393949 0 0.10691790288133821 0.40219122757108761 0 0.085739266060767885 0.44837830628499648 0 0.1045401999338889 0.42643175940294059 0 0.11071142651901 0.44701758752934878 0 0.1045401999338889 0.42643175940294059 0 0.085739266060767885 0.44837830628499648 0 0.091421146490638205 0.42743217172553138 0 0.1045401999338889 0.42643175940294059 0 0.091421146490638205 0.42743217172553138 0 0.098137327104062547 0.4222451207224564 0 0.1045401999338889 0.42643175940294059 0 0.10177072961731611 0.41719342741952781 0 0.098137327104062547 0.4222451207224564 0 0.1045401999338889 0.42643175940294059 0 0.091421146490638205 0.42743217172553138 0 0.095063784586756211 0.41784921283541843 0 0.098137327104062547 0.4222451207224564 0 0.11071142651901 0.44701758752934878 0 0.1045401999338889 0.42643175940294059 0 0.1171497585910827 0.42686242603914598 0 0.11071142651901 0.44701758752934878 0 0.1171497585910827 0.42686242603914598 0 0.12789522948134599 0.43317794333639031 0 0.1045401999338889 0.42643175940294059 0 0.1171497585910827 0.42686242603914598 0 0.11507653093421009 0.41413257874393949 0 0.1171497585910827 0.42686242603914598 0 0.11507653093421009 0.41413257874393949 0 0.13132591468938951 0.41739026142957242 0 0.11507653093421009 0.41413257874393949 0 0.12561286193453189 0.40183339808493901 0 0.13132591468938951 0.41739026142957242 0 0.1045401999338889 0.42643175940294059 0 0.11507653093421009 0.41413257874393949 0 0.11507653093421009 0.41413257874393949 0 0.12561286193453189 0.40183339808493901 0 0.11507653093421009 0.41413257874393949 0 0.1159495422425498 0.39796628923931882 0 0.12561286193453189 0.40183339808493901 0 0.11507653093421009 0.41413257874393949 0 0.1159495422425498 0.39796628923931882 0 0.10691790288133821 0.40219122757108761 0 0.1159495422425498 0.39796628923931882 0 0.1122181469735202 0.38910644126041799 0 0.1077247128687827 0.39338956961734028 0 0.1159495422425498 0.39796628923931882 0 0.10691790288133821 0.40219122757108761 0 0.1077247128687827 0.39338956961734028 0 0.1159495422425498 0.39796628923931882 0 0.12407768869467101 0.38689236714029168 0 0.12561286193453189 0.40183339808493901 0 0.1159495422425498 0.39796628923931882 0 0.12407768869467101 0.38689236714029168 0 0.1122181469735202 0.38910644126041799 0 0.12407768869467101 0.38689236714029168 0 0.1119615884502162 0.38015453774002511 0 0.11884912942044849 0.37382695157464002 0 0.1119615884502162 0.38015453774002511 0 0.1122181469735202 0.38910644126041799 0 0.1056383600019923 0.38658946892709839 0 0.12407768869467101 0.38689236714029168 0 0.1119615884502162 0.38015453774002511 0 0.1122181469735202 0.38910644126041799 0 0.097660931620436889 0.39107963170850629 0 0.09405803417106337 0.36665674256269037 0 0.1122181469735202 0.38910644126041799 0 0.1056383600019923 0.38658946892709839 0 0.1077247128687827 0.39338956961734028 0 0.1056383600019923 0.38658946892709839 0 0.097660931620436889 0.39107963170850629 0 0.1077247128687827 0.39338956961734028 0 0.1056383600019923 0.38658946892709839 0 0.10277605887907219 0.37791608936217141 0 0.097660931620436889 0.39107963170850629 0 0.10277605887907219 0.37791608936217141 0 0.097660931620436889 0.39107963170850629 0 0.09405803417106337 0.36665674256269037 0 0.092697671255202035 0.38692773915688489 0 0.097660931620436889 0.39107963170850629 0 0.09405803417106337 0.36665674256269037 0 0.1119615884502162 0.38015453774002511 0 0.1056383600019923 0.38658946892709839 0 0.10277605887907219 0.37791608936217141 0 0.092697671255202035 0.38692773915688489 0 0.1012638290698101 0.41550252085432232 0 0.1012638290698101 0.41550252085432232 0 0.097660931620436889 0.39107963170850629 0 0.092697671255202035 0.38692773915688489 0 0.1012638290698101 0.41550252085432232 0 0.097660931620436889 0.39107963170850629 0 0.1012638290698101 0.41550252085432232 0 0.097660931620436889 0.39107963170850629 0 0.10691790288133821 0.40219122757108761 0 0.092697671255202035 0.38692773915688489 0 0.1012638290698101 0.41550252085432232 0 0.095137803870202042 0.40176760907441622 0 0.097660931620436889 0.39107963170850629 0 0.10691790288133821 0.40219122757108761 0 0.1077247128687827 0.39338956961734028 0 0.10115992650101981 0.35640898852908559 0 0.09405803417106337 0.36665674256269037 0 0.090455136721691726 0.34223385341687418 0 0.10115992650101981 0.35640898852908559 0 0.10821014673159331 0.36659590817553073 0 0.1119163883797307 0.35014944996124753 0 0.10115992650101981 0.35640898852908559 0 0.1119163883797307 0.35014944996124753 0 0.090455136721691726 0.34223385341687418 0 0.1119163883797307 0.35014944996124753 0 0.090455136721691726 0.34223385341687418 0 0.10115992650101981 0.35640898852908559 0 0.09405803417106337 0.36665674256269037 0 0.10821014673159331 0.36659590817553073 0 0.10277605887907219 0.37791608936217141 0 0.09405803417106337 0.36665674256269037 0 0.10821014673159331 0.36659590817553073 0 0.1119615884502162 0.38015453774002511 0 0.10277605887907219 0.37791608936217141 0 0.10821014673159331 0.36659590817553073 0 0.10821014673159331 0.36659590817553073 0 0.1203901265911252 0.36438628633050663 0 0.1119163883797307 0.35014944996124753 0 0.1119615884502162 0.38015453774002511 0 0.10821014673159331 0.36659590817553073 0 0.11884912942044849 0.37382695157464002 0 0.10821014673159331 0.36659590817553073 0 0.11884912942044849 0.37382695157464002 0 0.1203901265911252 0.36438628633050663 0 0.11884912942044849 0.37382695157464002 0 0.1203901265911252 0.36438628633050663 0 0.13213175932593271 0.37178039514916911 0 0.1203901265911252 0.36438628633050663 0 0.1119163883797307 0.35014944996124753 0 0.13337764003776831 0.3580650465056246 0 0.1119163883797307 0.35014944996124753 0 0.1256920866042899 0.34251564869676271 0 0.13337764003776831 0.3580650465056246 0 0.1119163883797307 0.35014944996124753 0 0.13337764003776831 0.3580650465056246 0 0.1173671048226248 0.33056600300193428 0 0.12741391563497381 0.32002271383783337 0 0.1256920866042899 0.34251564869676271 0 0.1119163883797307 0.35014944996124753 0 0.1173671048226248 0.33056600300193428 0 0.1044605452603407 0.33731285961536578 0 0.1119163883797307 0.35014944996124753 0 0.1173671048226248 0.33056600300193428 0 0.1256920866042899 0.34251564869676271 0 0.1173671048226248 0.33056600300193428 0 0.10674916186436779 0.3163143980996197 0 0.1044605452603407 0.33731285961536578 0 0.1173671048226248 0.33056600300193428 0 0.10674916186436779 0.3163143980996197 0 0.12741391563497381 0.32002271383783337 0 0.10674916186436779 0.3163143980996197 0 0.1105721151690315 0.30980472297890638 0 0.12741391563497381 0.32002271383783337 0 0.10674916186436779 0.3163143980996197 0 0.12741391563497381 0.32002271383783337 0 0.10674916186436779 0.3163143980996197 0 0.086084408093761555 0.31260608236140652 0 0.10674916186436779 0.3163143980996197 0 0.096937312985040436 0.32711679837331642 0 0.086084408093761555 0.31260608236140652 0 0.10674916186436779 0.3163143980996197 0 0.096937312985040436 0.32711679837331642 0 0.1044605452603407 0.33731285961536578 0 0.1119163883797307 0.35014944996124753 0 0.1044605452603407 0.33731285961536578 0 0.090455136721691726 0.34223385341687418 0 0.096937312985040436 0.32711679837331642 0 0.1044605452603407 0.33731285961536578 0 0.090455136721691726 0.34223385341687418 0 0.090455136721691726 0.34223385341687418 0 0.07988033541331907 0.33277885779210759 0 0.080290599376475716 0.32703838365553889 0 0.07988033541331907 0.33277885779210759 0 0.078582387490620242 0.33838570102355608 0 0.080290599376475716 0.32703838365553889 0 0.07988033541331907 0.33277885779210759 0 0.080362161322564768 0.3362814544627668 0 0.078582387490620242 0.33838570102355608 0 0.090455136721691726 0.34223385341687418 0 0.080367737099058104 0.33851329755801512 0 0.083159697803560667 0.34192650591117002 0 0.090455136721691726 0.34223385341687418 0 0.07988033541331907 0.33277885779210759 0 0.080362161322564768 0.3362814544627668 0 0.090455136721691726 0.34223385341687418 0 0.080362161322564768 0.3362814544627668 0 0.080367737099058104 0.33851329755801512 0 0.090455136721691726 0.34223385341687418 0 0.080367737099058104 0.33851329755801512 0 0.080362161322564768 0.3362814544627668 0 0.080367737099058104 0.33851329755801512 0 0.078582387490620242 0.33838570102355608 0 0.080367737099058104 0.33851329755801512 0 0.078582387490620242 0.33838570102355608 0 0.083159697803560667 0.34192650591117002 0 0.078582387490620242 0.33838570102355608 0 0.083159697803560667 0.34192650591117002 0 0.083233529902872611 0.34857317164623453 0 0.078582387490620242 0.33838570102355608 0 0.0786832918576717 0.31567633446371279 0 0.090455136721691726 0.34223385341687418 0 0.086084408093761555 0.31260608236140652 0 0.080290599376475716 0.32703838365553889 0 0.078582387490620242 0.33838570102355608 0 0.080290599376475716 0.32703838365553889 0 0.0786832918576717 0.31567633446371279 0 0.096937312985040436 0.32711679837331642 0 0.090455136721691726 0.34223385341687418 0 0.086084408093761555 0.31260608236140652 0 0.090455136721691726 0.34223385341687418 0 0.086084408093761555 0.31260608236140652 0 0.086084408093761555 0.31260608236140652 0 0.080290599376475716 0.32703838365553889 0 0.0786832918576717 0.31567633446371279 0 0.0786832918576717 0.31567633446371279 0 0.077147595410259007 0.31101338740639489 0 0.081731523109617316 0.31182495174293751 0 0.086084408093761555 0.31260608236140652 0 0.0786832918576717 0.31567633446371279 0 0.081731523109617316 0.31182495174293751 0 0.078582387490620242 0.33838570102355608 0 0.0786832918576717 0.31567633446371279 0 0.071467100740789505 0.32635498438967547 0 0.0786832918576717 0.31567633446371279 0 0.07088071239580912 0.31647625999879819 0 0.071467100740789505 0.32635498438967547 0 0.0786832918576717 0.31567633446371279 0 0.07088071239580912 0.31647625999879819 0 0.077147595410259007 0.31101338740639489 0 0.071467100740789505 0.32635498438967547 0 0.063241972521503848 0.32333235882965572 0 0.061504892423025738 0.33287929485052431 0 0.07088071239580912 0.31647625999879819 0 0.071467100740789505 0.32635498438967547 0 0.063241972521503848 0.32333235882965572 0 0.07088071239580912 0.31647625999879819 0 0.063241972521503848 0.32333235882965572 0 0.06181697962491671 0.31398711575055688 0 0.07088071239580912 0.31647625999879819 0 0.06181697962491671 0.31398711575055688 0 0.072429703273885968 0.30759486925288909 0 0.066718419121964856 0.34503463222559061 0 0.077693345807112763 0.3438366695636485 0 0.061504892423025738 0.33287929485052431 0 0.078582387490620242 0.33838570102355608 0 0.077693345807112763 0.3438366695636485 0 0.061504892423025738 0.33287929485052431 0 0.077693345807112763 0.3438366695636485 0 0.061504892423025738 0.33287929485052431 0 0.078582387490620242 0.33838570102355608 0 0.071467100740789505 0.32635498438967547 0 0.061504892423025738 0.33287929485052431 0 0.066718419121964856 0.34503463222559061 0 0.070775371881279178 0.35315461469278597 0 0.062125447662813339 0.35398506721087569 0 0.070775371881279178 0.35315461469278597 0 0.077693345807112763 0.3438366695636485 0 0.078481483123568785 0.36109506758339938 0 0.070775371881279178 0.35315461469278597 0 0.067785820987093043 0.36217982932232018 0 0.062125447662813339 0.35398506721087569 0 0.070775371881279178 0.35315461469278597 0 0.078481483123568785 0.36109506758339938 0 0.067785820987093043 0.36217982932232018 0 0.066718419121964856 0.34503463222559061 0 0.070775371881279178 0.35315461469278597 0 0.077693345807112763 0.3438366695636485 0 0.078582387490620242 0.33838570102355608 0 0.078481483123568785 0.36109506758339938 0 0.090455136721691726 0.34223385341687418 0 0.083233529902872611 0.34857317164623453 0 0.084131513440594288 0.35835295745944751 0 0.078582387490620242 0.33838570102355608 0 0.083233529902872611 0.34857317164623453 0 0.078481483123568785 0.36109506758339938 0 0.078582387490620242 0.33838570102355608 0 0.077693345807112763 0.3438366695636485 0 0.078481483123568785 0.36109506758339938 0 0.09405803417106337 0.36665674256269037 0 0.090455136721691726 0.34223385341687418 0 0.084131513440594288 0.35835295745944751 0 0.09405803417106337 0.36665674256269037 0 0.090455136721691726 0.34223385341687418 0 0.090455136721691726 0.34223385341687418 0 0.083159697803560667 0.34192650591117002 0 0.083233529902872611 0.34857317164623453 0 0.083233529902872611 0.34857317164623453 0 0.084131513440594288 0.35835295745944751 0 0.078481483123568785 0.36109506758339938 0 0.078380578756518229 0.38380443414324261 0 0.078481483123568785 0.36109506758339938 0 0.083472873342474621 0.38185589965398692 0 0.084131513440594288 0.35835295745944751 0 0.078481483123568785 0.36109506758339938 0 0.092697671255202035 0.38692773915688489 0 0.084131513440594288 0.35835295745944751 0 0.092697671255202035 0.38692773915688489 0 0.09405803417106337 0.36665674256269037 0 0.084131513440594288 0.35835295745944751 0 0.078380578756518229 0.38380443414324261 0 0.078481483123568785 0.36109506758339938 0 0.073043024974957738 0.37033384025495109 0 0.078481483123568785 0.36109506758339938 0 0.073043024974957738 0.37033384025495109 0 0.067785820987093043 0.36217982932232018 0 0.067785820987093043 0.36217982932232018 0 0.063486411626754391 0.37213079254401682 0 0.056616389884028617 0.36240107359327878 0 0.073043024974957738 0.37033384025495109 0 0.067785820987093043 0.36217982932232018 0 0.063486411626754391 0.37213079254401682 0 0.070843671967852351 0.37835243311385708 0 0.073043024974957738 0.37033384025495109 0 0.063486411626754391 0.37213079254401682 0 0.063486411626754391 0.37213079254401682 0 0.047197946359841002 0.37089150591199688 0 0.056616389884028617 0.36240107359327878 0 0.047197946359841002 0.37089150591199688 0 0.056616389884028617 0.36240107359327878 0 0.04625719269939059 0.34640671302469822 0 0.067785820987093043 0.36217982932232018 0 0.056616389884028617 0.36240107359327878 0 0.062125447662813339 0.35398506721087569 0 0.056616389884028617 0.36240107359327878 0 0.062125447662813339 0.35398506721087569 0 0.04625719269939059 0.34640671302469822 0 0.066718419121964856 0.34503463222559061 0 0.062125447662813339 0.35398506721087569 0 0.04625719269939059 0.34640671302469822 0 0.04625719269939059 0.34640671302469822 0 0.026848049143575178 0.35941291954659682 0 0.030652084020891059 0.33434147653675877 0 0.047197946359841002 0.37089150591199688 0 0.04625719269939059 0.34640671302469822 0 0.047197946359841002 0.37089150591199688 0 0.04625719269939059 0.34640671302469822 0 0.026848049143575178 0.35941291954659682 0 0.028450956217523461 0.38343117853873709 0 0.047197946359841002 0.37089150591199688 0 0.026848049143575178 0.35941291954659682 0 0.0059516532193365779 0.37750163967520423 0 0.028450956217523461 0.38343117853873709 0 0.026848049143575178 0.35941291954659682 0 0.026848049143575178 0.35941291954659682 0 0.01303289007954281 0.34057100770899351 0 0.030652084020891059 0.33434147653675877 0 0.026848049143575178 0.35941291954659682 0 0.0021689880820419658 0.35400789128812599 0 0.01303289007954281 0.34057100770899351 0 0.0059516532193365779 0.37750163967520423 0 0.026848049143575178 0.35941291954659682 0 0.0021689880820419658 0.35400789128812599 0 -0.0010712282531860321 0.33265491181379869 0 0.01453476766171409 0.32041535095296719 0 0.00063858043389025947 0.30889601004366218 0 -0.0010712282531860321 0.33265491181379869 0 0.01453476766171409 0.32041535095296719 0 0.01303289007954281 0.34057100770899351 0 -0.0010712282531860321 0.33265491181379869 0 0.0021689880820419658 0.35400789128812599 0 0.01303289007954281 0.34057100770899351 0 0.01453476766171409 0.32041535095296719 0 0.01303289007954281 0.34057100770899351 0 0.030652084020891059 0.33434147653675877 0 0.01453476766171409 0.32041535095296719 0 0.030652084020891059 0.33434147653675877 0 0.028848924856077061 0.31077565932951617 0 0.030652084020891059 0.33434147653675877 0 0.045316439038939088 0.32192192013739951 0 0.028848924856077061 0.31077565932951617 0 0.045316439038939088 0.32192192013739951 0 0.028848924856077061 0.31077565932951617 0 0.04625719269939059 0.34640671302469822 0 0.030652084020891059 0.33434147653675877 0 0.045316439038939088 0.32192192013739951 0 0.04625719269939059 0.34640671302469822 0 0.045316439038939088 0.32192192013739951 0 0.066718419121964856 0.34503463222559061 0 0.04625719269939059 0.34640671302469822 0 0.061504892423025738 0.33287929485052431 0 0.04625719269939059 0.34640671302469822 0 0.045316439038939088 0.32192192013739951 0 0.061504892423025738 0.33287929485052431 0 0.045316439038939088 0.32192192013739951 0 0.061504892423025738 0.33287929485052431 0 0.063241972521503848 0.32333235882965572 0 0.045316439038939088 0.32192192013739951 0 0.06181697962491671 0.31398711575055688 0 0.063241972521503848 0.32333235882965572 0 0.045316439038939088 0.32192192013739951 0 0.061504892423025738 0.33287929485052431 0 0.045316439038939088 0.32192192013739951 0 0.06181697962491671 0.31398711575055688 0 0.052970925958725483 0.30839529647623792 0 0.052970925958725483 0.30839529647623792 0 0.055719835357343102 0.2915880243671527 0 0.04439649554513201 0.29797874897490151 0 0.045316439038939088 0.32192192013739951 0 0.052970925958725483 0.30839529647623792 0 0.04439649554513201 0.29797874897490151 0 0.06181697962491671 0.31398711575055688 0 0.052970925958725483 0.30839529647623792 0 0.064336457162794125 0.30247747533929881 0 0.052970925958725483 0.30839529647623792 0 0.055719835357343102 0.2915880243671527 0 0.064336457162794125 0.30247747533929881 0 0.055719835357343102 0.2915880243671527 0 0.04439649554513201 0.29797874897490151 0 0.043476552051323863 0.27403557781240362 0 0.055719835357343102 0.2915880243671527 0 0.043476552051323863 0.27403557781240362 0 0.06184374572686395 0.27983369158210741 0 0.032639716196871248 0.28641159728851429 0 0.04439649554513201 0.29797874897490151 0 0.026242287755337629 0.29561541526569668 0 0.032639716196871248 0.28641159728851429 0 0.04439649554513201 0.29797874897490151 0 0.043476552051323863 0.27403557781240362 0 0.04439649554513201 0.29797874897490151 0 0.043476552051323863 0.27403557781240362 0 0.045316439038939088 0.32192192013739951 0 0.04439649554513201 0.29797874897490151 0 0.045316439038939088 0.32192192013739951 0 0.04439649554513201 0.29797874897490151 0 0.028848924856077061 0.31077565932951617 0 0.04439649554513201 0.29797874897490151 0 0.028848924856077061 0.31077565932951617 0 0.026242287755337629 0.29561541526569668 0 0.01453476766171409 0.32041535095296719 0 0.028848924856077061 0.31077565932951617 0 0.01238141067321537 0.29962939852163228 0 0.028848924856077061 0.31077565932951617 0 0.026242287755337629 0.29561541526569668 0 0.01238141067321537 0.29962939852163228 0 0.028848924856077061 0.31077565932951617 0 0.01238141067321537 0.29962939852163228 0 0.032639716196871248 0.28641159728851429 0 0.026242287755337629 0.29561541526569668 0 0.022074996578698929 0.28584750372040552 0 0.032639716196871248 0.28641159728851429 0 0.022074996578698929 0.28584750372040552 0 0.027008249053863849 0.27858074066916422 0 0.022074996578698929 0.28584750372040552 0 0.015598917168551709 0.29201166219253533 0 0.011995067733708909 0.28458851600957008 0 0.022074996578698929 0.28584750372040552 0 0.011995067733708909 0.28458851600957008 0 0.016695708819783019 0.27651237518450411 0 0.026242287755337629 0.29561541526569668 0 0.015598917168551709 0.29201166219253533 0 0.01238141067321537 0.29962939852163228 0 0.026242287755337629 0.29561541526569668 0 0.022074996578698929 0.28584750372040552 0 0.015598917168551709 0.29201166219253533 0 0.015598917168551709 0.29201166219253533 0 0.0015017021651314161 0.29269047519856761 0 0.01238141067321537 0.29962939852163228 0 0.015598917168551709 0.29201166219253533 0 0.011995067733708909 0.28458851600957008 0 0.0015017021651314161 0.29269047519856761 0 0.011995067733708909 0.28458851600957008 0 0.0015017021651314161 0.29269047519856761 0 0.0010152339694203781 0.28094894566321948 0 0.01453476766171409 0.32041535095296719 0 0.00063858043389025947 0.30889601004366218 0 0.01238141067321537 0.29962939852163228 0 0.0015017021651314161 0.29269047519856761 0 0.00063858043389025947 0.30889601004366218 0 0.01238141067321537 0.29962939852163228 0 0.012338829365104239 0.2481479793477685 0 0.0092611877049691687 0.25839667167819108 0 0.02013689632322669 0.25624886031097532 0 -0.0040916167912371194 0.26036385346038171 0 -3.775473568293317e-05 0.2467409491748972 0 0.0092611877049691687 0.25839667167819108 0 -3.775473568293317e-05 0.2467409491748972 0 0.012338829365104239 0.2481479793477685 0 0.0092611877049691687 0.25839667167819108 0 -0.0040916167912371194 0.26036385346038171 0 0.0092611877049691687 0.25839667167819108 0 0.0021533270504053049 0.27027379506238802 0 0.0092611877049691687 0.25839667167819108 0 0.0021533270504053049 0.27027379506238802 0 0.025067445017998839 0.26860459271273651 0 0.0021533270504053049 0.27027379506238802 0 0.025067445017998839 0.26860459271273651 0 0.0021533270504053049 0.27027379506238802 0 0.016695708819783019 0.27651237518450411 0 0.025067445017998839 0.26860459271273651 0 0.011995067733708909 0.28458851600957008 0 0.0010152339694203781 0.28094894566321948 0 0.0079648343933294025 0.27808090797992041 0 0.0021533270504053049 0.27027379506238802 0 0.0010152339694203781 0.28094894566321948 0 0.0079648343933294025 0.27808090797992041 0 0.011995067733708909 0.28458851600957008 0 0.0079648343933294025 0.27808090797992041 0 0.016695708819783019 0.27651237518450411 0 0.0021533270504053049 0.27027379506238802 0 0.0079648343933294025 0.27808090797992041 0 0.016695708819783019 0.27651237518450411 0 0.027008249053863849 0.27858074066916422 0 0.031153629197742332 0.25799193922294372 0 0.027008249053863849 0.27858074066916422 0 0.025067445017998839 0.26860459271273651 0 0.031153629197742332 0.25799193922294372 0 0.022074996578698929 0.28584750372040552 0 0.016695708819783019 0.27651237518450411 0 0.027008249053863849 0.27858074066916422 0 0.016695708819783019 0.27651237518450411 0 0.027008249053863849 0.27858074066916422 0 0.025067445017998839 0.26860459271273651 0 0.025067445017998839 0.26860459271273651 0 0.031153629197742332 0.25799193922294372 0 0.02013689632322669 0.25624886031097532 0 0.0092611877049691687 0.25839667167819108 0 0.025067445017998839 0.26860459271273651 0 0.02013689632322669 0.25624886031097532 0 0.02405572794581012 0.24585111789682271 0 0.012338829365104239 0.2481479793477685 0 0.02013689632322669 0.25624886031097532 0 0.02405572794581012 0.24585111789682271 0 0.031153629197742332 0.25799193922294372 0 0.02013689632322669 0.25624886031097532 0 0.042556608557515703 0.25009240664990567 0 0.043476552051323863 0.27403557781240362 0 0.053420925226927908 0.27040368831481748 0 0.031153629197742332 0.25799193922294372 0 0.042556608557515703 0.25009240664990567 0 0.043476552051323863 0.27403557781240362 0 0.042556608557515703 0.25009240664990567 0 0.043476552051323863 0.27403557781240362 0 0.027008249053863849 0.27858074066916422 0 0.031153629197742332 0.25799193922294372 0 0.043476552051323863 0.27403557781240362 0 0.032639716196871248 0.28641159728851429 0 0.027008249053863849 0.27858074066916422 0 0.043476552051323863 0.27403557781240362 0 0.043476552051323863 0.27403557781240362 0 0.053420925226927908 0.27040368831481748 0 0.06184374572686395 0.27983369158210741 0 0.053420925226927908 0.27040368831481748 0 0.06184374572686395 0.27983369158210741 0 0.064493895390671102 0.27001547806386322 0 0.053420925226927908 0.27040368831481748 0 0.059065847454292789 0.26144734797819791 0 0.064493895390671102 0.27001547806386322 0 0.042556608557515703 0.25009240664990567 0 0.053420925226927908 0.27040368831481748 0 0.059065847454292789 0.26144734797819791 0 0.042556608557515703 0.25009240664990567 0 0.059065847454292789 0.26144734797819791 0 0.05667878986757971 0.25018030947401371 0 0.059065847454292789 0.26144734797819791 0 0.05667878986757971 0.25018030947401371 0 0.067149280220290958 0.25412742749873302 0 0.077125091620026759 0.25187374231150528 0 0.080986473939201137 0.27804881769346129 0 0.07316390065120193 0.26607552357574438 0 0.066822820925741808 0.26199797082841031 0 0.070730361982787787 0.25819000769776113 0 0.07316390065120193 0.26607552357574438 0 0.067149280220290958 0.25412742749873302 0 0.066822820925741808 0.26199797082841031 0 0.070730361982787787 0.25819000769776113 0 0.059065847454292789 0.26144734797819791 0 0.067149280220290958 0.25412742749873302 0 0.066822820925741808 0.26199797082841031 0 0.059065847454292789 0.26144734797819791 0 0.066822820925741808 0.26199797082841031 0 0.064493895390671102 0.27001547806386322 0 0.070730361982787787 0.25819000769776113 0 0.077125091620026759 0.25187374231150528 0 0.07316390065120193 0.26607552357574438 0 0.067149280220290958 0.25412742749873302 0 0.070730361982787787 0.25819000769776113 0 0.077125091620026759 0.25187374231150528 0 0.083133859472317204 0.24255170063850831 0 0.077125091620026759 0.25187374231150528 0 0.083728599025861994 0.26310564504235517 0 0.077125091620026759 0.25187374231150528 0 0.083728599025861994 0.26310564504235517 0 0.080986473939201137 0.27804881769346129 0 0.083133859472317204 0.24255170063850831 0 0.083728599025861994 0.26310564504235517 0 0.083133859472317204 0.24255170063850831 0 0.083728599025861994 0.26310564504235517 0 0.096045470654293696 0.25626432982488823 0 0.077125091620026759 0.25187374231150528 0 0.080986473939201137 0.27804881769346129 0 0.083728599025861994 0.26310564504235517 0 0.096045470654293696 0.25626432982488823 0 0.1007821304514781 0.27292021633902708 0 0.083728599025861994 0.26310564504235517 0 0.080986473939201137 0.27804881769346129 0 0.084323338579406729 0.28365958944620218 0 0.083728599025861994 0.26310564504235517 0 0.084323338579406729 0.28365958944620218 0 0.1007821304514781 0.27292021633902708 0 0.083728599025861994 0.26310564504235517 0 0.084323338579406729 0.28365958944620218 0 0.080986473939201137 0.27804881769346129 0 0.07316390065120193 0.26607552357574438 0 0.064493895390671102 0.27001547806386322 0 0.06184374572686395 0.27983369158210741 0 0.080986473939201137 0.27804881769346129 0 0.064493895390671102 0.27001547806386322 0 0.066822820925741808 0.26199797082841031 0 0.07316390065120193 0.26607552357574438 0 0.064493895390671102 0.27001547806386322 0 0.055719835357343102 0.2915880243671527 0 0.06184374572686395 0.27983369158210741 0 0.070027345286410622 0.29396112855172107 0 0.06184374572686395 0.27983369158210741 0 0.080986473939201137 0.27804881769346129 0 0.070027345286410622 0.29396112855172107 0 0.055719835357343102 0.2915880243671527 0 0.070027345286410622 0.29396112855172107 0 0.064336457162794125 0.30247747533929881 0 0.06181697962491671 0.31398711575055688 0 0.064336457162794125 0.30247747533929881 0 0.072429703273885968 0.30759486925288909 0 0.070027345286410622 0.29396112855172107 0 0.064336457162794125 0.30247747533929881 0 0.072429703273885968 0.30759486925288909 0 0.070027345286410622 0.29396112855172107 0 0.072429703273885968 0.30759486925288909 0 0.084918078132951449 0.30421353385004918 0 0.07088071239580912 0.31647625999879819 0 0.072429703273885968 0.30759486925288909 0 0.077147595410259007 0.31101338740639489 0 0.072429703273885968 0.30759486925288909 0 0.077147595410259007 0.31101338740639489 0 0.084918078132951449 0.30421353385004918 0 0.086084408093761555 0.31260608236140652 0 0.084918078132951449 0.30421353385004918 0 0.086084408093761555 0.31260608236140652 0 0.081731523109617316 0.31182495174293751 0 0.084918078132951449 0.30421353385004918 0 0.086084408093761555 0.31260608236140652 0 0.081731523109617316 0.31182495174293751 0 0.077147595410259007 0.31101338740639489 0 0.081731523109617316 0.31182495174293751 0 0.084918078132951449 0.30421353385004918 0 0.084918078132951449 0.30421353385004918 0 0.095105181215200868 0.2926268365225082 0 0.094985173745030183 0.3038342597560944 0 0.086084408093761555 0.31260608236140652 0 0.084918078132951449 0.30421353385004918 0 0.094985173745030183 0.3038342597560944 0 0.084323338579406729 0.28365958944620218 0 0.095105181215200868 0.2926268365225082 0 0.1007821304514781 0.27292021633902708 0 0.084918078132951449 0.30421353385004918 0 0.084323338579406729 0.28365958944620218 0 0.095105181215200868 0.2926268365225082 0 0.080986473939201137 0.27804881769346129 0 0.070027345286410622 0.29396112855172107 0 0.084918078132951449 0.30421353385004918 0 0.084918078132951449 0.30421353385004918 0 0.084323338579406729 0.28365958944620218 0 0.080986473939201137 0.27804881769346129 0 0.084918078132951449 0.30421353385004918 0 0.084323338579406729 0.28365958944620218 0 0.080986473939201137 0.27804881769346129 0 0.084918078132951449 0.30421353385004918 0 0.095105181215200868 0.2926268365225082 0 0.10756335221463489 0.28657643108333303 0 0.1007821304514781 0.27292021633902708 0 0.095105181215200868 0.2926268365225082 0 0.10756335221463489 0.28657643108333303 0 0.1065697316274315 0.29851414348642191 0 0.10674916186436779 0.3163143980996197 0 0.086084408093761555 0.31260608236140652 0 0.1009921180999245 0.30821472133648969 0 0.086084408093761555 0.31260608236140652 0 0.1009921180999245 0.30821472133648969 0 0.094985173745030183 0.3038342597560944 0 0.095105181215200868 0.2926268365225082 0 0.094985173745030183 0.3038342597560944 0 0.1065697316274315 0.29851414348642191 0 0.1009921180999245 0.30821472133648969 0 0.094985173745030183 0.3038342597560944 0 0.1065697316274315 0.29851414348642191 0 0.1009921180999245 0.30821472133648969 0 0.1065697316274315 0.29851414348642191 0 0.1105721151690315 0.30980472297890638 0 0.10674916186436779 0.3163143980996197 0 0.1009921180999245 0.30821472133648969 0 0.1105721151690315 0.30980472297890638 0 0.1105721151690315 0.30980472297890638 0 0.12930782384660411 0.29528184045614159 0 0.1065697316274315 0.29851414348642191 0 0.1105721151690315 0.30980472297890638 0 0.12930782384660411 0.29528184045614159 0 0.1105721151690315 0.30980472297890638 0 0.12930782384660411 0.29528184045614159 0 0.12741391563497381 0.32002271383783337 0 0.10756335221463489 0.28657643108333303 0 0.1065697316274315 0.29851414348642191 0 0.12930782384660411 0.29528184045614159 0 0.10756335221463489 0.28657643108333303 0 0.117770879401265 0.27839740707235361 0 0.12930782384660411 0.29528184045614159 0 0.117770879401265 0.27839740707235361 0 0.1155086949762909 0.2656988614985234 0 0.13073397327169731 0.27665148544057211 0 0.117770879401265 0.27839740707235361 0 0.1155086949762909 0.2656988614985234 0 0.1007821304514781 0.27292021633902708 0 0.1193790001008955 0.24900223717342401 0 0.1155086949762909 0.2656988614985234 0 0.1080891379227769 0.25627107200771992 0 0.1193790001008955 0.24900223717342401 0 0.1155086949762909 0.2656988614985234 0 0.13216012269679051 0.25802113042500258 0 0.1155086949762909 0.2656988614985234 0 0.1080891379227769 0.25627107200771992 0 0.1007821304514781 0.27292021633902708 0 0.10873039343092621 0.23746971520273691 0 0.1080891379227769 0.25627107200771992 0 0.096045470654293696 0.25626432982488823 0 0.1080891379227769 0.25627107200771992 0 0.096045470654293696 0.25626432982488823 0 0.1007821304514781 0.27292021633902708 0 0.10756335221463489 0.28657643108333303 0 0.117770879401265 0.27839740707235361 0 0.1007821304514781 0.27292021633902708 0 0.14583556172990761 0.28247045446711888 0 0.15865485032923821 0.28654324289694411 0 0.16404390969847329 0.27313189047886682 0 0.14583556172990761 0.28247045446711888 0 0.16236329961321089 0.2696590684780964 0 0.14483428961603551 0.26615573135251203 0 0.14583556172990761 0.28247045446711888 0 0.16236329961321089 0.2696590684780964 0 0.14997559948457481 0.24406105623068311 0 0.14483428961603551 0.26615573135251203 0 0.16236329961321089 0.2696590684780964 0 0.14997559948457481 0.24406105623068311 0 0.14483428961603551 0.26615573135251203 0 0.13216012269679051 0.25802113042500258 0 0.14997559948457481 0.24406105623068311 0 0.16236329961321089 0.2696590684780964 0 0.1193790001008955 0.24900223717342401 0 0.13206607158972661 0.24372007015438901 0 0.13216012269679051 0.25802113042500258 0 0.13216012269679051 0.25802113042500258 0 0.13073397327169731 0.27665148544057211 0 0.14483428961603551 0.26615573135251203 0 0.13216012269679051 0.25802113042500258 0 0.13073397327169731 0.27665148544057211 0 0.14483428961603551 0.26615573135251203 0 0.13073397327169731 0.27665148544057211 0 0.14583556172990761 0.28247045446711888 0 0.1155086949762909 0.2656988614985234 0 0.13216012269679051 0.25802113042500258 0 0.13073397327169731 0.27665148544057211 0 0.117770879401265 0.27839740707235361 0 0.13073397327169731 0.27665148544057211 0 0.12930782384660411 0.29528184045614159 0 0.12930782384660411 0.29528184045614159 0 0.14583556172990761 0.28247045446711888 0 0.13073397327169731 0.27665148544057211 0 0.12930782384660411 0.29528184045614159 0 0.14583556172990761 0.28247045446711888 0 0.13073397327169731 0.27665148544057211 0 0.12930782384660411 0.29528184045614159 0 0.12930782384660411 0.29528184045614159 0 0.140370013534098 0.30908417227646667 0 0.12741391563497381 0.32002271383783337 0 0.12930782384660411 0.29528184045614159 0 0.12741391563497381 0.32002271383783337 0 0.12930782384660411 0.29528184045614159 0 0.140370013534098 0.30908417227646667 0 0.14854461542703359 0.29662529254704201 0 0.140370013534098 0.30908417227646667 0 0.15422236719089971 0.31020951838819089 0 0.14854461542703359 0.29662529254704201 0 0.15422236719089971 0.31020951838819089 0 0.14854461542703359 0.29662529254704201 0 0.16157504223667629 0.29816589297139617 0 0.12930782384660411 0.29528184045614159 0 0.14583556172990761 0.28247045446711888 0 0.14854461542703359 0.29662529254704201 0 0.14583556172990761 0.28247045446711888 0 0.14854461542703359 0.29662529254704201 0 0.15865485032923821 0.28654324289694411 0 0.14854461542703359 0.29662529254704201 0 0.15865485032923821 0.28654324289694411 0 0.16157504223667629 0.29816589297139617 0 0.15865485032923821 0.28654324289694411 0 0.16881214453546331 0.2895224807503155 0 0.16157504223667629 0.29816589297139617 0 0.16881214453546331 0.2895224807503155 0 0.16157504223667629 0.29816589297139617 0 0.17143620814693519 0.29768664851378002 0 0.16881214453546331 0.2895224807503155 0 0.16769064252105509 0.28167377912325842 0 0.17535447254675771 0.28339054081677062 0 0.15865485032923821 0.28654324289694411 0 0.16881214453546331 0.2895224807503155 0 0.16769064252105509 0.28167377912325842 0 0.15422236719089971 0.31020951838819089 0 0.16157504223667629 0.29816589297139617 0 0.16778006779048779 0.30840817473210519 0 0.16157504223667629 0.29816589297139617 0 0.17143620814693519 0.29768664851378002 0 0.16778006779048779 0.30840817473210519 0 0.1804058488342363 0.30279437215867161 0 0.19462100422775691 0.30868936767670119 0 0.17861207632172321 0.31465214258411112 0 0.16778006779048779 0.30840817473210519 0 0.1804058488342363 0.30279437215867161 0 0.17861207632172321 0.31465214258411112 0 0.17143620814693519 0.29768664851378002 0 0.16778006779048779 0.30840817473210519 0 0.1804058488342363 0.30279437215867161 0 0.17143620814693519 0.29768664851378002 0 0.1804058488342363 0.30279437215867161 0 0.1778426960504125 0.29190898872561161 0 0.16881214453546331 0.2895224807503155 0 0.17535447254675771 0.28339054081677062 0 0.1778426960504125 0.29190898872561161 0 0.17535447254675771 0.28339054081677062 0 0.1778426960504125 0.29190898872561161 0 0.18231901749888621 0.2865587807750461 0 0.16881214453546331 0.2895224807503155 0 0.17143620814693519 0.29768664851378002 0 0.1778426960504125 0.29190898872561161 0 0.1804058488342363 0.30279437215867161 0 0.1778426960504125 0.29190898872561161 0 0.18811389217676691 0.2931074538075521 0 0.1778426960504125 0.29190898872561161 0 0.18231901749888621 0.2865587807750461 0 0.18811389217676691 0.2931074538075521 0 0.18231901749888621 0.2865587807750461 0 0.18796500922160769 0.27782813975025011 0 0.18811389217676691 0.2931074538075521 0 0.17535447254675771 0.28339054081677062 0 0.18231901749888621 0.2865587807750461 0 0.18796500922160769 0.27782813975025011 0 0.17112961164703941 0.26286390945763249 0 0.18796500922160769 0.27782813975025011 0 0.17323672912698659 0.27577765192535569 0 0.17112961164703941 0.26286390945763249 0 0.18796500922160769 0.27782813975025011 0 0.18331796055464911 0.26652065492057758 0 0.17112961164703941 0.26286390945763249 0 0.18796500922160769 0.27782813975025011 0 0.17535447254675771 0.28339054081677062 0 0.17323672912698659 0.27577765192535569 0 0.18796500922160769 0.27782813975025011 0 0.16769064252105509 0.28167377912325842 0 0.17535447254675771 0.28339054081677062 0 0.17323672912698659 0.27577765192535569 0 0.16769064252105509 0.28167377912325842 0 0.17323672912698659 0.27577765192535569 0 0.16404390969847329 0.27313189047886682 0 0.14583556172990761 0.28247045446711888 0 0.16404390969847329 0.27313189047886682 0 0.16236329961321089 0.2696590684780964 0 0.16236329961321089 0.2696590684780964 0 0.17112961164703941 0.26286390945763249 0 0.16404390969847329 0.27313189047886682 0 0.16236329961321089 0.2696590684780964 0 0.17112961164703941 0.26286390945763249 0 0.17323672912698659 0.27577765192535569 0 0.16404390969847329 0.27313189047886682 0 0.17112961164703941 0.26286390945763249 0 0.16404390969847329 0.27313189047886682 0 0.16236329961321089 0.2696590684780964 0 0.15865485032923821 0.28654324289694411 0 0.16769064252105509 0.28167377912325842 0 0.16404390969847329 0.27313189047886682 0 0.14997559948457481 0.24406105623068311 0 0.16236329961321089 0.2696590684780964 0 0.17112961164703941 0.26286390945763249 0 0.14997559948457481 0.24406105623068311 0 0.1649960966936283 0.24570944633742789 0 0.17112961164703941 0.26286390945763249 0 0.1649960966936283 0.24570944633742789 0 0.17112961164703941 0.26286390945763249 0 0.1721129117887481 0.25297936628848011 0 0.14997559948457481 0.24406105623068311 0 0.17112961164703941 0.26286390945763249 0 0.17540225250715 0.24334044325400661 0 0.1721129117887481 0.25297936628848011 0 0.18129825185788709 0.25426870040434041 0 0.1721129117887481 0.25297936628848011 0 0.17613963362672991 0.25763618218123008 0 0.18129825185788709 0.25426870040434041 0 0.17540225250715 0.24334044325400661 0 0.18129825185788709 0.25426870040434041 0 0.20220375196931159 0.25664886493290762 0 0.17613963362672991 0.25763618218123008 0 0.18159690586790381 0.26047644956335569 0 0.18129825185788709 0.25426870040434041 0 0.17112961164703941 0.26286390945763249 0 0.1721129117887481 0.25297936628848011 0 0.17613963362672991 0.25763618218123008 0 0.18331796055464911 0.26652065492057758 0 0.17112961164703941 0.26286390945763249 0 0.17806232060708779 0.26309769345905443 0 0.17112961164703941 0.26286390945763249 0 0.17613963362672991 0.25763618218123008 0 0.17806232060708779 0.26309769345905443 0 0.17613963362672991 0.25763618218123008 0 0.17806232060708779 0.26309769345905443 0 0.18159690586790381 0.26047644956335569 0 0.18159690586790381 0.26047644956335569 0 0.18129825185788709 0.25426870040434041 0 0.189166362693165 0.26085901685157631 0 0.18331796055464911 0.26652065492057758 0 0.17806232060708779 0.26309769345905443 0 0.18159690586790381 0.26047644956335569 0 0.18331796055464911 0.26652065492057758 0 0.18159690586790381 0.26047644956335569 0 0.189166362693165 0.26085901685157631 0 0.18129825185788709 0.25426870040434041 0 0.189166362693165 0.26085901685157631 0 0.20220375196931159 0.25664886493290762 0 0.18331796055464911 0.26652065492057758 0 0.189166362693165 0.26085901685157631 0 0.19554140647924981 0.26631658577857981 0 0.189166362693165 0.26085901685157631 0 0.20220375196931159 0.25664886493290762 0 0.19554140647924981 0.26631658577857981 0 0.20220375196931159 0.25664886493290762 0 0.19554140647924981 0.26631658577857981 0 0.20579312987571291 0.26884041436932499 0 0.20220375196931159 0.25664886493290762 0 0.19554140647924981 0.26631658577857981 0 0.18796500922160769 0.27782813975025011 0 0.19554140647924981 0.26631658577857981 0 0.20103006564081879 0.27681865139803208 0 0.18331796055464911 0.26652065492057758 0 0.18796500922160769 0.27782813975025011 0 0.19554140647924981 0.26631658577857981 0 0.19554140647924981 0.26631658577857981 0 0.20103006564081879 0.27681865139803208 0 0.20579312987571291 0.26884041436932499 0 0.20103006564081879 0.27681865139803208 0 0.20579312987571291 0.26884041436932499 0 0.2110503758313477 0.27831574704913747 0 0.20579312987571291 0.26884041436932499 0 0.2110503758313477 0.27831574704913747 0 0.22109410882611369 0.2660289682763895 0 0.2110503758313477 0.27831574704913747 0 0.22109410882611369 0.2660289682763895 0 0.22214166097604271 0.27783374964158658 0 0.20220375196931159 0.25664886493290762 0 0.21752909380222851 0.25111892824869442 0 0.22109410882611369 0.2660289682763895 0 0.20220375196931159 0.25664886493290762 0 0.22109410882611369 0.2660289682763895 0 0.20220375196931159 0.25664886493290762 0 0.20579312987571291 0.26884041436932499 0 0.22109410882611369 0.2660289682763895 0 0.21752909380222851 0.25111892824869442 0 0.22673141182593909 0.25227122210794167 0 0.22109410882611369 0.2660289682763895 0 0.22673141182593909 0.25227122210794167 0 0.23429044434378249 0.26316465797072158 0 0.23739612546343911 0.25037782265356662 0 0.22673141182593909 0.25227122210794167 0 0.23429044434378249 0.26316465797072158 0 0.22109410882611369 0.2660289682763895 0 0.22109410882611369 0.2660289682763895 0 0.23998446568291529 0.27540907161987249 0 0.22109410882611369 0.2660289682763895 0 0.22214166097604271 0.27783374964158658 0 0.23998446568291529 0.27540907161987249 0 0.23429044434378249 0.26316465797072158 0 0.22109410882611369 0.2660289682763895 0 0.23998446568291529 0.27540907161987249 0 0.23429044434378249 0.26316465797072158 0 0.23998446568291529 0.27540907161987249 0 0.24426073703110029 0.2722718424067192 0 0.24302275485414379 0.27691774965223798 0 0.24426073703110029 0.2722718424067192 0 0.2590001471459471 0.27468623858557939 0 0.23998446568291529 0.27540907161987249 0 0.24426073703110029 0.2722718424067192 0 0.23998446568291529 0.27540907161987249 0 0.24302275485414379 0.27691774965223798 0 0.24302275485414379 0.27691774965223798 0 0.24426073703110029 0.2722718424067192 0 0.23998446568291529 0.27540907161987249 0 0.24302275485414379 0.27691774965223798 0 0.24426073703110029 0.2722718424067192 0 0.24426073703110029 0.2722718424067192 0 0.24958104109450691 0.25230577208951122 0 0.23429044434378249 0.26316465797072158 0 0.24426073703110029 0.2722718424067192 0 0.24958104109450691 0.25230577208951122 0 0.23429044434378249 0.26316465797072158 0 0.24958104109450691 0.25230577208951122 0 0.23739612546343911 0.25037782265356662 0 0.23471916041511601 0.30807953072326888 0 0.24578102621572251 0.30577498074355203 0 0.23887095763463001 0.29249864018775351 0 0.23471916041511601 0.30807953072326888 0 0.23887095763463001 0.29249864018775351 0 0.23471916041511601 0.30807953072326888 0 0.24578102621572251 0.30577498074355203 0 0.24394667980027129 0.31481092783142473 0 0.24578102621572251 0.30577498074355203 0 0.24394667980027129 0.31481092783142473 0 0.25367905488234738 0.3147546541181081 0 0.24578102621572251 0.30577498074355203 0 0.23887095763463001 0.29249864018775351 0 0.25032728595392761 0.29389521570613802 0 0.24302275485414379 0.27691774965223798 0 0.23887095763463001 0.29249864018775351 0 0.25032728595392761 0.29389521570613802 0 0.23998446568291529 0.27540907161987249 0 0.24302275485414379 0.27691774965223798 0 0.23887095763463001 0.29249864018775351 0 0.24302275485414379 0.27691774965223798 0 0.23887095763463001 0.29249864018775351 0 0.23887095763463001 0.29249864018775351 0 0.22789439601365929 0.300724769862108 0 0.21730273495533661 0.29204921964828739 0 0.22214166097604271 0.27783374964158658 0 0.23998446568291529 0.27540907161987249 0 0.21730273495533661 0.29204921964828739 0 0.23998446568291529 0.27540907161987249 0 0.21730273495533661 0.29204921964828739 0 0.23998446568291529 0.27540907161987249 0 0.23887095763463001 0.29249864018775351 0 0.21730273495533661 0.29204921964828739 0 0.22016390972913219 0.30451473706882998 0 0.22789439601365929 0.300724769862108 0 0.21730273495533661 0.29204921964828739 0 0.23471916041511601 0.30807953072326888 0 0.23887095763463001 0.29249864018775351 0 0.22789439601365929 0.300724769862108 0 0.23471916041511601 0.30807953072326888 0 0.22507812573016869 0.30988302648344113 0 0.2313053851219859 0.31909206323967743 0 0.23471916041511601 0.30807953072326888 0 0.22789439601365929 0.300724769862108 0 0.22507812573016869 0.30988302648344113 0 0.22016390972913219 0.30451473706882998 0 0.22789439601365929 0.300724769862108 0 0.22507812573016869 0.30988302648344113 0 0.21730273495533661 0.29204921964828739 0 0.19462100422775691 0.30868936767670119 0 0.21730273495533661 0.29204921964828739 0 0.20480040679617589 0.29279237004286801 0 0.19462100422775691 0.30868936767670119 0 0.22016390972913219 0.30451473706882998 0 0.22507812573016869 0.30988302648344113 0 0.20758352355527401 0.31336302194092702 0 0.22016390972913219 0.30451473706882998 0 0.21730273495533661 0.29204921964828739 0 0.20758352355527401 0.31336302194092702 0 0.21730273495533661 0.29204921964828739 0 0.19462100422775691 0.30868936767670119 0 0.20758352355527401 0.31336302194092702 0 0.20103006564081879 0.27681865139803208 0 0.2110503758313477 0.27831574704913747 0 0.20480040679617589 0.29279237004286801 0 0.2110503758313477 0.27831574704913747 0 0.22214166097604271 0.27783374964158658 0 0.21730273495533661 0.29204921964828739 0 0.2110503758313477 0.27831574704913747 0 0.21730273495533661 0.29204921964828739 0 0.20480040679617589 0.29279237004286801 0 0.18796500922160769 0.27782813975025011 0 0.20480040679617589 0.29279237004286801 0 0.18811389217676691 0.2931074538075521 0 0.18796500922160769 0.27782813975025011 0 0.20103006564081879 0.27681865139803208 0 0.20480040679617589 0.29279237004286801 0 0.18796500922160769 0.27782813975025011 0 0.20480040679617589 0.29279237004286801 0 0.20480040679617589 0.29279237004286801 0 0.18811389217676691 0.2931074538075521 0 0.19462100422775691 0.30868936767670119 0 0.1804058488342363 0.30279437215867161 0 0.18811389217676691 0.2931074538075521 0 0.19462100422775691 0.30868936767670119 0 0.19462100422775691 0.30868936767670119 0 0.19446996204635231 0.32137952185291307 0 0.17861207632172321 0.31465214258411112 0 0.19446996204635231 0.32137952185291307 0 0.19214265291047111 0.33587594276680938 0 0.2068567588252922 0.32662373121449551 0 0.19446996204635231 0.32137952185291307 0 0.20758352355527401 0.31336302194092702 0 0.2068567588252922 0.32662373121449551 0 0.19462100422775691 0.30868936767670119 0 0.19446996204635231 0.32137952185291307 0 0.20758352355527401 0.31336302194092702 0 0.19214265291047111 0.33587594276680938 0 0.20580143973658679 0.34260921199267902 0 0.2068567588252922 0.32662373121449551 0 0.19446996204635231 0.32137952185291307 0 0.19214265291047111 0.33587594276680938 0 0.1775188535766373 0.33143879741027582 0 0.20580143973658679 0.34260921199267902 0 0.21656672582483 0.33387823230114122 0 0.2068567588252922 0.32662373121449551 0 0.21656672582483 0.33387823230114122 0 0.2068567588252922 0.32662373121449551 0 0.21830609405748599 0.32461248906680318 0 0.20580143973658679 0.34260921199267902 0 0.21656672582483 0.33387823230114122 0 0.2200329737533821 0.34484976581217058 0 0.20758352355527401 0.31336302194092702 0 0.2068567588252922 0.32662373121449551 0 0.21830609405748599 0.32461248906680318 0 0.20758352355527401 0.31336302194092702 0 0.2313053851219859 0.31909206323967743 0 0.22507812573016869 0.30988302648344113 0 0.20758352355527401 0.31336302194092702 0 0.2313053851219859 0.31909206323967743 0 0.20758352355527401 0.31336302194092702 0 0.21830609405748599 0.32461248906680318 0 0.2313053851219859 0.31909206323967743 0 0.2313053851219859 0.31909206323967743 0 0.2281295084147783 0.33218456897011872 0 0.24048299120465411 0.33070141760539662 0 0.21830609405748599 0.32461248906680318 0 0.2313053851219859 0.31909206323967743 0 0.2281295084147783 0.33218456897011872 0 0.21656672582483 0.33387823230114122 0 0.21830609405748599 0.32461248906680318 0 0.2281295084147783 0.33218456897011872 0 0.2281295084147783 0.33218456897011872 0 0.23787465635594671 0.3421431240007563 0 0.2200329737533821 0.34484976581217058 0 0.21656672582483 0.33387823230114122 0 0.2281295084147783 0.33218456897011872 0 0.2200329737533821 0.34484976581217058 0 0.2281295084147783 0.33218456897011872 0 0.24048299120465411 0.33070141760539662 0 0.23787465635594671 0.3421431240007563 0 0.24048299120465411 0.33070141760539662 0 0.23787465635594671 0.3421431240007563 0 0.25028121271627379 0.33545871048479392 0 0.24048299120465411 0.33070141760539662 0 0.25502724668869792 0.32482110453842777 0 0.25028121271627379 0.33545871048479392 0 0.2313053851219859 0.31909206323967743 0 0.24048299120465411 0.33070141760539662 0 0.25502724668869792 0.32482110453842777 0 0.2313053851219859 0.31909206323967743 0 0.25502724668869792 0.32482110453842777 0 0.2313053851219859 0.31909206323967743 0 0.24394667980027129 0.31481092783142473 0 0.25502724668869792 0.32482110453842777 0 0.23471916041511601 0.30807953072326888 0 0.2313053851219859 0.31909206323967743 0 0.24394667980027129 0.31481092783142473 0 0.24012834884707829 0.36787062808223647 0 0.24894381713514399 0.37880390834128252 0 0.25514629116958393 0.35412835279321608 0 0.24012834884707829 0.36787062808223647 0 0.22697417143083409 0.35824677512615788 0 0.25514629116958393 0.35412835279321608 0 0.23787465635594671 0.3421431240007563 0 0.25514629116958393 0.35412835279321608 0 0.25028121271627379 0.33545871048479392 0 0.23787465635594671 0.3421431240007563 0 0.22697417143083409 0.35824677512615788 0 0.25514629116958393 0.35412835279321608 0 0.23787465635594671 0.3421431240007563 0 0.22697417143083409 0.35824677512615788 0 0.2200329737533821 0.34484976581217058 0 0.24012834884707829 0.36787062808223647 0 0.22697417143083409 0.35824677512615788 0 0.2294491156527512 0.38030347606828929 0 0.22697417143083409 0.35824677512615788 0 0.2100756642183304 0.37910104579659881 0 0.2294491156527512 0.38030347606828929 0 0.2048513407573167 0.36003668248217058 0 0.196565013463948 0.37255544338978858 0 0.2100756642183304 0.37910104579659881 0 0.2048513407573167 0.36003668248217058 0 0.2100756642183304 0.37910104579659881 0 0.22697417143083409 0.35824677512615788 0 0.2048513407573167 0.36003668248217058 0 0.2100756642183304 0.37910104579659881 0 0.22697417143083409 0.35824677512615788 0 0.2200329737533821 0.34484976581217058 0 0.2048513407573167 0.36003668248217058 0 0.20580143973658679 0.34260921199267902 0 0.2200329737533821 0.34484976581217058 0 0.2048513407573167 0.36003668248217058 0 0.19214265291047111 0.33587594276680938 0 0.20580143973658679 0.34260921199267902 0 0.18925721341957411 0.35632392546519609 0 0.20580143973658679 0.34260921199267902 0 0.2048513407573167 0.36003668248217058 0 0.18925721341957411 0.35632392546519609 0 0.18925721341957411 0.35632392546519609 0 0.196565013463948 0.37255544338978858 0 0.18208607876039831 0.37652319395216882 0 0.2048513407573167 0.36003668248217058 0 0.18925721341957411 0.35632392546519609 0 0.196565013463948 0.37255544338978858 0 0.18925721341957411 0.35632392546519609 0 0.17096115249156499 0.36586318974438797 0 0.18208607876039831 0.37652319395216882 0 0.17096115249156499 0.36586318974438797 0 0.15483889169580589 0.36598064305000172 0 0.15895321703911511 0.38576508814801552 0 0.17096115249156499 0.36586318974438797 0 0.1740033376557592 0.34871385864637222 0 0.15483889169580589 0.36598064305000172 0 0.1740033376557592 0.34871385864637222 0 0.16021660789937431 0.34005615799105121 0 0.15483889169580589 0.36598064305000172 0 0.18925721341957411 0.35632392546519609 0 0.17096115249156499 0.36586318974438797 0 0.1740033376557592 0.34871385864637222 0 0.19214265291047111 0.33587594276680938 0 0.18925721341957411 0.35632392546519609 0 0.1740033376557592 0.34871385864637222 0 0.19214265291047111 0.33587594276680938 0 0.1740033376557592 0.34871385864637222 0 0.1775188535766373 0.33143879741027582 0 0.1775188535766373 0.33143879741027582 0 0.17861207632172321 0.31465214258411112 0 0.16573217688623021 0.32689897342632779 0 0.19446996204635231 0.32137952185291307 0 0.1775188535766373 0.33143879741027582 0 0.17861207632172321 0.31465214258411112 0 0.16778006779048779 0.30840817473210519 0 0.17861207632172321 0.31465214258411112 0 0.16573217688623021 0.32689897342632779 0 0.15422236719089971 0.31020951838819089 0 0.16778006779048779 0.30840817473210519 0 0.16573217688623021 0.32689897342632779 0 0.1775188535766373 0.33143879741027582 0 0.16573217688623021 0.32689897342632779 0 0.16021660789937431 0.34005615799105121 0 0.1740033376557592 0.34871385864637222 0 0.1775188535766373 0.33143879741027582 0 0.16021660789937431 0.34005615799105121 0 0.16573217688623021 0.32689897342632779 0 0.16021660789937431 0.34005615799105121 0 0.14657304626060211 0.3234608436320805 0 0.16021660789937431 0.34005615799105121 0 0.14657304626060211 0.3234608436320805 0 0.14263334132121111 0.343843831781249 0 0.14657304626060211 0.3234608436320805 0 0.13557809745526919 0.33246075948698128 0 0.14263334132121111 0.343843831781249 0 0.16573217688623021 0.32689897342632779 0 0.14657304626060211 0.3234608436320805 0 0.15422236719089971 0.31020951838819089 0 0.16573217688623021 0.32689897342632779 0 0.14657304626060211 0.3234608436320805 0 0.140370013534098 0.30908417227646667 0 0.15422236719089971 0.31020951838819089 0 0.14657304626060211 0.3234608436320805 0 0.14657304626060211 0.3234608436320805 0 0.12741391563497381 0.32002271383783337 0 0.140370013534098 0.30908417227646667 0 0.14657304626060211 0.3234608436320805 0 0.12741391563497381 0.32002271383783337 0 0.14657304626060211 0.3234608436320805 0 0.12741391563497381 0.32002271383783337 0 0.13557809745526919 0.33246075948698128 0 0.12741391563497381 0.32002271383783337 0 0.1256920866042899 0.34251564869676271 0 0.1256920866042899 0.34251564869676271 0 0.13557809745526919 0.33246075948698128 0 0.14263334132121111 0.343843831781249 0 0.12741391563497381 0.32002271383783337 0 0.1256920866042899 0.34251564869676271 0 0.13557809745526919 0.33246075948698128 0 0.1256920866042899 0.34251564869676271 0 0.13337764003776831 0.3580650465056246 0 0.14263334132121111 0.343843831781249 0 0.1203901265911252 0.36438628633050663 0 0.13337764003776831 0.3580650465056246 0 0.13213175932593271 0.37178039514916911 0 0.13337764003776831 0.3580650465056246 0 0.13213175932593271 0.37178039514916911 0 0.15483889169580589 0.36598064305000172 0 0.13337764003776831 0.3580650465056246 0 0.15483889169580589 0.36598064305000172 0 0.13213175932593271 0.37178039514916911 0 0.15483889169580589 0.36598064305000172 0 0.14125707951577721 0.38153107629394978 0 0.16021660789937431 0.34005615799105121 0 0.15483889169580589 0.36598064305000172 0 0.14263334132121111 0.343843831781249 0 0.13337764003776831 0.3580650465056246 0 0.15483889169580589 0.36598064305000172 0 0.14263334132121111 0.343843831781249 0 0.1381345908447385 0.39692386050478179 0 0.14758078319494661 0.40813097193192271 0 0.15895321703911511 0.38576508814801552 0 0.15483889169580589 0.36598064305000172 0 0.14125707951577721 0.38153107629394978 0 0.15895321703911511 0.38576508814801552 0 0.14125707951577721 0.38153107629394978 0 0.1381345908447385 0.39692386050478179 0 0.15895321703911511 0.38576508814801552 0 0.12407768869467101 0.38689236714029168 0 0.13213175932593271 0.37178039514916911 0 0.14125707951577721 0.38153107629394978 0 0.12407768869467101 0.38689236714029168 0 0.14125707951577721 0.38153107629394978 0 0.1381345908447385 0.39692386050478179 0 0.12407768869467101 0.38689236714029168 0 0.11884912942044849 0.37382695157464002 0 0.13213175932593271 0.37178039514916911 0 0.12407768869467101 0.38689236714029168 0 0.1381345908447385 0.39692386050478179 0 0.12561286193453189 0.40183339808493901 0 0.1381345908447385 0.39692386050478179 0 0.12561286193453189 0.40183339808493901 0 0.13132591468938951 0.41739026142957242 0 0.1381345908447385 0.39692386050478179 0 0.13132591468938951 0.41739026142957242 0 0.14758078319494661 0.40813097193192271 0 0.13132591468938951 0.41739026142957242 0 0.12789522948134599 0.43317794333639031 0 0.14608484444539119 0.43003378406991449 0 0.1171497585910827 0.42686242603914598 0 0.13132591468938951 0.41739026142957242 0 0.12789522948134599 0.43317794333639031 0 0.12789522948134599 0.43317794333639031 0 0.14608484444539119 0.43003378406991449 0 0.1361044574630719 0.44650465773720072 0 0.13132591468938951 0.41739026142957242 0 0.14608484444539119 0.43003378406991449 0 0.14758078319494661 0.40813097193192271 0 0.14608484444539119 0.43003378406991449 0 0.14758078319494661 0.40813097193192271 0 0.15656663615435401 0.41806362436267019 0 0.14758078319494661 0.40813097193192271 0 0.16512048226177839 0.40662391710843959 0 0.15656663615435401 0.41806362436267019 0 0.16512048226177839 0.40662391710843959 0 0.15656663615435401 0.41806362436267019 0 0.16748043471529969 0.42746582434040392 0 0.14608484444539119 0.43003378406991449 0 0.15656663615435401 0.41806362436267019 0 0.16748043471529969 0.42746582434040392 0 0.14608484444539119 0.43003378406991449 0 0.16748043471529969 0.42746582434040392 0 0.15743151341926839 0.44597354260469202 0 0.16748043471529969 0.42746582434040392 0 0.1832710719635873 0.41052589355383973 0 0.18929398387414181 0.43099552412240322 0 0.16748043471529969 0.42746582434040392 0 0.18929398387414181 0.43099552412240322 0 0.17629098197154119 0.44741058162809128 0 0.16512048226177839 0.40662391710843959 0 0.16748043471529969 0.42746582434040392 0 0.1832710719635873 0.41052589355383973 0 0.16512048226177839 0.40662391710843959 0 0.1832710719635873 0.41052589355383973 0 0.17701432656887209 0.39431577050692529 0 0.1832710719635873 0.41052589355383973 0 0.17701432656887209 0.39431577050692529 0 0.19564078281948169 0.39214075977216267 0 0.14758078319494661 0.40813097193192271 0 0.16512048226177839 0.40662391710843959 0 0.15895321703911511 0.38576508814801552 0 0.16512048226177839 0.40662391710843959 0 0.17701432656887209 0.39431577050692529 0 0.15895321703911511 0.38576508814801552 0 0.17096115249156499 0.36586318974438797 0 0.15895321703911511 0.38576508814801552 0 0.18208607876039831 0.37652319395216882 0 0.17701432656887209 0.39431577050692529 0 0.15895321703911511 0.38576508814801552 0 0.18208607876039831 0.37652319395216882 0 0.17701432656887209 0.39431577050692529 0 0.18208607876039831 0.37652319395216882 0 0.19564078281948169 0.39214075977216267 0 0.196565013463948 0.37255544338978858 0 0.18208607876039831 0.37652319395216882 0 0.19564078281948169 0.39214075977216267 0 0.196565013463948 0.37255544338978858 0 0.19564078281948169 0.39214075977216267 0 0.2100756642183304 0.37910104579659881 0 0.1832710719635873 0.41052589355383973 0 0.19564078281948169 0.39214075977216267 0 0.20229698577674229 0.41458046661671499 0 0.19564078281948169 0.39214075977216267 0 0.2152999876793433 0.39816540911102721 0 0.20229698577674229 0.41458046661671499 0 0.19564078281948169 0.39214075977216267 0 0.2152999876793433 0.39816540911102721 0 0.2100756642183304 0.37910104579659881 0 0.2152999876793433 0.39816540911102721 0 0.2100756642183304 0.37910104579659881 0 0.2152999876793433 0.39816540911102721 0 0.2100756642183304 0.37910104579659881 0 0.2294491156527512 0.38030347606828929 0 0.2152999876793433 0.39816540911102721 0 0.2294491156527512 0.38030347606828929 0 0.2152999876793433 0.39816540911102721 0 0.2294491156527512 0.38030347606828929 0 0.2296836990554135 0.39502430091804841 0 0.2152999876793433 0.39816540911102721 0 0.2296836990554135 0.39502430091804841 0 0.22941038451099219 0.41006292048363308 0 0.2296836990554135 0.39502430091804841 0 0.2427413431007043 0.40347946388934891 0 0.22941038451099219 0.41006292048363308 0 0.2427413431007043 0.40347946388934891 0 0.24894381713514399 0.37880390834128252 0 0.2427413431007043 0.40347946388934891 0 0.24894381713514399 0.37880390834128252 0 0.25768165889435107 0.39153826937575281 0 0.2296836990554135 0.39502430091804841 0 0.2427413431007043 0.40347946388934891 0 0.24894381713514399 0.37880390834128252 0 0.2294491156527512 0.38030347606828929 0 0.2296836990554135 0.39502430091804841 0 0.24894381713514399 0.37880390834128252 0 0.24012834884707829 0.36787062808223647 0 0.2294491156527512 0.38030347606828929 0 0.24894381713514399 0.37880390834128252 0 0.23653886906626451 0.42815501943741507 0 0.24827703662048869 0.43877361713480201 0 0.25514524788913251 0.42153001335374563 0 0.2427413431007043 0.40347946388934891 0 0.23653886906626451 0.42815501943741507 0 0.25514524788913251 0.42153001335374563 0 0.2427413431007043 0.40347946388934891 0 0.23653886906626451 0.42815501943741507 0 0.22941038451099219 0.41006292048363308 0 0.2427413431007043 0.40347946388934891 0 0.23653886906626451 0.42815501943741507 0 0.23653886906626451 0.42815501943741507 0 0.22941038451099219 0.41006292048363308 0 0.2227880236532353 0.42549040906232571 0 0.2152999876793433 0.39816540911102721 0 0.2227880236532353 0.42549040906232571 0 0.2152999876793433 0.39816540911102721 0 0.22941038451099219 0.41006292048363308 0 0.2227880236532353 0.42549040906232571 0 0.23653886906626451 0.42815501943741507 0 0.2227880236532353 0.42549040906232571 0 0.23027605962712649 0.45281540901362438 0 0.2227880236532353 0.42549040906232571 0 0.20787595853861859 0.42880013801361522 0 0.20229698577674229 0.41458046661671499 0 0.2227880236532353 0.42549040906232571 0 0.20787595853861859 0.42880013801361522 0 0.20864004406017431 0.4440559619844579 0 0.2152999876793433 0.39816540911102721 0 0.20229698577674229 0.41458046661671499 0 0.2152999876793433 0.39816540911102721 0 0.2227880236532353 0.42549040906232571 0 0.20229698577674229 0.41458046661671499 0 0.1832710719635873 0.41052589355383973 0 0.20229698577674229 0.41458046661671499 0 0.18929398387414181 0.43099552412240322 0 0.20787595853861859 0.42880013801361522 0 0.18929398387414181 0.43099552412240322 0 0.20864004406017431 0.4440559619844579 0 0.20787595853861859 0.42880013801361522 0 0.20229698577674229 0.41458046661671499 0 0.18929398387414181 0.43099552412240322 0 0.20229698577674229 0.41458046661671499 0 0.18929398387414181 0.43099552412240322 0 0.18929398387414181 0.43099552412240322 0 0.19148289044339539 0.45330371779748629 0 0.20864004406017431 0.4440559619844579 0 0.19148289044339539 0.45330371779748629 0 0.21066259178919669 0.46210527598797962 0 0.19286798050450801 0.47002872505583032 0 0.19148289044339539 0.45330371779748629 0 0.21066259178919669 0.46210527598797962 0 0.20864004406017431 0.4440559619844579 0 0.21066259178919669 0.46210527598797962 0 0.20864004406017431 0.4440559619844579 0 0.23027605962712649 0.45281540901362438 0 0.2227880236532353 0.42549040906232571 0 0.20864004406017431 0.4440559619844579 0 0.23027605962712649 0.45281540901362438 0 0.23653886906626451 0.42815501943741507 0 0.23027605962712649 0.45281540901362438 0 0.2227880236532353 0.42549040906232571 0 0.23027605962712649 0.45281540901362438 0 0.23027605962712649 0.45281540901362438 0 0.22530357970137929 0.47285282958259911 0 0.23027605962712649 0.45281540901362438 0 0.2369022795549893 0.46607744422757219 0 0.22530357970137929 0.47285282958259911 0 0.21066259178919669 0.46210527598797962 0 0.23027605962712649 0.45281540901362438 0 0.22530357970137929 0.47285282958259911 0 0.23027605962712649 0.45281540901362438 0 0.2369022795549893 0.46607744422757219 0 0.25060871291941889 0.45442936624581509 0 0.2369022795549893 0.46607744422757219 0 0.24728172703506571 0.47412426829471099 0 0.25060871291941889 0.45442936624581509 0 0.23027605962712649 0.45281540901362438 0 0.24827703662048869 0.43877361713480201 0 0.25060871291941889 0.45442936624581509 0 0.23653886906626451 0.42815501943741507 0 0.23027605962712649 0.45281540901362438 0 0.24827703662048869 0.43877361713480201 0 0.23444437331093679 0.49000957501860959 0 0.24236111510677319 0.48338458183874528 0 0.25324533970736601 0.49042356643820428 0 0.23444437331093679 0.49000957501860959 0 0.25523256971415098 0.49999999999999972 0 0.23444437331093679 0.49000957501860959 0 0.22543682443347671 0.5 0 0.25523256971415098 0.49999999999999972 0 0.23444437331093679 0.49000957501860959 0 0.25324533970736601 0.49042356643820428 0 0.25523256971415098 0.49999999999999972 0 0.24236111510677319 0.48338458183874528 0 0.24728172703506571 0.47412426829471099 0 0.25324533970736601 0.49042356643820428 0 0.2369022795549893 0.46607744422757219 0 0.24728172703506571 0.47412426829471099 0 0.23447302037372431 0.47898091760345618 0 0.23444437331093679 0.49000957501860959 0 0.24236111510677319 0.48338458183874528 0 0.23447302037372431 0.47898091760345618 0 0.24236111510677319 0.48338458183874528 0 0.24728172703506571 0.47412426829471099 0 0.23447302037372431 0.47898091760345618 0 0.23447302037372431 0.47898091760345618 0 0.22530357970137929 0.47285282958259911 0 0.2136561769077224 0.48001915003722001 0 0.23444437331093679 0.49000957501860959 0 0.23447302037372431 0.47898091760345618 0 0.2136561769077224 0.48001915003722001 0 0.2369022795549893 0.46607744422757219 0 0.23447302037372431 0.47898091760345618 0 0.22530357970137929 0.47285282958259911 0 0.23444437331093679 0.49000957501860959 0 0.22543682443347671 0.5 0 0.2136561769077224 0.48001915003722001 0 0.23444437331093679 0.49000957501860959 0 0.2136561769077224 0.48001915003722001 0 0.22543682443347671 0.5 0 0.2136561769077224 0.48001915003722001 0 0.19564107915280241 0.5 0 0.21066259178919669 0.46210527598797962 0 0.2136561769077224 0.48001915003722001 0 0.19286798050450801 0.47002872505583032 0 0.2136561769077224 0.48001915003722001 0 0.19286798050450801 0.47002872505583032 0 0.21066259178919669 0.46210527598797962 0 0.22530357970137929 0.47285282958259911 0 0.2136561769077224 0.48001915003722001 0 0.2136561769077224 0.48001915003722001 0 0.19286798050450801 0.47002872505583032 0 0.19564107915280241 0.5 0 0.19286798050450801 0.47002872505583032 0 0.19564107915280241 0.5 0 0.17966018726048169 0.48538092756058548 0 0.19564107915280241 0.5 0 0.17966018726048169 0.48538092756058548 0 0.16584533387212799 0.5 0 0.17966018726048169 0.48538092756058548 0 0.16584533387212799 0.5 0 0.15449599141778739 0.48028194533492458 0 0.17114176046081039 0.46522623800615581 0 0.14736144268267901 0.46357414465311841 0 0.15449599141778739 0.48028194533492458 0 0.17966018726048169 0.48538092756058548 0 0.17114176046081039 0.46522623800615581 0 0.15449599141778739 0.48028194533492458 0 0.19286798050450801 0.47002872505583032 0 0.17966018726048169 0.48538092756058548 0 0.17114176046081039 0.46522623800615581 0 0.19148289044339539 0.45330371779748629 0 0.19286798050450801 0.47002872505583032 0 0.17114176046081039 0.46522623800615581 0 0.19148289044339539 0.45330371779748629 0 0.17629098197154119 0.44741058162809128 0 0.17114176046081039 0.46522623800615581 0 0.18929398387414181 0.43099552412240322 0 0.19148289044339539 0.45330371779748629 0 0.17629098197154119 0.44741058162809128 0 0.18929398387414181 0.43099552412240322 0 0.17629098197154119 0.44741058162809128 0 0.16748043471529969 0.42746582434040392 0 0.17629098197154119 0.44741058162809128 0 0.15743151341926839 0.44597354260469202 0 0.17629098197154119 0.44741058162809128 0 0.15743151341926839 0.44597354260469202 0 0.17114176046081039 0.46522623800615581 0 0.15743151341926839 0.44597354260469202 0 0.17114176046081039 0.46522623800615581 0 0.14736144268267901 0.46357414465311841 0 0.14608484444539119 0.43003378406991449 0 0.15743151341926839 0.44597354260469202 0 0.1361044574630719 0.44650465773720072 0 0.15743151341926839 0.44597354260469202 0 0.14736144268267901 0.46357414465311841 0 0.1361044574630719 0.44650465773720072 0 0.11071142651901 0.44701758752934878 0 0.1361044574630719 0.44650465773720072 0 0.12902061185395949 0.46022673586911828 0 0.14736144268267901 0.46357414465311841 0 0.1361044574630719 0.44650465773720072 0 0.12902061185395949 0.46022673586911828 0 0.14736144268267901 0.46357414465311841 0 0.12902061185395949 0.46022673586911828 0 0.1340430795009071 0.47643387377016638 0 0.11688265310412931 0.46760341565575742 0 0.12902061185395949 0.46022673586911828 0 0.1340430795009071 0.47643387377016638 0 0.1178708597866415 0.48509576999964771 0 0.1340430795009071 0.47643387377016638 0 0.13604958859145369 0.5 0 0.16584533387212799 0.5 0 0.13604958859145369 0.5 0 0.15449599141778739 0.48028194533492458 0 0.1340430795009071 0.47643387377016638 0 0.13604958859145369 0.5 0 0.15449599141778739 0.48028194533492458 0 0.14736144268267901 0.46357414465311841 0 0.1340430795009071 0.47643387377016638 0 0.15449599141778739 0.48028194533492458 0 0.36227714170347608 0.48900941400250891 0 0.36848803393361051 0.47337290783989822 0 0.34658153981757028 0.46670428050768908 0 0.36227714170347608 0.48900941400250891 0 0.34658153981757028 0.46670428050768908 0 0.33867634706855743 0.48478606065303859 0 0.34953812577996562 0.5 0 0.36227714170347608 0.48900941400250891 0 0.33867634706855743 0.48478606065303859 0 0.36227714170347608 0.48900941400250891 0 0.3837918522628127 0.48686907834501608 0 0.37501615762698648 0.5 0 0.34953812577996562 0.5 0 0.36227714170347608 0.48900941400250891 0 0.37501615762698648 0.5 0 0.36227714170347608 0.48900941400250891 0 0.36848803393361051 0.47337290783989822 0 0.3837918522628127 0.48686907834501608 0 0.36848803393361051 0.47337290783989822 0 0.36446161677726352 0.44948388774602049 0 0.36848803393361051 0.47337290783989822 0 0.36446161677726352 0.44948388774602049 0 0.38089784698284818 0.45196319391871392 0 0.36848803393361051 0.47337290783989822 0 0.36446161677726352 0.44948388774602049 0 0.34658153981757028 0.46670428050768908 0 0.36446161677726352 0.44948388774602049 0 0.3742445611835935 0.43887280006648799 0 0.36043519962091652 0.42559486765214272 0 0.36446161677726352 0.44948388774602049 0 0.3742445611835935 0.43887280006648799 0 0.38089784698284818 0.45196319391871392 0 0.36446161677726352 0.44948388774602049 0 0.36043519962091652 0.42559486765214272 0 0.36446161677726352 0.44948388774602049 0 0.34653956963549748 0.44433577208040093 0 0.36043519962091652 0.42559486765214272 0 0.36446161677726352 0.44948388774602049 0 0.34653956963549748 0.44433577208040093 0 0.34658153981757028 0.46670428050768908 0 0.34653956963549748 0.44433577208040093 0 0.34658153981757028 0.46670428050768908 0 0.33058007411221502 0.45317138983305572 0 0.34658153981757028 0.46670428050768908 0 0.33058007411221502 0.45317138983305572 0 0.3199355727269203 0.47172865242055723 0 0.34653956963549748 0.44433577208040093 0 0.33058007411221502 0.45317138983305572 0 0.33149521849580849 0.42505260763558078 0 0.33058007411221502 0.45317138983305572 0 0.31581105152089578 0.44345730484111512 0 0.33149521849580849 0.42505260763558078 0 0.33058007411221502 0.45317138983305572 0 0.31581105152089578 0.44345730484111512 0 0.3199355727269203 0.47172865242055723 0 0.31581105152089578 0.44345730484111512 0 0.3199355727269203 0.47172865242055723 0 0.34658153981757028 0.46670428050768908 0 0.3199355727269203 0.47172865242055723 0 0.33867634706855743 0.48478606065303859 0 0.34953812577996562 0.5 0 0.33867634706855743 0.48478606065303859 0 0.32406009393294471 0.49999999999999928 0 0.3199355727269203 0.47172865242055723 0 0.32406009393294471 0.49999999999999928 0 0.30111758586001353 0.5 0 0.3199355727269203 0.47172865242055723 0 0.33867634706855743 0.48478606065303859 0 0.32406009393294471 0.49999999999999928 0 0.3199355727269203 0.47172865242055723 0 0.32406009393294471 0.49999999999999928 0 0.3199355727269203 0.47172865242055723 0 0.30111758586001353 0.5 0 0.28775407501189482 0.47722771306155731 0 0.30111758586001353 0.5 0 0.28775407501189482 0.47722771306155731 0 0.27817507778708223 0.5 0 0.27817507778708223 0.5 0 0.26818241183457753 0.48787484038756079 0 0.25523256971415098 0.49999999999999972 0 0.28775407501189482 0.47722771306155731 0 0.27817507778708223 0.5 0 0.26818241183457753 0.48787484038756079 0 0.28775407501189482 0.47722771306155731 0 0.26818241183457753 0.48787484038756079 0 0.26650499695239338 0.47172292243804281 0 0.24728172703506571 0.47412426829471099 0 0.26650499695239338 0.47172292243804281 0 0.25324533970736601 0.49042356643820428 0 0.26650499695239338 0.47172292243804281 0 0.25324533970736601 0.49042356643820428 0 0.26818241183457753 0.48787484038756079 0 0.26650499695239338 0.47172292243804281 0 0.25324533970736601 0.49042356643820428 0 0.26818241183457753 0.48787484038756079 0 0.25324533970736601 0.49042356643820428 0 0.25523256971415098 0.49999999999999972 0 0.24827703662048869 0.43877361713480201 0 0.26410137931946581 0.43913330135091599 0 0.25060871291941889 0.45442936624581509 0 0.26410137931946581 0.43913330135091599 0 0.25060871291941889 0.45442936624581509 0 0.26518485897579092 0.45368801558687882 0 0.24728172703506571 0.47412426829471099 0 0.26650499695239338 0.47172292243804281 0 0.25060871291941889 0.45442936624581509 0 0.26650499695239338 0.47172292243804281 0 0.25060871291941889 0.45442936624581509 0 0.26518485897579092 0.45368801558687882 0 0.26650499695239338 0.47172292243804281 0 0.2797646541974208 0.45302227843788118 0 0.26650499695239338 0.47172292243804281 0 0.26518485897579092 0.45368801558687882 0 0.2797646541974208 0.45302227843788118 0 0.28775407501189482 0.47722771306155731 0 0.26650499695239338 0.47172292243804281 0 0.2797646541974208 0.45302227843788118 0 0.26410137931946581 0.43913330135091599 0 0.2797646541974208 0.45302227843788118 0 0.27877079423146911 0.43589207421964282 0 0.26410137931946581 0.43913330135091599 0 0.26518485897579092 0.45368801558687882 0 0.2797646541974208 0.45302227843788118 0 0.2797646541974208 0.45302227843788118 0 0.30005099966858773 0.45676864833405489 0 0.29302431144244828 0.43432163443771959 0 0.2797646541974208 0.45302227843788118 0 0.29302431144244828 0.43432163443771959 0 0.2797646541974208 0.45302227843788118 0 0.29302431144244828 0.43432163443771959 0 0.27877079423146911 0.43589207421964282 0 0.3199355727269203 0.47172865242055723 0 0.28775407501189482 0.47722771306155731 0 0.30005099966858773 0.45676864833405489 0 0.28775407501189482 0.47722771306155731 0 0.2797646541974208 0.45302227843788118 0 0.30005099966858773 0.45676864833405489 0 0.31581105152089578 0.44345730484111512 0 0.3199355727269203 0.47172865242055723 0 0.30005099966858773 0.45676864833405489 0 0.31581105152089578 0.44345730484111512 0 0.30005099966858773 0.45676864833405489 0 0.29302431144244828 0.43432163443771959 0 0.30628396868747593 0.41562099043755801 0 0.29302431144244828 0.43432163443771959 0 0.31581105152089578 0.44345730484111512 0 0.30628396868747593 0.41562099043755801 0 0.29302431144244828 0.43432163443771959 0 0.30628396868747593 0.41562099043755801 0 0.29244634917752099 0.41552064287013157 0 0.29302431144244828 0.43432163443771959 0 0.30628396868747593 0.41562099043755801 0 0.29244634917752099 0.41552064287013157 0 0.29228428461361827 0.39504886395319422 0 0.29244634917752099 0.41552064287013157 0 0.27819283196654138 0.41709108265205458 0 0.29228428461361827 0.39504886395319422 0 0.29302431144244828 0.43432163443771959 0 0.27877079423146911 0.43589207421964282 0 0.27819283196654138 0.41709108265205458 0 0.29244634917752099 0.41552064287013157 0 0.29302431144244828 0.43432163443771959 0 0.27819283196654138 0.41709108265205458 0 0.26410137931946581 0.43913330135091599 0 0.27819283196654138 0.41709108265205458 0 0.26410137931946581 0.43913330135091599 0 0.27819283196654138 0.41709108265205458 0 0.25514524788913251 0.42153001335374563 0 0.26410137931946581 0.43913330135091599 0 0.27877079423146911 0.43589207421964282 0 0.27819283196654138 0.41709108265205458 0 0.27819283196654138 0.41709108265205458 0 0.25514524788913251 0.42153001335374563 0 0.26551283001025672 0.40471926442722622 0 0.2427413431007043 0.40347946388934891 0 0.25514524788913251 0.42153001335374563 0 0.26551283001025672 0.40471926442722622 0 0.24827703662048869 0.43877361713480201 0 0.26410137931946581 0.43913330135091599 0 0.25514524788913251 0.42153001335374563 0 0.24894381713514399 0.37880390834128252 0 0.25768165889435107 0.39153826937575281 0 0.27352864533129961 0.37915044084515359 0 0.25768165889435107 0.39153826937575281 0 0.26551283001025672 0.40471926442722622 0 0.27352864533129961 0.37915044084515359 0 0.2427413431007043 0.40347946388934891 0 0.25768165889435107 0.39153826937575281 0 0.26551283001025672 0.40471926442722622 0 0.27819283196654138 0.41709108265205458 0 0.26551283001025672 0.40471926442722622 0 0.29228428461361827 0.39504886395319422 0 0.26551283001025672 0.40471926442722622 0 0.27352864533129961 0.37915044084515359 0 0.29228428461361827 0.39504886395319422 0 0.26551283001025672 0.40471926442722622 0 0.29228428461361827 0.39504886395319422 0 0.27352864533129961 0.37915044084515359 0 0.29228428461361827 0.39504886395319422 0 0.28824175939493812 0.37292648374687831 0 0.29228428461361827 0.39504886395319422 0 0.30358713353868921 0.3773686521136897 0 0.28824175939493812 0.37292648374687831 0 0.27819283196654138 0.41709108265205458 0 0.29228428461361827 0.39504886395319422 0 0.30628396868747593 0.41562099043755801 0 0.29228428461361827 0.39504886395319422 0 0.31727546449005251 0.40316850804288362 0 0.29228428461361827 0.39504886395319422 0 0.31553434582940959 0.38665046325612779 0 0.31727546449005251 0.40316850804288362 0 0.29228428461361827 0.39504886395319422 0 0.31553434582940959 0.38665046325612779 0 0.29228428461361827 0.39504886395319422 0 0.30358713353868921 0.3773686521136897 0 0.29228428461361827 0.39504886395319422 0 0.30358713353868921 0.3773686521136897 0 0.31553434582940959 0.38665046325612779 0 0.30358713353868921 0.3773686521136897 0 0.31553434582940959 0.38665046325612779 0 0.31455861084004749 0.37407779022725002 0 0.31553434582940959 0.38665046325612779 0 0.33878440704520019 0.37825206255905952 0 0.32422298152832979 0.37260360526499647 0 0.31553434582940959 0.38665046325612779 0 0.32422298152832979 0.37260360526499647 0 0.31455861084004749 0.37407779022725002 0 0.31553434582940959 0.38665046325612779 0 0.33878440704520019 0.37825206255905952 0 0.31553434582940959 0.38665046325612779 0 0.33878440704520019 0.37825206255905952 0 0.3336611626144555 0.40045075258227708 0 0.33878440704520019 0.37825206255905952 0 0.3336611626144555 0.40045075258227708 0 0.34600400369935258 0.39117570955492692 0 0.3336611626144555 0.40045075258227708 0 0.34470194364008339 0.41179301349176262 0 0.34600400369935258 0.39117570955492692 0 0.31553434582940959 0.38665046325612779 0 0.3336611626144555 0.40045075258227708 0 0.31727546449005251 0.40316850804288362 0 0.3336611626144555 0.40045075258227708 0 0.31727546449005251 0.40316850804288362 0 0.33149521849580849 0.42505260763558078 0 0.30628396868747593 0.41562099043755801 0 0.31727546449005251 0.40316850804288362 0 0.33149521849580849 0.42505260763558078 0 0.31581105152089578 0.44345730484111512 0 0.30628396868747593 0.41562099043755801 0 0.33149521849580849 0.42505260763558078 0 0.3336611626144555 0.40045075258227708 0 0.33149521849580849 0.42505260763558078 0 0.34470194364008339 0.41179301349176262 0 0.33149521849580849 0.42505260763558078 0 0.34470194364008339 0.41179301349176262 0 0.36043519962091652 0.42559486765214272 0 0.36043519962091652 0.42559486765214272 0 0.35640878246456958 0.40170584755826472 0 0.34470194364008339 0.41179301349176262 0 0.36043519962091652 0.42559486765214272 0 0.35640878246456958 0.40170584755826472 0 0.34653956963549748 0.44433577208040093 0 0.33149521849580849 0.42505260763558078 0 0.36043519962091652 0.42559486765214272 0 0.36043519962091652 0.42559486765214272 0 0.37952508420030873 0.41535832055639788 0 0.37893735127561751 0.42790874671565737 0 0.3742445611835935 0.43887280006648799 0 0.36043519962091652 0.42559486765214272 0 0.37893735127561751 0.42790874671565737 0 0.36043519962091652 0.42559486765214272 0 0.36988594190605589 0.40561167343669169 0 0.37952508420030873 0.41535832055639788 0 0.36043519962091652 0.42559486765214272 0 0.36988594190605589 0.40561167343669169 0 0.35640878246456958 0.40170584755826472 0 0.36988594190605589 0.40561167343669169 0 0.36622552711902978 0.38970518953939132 0 0.37811520933996012 0.39537691109530099 0 0.36988594190605589 0.40561167343669169 0 0.36622552711902978 0.38970518953939132 0 0.35640878246456958 0.40170584755826472 0 0.36839866245029013 0.37885629283645372 0 0.35238236530822259 0.37781682746438677 0 0.36203446826099078 0.36985366186199131 0 0.36839866245029013 0.37885629283645372 0 0.36622552711902978 0.38970518953939132 0 0.35238236530822259 0.37781682746438677 0 0.36622552711902978 0.38970518953939132 0 0.37517630538744778 0.38547406535059092 0 0.37811520933996012 0.39537691109530099 0 0.36839866245029013 0.37885629283645372 0 0.36622552711902978 0.38970518953939132 0 0.37517630538744778 0.38547406535059092 0 0.36839866245029013 0.37885629283645372 0 0.37623863347481051 0.37208402158164849 0 0.37880707307297379 0.3779258023652034 0 0.36839866245029013 0.37885629283645372 0 0.37880707307297379 0.3779258023652034 0 0.37517630538744778 0.38547406535059092 0 0.33878440704520019 0.37825206255905952 0 0.35238236530822259 0.37781682746438677 0 0.36203446826099078 0.36985366186199131 0 0.36622552711902978 0.38970518953939132 0 0.35238236530822259 0.37781682746438677 0 0.35640878246456958 0.40170584755826472 0 0.35238236530822259 0.37781682746438677 0 0.35640878246456958 0.40170584755826472 0 0.34600400369935258 0.39117570955492692 0 0.35238236530822259 0.37781682746438677 0 0.35640878246456958 0.40170584755826472 0 0.33878440704520019 0.37825206255905952 0 0.35238236530822259 0.37781682746438677 0 0.34600400369935258 0.39117570955492692 0 0.34470194364008339 0.41179301349176262 0 0.35640878246456958 0.40170584755826472 0 0.34600400369935258 0.39117570955492692 0 0.34654186515656338 0.34571206114800868 0 0.3645227759675248 0.35312017371283461 0 0.35238183468228429 0.33468894133719629 0 0.34654186515656338 0.34571206114800868 0 0.3645227759675248 0.35312017371283461 0 0.35344369098150669 0.35409415536551681 0 0.34654186515656338 0.34571206114800868 0 0.3645227759675248 0.35312017371283461 0 0.35344369098150669 0.35409415536551681 0 0.35461373739778201 0.35918016817433868 0 0.34856173797521173 0.35876134321323327 0 0.35344369098150669 0.35409415536551681 0 0.35461373739778201 0.35918016817433868 0 0.36069865913052718 0.35614037685280531 0 0.35461373739778201 0.35918016817433868 0 0.36128703776768317 0.3618125222545715 0 0.36069865913052718 0.35614037685280531 0 0.35344369098150669 0.35409415536551681 0 0.34654186515656338 0.34571206114800868 0 0.3457233702614313 0.3516508090918804 0 0.34654186515656338 0.34571206114800868 0 0.3457233702614313 0.3516508090918804 0 0.34334094907396262 0.34614965191182301 0 0.35344369098150669 0.35409415536551681 0 0.3457233702614313 0.3516508090918804 0 0.34856173797521173 0.35876134321323327 0 0.3457233702614313 0.3516508090918804 0 0.34856173797521173 0.35876134321323327 0 0.34120898805438737 0.35713116248646692 0 0.33878440704520019 0.37825206255905952 0 0.35136053145381152 0.36527436847424399 0 0.36203446826099078 0.36985366186199131 0 0.34856173797521173 0.35876134321323327 0 0.34120898805438737 0.35713116248646692 0 0.34172535878547511 0.36538946262628758 0 0.34856173797521173 0.35876134321323327 0 0.35136053145381152 0.36527436847424399 0 0.34172535878547511 0.36538946262628758 0 0.33878440704520019 0.37825206255905952 0 0.36203446826099078 0.36985366186199131 0 0.35461373739778201 0.35918016817433868 0 0.34856173797521173 0.35876134321323327 0 0.35136053145381152 0.36527436847424399 0 0.33878440704520019 0.37825206255905952 0 0.35136053145381152 0.36527436847424399 0 0.34172535878547511 0.36538946262628758 0 0.35136053145381152 0.36527436847424399 0 0.36128703776768317 0.3618125222545715 0 0.36203446826099078 0.36985366186199131 0 0.35461373739778201 0.35918016817433868 0 0.35136053145381152 0.36527436847424399 0 0.36128703776768317 0.3618125222545715 0 0.36203446826099078 0.36985366186199131 0 0.38528452947678138 0.36145526116492299 0 0.36128703776768317 0.3618125222545715 0 0.36203446826099078 0.36985366186199131 0 0.36980978898430661 0.36182130204151819 0 0.36203446826099078 0.36985366186199131 0 0.36980978898430661 0.36182130204151819 0 0.38528452947678138 0.36145526116492299 0 0.36128703776768317 0.3618125222545715 0 0.36980978898430661 0.36182130204151819 0 0.3646471743818529 0.35867595452553908 0 0.36203446826099078 0.36985366186199131 0 0.37623863347481051 0.37208402158164849 0 0.38528452947678138 0.36145526116492299 0 0.36839866245029013 0.37885629283645372 0 0.36203446826099078 0.36985366186199131 0 0.37623863347481051 0.37208402158164849 0 0.36980978898430661 0.36182130204151819 0 0.3646471743818529 0.35867595452553908 0 0.3772749386964504 0.35837404866577849 0 0.3646471743818529 0.35867595452553908 0 0.3645227759675248 0.35312017371283461 0 0.3772749386964504 0.35837404866577849 0 0.3645227759675248 0.35312017371283461 0 0.37841785224725821 0.34922735490049922 0 0.3772749386964504 0.35837404866577849 0 0.3645227759675248 0.35312017371283461 0 0.3772749386964504 0.35837404866577849 0 0.3645227759675248 0.35312017371283461 0 0.37877842683148039 0.33264527538485522 0 0.37841785224725821 0.34922735490049922 0 0.3646471743818529 0.35867595452553908 0 0.3645227759675248 0.35312017371283461 0 0.36069865913052718 0.35614037685280531 0 0.35344369098150669 0.35409415536551681 0 0.3645227759675248 0.35312017371283461 0 0.36069865913052718 0.35614037685280531 0 0.36128703776768317 0.3618125222545715 0 0.3646471743818529 0.35867595452553908 0 0.36069865913052718 0.35614037685280531 0 0.3645227759675248 0.35312017371283461 0 0.36503015345601753 0.32477731191258741 0 0.3645227759675248 0.35312017371283461 0 0.36503015345601753 0.32477731191258741 0 0.37877842683148039 0.33264527538485522 0 0.3645227759675248 0.35312017371283461 0 0.36503015345601753 0.32477731191258741 0 0.35238183468228429 0.33468894133719629 0 0.36503015345601753 0.32477731191258741 0 0.35256090032715459 0.31952546346938648 0 0.36553753094451191 0.29643445011233988 0 0.37414645328193519 0.3128012320960098 0 0.36503015345601753 0.32477731191258741 0 0.37877842683148039 0.33264527538485522 0 0.36503015345601753 0.32477731191258741 0 0.35256090032715459 0.31952546346938648 0 0.35238183468228429 0.33468894133719629 0 0.35256090032715459 0.31952546346938648 0 0.34624249046644628 0.32791068360758679 0 0.35238183468228429 0.33468894133719629 0 0.35256090032715459 0.31952546346938648 0 0.34624249046644628 0.32791068360758679 0 0.33773794400057278 0.32394906140169683 0 0.35256090032715459 0.31952546346938648 0 0.33773794400057278 0.32394906140169683 0 0.34737925326764291 0.30886787334176907 0 0.34624249046644628 0.32791068360758679 0 0.35238183468228429 0.33468894133719629 0 0.34146490939039142 0.33270090669304953 0 0.34654186515656338 0.34571206114800868 0 0.35238183468228429 0.33468894133719629 0 0.34146490939039142 0.33270090669304953 0 0.34654186515656338 0.34571206114800868 0 0.34146490939039142 0.33270090669304953 0 0.32856095434560029 0.33830394858318691 0 0.34654186515656338 0.34571206114800868 0 0.32856095434560029 0.33830394858318691 0 0.34654186515656338 0.34571206114800868 0 0.32856095434560029 0.33830394858318691 0 0.34334094907396262 0.34614965191182301 0 0.32856095434560029 0.33830394858318691 0 0.33773794400057278 0.32394906140169683 0 0.32182986930208168 0.32596230403562892 0 0.32856095434560029 0.33830394858318691 0 0.32619283138883282 0.34200822843468182 0 0.34334094907396262 0.34614965191182301 0 0.34624249046644628 0.32791068360758679 0 0.34146490939039142 0.33270090669304953 0 0.33773794400057278 0.32394906140169683 0 0.32856095434560029 0.33830394858318691 0 0.33773794400057278 0.32394906140169683 0 0.34146490939039142 0.33270090669304953 0 0.32856095434560029 0.33830394858318691 0 0.33773794400057278 0.32394906140169683 0 0.33773794400057278 0.32394906140169683 0 0.34737925326764291 0.30886787334176907 0 0.33773794400057278 0.32394906140169683 0 0.31405914671396618 0.31219123346433081 0 0.33773794400057278 0.32394906140169683 0 0.31405914671396618 0.31219123346433081 0 0.33036598950949292 0.30137913977845382 0 0.33773794400057278 0.32394906140169683 0 0.32182986930208168 0.32596230403562892 0 0.31405914671396618 0.31219123346433081 0 0.32182986930208168 0.32596230403562892 0 0.30696143214818711 0.3294049726933006 0 0.31405914671396618 0.31219123346433081 0 0.32619283138883282 0.34200822843468182 0 0.31210036231895089 0.34632719517030502 0 0.30247096982212163 0.33627918713592858 0 0.32856095434560029 0.33830394858318691 0 0.30696143214818711 0.3294049726933006 0 0.32619283138883282 0.34200822843468182 0 0.30247096982212163 0.33627918713592858 0 0.32856095434560029 0.33830394858318691 0 0.32619283138883282 0.34200822843468182 0 0.30696143214818711 0.3294049726933006 0 0.32856095434560029 0.33830394858318691 0 0.32182986930208168 0.32596230403562892 0 0.30696143214818711 0.3294049726933006 0 0.32856095434560029 0.33830394858318691 0 0.32619283138883282 0.34200822843468182 0 0.32619283138883282 0.34200822843468182 0 0.31488998246376132 0.35968844027418612 0 0.32619283138883282 0.34200822843468182 0 0.32576960421211548 0.35664993493473851 0 0.31488998246376132 0.35968844027418612 0 0.32619283138883282 0.34200822843468182 0 0.31488998246376132 0.35968844027418612 0 0.31210036231895089 0.34632719517030502 0 0.32619283138883282 0.34200822843468182 0 0.34334094907396262 0.34614965191182301 0 0.32619283138883282 0.34200822843468182 0 0.32576960421211548 0.35664993493473851 0 0.33328371072189922 0.35022024325839568 0 0.32619283138883282 0.34200822843468182 0 0.33328371072189922 0.35022024325839568 0 0.34334094907396262 0.34614965191182301 0 0.32576960421211548 0.35664993493473851 0 0.33328371072189922 0.35022024325839568 0 0.33308241571710628 0.36106815722846619 0 0.33328371072189922 0.35022024325839568 0 0.33690892864885452 0.3550559792570156 0 0.33308241571710628 0.36106815722846619 0 0.33328371072189922 0.35022024325839568 0 0.33690892864885452 0.3550559792570156 0 0.34006060010202488 0.35180435405473348 0 0.33690892864885452 0.3550559792570156 0 0.34120898805438737 0.35713116248646692 0 0.34006060010202488 0.35180435405473348 0 0.33690892864885452 0.3550559792570156 0 0.34120898805438737 0.35713116248646692 0 0.33308241571710628 0.36106815722846619 0 0.3457233702614313 0.3516508090918804 0 0.34120898805438737 0.35713116248646692 0 0.34006060010202488 0.35180435405473348 0 0.33328371072189922 0.35022024325839568 0 0.34006060010202488 0.35180435405473348 0 0.34334094907396262 0.34614965191182301 0 0.3457233702614313 0.3516508090918804 0 0.34006060010202488 0.35180435405473348 0 0.34334094907396262 0.34614965191182301 0 0.33878440704520019 0.37825206255905952 0 0.34172535878547511 0.36538946262628758 0 0.33420833257725829 0.36981275380649931 0 0.34172535878547511 0.36538946262628758 0 0.33308241571710628 0.36106815722846619 0 0.33420833257725829 0.36981275380649931 0 0.34120898805438737 0.35713116248646692 0 0.34172535878547511 0.36538946262628758 0 0.33308241571710628 0.36106815722846619 0 0.33878440704520019 0.37825206255905952 0 0.33420833257725829 0.36981275380649931 0 0.32422298152832979 0.37260360526499647 0 0.33308241571710628 0.36106815722846619 0 0.33420833257725829 0.36981275380649931 0 0.32422298152832979 0.37260360526499647 0 0.32576960421211548 0.35664993493473851 0 0.33308241571710628 0.36106815722846619 0 0.32422298152832979 0.37260360526499647 0 0.32576960421211548 0.35664993493473851 0 0.32422298152832979 0.37260360526499647 0 0.31488998246376132 0.35968844027418612 0 0.32422298152832979 0.37260360526499647 0 0.31488998246376132 0.35968844027418612 0 0.31455861084004749 0.37407779022725002 0 0.30358713353868921 0.3773686521136897 0 0.31488998246376132 0.35968844027418612 0 0.29935804120084919 0.36196627482114568 0 0.30358713353868921 0.3773686521136897 0 0.31488998246376132 0.35968844027418612 0 0.30358713353868921 0.3773686521136897 0 0.31488998246376132 0.35968844027418612 0 0.31455861084004749 0.37407779022725002 0 0.30358713353868921 0.3773686521136897 0 0.29935804120084919 0.36196627482114568 0 0.28824175939493812 0.37292648374687831 0 0.31210036231895089 0.34632719517030502 0 0.30575817788602971 0.35315882645444829 0 0.30238582276395398 0.34571326318227752 0 0.31488998246376132 0.35968844027418612 0 0.31210036231895089 0.34632719517030502 0 0.30575817788602971 0.35315882645444829 0 0.31488998246376132 0.35968844027418612 0 0.29935804120084919 0.36196627482114568 0 0.30575817788602971 0.35315882645444829 0 0.29935804120084919 0.36196627482114568 0 0.30575817788602971 0.35315882645444829 0 0.29693984784597988 0.35188213096074228 0 0.30575817788602971 0.35315882645444829 0 0.29693984784597988 0.35188213096074228 0 0.30238582276395398 0.34571326318227752 0 0.28517292965737101 0.35666470144513762 0 0.27315443937912742 0.34614792251642568 0 0.28930655744026829 0.34302656862346348 0 0.29693984784597988 0.35188213096074228 0 0.28517292965737101 0.35666470144513762 0 0.28930655744026829 0.34302656862346348 0 0.29693984784597988 0.35188213096074228 0 0.30238582276395398 0.34571326318227752 0 0.28930655744026829 0.34302656862346348 0 0.29935804120084919 0.36196627482114568 0 0.29693984784597988 0.35188213096074228 0 0.28517292965737101 0.35666470144513762 0 0.29935804120084919 0.36196627482114568 0 0.28517292965737101 0.35666470144513762 0 0.28824175939493812 0.37292648374687831 0 0.28517292965737101 0.35666470144513762 0 0.28824175939493812 0.37292648374687831 0 0.26920298454810759 0.36306496915440928 0 0.27352864533129961 0.37915044084515359 0 0.28824175939493812 0.37292648374687831 0 0.26920298454810759 0.36306496915440928 0 0.28517292965737101 0.35666470144513762 0 0.26920298454810759 0.36306496915440928 0 0.27315443937912742 0.34614792251642568 0 0.26920298454810759 0.36306496915440928 0 0.27315443937912742 0.34614792251642568 0 0.25514629116958393 0.35412835279321608 0 0.24894381713514399 0.37880390834128252 0 0.26920298454810759 0.36306496915440928 0 0.25514629116958393 0.35412835279321608 0 0.24894381713514399 0.37880390834128252 0 0.27352864533129961 0.37915044084515359 0 0.26920298454810759 0.36306496915440928 0 0.24894381713514399 0.37880390834128252 0 0.25514629116958393 0.35412835279321608 0 0.26336058923580657 0.31746322401831689 0 0.25367905488234738 0.3147546541181081 0 0.25726013892439059 0.30560913035754289 0 0.26336058923580657 0.31746322401831689 0 0.25367905488234738 0.3147546541181081 0 0.25502724668869792 0.32482110453842777 0 0.24394667980027129 0.31481092783142473 0 0.25367905488234738 0.3147546541181081 0 0.25502724668869792 0.32482110453842777 0 0.25514629116958393 0.35412835279321608 0 0.26134876520402373 0.32945279724514981 0 0.25502724668869792 0.32482110453842777 0 0.25028121271627379 0.33545871048479392 0 0.26134876520402373 0.32945279724514981 0 0.27315443937912742 0.34614792251642568 0 0.25514629116958393 0.35412835279321608 0 0.26134876520402373 0.32945279724514981 0 0.25502724668869792 0.32482110453842777 0 0.26134876520402373 0.32945279724514981 0 0.27874910825540983 0.33055014583717818 0 0.25514629116958393 0.35412835279321608 0 0.25028121271627379 0.33545871048479392 0 0.26134876520402373 0.32945279724514981 0 0.27315443937912742 0.34614792251642568 0 0.27874910825540983 0.33055014583717818 0 0.28930655744026829 0.34302656862346348 0 0.27315443937912742 0.34614792251642568 0 0.26134876520402373 0.32945279724514981 0 0.27874910825540983 0.33055014583717818 0 0.26336058923580657 0.31746322401831689 0 0.27874910825540983 0.33055014583717818 0 0.27208739742818738 0.31158108524032763 0 0.25502724668869792 0.32482110453842777 0 0.27874910825540983 0.33055014583717818 0 0.27874910825540983 0.33055014583717818 0 0.28408720425636241 0.31771213667795678 0 0.27208739742818738 0.31158108524032763 0 0.26336058923580657 0.31746322401831689 0 0.25502724668869792 0.32482110453842777 0 0.27874910825540983 0.33055014583717818 0 0.27874910825540983 0.33055014583717818 0 0.29066404882766378 0.32395481388711261 0 0.29656940539362142 0.3281703505598077 0 0.27874910825540983 0.33055014583717818 0 0.28408720425636241 0.31771213667795678 0 0.29066404882766378 0.32395481388711261 0 0.29066404882766378 0.32395481388711261 0 0.29656940539362142 0.3281703505598077 0 0.2987932232766321 0.31856048646281981 0 0.28408720425636241 0.31771213667795678 0 0.29066404882766378 0.32395481388711261 0 0.2987932232766321 0.31856048646281981 0 0.27874910825540983 0.33055014583717818 0 0.28930655744026829 0.34302656862346348 0 0.30247096982212163 0.33627918713592858 0 0.27874910825540983 0.33055014583717818 0 0.29656940539362142 0.3281703505598077 0 0.30247096982212163 0.33627918713592858 0 0.27874910825540983 0.33055014583717818 0 0.30247096982212163 0.33627918713592858 0 0.32619283138883282 0.34200822843468182 0 0.30247096982212163 0.33627918713592858 0 0.30696143214818711 0.3294049726933006 0 0.30238582276395398 0.34571326318227752 0 0.28930655744026829 0.34302656862346348 0 0.30247096982212163 0.33627918713592858 0 0.29656940539362142 0.3281703505598077 0 0.30247096982212163 0.33627918713592858 0 0.30696143214818711 0.3294049726933006 0 0.31210036231895089 0.34632719517030502 0 0.30238582276395398 0.34571326318227752 0 0.30247096982212163 0.33627918713592858 0 0.30696143214818711 0.3294049726933006 0 0.2987932232766321 0.31856048646281981 0 0.31405914671396618 0.31219123346433081 0 0.29656940539362142 0.3281703505598077 0 0.30696143214818711 0.3294049726933006 0 0.2987932232766321 0.31856048646281981 0 0.29038034942735858 0.30043340552696701 0 0.31405914671396618 0.31219123346433081 0 0.31201868414559197 0.29697184733174081 0 0.29038034942735858 0.30043340552696701 0 0.31405914671396618 0.31219123346433081 0 0.2987932232766321 0.31856048646281981 0 0.29038034942735858 0.30043340552696701 0 0.31405914671396618 0.31219123346433081 0 0.31201868414559197 0.29697184733174081 0 0.3040822508351913 0.2847499851527478 0 0.29038034942735858 0.30043340552696701 0 0.31201868414559197 0.29697184733174081 0 0.3040822508351913 0.2847499851527478 0 0.32120568424195117 0.28610547273620451 0 0.3040822508351913 0.2847499851527478 0 0.28795249598137213 0.28252469974089722 0 0.29038034942735858 0.30043340552696701 0 0.28795249598137213 0.28252469974089722 0 0.29038034942735858 0.30043340552696701 0 0.26670155214075092 0.28867557758960299 0 0.28408720425636241 0.31771213667795678 0 0.2987932232766321 0.31856048646281981 0 0.29038034942735858 0.30043340552696701 0 0.28408720425636241 0.31771213667795678 0 0.29038034942735858 0.30043340552696701 0 0.27208739742818738 0.31158108524032763 0 0.29038034942735858 0.30043340552696701 0 0.27208739742818738 0.31158108524032763 0 0.26670155214075092 0.28867557758960299 0 0.29038034942735858 0.30043340552696701 0 0.26670155214075092 0.28867557758960299 0 0.24302275485414379 0.27691774965223798 0 0.26670155214075092 0.28867557758960299 0 0.26670155214075092 0.28867557758960299 0 0.25032728595392761 0.29389521570613802 0 0.25726013892439059 0.30560913035754289 0 0.24302275485414379 0.27691774965223798 0 0.26670155214075092 0.28867557758960299 0 0.25032728595392761 0.29389521570613802 0 0.27208739742818738 0.31158108524032763 0 0.26670155214075092 0.28867557758960299 0 0.25726013892439059 0.30560913035754289 0 0.24578102621572251 0.30577498074355203 0 0.25032728595392761 0.29389521570613802 0 0.25726013892439059 0.30560913035754289 0 0.24578102621572251 0.30577498074355203 0 0.25367905488234738 0.3147546541181081 0 0.25726013892439059 0.30560913035754289 0 0.26336058923580657 0.31746322401831689 0 0.27208739742818738 0.31158108524032763 0 0.25726013892439059 0.30560913035754289 0 0.24426073703110029 0.2722718424067192 0 0.24958104109450691 0.25230577208951122 0 0.26067520381485632 0.2602295886488506 0 0.24958104109450691 0.25230577208951122 0 0.26067520381485632 0.2602295886488506 0 0.26256073417469489 0.24507255676528031 0 0.24302275485414379 0.27691774965223798 0 0.26670155214075092 0.28867557758960299 0 0.2590001471459471 0.27468623858557939 0 0.24426073703110029 0.2722718424067192 0 0.26067520381485632 0.2602295886488506 0 0.24426073703110029 0.2722718424067192 0 0.26067520381485632 0.2602295886488506 0 0.2590001471459471 0.27468623858557939 0 0.26067520381485632 0.2602295886488506 0 0.2590001471459471 0.27468623858557939 0 0.27872791064562508 0.26905472543132197 0 0.28795249598137213 0.28252469974089722 0 0.26670155214075092 0.28867557758960299 0 0.27872791064562508 0.26905472543132197 0 0.26670155214075092 0.28867557758960299 0 0.2590001471459471 0.27468623858557939 0 0.27872791064562508 0.26905472543132197 0 0.26067520381485632 0.2602295886488506 0 0.27872791064562508 0.26905472543132197 0 0.27708967059861178 0.24818733489098141 0 0.26067520381485632 0.2602295886488506 0 0.27708967059861178 0.24818733489098141 0 0.26256073417469489 0.24507255676528031 0 0.26067520381485632 0.2602295886488506 0 0.27708967059861178 0.24818733489098141 0 0.28940372456374941 0.2567547083903251 0 0.3004513707271747 0.26629631773114287 0 0.29934031489322488 0.2446743344374723 0 0.27872791064562508 0.26905472543132197 0 0.28940372456374941 0.2567547083903251 0 0.27708967059861178 0.24818733489098141 0 0.27872791064562508 0.26905472543132197 0 0.28940372456374941 0.2567547083903251 0 0.3004513707271747 0.26629631773114287 0 0.28795249598137213 0.28252469974089722 0 0.27872791064562508 0.26905472543132197 0 0.3004513707271747 0.26629631773114287 0 0.3040822508351913 0.2847499851527478 0 0.28795249598137213 0.28252469974089722 0 0.3004513707271747 0.26629631773114287 0 0.3040822508351913 0.2847499851527478 0 0.3004513707271747 0.26629631773114287 0 0.3164192123491022 0.27208193205012782 0 0.3004513707271747 0.26629631773114287 0 0.31371191979951529 0.25770746742297268 0 0.29934031489322488 0.2446743344374723 0 0.3004513707271747 0.26629631773114287 0 0.31371191979951529 0.25770746742297268 0 0.3164192123491022 0.27208193205012782 0 0.31371191979951529 0.25770746742297268 0 0.33080114681387612 0.26217450753327071 0 0.3164192123491022 0.27208193205012782 0 0.31371191979951529 0.25770746742297268 0 0.33080114681387612 0.26217450753327071 0 0.32926883526692341 0.24979421640090141 0 0.31371191979951529 0.25770746742297268 0 0.32926883526692341 0.24979421640090141 0 0.3185964477682624 0.24555511344464251 0 0.33080114681387612 0.26217450753327071 0 0.33994873494733441 0.25116528195925508 0 0.32926883526692341 0.24979421640090141 0 0.33080114681387612 0.26217450753327071 0 0.33994873494733441 0.25116528195925508 0 0.3441286367901058 0.26382432373477371 0 0.33080114681387612 0.26217450753327071 0 0.3396710865494586 0.27359562847991509 0 0.3441286367901058 0.26382432373477371 0 0.33080114681387612 0.26217450753327071 0 0.3396710865494586 0.27359562847991509 0 0.32903951236798612 0.27539657439682658 0 0.3396710865494586 0.27359562847991509 0 0.32903951236798612 0.27539657439682658 0 0.3376296757331963 0.28687849744428878 0 0.3040822508351913 0.2847499851527478 0 0.3164192123491022 0.27208193205012782 0 0.32120568424195117 0.28610547273620451 0 0.32903951236798612 0.27539657439682658 0 0.3164192123491022 0.27208193205012782 0 0.32120568424195117 0.28610547273620451 0 0.33080114681387612 0.26217450753327071 0 0.32903951236798612 0.27539657439682658 0 0.3164192123491022 0.27208193205012782 0 0.31201868414559197 0.29697184733174081 0 0.32120568424195117 0.28610547273620451 0 0.33036598950949292 0.30137913977845382 0 0.31201868414559197 0.29697184733174081 0 0.31405914671396618 0.31219123346433081 0 0.33036598950949292 0.30137913977845382 0 0.33036598950949292 0.30137913977845382 0 0.34393036364700619 0.29615337120008017 0 0.34737925326764291 0.30886787334176907 0 0.33773794400057278 0.32394906140169683 0 0.33036598950949292 0.30137913977845382 0 0.34737925326764291 0.30886787334176907 0 0.32120568424195117 0.28610547273620451 0 0.33036598950949292 0.30137913977845382 0 0.3376296757331963 0.28687849744428878 0 0.32903951236798612 0.27539657439682658 0 0.32120568424195117 0.28610547273620451 0 0.3376296757331963 0.28687849744428878 0 0.3376296757331963 0.28687849744428878 0 0.34393036364700619 0.29615337120008017 0 0.34697284011259277 0.29024165677669261 0 0.33036598950949292 0.30137913977845382 0 0.3376296757331963 0.28687849744428878 0 0.34393036364700619 0.29615337120008017 0 0.3396710865494586 0.27359562847991509 0 0.3376296757331963 0.28687849744428878 0 0.34944925693188422 0.28419112971963501 0 0.3376296757331963 0.28687849744428878 0 0.34944925693188422 0.28419112971963501 0 0.34697284011259277 0.29024165677669261 0 0.34393036364700619 0.29615337120008017 0 0.34697284011259277 0.29024165677669261 0 0.35702056253471409 0.29378668528184232 0 0.34944925693188422 0.28419112971963501 0 0.34697284011259277 0.29024165677669261 0 0.35702056253471409 0.29378668528184232 0 0.34944925693188422 0.28419112971963501 0 0.3618172380033583 0.28628360008861797 0 0.34944925693188422 0.28419112971963501 0 0.35702056253471409 0.29378668528184232 0 0.3618172380033583 0.28628360008861797 0 0.34944925693188422 0.28419112971963501 0 0.3618172380033583 0.28628360008861797 0 0.35620874925689822 0.27826963339768812 0 0.35256090032715459 0.31952546346938648 0 0.34737925326764291 0.30886787334176907 0 0.36553753094451191 0.29643445011233988 0 0.35702056253471409 0.29378668528184232 0 0.34737925326764291 0.30886787334176907 0 0.36553753094451191 0.29643445011233988 0 0.34393036364700619 0.29615337120008017 0 0.35702056253471409 0.29378668528184232 0 0.34737925326764291 0.30886787334176907 0 0.35702056253471409 0.29378668528184232 0 0.34737925326764291 0.30886787334176907 0 0.37414645328193519 0.3128012320960098 0 0.36503015345601753 0.32477731191258741 0 0.36553753094451191 0.29643445011233988 0 0.36503015345601753 0.32477731191258741 0 0.36553753094451191 0.29643445011233988 0 0.37414645328193519 0.3128012320960098 0 0.36553753094451191 0.29643445011233988 0 0.37867169709560672 0.3005176146304519 0 0.36553753094451191 0.29643445011233988 0 0.37867169709560672 0.3005176146304519 0 0.36570746347778449 0.28694176583829611 0 0.37313391095740889 0.29342418943954202 0 0.38261895231173182 0.28980292717707973 0 0.36570746347778449 0.28694176583829611 0 0.37458215287975438 0.28252861051669792 0 0.38261895231173182 0.28980292717707973 0 0.36570746347778449 0.28694176583829611 0 0.38261895231173182 0.28980292717707973 0 0.3618172380033583 0.28628360008861797 0 0.36583165681374219 0.28000414121496292 0 0.35620874925689822 0.27826963339768812 0 0.36570746347778449 0.28694176583829611 0 0.3618172380033583 0.28628360008861797 0 0.36234776087031051 0.29160650431968749 0 0.36570746347778449 0.28694176583829611 0 0.3618172380033583 0.28628360008861797 0 0.36570746347778449 0.28694176583829611 0 0.36583165681374219 0.28000414121496292 0 0.36570746347778449 0.28694176583829611 0 0.3618172380033583 0.28628360008861797 0 0.36583165681374219 0.28000414121496292 0 0.3618172380033583 0.28628360008861797 0 0.36583165681374219 0.28000414121496292 0 0.35702056253471409 0.29378668528184232 0 0.36553753094451191 0.29643445011233988 0 0.36570746347778449 0.28694176583829611 0 0.36553753094451191 0.29643445011233988 0 0.35702056253471409 0.29378668528184232 0 0.3618172380033583 0.28628360008861797 0 0.35702056253471409 0.29378668528184232 0 0.36234776087031051 0.29160650431968749 0 0.36553753094451191 0.29643445011233988 0 0.36570746347778449 0.28694176583829611 0 0.36234776087031051 0.29160650431968749 0 0.36553753094451191 0.29643445011233988 0 0.35702056253471409 0.29378668528184232 0 0.3618172380033583 0.28628360008861797 0 0.36234776087031051 0.29160650431968749 0 0.36553753094451191 0.29643445011233988 0 0.37313391095740889 0.29342418943954202 0 0.37867169709560672 0.3005176146304519 0 0.36570746347778449 0.28694176583829611 0 0.36553753094451191 0.29643445011233988 0 0.37313391095740889 0.29342418943954202 0 0.36570746347778449 0.28694176583829611 0 0.37458215287975438 0.28252861051669792 0 0.36583165681374219 0.28000414121496292 0 0.36583165681374219 0.28000414121496292 0 0.38005005016128879 0.25776335855313409 0 0.37909789749430889 0.27528395404985773 0 0.36583165681374219 0.28000414121496292 0 0.38005005016128879 0.25776335855313409 0 0.36583165681374219 0.28000414121496292 0 0.35887746288452571 0.26050376847707141 0 0.35422382179901402 0.26756690433632407 0 0.37458215287975438 0.28252861051669792 0 0.36583165681374219 0.28000414121496292 0 0.37909789749430889 0.27528395404985773 0 0.36583165681374219 0.28000414121496292 0 0.36635132434040613 0.25097473958727912 0 0.36583165681374219 0.28000414121496292 0 0.36635132434040613 0.25097473958727912 0 0.38005005016128879 0.25776335855313409 0 0.36583165681374219 0.28000414121496292 0 0.36635132434040613 0.25097473958727912 0 0.35887746288452571 0.26050376847707141 0 0.36635132434040613 0.25097473958727912 0 0.38005005016128879 0.25776335855313409 0 0.37427103944133788 0.24689262406039111 0 0.36635132434040613 0.25097473958727912 0 0.35887746288452571 0.26050376847707141 0 0.35757525357500769 0.24883182877581581 0 0.35887746288452571 0.26050376847707141 0 0.35040525789445809 0.25514122847097531 0 0.35422382179901402 0.26756690433632407 0 0.35887746288452571 0.26050376847707141 0 0.35040525789445809 0.25514122847097531 0 0.35757525357500769 0.24883182877581581 0 0.35040525789445809 0.25514122847097531 0 0.35757525357500769 0.24883182877581581 0 0.34821065876602009 0.2475327866197026 0 0.33994873494733441 0.25116528195925508 0 0.35040525789445809 0.25514122847097531 0 0.3441286367901058 0.26382432373477371 0 0.33994873494733441 0.25116528195925508 0 0.35040525789445809 0.25514122847097531 0 0.34821065876602009 0.2475327866197026 0 0.35040525789445809 0.25514122847097531 0 0.3441286367901058 0.26382432373477371 0 0.35422382179901402 0.26756690433632407 0 0.3441286367901058 0.26382432373477371 0 0.34921898576148291 0.27339786729459847 0 0.35422382179901402 0.26756690433632407 0 0.3396710865494586 0.27359562847991509 0 0.3441286367901058 0.26382432373477371 0 0.34921898576148291 0.27339786729459847 0 0.3396710865494586 0.27359562847991509 0 0.34944925693188422 0.28419112971963501 0 0.34921898576148291 0.27339786729459847 0 0.34944925693188422 0.28419112971963501 0 0.34921898576148291 0.27339786729459847 0 0.35620874925689822 0.27826963339768812 0 0.36583165681374219 0.28000414121496292 0 0.35620874925689822 0.27826963339768812 0 0.35422382179901402 0.26756690433632407 0 0.34921898576148291 0.27339786729459847 0 0.35620874925689822 0.27826963339768812 0 0.35422382179901402 0.26756690433632407 0 0.40497202271828647 0.27680121500101201 0 0.39108567493485752 0.26682030211382568 0 0.40704685781216071 0.25972272225837512 0 0.40497202271828647 0.27680121500101201 0 0.39108567493485752 0.26682030211382568 0 0.38261895231173182 0.28980292717707973 0 0.39108567493485752 0.26682030211382568 0 0.39955239755798222 0.24383767705057141 0 0.40704685781216071 0.25972272225837512 0 0.39955239755798222 0.24383767705057141 0 0.41107206742428798 0.247576707337921 0 0.39108567493485752 0.26682030211382568 0 0.40704685781216071 0.25972272225837512 0 0.39955239755798222 0.24383767705057141 0 0.39108567493485752 0.26682030211382568 0 0.38005005016128879 0.25776335855313409 0 0.39955239755798222 0.24383767705057141 0 0.39108567493485752 0.26682030211382568 0 0.38261895231173182 0.28980292717707973 0 0.39108567493485752 0.26682030211382568 0 0.38005005016128879 0.25776335855313409 0 0.37909789749430889 0.27528395404985773 0 0.39108567493485752 0.26682030211382568 0 0.37909789749430889 0.27528395404985773 0 0.38261895231173182 0.28980292717707973 0 0.37458215287975438 0.28252861051669792 0 0.37909789749430889 0.27528395404985773 0 0.38261895231173182 0.28980292717707973 0 0.37313391095740889 0.29342418943954202 0 0.38261895231173182 0.28980292717707973 0 0.37867169709560672 0.3005176146304519 0 0.38261895231173182 0.28980292717707973 0 0.37867169709560672 0.3005176146304519 0 0.37867169709560672 0.3005176146304519 0 0.38730363059451889 0.31040374699190848 0 0.40521045258582328 0.30876801313507862 0 0.38261895231173182 0.28980292717707973 0 0.37867169709560672 0.3005176146304519 0 0.40521045258582328 0.30876801313507862 0 0.37414645328193519 0.3128012320960098 0 0.37867169709560672 0.3005176146304519 0 0.37414645328193519 0.3128012320960098 0 0.37867169709560672 0.3005176146304519 0 0.38730363059451889 0.31040374699190848 0 0.37867169709560672 0.3005176146304519 0 0.40521045258582328 0.30876801313507862 0 0.38261895231173182 0.28980292717707973 0 0.40521045258582328 0.30876801313507862 0 0.40714592527432131 0.29395251019054291 0 0.40497202271828647 0.27680121500101201 0 0.38261895231173182 0.28980292717707973 0 0.40714592527432131 0.29395251019054291 0 0.38261895231173182 0.28980292717707973 0 0.40714592527432131 0.29395251019054291 0 0.40714592527432131 0.29395251019054291 0 0.43167289823690991 0.29810209320401138 0 0.42479449751719139 0.28091428025742499 0 0.40497202271828647 0.27680121500101201 0 0.40714592527432131 0.29395251019054291 0 0.42479449751719139 0.28091428025742499 0 0.40714592527432131 0.29395251019054291 0 0.43167289823690991 0.29810209320401138 0 0.40521045258582328 0.30876801313507862 0 0.41740974944231951 0.3021260640735276 0 0.42560972167222338 0.30768163976447771 0 0.40714592527432131 0.29395251019054291 0 0.41740974944231951 0.3021260640735276 0 0.43167289823690991 0.29810209320401138 0 0.40521045258582328 0.30876801313507862 0 0.42560972167222338 0.30768163976447771 0 0.43174920807603989 0.31701841163970551 0 0.40521045258582328 0.30876801313507862 0 0.40714592527432131 0.29395251019054291 0 0.41740974944231951 0.3021260640735276 0 0.41740974944231951 0.3021260640735276 0 0.42560972167222338 0.30768163976447771 0 0.43167289823690991 0.29810209320401138 0 0.42560972167222338 0.30768163976447771 0 0.43167289823690991 0.29810209320401138 0 0.43686042908885281 0.30592977572015972 0 0.42560972167222338 0.30768163976447771 0 0.43686042908885281 0.30592977572015972 0 0.43395922524677999 0.31568369369467131 0 0.42560972167222338 0.30768163976447771 0 0.43395922524677999 0.31568369369467131 0 0.43167289823690991 0.29810209320401138 0 0.42479449751719139 0.28091428025742499 0 0.44581404527473439 0.28907858168765338 0 0.42479449751719139 0.28091428025742499 0 0.43734233920043297 0.27118925552391959 0 0.44581404527473439 0.28907858168765338 0 0.42479449751719139 0.28091428025742499 0 0.43734233920043297 0.27118925552391959 0 0.41951998188724032 0.26640370932978591 0 0.40497202271828647 0.27680121500101201 0 0.42479449751719139 0.28091428025742499 0 0.41951998188724032 0.26640370932978591 0 0.40497202271828647 0.27680121500101201 0 0.41951998188724032 0.26640370932978591 0 0.40704685781216071 0.25972272225837512 0 0.40704685781216071 0.25972272225837512 0 0.41913095870798223 0.25375598195856169 0 0.41107206742428798 0.247576707337921 0 0.41951998188724032 0.26640370932978591 0 0.40704685781216071 0.25972272225837512 0 0.41913095870798223 0.25375598195856169 0 0.41913095870798223 0.25375598195856169 0 0.43161461710054738 0.25556414026238022 0 0.42813652695449439 0.2440396552281682 0 0.43734233920043297 0.27118925552391959 0 0.41951998188724032 0.26640370932978591 0 0.43161461710054738 0.25556414026238022 0 0.41951998188724032 0.26640370932978591 0 0.41913095870798223 0.25375598195856169 0 0.43161461710054738 0.25556414026238022 0 0.43161461710054738 0.25556414026238022 0 0.44557561560782388 0.26076856568179058 0 0.44292143030962311 0.24441997396670359 0 0.44557561560782388 0.26076856568179058 0 0.45814290280531622 0.2552685536325231 0 0.44292143030962311 0.24441997396670359 0 0.43734233920043297 0.27118925552391959 0 0.43161461710054738 0.25556414026238022 0 0.44557561560782388 0.26076856568179058 0 0.43734233920043297 0.27118925552391959 0 0.45785678862319978 0.27740090502342662 0 0.44581404527473439 0.28907858168765338 0 0.43734233920043297 0.27118925552391959 0 0.44557561560782388 0.26076856568179058 0 0.45785678862319978 0.27740090502342662 0 0.45785678862319978 0.27740090502342662 0 0.45814290280531622 0.2552685536325231 0 0.47759649712696173 0.26736249769232318 0 0.44557561560782388 0.26076856568179058 0 0.45785678862319978 0.27740090502342662 0 0.45814290280531622 0.2552685536325231 0 0.47759649712696173 0.26736249769232318 0 0.5 0.24694290656950069 0 0.47378082791383752 0.24637555301280281 0 0.45814290280531622 0.2552685536325231 0 0.47759649712696173 0.26736249769232318 0 0.47378082791383752 0.24637555301280281 0 0.47759649712696173 0.26736249769232318 0 0.47192206196441699 0.28130216735167679 0 0.48407832070250301 0.28541476321785542 0 0.45785678862319978 0.27740090502342662 0 0.47759649712696173 0.26736249769232318 0 0.47192206196441699 0.28130216735167679 0 0.50000000000000189 0.27579902296260772 0 0.48407832070250301 0.28541476321785542 0 0.47759649712696173 0.26736249769232318 0 0.50000000000000189 0.27579902296260772 0 0.48407832070250301 0.28541476321785542 0 0.47759649712696173 0.26736249769232318 0 0.50000000000000189 0.27579902296260772 0 0.5 0.24694290656950069 0 0.5 0.30037759573259232 0 0.482751514094377 0.2985053612907847 0 0.47877109427000158 0.31319858273958889 0 0.5 0.30037759573259232 0 0.48407832070250301 0.28541476321785542 0 0.482751514094377 0.2985053612907847 0 0.50000000000000189 0.27579902296260772 0 0.5 0.30037759573259232 0 0.48407832070250301 0.28541476321785542 0 0.47192206196441699 0.28130216735167679 0 0.48407832070250301 0.28541476321785542 0 0.46815664140500363 0.29503050347310222 0 0.48407832070250301 0.28541476321785542 0 0.46815664140500363 0.29503050347310222 0 0.48407832070250301 0.28541476321785542 0 0.482751514094377 0.2985053612907847 0 0.46815664140500363 0.29503050347310222 0 0.46972954271049377 0.31152480298644969 0 0.46815664140500363 0.29503050347310222 0 0.47877109427000158 0.31319858273958889 0 0.46815664140500363 0.29503050347310222 0 0.47877109427000158 0.31319858273958889 0 0.482751514094377 0.2985053612907847 0 0.46815664140500363 0.29503050347310222 0 0.47877109427000158 0.31319858273958889 0 0.46972954271049377 0.31152480298644969 0 0.46487015377295771 0.30371855341197412 0 0.4552980301857586 0.31319887733047352 0 0.46972954271049377 0.31152480298644969 0 0.46487015377295771 0.30371855341197412 0 0.46815664140500363 0.29503050347310222 0 0.45619987119949851 0.30225167621747939 0 0.46815664140500363 0.29503050347310222 0 0.46487015377295771 0.30371855341197412 0 0.45619987119949851 0.30225167621747939 0 0.46815664140500363 0.29503050347310222 0 0.46487015377295771 0.30371855341197412 0 0.45619987119949851 0.30225167621747939 0 0.46487015377295771 0.30371855341197412 0 0.45619987119949851 0.30225167621747939 0 0.4552980301857586 0.31319887733047352 0 0.45785678862319978 0.27740090502342662 0 0.46815664140500363 0.29503050347310222 0 0.45700683662560898 0.29094041660041531 0 0.45785678862319978 0.27740090502342662 0 0.46815664140500363 0.29503050347310222 0 0.45785678862319978 0.27740090502342662 0 0.47192206196441699 0.28130216735167679 0 0.46815664140500363 0.29503050347310222 0 0.45619987119949851 0.30225167621747939 0 0.46815664140500363 0.29503050347310222 0 0.45700683662560898 0.29094041660041531 0 0.45785678862319978 0.27740090502342662 0 0.45700683662560898 0.29094041660041531 0 0.44581404527473439 0.28907858168765338 0 0.43167289823690991 0.29810209320401138 0 0.45619987119949851 0.30225167621747939 0 0.44581404527473439 0.28907858168765338 0 0.45619987119949851 0.30225167621747939 0 0.45700683662560898 0.29094041660041531 0 0.44581404527473439 0.28907858168765338 0 0.45619987119949851 0.30225167621747939 0 0.4552980301857586 0.31319887733047352 0 0.43395922524677999 0.31568369369467131 0 0.43167289823690991 0.29810209320401138 0 0.43686042908885281 0.30592977572015972 0 0.45619987119949851 0.30225167621747939 0 0.43167289823690991 0.29810209320401138 0 0.45619987119949851 0.30225167621747939 0 0.43686042908885281 0.30592977572015972 0 0.45619987119949851 0.30225167621747939 0 0.43395922524677999 0.31568369369467131 0 0.45619987119949851 0.30225167621747939 0 0.43395922524677999 0.31568369369467131 0 0.44952767268135951 0.3225454009459055 0 0.4552980301857586 0.31319887733047352 0 0.43708162362382053 0.31867615905282992 0 0.44952767268135951 0.3225454009459055 0 0.4569729608555998 0.33773975389426392 0 0.43708162362382053 0.31867615905282992 0 0.4552980301857586 0.31319887733047352 0 0.43395922524677999 0.31568369369467131 0 0.43708162362382053 0.31867615905282992 0 0.44952767268135951 0.3225454009459055 0 0.43708162362382053 0.31867615905282992 0 0.44088792889162393 0.33482766527893099 0 0.4569729608555998 0.33773975389426392 0 0.44659429952307039 0.34607415731999203 0 0.4569729608555998 0.33773975389426392 0 0.43708162362382053 0.31867615905282992 0 0.44088792889162393 0.33482766527893099 0 0.4569729608555998 0.33773975389426392 0 0.43708162362382053 0.31867615905282992 0 0.44088792889162393 0.33482766527893099 0 0.44659429952307039 0.34607415731999203 0 0.43362329918720011 0.34325875026630531 0 0.4569729608555998 0.33773975389426392 0 0.4669560916057412 0.33040558790620811 0 0.47396387808262319 0.34052815315002188 0 0.44952767268135951 0.3225454009459055 0 0.4569729608555998 0.33773975389426392 0 0.45902449342483692 0.3247427868043129 0 0.4569729608555998 0.33773975389426392 0 0.4669560916057412 0.33040558790620811 0 0.45902449342483692 0.3247427868043129 0 0.4552980301857586 0.31319887733047352 0 0.45902449342483692 0.3247427868043129 0 0.46636771179572528 0.31982431394471339 0 0.44952767268135951 0.3225454009459055 0 0.4552980301857586 0.31319887733047352 0 0.45902449342483692 0.3247427868043129 0 0.4669560916057412 0.33040558790620811 0 0.45902449342483692 0.3247427868043129 0 0.46636771179572528 0.31982431394471339 0 0.46972954271049377 0.31152480298644969 0 0.4552980301857586 0.31319887733047352 0 0.46636771179572528 0.31982431394471339 0 0.46636771179572528 0.31982431394471339 0 0.47877109427000158 0.31319858273958889 0 0.47904890392157451 0.32700935497226608 0 0.47877109427000158 0.31319858273958889 0 0.48938554713500032 0.33136666200607529 0 0.47877109427000158 0.31319858273958889 0 0.47904890392157451 0.32700935497226608 0 0.48938554713500032 0.33136666200607529 0 0.46972954271049377 0.31152480298644969 0 0.46636771179572528 0.31982431394471339 0 0.47877109427000158 0.31319858273958889 0 0.4669560916057412 0.33040558790620811 0 0.46636771179572528 0.31982431394471339 0 0.47904890392157451 0.32700935497226608 0 0.47904890392157451 0.32700935497226608 0 0.47396387808262319 0.34052815315002188 0 0.48952445196078759 0.34995258736359353 0 0.47904890392157451 0.32700935497226608 0 0.48952445196078759 0.34995258736359353 0 0.4669560916057412 0.33040558790620811 0 0.47904890392157451 0.32700935497226608 0 0.47396387808262319 0.34052815315002188 0 0.47904890392157451 0.32700935497226608 0 0.48938554713500032 0.33136666200607529 0 0.48952445196078759 0.34995258736359353 0 0.48938554713500032 0.33136666200607529 0 0.5 0.3249561685025768 0 0.49999999999999939 0.34953474127256151 0 0.48938554713500032 0.33136666200607529 0 0.49999999999999939 0.34953474127256151 0 0.48952445196078759 0.34995258736359353 0 0.48938554713500032 0.33136666200607529 0 0.49999999999999939 0.34953474127256151 0 0.5 0.30037759573259232 0 0.47877109427000158 0.31319858273958889 0 0.5 0.3249561685025768 0 0.47877109427000158 0.31319858273958889 0 0.48938554713500032 0.33136666200607529 0 0.5 0.3249561685025768 0 0.50000000000000044 0.37289581975492098 0 0.48952445196078759 0.34995258736359353 0 0.4768642980873789 0.35680334873569819 0 0.4768642980873789 0.35680334873569819 0 0.49675563531915801 0.37586694357713252 0 0.50000000000000044 0.37289581975492098 0 0.4768642980873789 0.35680334873569819 0 0.49675563531915801 0.37586694357713252 0 0.4768642980873789 0.35680334873569819 0 0.48261458006138758 0.37080081153620859 0 0.49675563531915801 0.37586694357713252 0 0.50000000000000044 0.37289581975492098 0 0.48952445196078759 0.34995258736359353 0 0.48261458006138758 0.37080081153620859 0 0.49675563531915801 0.37586694357713252 0 0.48707565763160482 0.37657627955291412 0 0.50000000000000044 0.37289581975492098 0 0.49999999999999939 0.34953474127256151 0 0.48952445196078759 0.34995258736359353 0 0.47396387808262319 0.34052815315002188 0 0.48952445196078759 0.34995258736359353 0 0.4768642980873789 0.35680334873569819 0 0.4569729608555998 0.33773975389426392 0 0.47396387808262319 0.34052815315002188 0 0.4768642980873789 0.35680334873569819 0 0.4768642980873789 0.35680334873569819 0 0.47096867719040247 0.3701615152611224 0 0.46607798380286919 0.36166023698560718 0 0.4768642980873789 0.35680334873569819 0 0.48261458006138758 0.37080081153620859 0 0.47096867719040247 0.3701615152611224 0 0.48261458006138758 0.37080081153620859 0 0.47096867719040247 0.3701615152611224 0 0.47986299712011088 0.37821433182753161 0 0.47096867719040247 0.3701615152611224 0 0.45833209422708632 0.36549425752391818 0 0.46154710706157992 0.37910705922615517 0 0.47096867719040247 0.3701615152611224 0 0.46607798380286919 0.36166023698560718 0 0.45833209422708632 0.36549425752391818 0 0.45833209422708632 0.36549425752391818 0 0.45814686570660929 0.35418182642169033 0 0.44334044297431918 0.36036279073876942 0 0.46607798380286919 0.36166023698560718 0 0.45833209422708632 0.36549425752391818 0 0.45814686570660929 0.35418182642169033 0 0.45833209422708632 0.36549425752391818 0 0.45125819431854303 0.37266219343521673 0 0.46154710706157992 0.37910705922615517 0 0.4569729608555998 0.33773975389426392 0 0.4768642980873789 0.35680334873569819 0 0.4768642980873789 0.35680334873569819 0 0.46607798380286919 0.36166023698560718 0 0.45814686570660929 0.35418182642169033 0 0.4569729608555998 0.33773975389426392 0 0.45814686570660929 0.35418182642169033 0 0.44659429952307039 0.34607415731999203 0 0.4569729608555998 0.33773975389426392 0 0.4768642980873789 0.35680334873569819 0 0.45814686570660929 0.35418182642169033 0 0.44659429952307039 0.34607415731999203 0 0.44334044297431918 0.36036279073876942 0 0.43362329918720011 0.34325875026630531 0 0.45814686570660929 0.35418182642169033 0 0.44659429952307039 0.34607415731999203 0 0.44334044297431918 0.36036279073876942 0 0.44334044297431918 0.36036279073876942 0 0.42959527045953011 0.37071386997355471 0 0.44178679438315172 0.37603692357284318 0 0.45125819431854303 0.37266219343521673 0 0.44334044297431918 0.36036279073876942 0 0.44178679438315172 0.37603692357284318 0 0.45833209422708632 0.36549425752391818 0 0.45125819431854303 0.37266219343521673 0 0.44334044297431918 0.36036279073876942 0 0.44334044297431918 0.36036279073876942 0 0.42959527045953011 0.37071386997355471 0 0.42577769817203992 0.35764495041157812 0 0.42959527045953011 0.37071386997355471 0 0.4140941595679164 0.36714213523984918 0 0.42577769817203992 0.35764495041157812 0 0.42959527045953011 0.37071386997355471 0 0.4140941595679164 0.36714213523984918 0 0.4197812846920278 0.38099119116310431 0 0.4140941595679164 0.36714213523984918 0 0.40853459069257192 0.35305686046785473 0 0.39938951412975932 0.36971623032570078 0 0.4140941595679164 0.36714213523984918 0 0.39938951412975932 0.36971623032570078 0 0.40986314528584639 0.38260678876636811 0 0.40853459069257192 0.35305686046785473 0 0.42577769817203992 0.35764495041157812 0 0.41835026688412358 0.34193094249347111 0 0.4140941595679164 0.36714213523984918 0 0.40853459069257192 0.35305686046785473 0 0.42577769817203992 0.35764495041157812 0 0.40853459069257192 0.35305686046785473 0 0.41835026688412358 0.34193094249347111 0 0.39619497085685212 0.33849104048023471 0 0.42577769817203992 0.35764495041157812 0 0.43362329918720011 0.34325875026630531 0 0.41835026688412358 0.34193094249347111 0 0.44334044297431918 0.36036279073876942 0 0.42577769817203992 0.35764495041157812 0 0.43362329918720011 0.34325875026630531 0 0.44088792889162393 0.33482766527893099 0 0.43362329918720011 0.34325875026630531 0 0.43068396266968778 0.32985011448453261 0 0.43362329918720011 0.34325875026630531 0 0.43068396266968778 0.32985011448453261 0 0.41835026688412358 0.34193094249347111 0 0.43174920807603989 0.31701841163970551 0 0.41397208946644598 0.32775472605997019 0 0.43068396266968778 0.32985011448453261 0 0.43174920807603989 0.31701841163970551 0 0.41397208946644598 0.32775472605997019 0 0.44088792889162393 0.33482766527893099 0 0.43068396266968778 0.32985011448453261 0 0.43708162362382053 0.31867615905282992 0 0.42560972167222338 0.30768163976447771 0 0.43395922524677999 0.31568369369467131 0 0.43174920807603989 0.31701841163970551 0 0.43395922524677999 0.31568369369467131 0 0.43174920807603989 0.31701841163970551 0 0.43395922524677999 0.31568369369467131 0 0.43708162362382053 0.31867615905282992 0 0.43174920807603989 0.31701841163970551 0 0.43395922524677999 0.31568369369467131 0 0.43708162362382053 0.31867615905282992 0 0.43708162362382053 0.31867615905282992 0 0.43174920807603989 0.31701841163970551 0 0.43068396266968778 0.32985011448453261 0 0.43708162362382053 0.31867615905282992 0 0.43174920807603989 0.31701841163970551 0 0.40521045258582328 0.30876801313507862 0 0.43174920807603989 0.31701841163970551 0 0.40521045258582328 0.30876801313507862 0 0.43174920807603989 0.31701841163970551 0 0.41397208946644598 0.32775472605997019 0 0.41397208946644598 0.32775472605997019 0 0.41835026688412358 0.34193094249347111 0 0.39619497085685212 0.33849104048023471 0 0.43068396266968778 0.32985011448453261 0 0.41397208946644598 0.32775472605997019 0 0.41835026688412358 0.34193094249347111 0 0.41397208946644598 0.32775472605997019 0 0.39619497085685212 0.33849104048023471 0 0.41397208946644598 0.32775472605997019 0 0.39619497085685212 0.33849104048023471 0 0.39118591941471048 0.31952812810609388 0 0.38730363059451889 0.31040374699190848 0 0.40521045258582328 0.30876801313507862 0 0.39118591941471048 0.31952812810609388 0 0.40521045258582328 0.30876801313507862 0 0.41397208946644598 0.32775472605997019 0 0.39118591941471048 0.31952812810609388 0 0.37414645328193519 0.3128012320960098 0 0.38730363059451889 0.31040374699190848 0 0.39118591941471048 0.31952812810609388 0 0.37414645328193519 0.3128012320960098 0 0.39118591941471048 0.31952812810609388 0 0.37877842683148039 0.33264527538485522 0 0.39619497085685212 0.33849104048023471 0 0.39118591941471048 0.31952812810609388 0 0.37877842683148039 0.33264527538485522 0 0.39619497085685212 0.33849104048023471 0 0.37877842683148039 0.33264527538485522 0 0.37841785224725821 0.34922735490049922 0 0.39619497085685212 0.33849104048023471 0 0.37841785224725821 0.34922735490049922 0 0.39619497085685212 0.33849104048023471 0 0.37841785224725821 0.34922735490049922 0 0.39110314333304569 0.35014580113335958 0 0.37841785224725821 0.34922735490049922 0 0.38336637584947159 0.35449044394961521 0 0.39110314333304569 0.35014580113335958 0 0.38336637584947159 0.35449044394961521 0 0.38528452947678138 0.36145526116492299 0 0.39110314333304569 0.35014580113335958 0 0.37841785224725821 0.34922735490049922 0 0.38336637584947159 0.35449044394961521 0 0.3772749386964504 0.35837404866577849 0 0.38336637584947159 0.35449044394961521 0 0.3772749386964504 0.35837404866577849 0 0.38528452947678138 0.36145526116492299 0 0.36980978898430661 0.36182130204151819 0 0.3772749386964504 0.35837404866577849 0 0.38528452947678138 0.36145526116492299 0 0.37623863347481051 0.37208402158164849 0 0.38716519939612931 0.3734320715049268 0 0.37880707307297379 0.3779258023652034 0 0.37623863347481051 0.37208402158164849 0 0.38716519939612931 0.3734320715049268 0 0.38528452947678138 0.36145526116492299 0 0.38716519939612931 0.3734320715049268 0 0.38528452947678138 0.36145526116492299 0 0.39938951412975932 0.36971623032570078 0 0.40853459069257192 0.35305686046785473 0 0.38528452947678138 0.36145526116492299 0 0.39938951412975932 0.36971623032570078 0 0.38716519939612931 0.3734320715049268 0 0.39938951412975932 0.36971623032570078 0 0.39439650614741939 0.38076433530242287 0 0.40853459069257192 0.35305686046785473 0 0.38528452947678138 0.36145526116492299 0 0.40853459069257192 0.35305686046785473 0 0.39619497085685212 0.33849104048023471 0 0.39110314333304569 0.35014580113335958 0 0.40853459069257192 0.35305686046785473 0 0.38528452947678138 0.36145526116492299 0 0.39110314333304569 0.35014580113335958 0 0.39770320845959389 0.39480425827899068 0 0.40545253575144591 0.4038007812221821 0 0.40630876937947802 0.41575069828405847 0 0.39770320845959389 0.39480425827899068 0 0.40630876937947802 0.41575069828405847 0 0.39770320845959389 0.39480425827899068 0 0.39439650614741939 0.38076433530242287 0 0.4133275363308479 0.40387240212188141 0 0.39770320845959389 0.39480425827899068 0 0.39765804798290361 0.39695699672229512 0 0.40630876937947802 0.41575069828405847 0 0.39439650614741939 0.38076433530242287 0 0.4133275363308479 0.40387240212188141 0 0.39765804798290361 0.39695699672229512 0 0.3934273625539435 0.39553930243234442 0 0.39276775632581679 0.39992339697056489 0 0.39770320845959389 0.39480425827899068 0 0.39765804798290361 0.39695699672229512 0 0.3934273625539435 0.39553930243234442 0 0.3934273625539435 0.39553930243234442 0 0.39133780600155599 0.38956296140390262 0 0.38851393547135721 0.39568832721653058 0 0.39770320845959389 0.39480425827899068 0 0.3934273625539435 0.39553930243234442 0 0.39133780600155599 0.38956296140390262 0 0.3934273625539435 0.39553930243234442 0 0.39276775632581679 0.39992339697056489 0 0.38851393547135721 0.39568832721653058 0 0.39276775632581679 0.39992339697056489 0 0.38993562130703718 0.40273708586651752 0 0.39430381431384232 0.40869527261513727 0 0.39765804798290361 0.39695699672229512 0 0.39276775632581679 0.39992339697056489 0 0.39430381431384232 0.40869527261513727 0 0.39770320845959389 0.39480425827899068 0 0.40545253575144591 0.4038007812221821 0 0.4133275363308479 0.40387240212188141 0 0.39439650614741939 0.38076433530242287 0 0.4133275363308479 0.40387240212188141 0 0.40986314528584639 0.38260678876636811 0 0.39938951412975932 0.36971623032570078 0 0.39439650614741939 0.38076433530242287 0 0.40986314528584639 0.38260678876636811 0 0.39770320845959389 0.39480425827899068 0 0.39439650614741939 0.38076433530242287 0 0.39133780600155599 0.38956296140390262 0 0.39439650614741939 0.38076433530242287 0 0.39133780600155599 0.38956296140390262 0 0.38433505495498538 0.38550613091660518 0 0.39133780600155599 0.38956296140390262 0 0.38433505495498538 0.38550613091660518 0 0.38851393547135721 0.39568832721653058 0 0.38716519939612931 0.3734320715049268 0 0.39439650614741939 0.38076433530242287 0 0.38433505495498538 0.38550613091660518 0 0.38716519939612931 0.3734320715049268 0 0.38433505495498538 0.38550613091660518 0 0.37880707307297379 0.3779258023652034 0 0.38433505495498538 0.38550613091660518 0 0.37517630538744778 0.38547406535059092 0 0.37811520933996012 0.39537691109530099 0 0.38433505495498538 0.38550613091660518 0 0.37880707307297379 0.3779258023652034 0 0.37517630538744778 0.38547406535059092 0 0.37811520933996012 0.39537691109530099 0 0.38851393547135721 0.39568832721653058 0 0.38434789238996497 0.40158312775937183 0 0.38433505495498538 0.38550613091660518 0 0.37811520933996012 0.39537691109530099 0 0.38851393547135721 0.39568832721653058 0 0.38993562130703718 0.40273708586651752 0 0.38434789238996497 0.40158312775937183 0 0.38656884713991829 0.40818441039985659 0 0.39276775632581679 0.39992339697056489 0 0.38851393547135721 0.39568832721653058 0 0.38993562130703718 0.40273708586651752 0 0.38851393547135721 0.39568832721653058 0 0.38993562130703718 0.40273708586651752 0 0.38434789238996497 0.40158312775937183 0 0.38434789238996497 0.40158312775937183 0 0.37888769643824299 0.40574512257321099 0 0.38656884713991829 0.40818441039985659 0 0.36988594190605589 0.40561167343669169 0 0.37811520933996012 0.39537691109530099 0 0.37888769643824299 0.40574512257321099 0 0.37811520933996012 0.39537691109530099 0 0.38434789238996497 0.40158312775937183 0 0.37888769643824299 0.40574512257321099 0 0.36988594190605589 0.40561167343669169 0 0.37888769643824299 0.40574512257321099 0 0.37952508420030873 0.41535832055639788 0 0.37888769643824299 0.40574512257321099 0 0.37952508420030873 0.41535832055639788 0 0.38656884713991829 0.40818441039985659 0 0.37952508420030873 0.41535832055639788 0 0.37893735127561751 0.42790874671565737 0 0.38890741478719337 0.4221413981304819 0 0.37952508420030873 0.41535832055639788 0 0.38875919808037301 0.4145313081266041 0 0.38890741478719337 0.4221413981304819 0 0.38875919808037301 0.4145313081266041 0 0.38656884713991829 0.40818441039985659 0 0.39430381431384232 0.40869527261513727 0 0.37952508420030873 0.41535832055639788 0 0.38875919808037301 0.4145313081266041 0 0.38656884713991829 0.40818441039985659 0 0.38993562130703718 0.40273708586651752 0 0.38656884713991829 0.40818441039985659 0 0.39430381431384232 0.40869527261513727 0 0.3742445611835935 0.43887280006648799 0 0.37893735127561751 0.42790874671565737 0 0.3847232984035806 0.43868172218616458 0 0.37893735127561751 0.42790874671565737 0 0.38890741478719337 0.4221413981304819 0 0.39145469874609518 0.43163266844054587 0 0.37893735127561751 0.42790874671565737 0 0.39145469874609518 0.43163266844054587 0 0.3847232984035806 0.43868172218616458 0 0.40048646195252319 0.43312889900947782 0 0.40395145516355241 0.41986042282622132 0 0.41024486234420121 0.44276384893014742 0 0.39145469874609518 0.43163266844054587 0 0.40048646195252319 0.43312889900947782 0 0.39588311195692111 0.44432265967568102 0 0.39145469874609518 0.43163266844054587 0 0.39650301956394862 0.42483497411477322 0 0.40048646195252319 0.43312889900947782 0 0.38890741478719337 0.4221413981304819 0 0.39145469874609518 0.43163266844054587 0 0.39650301956394862 0.42483497411477322 0 0.39650301956394862 0.42483497411477322 0 0.40048646195252319 0.43312889900947782 0 0.40395145516355241 0.41986042282622132 0 0.39765804798290361 0.39695699672229512 0 0.40395145516355241 0.41986042282622132 0 0.39765804798290361 0.39695699672229512 0 0.39430381431384232 0.40869527261513727 0 0.40395145516355241 0.41986042282622132 0 0.39765804798290361 0.39695699672229512 0 0.40395145516355241 0.41986042282622132 0 0.40630876937947802 0.41575069828405847 0 0.38875919808037301 0.4145313081266041 0 0.39430381431384232 0.40869527261513727 0 0.39449082996060181 0.41827713893114671 0 0.39430381431384232 0.40869527261513727 0 0.39449082996060181 0.41827713893114671 0 0.40395145516355241 0.41986042282622132 0 0.39650301956394862 0.42483497411477322 0 0.39449082996060181 0.41827713893114671 0 0.40395145516355241 0.41986042282622132 0 0.38890741478719337 0.4221413981304819 0 0.39650301956394862 0.42483497411477322 0 0.39449082996060181 0.41827713893114671 0 0.38875919808037301 0.4145313081266041 0 0.38890741478719337 0.4221413981304819 0 0.39449082996060181 0.41827713893114671 0 0.40937603386865612 0.40904386557072558 0 0.41369274324014232 0.41490473153158458 0 0.4133275363308479 0.40387240212188141 0 0.40545253575144591 0.4038007812221821 0 0.40937603386865612 0.40904386557072558 0 0.40630876937947802 0.41575069828405847 0 0.41369274324014232 0.41490473153158458 0 0.43225856651427641 0.42698046894133967 0 0.4133275363308479 0.40387240212188141 0 0.40937603386865612 0.40904386557072558 0 0.40630876937947802 0.41575069828405847 0 0.41369274324014232 0.41490473153158458 0 0.40395145516355241 0.41986042282622132 0 0.41024486234420121 0.44276384893014742 0 0.40630876937947802 0.41575069828405847 0 0.41491433029936159 0.43669713828912649 0 0.40630876937947802 0.41575069828405847 0 0.41369274324014232 0.41490473153158458 0 0.41491433029936159 0.43669713828912649 0 0.41369274324014232 0.41490473153158458 0 0.41491433029936159 0.43669713828912649 0 0.43225856651427641 0.42698046894133967 0 0.40395145516355241 0.41986042282622132 0 0.40630876937947802 0.41575069828405847 0 0.41491433029936159 0.43669713828912649 0 0.40395145516355241 0.41986042282622132 0 0.41491433029936159 0.43669713828912649 0 0.41024486234420121 0.44276384893014742 0 0.41369274324014232 0.41490473153158458 0 0.41491433029936159 0.43669713828912649 0 0.41491433029936159 0.43669713828912649 0 0.43225856651427641 0.42698046894133967 0 0.43263556337151948 0.44598017118886779 0 0.43225856651427641 0.42698046894133967 0 0.42871397689134488 0.41013484678201562 0 0.44250862484659592 0.41714981422872921 0 0.43225856651427641 0.42698046894133967 0 0.4133275363308479 0.40387240212188141 0 0.43225856651427641 0.42698046894133967 0 0.42871397689134488 0.41013484678201562 0 0.4133275363308479 0.40387240212188141 0 0.42871397689134488 0.41013484678201562 0 0.42862609296643778 0.39418662579173053 0 0.4440274373144999 0.40219503454065431 0 0.42871397689134488 0.41013484678201562 0 0.42862609296643778 0.39418662579173053 0 0.42221436925893469 0.40033707828521931 0 0.42862609296643778 0.39418662579173053 0 0.42221436925893469 0.40033707828521931 0 0.41818987084710812 0.39315443844524989 0 0.42221436925893469 0.40033707828521931 0 0.41818987084710812 0.39315443844524989 0 0.4133275363308479 0.40387240212188141 0 0.42871397689134488 0.41013484678201562 0 0.42221436925893469 0.40033707828521931 0 0.4133275363308479 0.40387240212188141 0 0.41818987084710812 0.39315443844524989 0 0.4133275363308479 0.40387240212188141 0 0.40986314528584639 0.38260678876636811 0 0.40545253575144591 0.4038007812221821 0 0.40937603386865612 0.40904386557072558 0 0.4133275363308479 0.40387240212188141 0 0.41818987084710812 0.39315443844524989 0 0.40986314528584639 0.38260678876636811 0 0.4197812846920278 0.38099119116310431 0 0.4140941595679164 0.36714213523984918 0 0.40986314528584639 0.38260678876636811 0 0.4197812846920278 0.38099119116310431 0 0.42959527045953011 0.37071386997355471 0 0.4197812846920278 0.38099119116310431 0 0.43279124296772542 0.38210522871518438 0 0.42862609296643778 0.39418662579173053 0 0.41818987084710812 0.39315443844524989 0 0.4197812846920278 0.38099119116310431 0 0.42862609296643778 0.39418662579173053 0 0.4197812846920278 0.38099119116310431 0 0.43279124296772542 0.38210522871518438 0 0.42862609296643778 0.39418662579173053 0 0.43279124296772542 0.38210522871518438 0 0.44079199772818872 0.38861213056626293 0 0.42959527045953011 0.37071386997355471 0 0.43279124296772542 0.38210522871518438 0 0.44178679438315172 0.37603692357284318 0 0.44079199772818872 0.38861213056626293 0 0.45052752381690819 0.38164290170321502 0 0.45687502102824301 0.39146268451000532 0 0.43279124296772542 0.38210522871518438 0 0.44178679438315172 0.37603692357284318 0 0.44079199772818872 0.38861213056626293 0 0.44178679438315172 0.37603692357284318 0 0.44079199772818872 0.38861213056626293 0 0.45052752381690819 0.38164290170321502 0 0.50000000000000044 0.37289581975492098 0 0.48757326677027341 0.40016812370679422 0 0.5 0.44456073439881338 0 0.45125819431854303 0.37266219343521673 0 0.44178679438315172 0.37603692357284318 0 0.45052752381690819 0.38164290170321502 0 0.44079199772818872 0.38861213056626293 0 0.4440274373144999 0.40219503454065431 0 0.45687502102824301 0.39146268451000532 0 0.4440274373144999 0.40219503454065431 0 0.45974609248874682 0.40221534926393282 0 0.45506207058173298 0.41149927560270849 0 0.42862609296643778 0.39418662579173053 0 0.44079199772818872 0.38861213056626293 0 0.4440274373144999 0.40219503454065431 0 0.4440274373144999 0.40219503454065431 0 0.45974609248874682 0.40221534926393282 0 0.45687502102824301 0.39146268451000532 0 0.45974609248874682 0.40221534926393282 0 0.45687502102824301 0.39146268451000532 0 0.46800212497593457 0.39823039437600111 0 0.45687502102824301 0.39146268451000532 0 0.46800212497593457 0.39823039437600111 0 0.46894855770549781 0.38856823693609099 0 0.45974609248874682 0.40221534926393282 0 0.46800212497593457 0.39823039437600111 0 0.46699268458155713 0.4070572615244793 0 0.45125819431854303 0.37266219343521673 0 0.45052752381690819 0.38164290170321502 0 0.46154710706157992 0.37910705922615517 0 0.45052752381690819 0.38164290170321502 0 0.45687502102824301 0.39146268451000532 0 0.46154710706157992 0.37910705922615517 0 0.45687502102824301 0.39146268451000532 0 0.46154710706157992 0.37910705922615517 0 0.46894855770549781 0.38856823693609099 0 0.46154710706157992 0.37910705922615517 0 0.47198333652159291 0.38068602051623279 0 0.46894855770549781 0.38856823693609099 0 0.47096867719040247 0.3701615152611224 0 0.46154710706157992 0.37910705922615517 0 0.47198333652159291 0.38068602051623279 0 0.47096867719040247 0.3701615152611224 0 0.47198333652159291 0.38068602051623279 0 0.47986299712011088 0.37821433182753161 0 0.47198333652159291 0.38068602051623279 0 0.47986299712011088 0.37821433182753161 0 0.4783433494286482 0.38638256499195489 0 0.47986299712011088 0.37821433182753161 0 0.4783433494286482 0.38638256499195489 0 0.48535324511985378 0.38195280956847483 0 0.47986299712011088 0.37821433182753161 0 0.48707565763160482 0.37657627955291412 0 0.48535324511985378 0.38195280956847483 0 0.48261458006138758 0.37080081153620859 0 0.47986299712011088 0.37821433182753161 0 0.48707565763160482 0.37657627955291412 0 0.4783433494286482 0.38638256499195489 0 0.47694040721698849 0.39554069799619729 0 0.48452768235284882 0.38991648926059619 0 0.4783433494286482 0.38638256499195489 0 0.48535324511985378 0.38195280956847483 0 0.48452768235284882 0.38991648926059619 0 0.47198333652159291 0.38068602051623279 0 0.4783433494286482 0.38638256499195489 0 0.46894855770549781 0.38856823693609099 0 0.4783433494286482 0.38638256499195489 0 0.46894855770549781 0.38856823693609099 0 0.47694040721698849 0.39554069799619729 0 0.46800212497593457 0.39823039437600111 0 0.46894855770549781 0.38856823693609099 0 0.47694040721698849 0.39554069799619729 0 0.46800212497593457 0.39823039437600111 0 0.4760651837058929 0.40362135807206839 0 0.47694040721698849 0.39554069799619729 0 0.46800212497593457 0.39823039437600111 0 0.4760651837058929 0.40362135807206839 0 0.46699268458155713 0.4070572615244793 0 0.4760651837058929 0.40362135807206839 0 0.47694040721698849 0.39554069799619729 0 0.48757326677027341 0.40016812370679422 0 0.47694040721698849 0.39554069799619729 0 0.48757326677027341 0.40016812370679422 0 0.48452768235284882 0.38991648926059619 0 0.48757326677027341 0.40016812370679422 0 0.49675563531915801 0.37586694357713252 0 0.48452768235284882 0.38991648926059619 0 0.50000000000000044 0.37289581975492098 0 0.48757326677027341 0.40016812370679422 0 0.49675563531915801 0.37586694357713252 0 0.49675563531915801 0.37586694357713252 0 0.48707565763160482 0.37657627955291412 0 0.48535324511985378 0.38195280956847483 0 0.49675563531915801 0.37586694357713252 0 0.48535324511985378 0.38195280956847483 0 0.48452768235284882 0.38991648926059619 0 0.48757326677027341 0.40016812370679422 0 0.47845278312504502 0.41899043300842109 0 0.5 0.44456073439881338 0 0.47845278312504502 0.41899043300842109 0 0.47674431230252462 0.43269630000789522 0 0.5 0.44456073439881338 0 0.4760651837058929 0.40362135807206839 0 0.48757326677027341 0.40016812370679422 0 0.47845278312504502 0.41899043300842109 0 0.4760651837058929 0.40362135807206839 0 0.47845278312504502 0.41899043300842109 0 0.46699268458155713 0.4070572615244793 0 0.47845278312504502 0.41899043300842109 0 0.46699268458155713 0.4070572615244793 0 0.46593805396531113 0.420951955544207 0 0.47845278312504502 0.41899043300842109 0 0.47674431230252462 0.43269630000789522 0 0.46593805396531113 0.420951955544207 0 0.47674431230252462 0.43269630000789522 0 0.46403640069382113 0.43479309876021632 0 0.46593805396531113 0.420951955544207 0 0.46403640069382113 0.43479309876021632 0 0.45363515260991683 0.42363866239290449 0 0.46593805396531113 0.420951955544207 0 0.46403640069382113 0.43479309876021632 0 0.45363515260991683 0.42363866239290449 0 0.45418228639817448 0.43667268501479117 0 0.46699268458155713 0.4070572615244793 0 0.46593805396531113 0.420951955544207 0 0.45506207058173298 0.41149927560270849 0 0.45363515260991683 0.42363866239290449 0 0.46593805396531113 0.420951955544207 0 0.45506207058173298 0.41149927560270849 0 0.45974609248874682 0.40221534926393282 0 0.46699268458155713 0.4070572615244793 0 0.45506207058173298 0.41149927560270849 0 0.4440274373144999 0.40219503454065431 0 0.45506207058173298 0.41149927560270849 0 0.44250862484659592 0.41714981422872921 0 0.45363515260991683 0.42363866239290449 0 0.45506207058173298 0.41149927560270849 0 0.44250862484659592 0.41714981422872921 0 0.42871397689134488 0.41013484678201562 0 0.4440274373144999 0.40219503454065431 0 0.44250862484659592 0.41714981422872921 0 0.43225856651427641 0.42698046894133967 0 0.44675484541333371 0.43090603326771248 0 0.45118959669770492 0.4500885357607981 0 0.45363515260991683 0.42363866239290449 0 0.45418228639817448 0.43667268501479117 0 0.44675484541333371 0.43090603326771248 0 0.45363515260991683 0.42363866239290449 0 0.44250862484659592 0.41714981422872921 0 0.44675484541333371 0.43090603326771248 0 0.43225856651427641 0.42698046894133967 0 0.44250862484659592 0.41714981422872921 0 0.44675484541333371 0.43090603326771248 0 0.43225856651427641 0.42698046894133967 0 0.45118959669770492 0.4500885357607981 0 0.45418228639817448 0.43667268501479117 0 0.44675484541333371 0.43090603326771248 0 0.45118959669770492 0.4500885357607981 0 0.43225856651427641 0.42698046894133967 0 0.45118959669770492 0.4500885357607981 0 0.43263556337151948 0.44598017118886779 0 0.45118959669770492 0.4500885357607981 0 0.42605194530299217 0.46380674644192382 0 0.45118959669770492 0.4500885357607981 0 0.4458516975899432 0.46933889016033348 0 0.42605194530299217 0.46380674644192382 0 0.45118959669770492 0.4500885357607981 0 0.46481940316880671 0.46672569050719992 0 0.46481940316880671 0.46672569050719992 0 0.45800399650324319 0.44636975667798201 0 0.47576086399288792 0.45133106934632428 0 0.45118959669770492 0.4500885357607981 0 0.46481940316880671 0.46672569050719992 0 0.45800399650324319 0.44636975667798201 0 0.45118959669770492 0.4500885357607981 0 0.46481940316880671 0.46672569050719992 0 0.4458516975899432 0.46933889016033348 0 0.46403640069382113 0.43479309876021632 0 0.45800399650324319 0.44636975667798201 0 0.47576086399288792 0.45133106934632428 0 0.45418228639817448 0.43667268501479117 0 0.45118959669770492 0.4500885357607981 0 0.45800399650324319 0.44636975667798201 0 0.46403640069382113 0.43479309876021632 0 0.45418228639817448 0.43667268501479117 0 0.45800399650324319 0.44636975667798201 0 0.45118959669770492 0.4500885357607981 0 0.45800399650324319 0.44636975667798201 0 0.47674431230252462 0.43269630000789522 0 0.46403640069382113 0.43479309876021632 0 0.47576086399288792 0.45133106934632428 0 0.47576086399288792 0.45133106934632428 0 0.5 0.44456073439881338 0 0.47844920963990839 0.4833628452536019 0 0.46481940316880671 0.46672569050719992 0 0.47576086399288792 0.45133106934632428 0 0.47844920963990839 0.4833628452536019 0 0.47674431230252462 0.43269630000789522 0 0.47576086399288792 0.45133106934632428 0 0.5 0.44456073439881338 0 0.5 0.44456073439881338 0 0.5 0.5 0 0.47844920963990839 0.4833628452536019 0 0.49207901611101151 0.50000000000000266 0 0.47844920963990839 0.4833628452536019 0 0.5 0.5 0 0.49207901611101151 0.50000000000000266 0 0.47844920963990839 0.4833628452536019 0 0.46481940316880671 0.46672569050719992 0 0.47844920963990839 0.4833628452536019 0 0.49207901611101151 0.50000000000000266 0 0.47844920963990839 0.4833628452536019 0 0.4665002344958904 0.5 0 0.47844920963990839 0.4833628452536019 0 0.4665002344958904 0.5 0 0.45371084368833109 0.48417010487078449 0 0.4665002344958904 0.5 0 0.45371084368833109 0.48417010487078449 0 0.44092145288076939 0.49999999999999872 0 0.46481940316880671 0.46672569050719992 0 0.47844920963990839 0.4833628452536019 0 0.45371084368833109 0.48417010487078449 0 0.46481940316880671 0.46672569050719992 0 0.45371084368833109 0.48417010487078449 0 0.4458516975899432 0.46933889016033348 0 0.45371084368833109 0.48417010487078449 0 0.4458516975899432 0.46933889016033348 0 0.43348669909188109 0.48190337322096111 0 0.45371084368833109 0.48417010487078449 0 0.44092145288076939 0.49999999999999872 0 0.43348669909188109 0.48190337322096111 0 0.44092145288076939 0.49999999999999872 0 0.4290969593255719 0.49068904574003031 0 0.42597222132102841 0.499999999999998 0 0.42597222132102841 0.499999999999998 0 0.4180466322481648 0.49257559381191363 0 0.42165325163212919 0.48428209072202022 0 0.44092145288076939 0.49999999999999872 0 0.43348669909188109 0.48190337322096111 0 0.42597222132102841 0.499999999999998 0 0.42165325163212919 0.48428209072202022 0 0.44092145288076939 0.49999999999999872 0 0.4290969593255719 0.49068904574003031 0 0.43348669909188109 0.48190337322096111 0 0.4290969593255719 0.49068904574003031 0 0.42597222132102841 0.499999999999998 0 0.42165325163212919 0.48428209072202022 0 0.4290969593255719 0.49068904574003031 0 0.42165325163212919 0.48428209072202022 0 0.43348669909188109 0.48190337322096111 0 0.4180466322481648 0.49257559381191363 0 0.40049418947400739 0.5 0 0.40547921350336469 0.48913286816557672 0 0.42597222132102841 0.499999999999998 0 0.4180466322481648 0.49257559381191363 0 0.40049418947400739 0.5 0 0.4180466322481648 0.49257559381191363 0 0.41048484651153838 0.48252128610182587 0 0.40547921350336469 0.48913286816557672 0 0.41048484651153838 0.48252128610182587 0 0.41733428194323002 0.46856418144404249 0 0.40025565874156999 0.4778843899052535 0 0.42165325163212919 0.48428209072202022 0 0.41733428194323002 0.46856418144404249 0 0.4180466322481648 0.49257559381191363 0 0.41048484651153838 0.48252128610182587 0 0.41733428194323002 0.46856418144404249 0 0.4180466322481648 0.49257559381191363 0 0.42165325163212919 0.48428209072202022 0 0.41733428194323002 0.46856418144404249 0 0.41733428194323002 0.46856418144404249 0 0.40549458527493731 0.46790762743163178 0 0.40025565874156999 0.4778843899052535 0 0.41733428194323002 0.46856418144404249 0 0.40025565874156999 0.4778843899052535 0 0.4180466322481648 0.49257559381191363 0 0.41733428194323002 0.46856418144404249 0 0.42165325163212919 0.48428209072202022 0 0.43348669909188109 0.48190337322096111 0 0.41733428194323002 0.46856418144404249 0 0.43348669909188109 0.48190337322096111 0 0.42605194530299217 0.46380674644192382 0 0.41733428194323002 0.46856418144404249 0 0.4458516975899432 0.46933889016033348 0 0.43348669909188109 0.48190337322096111 0 0.42605194530299217 0.46380674644192382 0 0.43348669909188109 0.48190337322096111 0 0.42605194530299217 0.46380674644192382 0 0.45118959669770492 0.4500885357607981 0 0.42605194530299217 0.46380674644192382 0 0.43263556337151948 0.44598017118886779 0 0.41491433029936159 0.43669713828912649 0 0.42605194530299217 0.46380674644192382 0 0.43263556337151948 0.44598017118886779 0 0.41491433029936159 0.43669713828912649 0 0.41653826952485101 0.46566727503407329 0 0.41491433029936159 0.43669713828912649 0 0.42605194530299217 0.46380674644192382 0 0.41491433029936159 0.43669713828912649 0 0.41024486234420121 0.44276384893014742 0 0.41653826952485101 0.46566727503407329 0 0.41024486234420121 0.44276384893014742 0 0.41653826952485101 0.46566727503407329 0 0.40470596041954882 0.45575558613120082 0 0.41491433029936159 0.43669713828912649 0 0.42605194530299217 0.46380674644192382 0 0.41653826952485101 0.46566727503407329 0 0.41024486234420121 0.44276384893014742 0 0.41653826952485101 0.46566727503407329 0 0.42605194530299217 0.46380674644192382 0 0.41733428194323002 0.46856418144404249 0 0.42605194530299217 0.46380674644192382 0 0.41733428194323002 0.46856418144404249 0 0.41653826952485101 0.46566727503407329 0 0.41733428194323002 0.46856418144404249 0 0.41653826952485101 0.46566727503407329 0 0.41653826952485101 0.46566727503407329 0 0.40549458527493731 0.46790762743163178 0 0.40470596041954882 0.45575558613120082 0 0.41733428194323002 0.46856418144404249 0 0.41653826952485101 0.46566727503407329 0 0.40549458527493731 0.46790762743163178 0 0.40549458527493731 0.46790762743163178 0 0.39536897299683199 0.45811651958447031 0 0.38800561519550109 0.46962971076441962 0 0.40549458527493731 0.46790762743163178 0 0.40470596041954882 0.45575558613120082 0 0.39536897299683199 0.45811651958447031 0 0.40048646195252319 0.43312889900947782 0 0.41024486234420121 0.44276384893014742 0 0.39588311195692111 0.44432265967568102 0 0.41024486234420121 0.44276384893014742 0 0.40470596041954882 0.45575558613120082 0 0.39588311195692111 0.44432265967568102 0 0.40470596041954882 0.45575558613120082 0 0.39536897299683199 0.45811651958447031 0 0.39588311195692111 0.44432265967568102 0 0.39536897299683199 0.45811651958447031 0 0.39588311195692111 0.44432265967568102 0 0.38089784698284818 0.45196319391871392 0 0.39145469874609518 0.43163266844054587 0 0.39588311195692111 0.44432265967568102 0 0.3847232984035806 0.43868172218616458 0 0.39588311195692111 0.44432265967568102 0 0.3847232984035806 0.43868172218616458 0 0.38089784698284818 0.45196319391871392 0 0.3742445611835935 0.43887280006648799 0 0.3847232984035806 0.43868172218616458 0 0.38089784698284818 0.45196319391871392 0 0.36848803393361051 0.47337290783989822 0 0.38089784698284818 0.45196319391871392 0 0.38800561519550109 0.46962971076441962 0 0.39536897299683199 0.45811651958447031 0 0.38089784698284818 0.45196319391871392 0 0.38800561519550109 0.46962971076441962 0 0.36848803393361051 0.47337290783989822 0 0.38800561519550109 0.46962971076441962 0 0.3837918522628127 0.48686907834501608 0 0.37501615762698648 0.5 0 0.39523790787608942 0.48949788889075191 0 0.40049418947400739 0.5 0 0.3837918522628127 0.48686907834501608 0 0.37501615762698648 0.5 0 0.39523790787608942 0.48949788889075191 0 0.3837918522628127 0.48686907834501608 0 0.39523790787608942 0.48949788889075191 0 0.40025565874156999 0.4778843899052535 0 0.39523790787608942 0.48949788889075191 0 0.40049418947400739 0.5 0 0.40547921350336469 0.48913286816557672 0 0.39523790787608942 0.48949788889075191 0 0.40547921350336469 0.48913286816557672 0 0.40025565874156999 0.4778843899052535 0 0.38800561519550109 0.46962971076441962 0 0.3837918522628127 0.48686907834501608 0 0.40025565874156999 0.4778843899052535 0 0.3837918522628127 0.48686907834501608 0 0.40025565874156999 0.4778843899052535 0 0.40549458527493731 0.46790762743163178 0 0.38800561519550109 0.46962971076441962 0 0.40025565874156999 0.4778843899052535 0 0.41048484651153838 0.48252128610182587 0 0.40547921350336469 0.48913286816557672 0 0.40025565874156999 0.4778843899052535 0 0.32419793175240152 0.079736104285651282 0 0.34625604946285171 0.090337750008136569 0 0.34441169415805661 0.065931546772670782 0 0.32419793175240152 0.079736104285651282 0 0.34441169415805661 0.065931546772670782 0 0.32915990680775548 0.054114760186316002 0 0.32419793175240152 0.079736104285651282 0 0.32915990680775548 0.054114760186316002 0 0.3096919982175666 0.055846016602439298 0 0.32419793175240152 0.079736104285651282 0 0.3096919982175666 0.055846016602439298 0 0.30712827729519471 0.079305777702848981 0 0.32419793175240152 0.079736104285651282 0 0.30712827729519471 0.079305777702848981 0 0.31095572378782738 0.1031467016689932 0 0.32419793175240152 0.079736104285651282 0 0.32828376294534273 0.1138355092495273 0 0.34625604946285171 0.090337750008136569 0 0.32419793175240152 0.079736104285651282 0 0.32828376294534273 0.1138355092495273 0 0.31095572378782738 0.1031467016689932 0 0.32828376294534273 0.1138355092495273 0 0.31095572378782738 0.1031467016689932 0 0.3126643392444467 0.126693121428755 0 0.32828376294534273 0.1138355092495273 0 0.35605963763986248 0.1214469130246147 0 0.33850618851811171 0.13621938155618121 0 0.32828376294534273 0.1138355092495273 0 0.34625604946285171 0.090337750008136569 0 0.32828376294534273 0.1138355092495273 0 0.35605963763986248 0.1214469130246147 0 0.34625604946285171 0.090337750008136569 0 0.35605963763986248 0.1214469130246147 0 0.37326045262454233 0.10667709446177109 0 0.34625604946285171 0.090337750008136569 0 0.35605963763986248 0.1214469130246147 0 0.37326045262454233 0.10667709446177109 0 0.38130287908035471 0.1308622534414727 0 0.37326045262454233 0.10667709446177109 0 0.34625604946285171 0.090337750008136569 0 0.37894588349604069 0.084055118791055303 0 0.34625604946285171 0.090337750008136569 0 0.36422833598036031 0.06683999076674603 0 0.37894588349604069 0.084055118791055303 0 0.34625604946285171 0.090337750008136569 0 0.36422833598036031 0.06683999076674603 0 0.34625604946285171 0.090337750008136569 0 0.34441169415805661 0.065931546772670782 0 0.36422833598036031 0.06683999076674603 0 0.36422833598036031 0.06683999076674603 0 0.369721840317497 0.044825910495318172 0 0.38220062249786901 0.043342231525355247 0 0.36422833598036031 0.06683999076674603 0 0.38220062249786901 0.043342231525355247 0 0.36422833598036031 0.06683999076674603 0 0.369721840317497 0.044825910495318172 0 0.35532881332042809 0.054107006067792278 0 0.369721840317497 0.044825910495318172 0 0.36342264015473408 0.035128524690355427 0 0.35384197591736399 0.041442456342446317 0 0.369721840317497 0.044825910495318172 0 0.35384197591736399 0.041442456342446317 0 0.35532881332042809 0.054107006067792278 0 0.369721840317497 0.044825910495318172 0 0.37450317888499479 0.031820825249951917 0 0.36342264015473408 0.035128524690355427 0 0.35384197591736399 0.041442456342446317 0 0.34406873762819329 0.050760871354089791 0 0.33760129793736238 0.038208587401223543 0 0.35384197591736399 0.041442456342446317 0 0.34703144391173502 0.032630358118887599 0 0.33760129793736238 0.038208587401223543 0 0.35384197591736399 0.041442456342446317 0 0.34703144391173502 0.032630358118887599 0 0.35527094099703938 0.02660337239532045 0 0.36342264015473408 0.035128524690355427 0 0.35384197591736399 0.041442456342446317 0 0.35527094099703938 0.02660337239532045 0 0.34441169415805661 0.065931546772670782 0 0.36422833598036031 0.06683999076674603 0 0.35532881332042809 0.054107006067792278 0 0.35384197591736399 0.041442456342446317 0 0.34406873762819329 0.050760871354089791 0 0.35532881332042809 0.054107006067792278 0 0.34441169415805661 0.065931546772670782 0 0.34406873762819329 0.050760871354089791 0 0.35532881332042809 0.054107006067792278 0 0.35736389915298061 0.00063665490991555995 0 0.37564971735227343 0.011996702266959191 0 0.37123315316528049 -0.0059080134716723524 0 0.35736389915298061 0.00063665490991555995 0 0.37564971735227343 0.011996702266959191 0 0.36406728916096842 0.019010449137276141 0 0.35736389915298061 0.00063665490991555995 0 0.37564971735227343 0.011996702266959191 0 0.36342264015473408 0.035128524690355427 0 0.36406728916096842 0.019010449137276141 0 0.35527094099703938 0.02660337239532045 0 0.37450317888499479 0.031820825249951917 0 0.36342264015473408 0.035128524690355427 0 0.36406728916096842 0.019010449137276141 0 0.37450317888499479 0.031820825249951917 0 0.36406728916096842 0.019010449137276141 0 0.37564971735227343 0.011996702266959191 0 0.34703144391173502 0.032630358118887599 0 0.35527094099703938 0.02660337239532045 0 0.34323730448635031 0.02256047526247007 0 0.35527094099703938 0.02660337239532045 0 0.35250398622934581 0.01496441570798298 0 0.34323730448635031 0.02256047526247007 0 0.36406728916096842 0.019010449137276141 0 0.35527094099703938 0.02660337239532045 0 0.35250398622934581 0.01496441570798298 0 0.36406728916096842 0.019010449137276141 0 0.35250398622934581 0.01496441570798298 0 0.35736389915298061 0.00063665490991555995 0 0.35250398622934581 0.01496441570798298 0 0.34195716841797491 0.0079068327735252568 0 0.34323730448635031 0.02256047526247007 0 0.35250398622934581 0.01496441570798298 0 0.35736389915298061 0.00063665490991555995 0 0.34195716841797491 0.0079068327735252568 0 0.35736389915298061 0.00063665490991555995 0 0.34195716841797491 0.0079068327735252568 0 0.35114907972309722 -0.0032242958153672718 0 0.35736389915298061 0.00063665490991555995 0 0.34195716841797491 0.0079068327735252568 0 0.34195716841797491 0.0079068327735252568 0 0.32545890658654791 0.0038092771472236732 0 0.33806859054193572 -0.0039740695336162304 0 0.34195716841797491 0.0079068327735252568 0 0.32903279468670932 0.021859642297717329 0 0.32545890658654791 0.0038092771472236732 0 0.34195716841797491 0.0079068327735252568 0 0.35114907972309722 -0.0032242958153672718 0 0.33806859054193572 -0.0039740695336162304 0 0.34703144391173502 0.032630358118887599 0 0.34323730448635031 0.02256047526247007 0 0.33760129793736238 0.038208587401223543 0 0.32903279468670932 0.021859642297717329 0 0.34323730448635031 0.02256047526247007 0 0.33760129793736238 0.038208587401223543 0 0.34195716841797491 0.0079068327735252568 0 0.32903279468670932 0.021859642297717329 0 0.34323730448635031 0.02256047526247007 0 0.32903279468670932 0.021859642297717329 0 0.31461629855228312 0.033471180094131033 0 0.31175244855422712 0.012033705115178459 0 0.32903279468670932 0.021859642297717329 0 0.33760129793736238 0.038208587401223543 0 0.31461629855228312 0.033471180094131033 0 0.32545890658654791 0.0038092771472236732 0 0.31175244855422712 0.012033705115178459 0 0.30477680989958089 -0.0049793546113547143 0 0.32903279468670932 0.021859642297717329 0 0.32545890658654791 0.0038092771472236732 0 0.31175244855422712 0.012033705115178459 0 0.34406873762819329 0.050760871354089791 0 0.32915990680775548 0.054114760186316002 0 0.33760129793736238 0.038208587401223543 0 0.34441169415805661 0.065931546772670782 0 0.34406873762819329 0.050760871354089791 0 0.32915990680775548 0.054114760186316002 0 0.32915990680775548 0.054114760186316002 0 0.33760129793736238 0.038208587401223543 0 0.31461629855228312 0.033471180094131033 0 0.32915990680775548 0.054114760186316002 0 0.31461629855228312 0.033471180094131033 0 0.3096919982175666 0.055846016602439298 0 0.31461629855228312 0.033471180094131033 0 0.3096919982175666 0.055846016602439298 0 0.29269030472197233 0.03582426731724097 0 0.3096919982175666 0.055846016602439298 0 0.29269030472197233 0.03582426731724097 0 0.29269030472197233 0.03582426731724097 0 0.2824269746327992 0.052930646230535082 0 0.26928370787922401 0.03614047540925111 0 0.3096919982175666 0.055846016602439298 0 0.29269030472197233 0.03582426731724097 0 0.2824269746327992 0.052930646230535082 0 0.3096919982175666 0.055846016602439298 0 0.2824269746327992 0.052930646230535082 0 0.29438928040976953 0.068895212762162941 0 0.31175244855422712 0.012033705115178459 0 0.2940854558789176 0.017410094800271749 0 0.30477680989958089 -0.0049793546113547143 0 0.31461629855228312 0.033471180094131033 0 0.31175244855422712 0.012033705115178459 0 0.2940854558789176 0.017410094800271749 0 0.31461629855228312 0.033471180094131033 0 0.29269030472197233 0.03582426731724097 0 0.2940854558789176 0.017410094800271749 0 0.29269030472197233 0.03582426731724097 0 0.275688611226378 0.015802518032042679 0 0.29269030472197233 0.03582426731724097 0 0.2940854558789176 0.017410094800271749 0 0.275688611226378 0.015802518032042679 0 0.2940854558789176 0.017410094800271749 0 0.275688611226378 0.015802518032042679 0 0.28240757554887569 -0.0024959148755900888 0 0.2940854558789176 0.017410094800271749 0 0.28240757554887569 -0.0024959148755900888 0 0.30477680989958089 -0.0049793546113547143 0 0.275688611226378 0.015802518032042679 0 0.25868691773078378 -0.0042192312531555004 0 0.275688611226378 0.015802518032042679 0 0.25868691773078378 -0.0042192312531555004 0 0.28240757554887569 -0.0024959148755900888 0 0.275688611226378 0.015802518032042679 0 0.25206775426450562 0.023560084385940479 0 0.26928370787922401 0.03614047540925111 0 0.29269030472197233 0.03582426731724097 0 0.275688611226378 0.015802518032042679 0 0.26928370787922401 0.03614047540925111 0 0.275688611226378 0.015802518032042679 0 0.25206775426450562 0.023560084385940479 0 0.25868691773078378 -0.0042192312531555004 0 0.2824269746327992 0.052930646230535082 0 0.25241456432054732 0.053491376617146237 0 0.27441050831447811 0.071198114906072321 0 0.2824269746327992 0.052930646230535082 0 0.26928370787922401 0.03614047540925111 0 0.25241456432054732 0.053491376617146237 0 0.25206775426450562 0.023560084385940479 0 0.26928370787922401 0.03614047540925111 0 0.25241456432054732 0.053491376617146237 0 0.25241456432054732 0.053491376617146237 0 0.27441050831447811 0.071198114906072321 0 0.24750218216726619 0.070779404123979775 0 0.25241456432054732 0.053491376617146237 0 0.26293294183978128 0.078212370970451139 0 0.25241456432054732 0.053491376617146237 0 0.26293294183978128 0.078212370970451139 0 0.27441050831447811 0.071198114906072321 0 0.26293294183978128 0.078212370970451139 0 0.2524803748395158 0.086678666702512744 0 0.26875395259055851 0.090338794769621686 0 0.2524803748395158 0.086678666702512744 0 0.26875395259055851 0.090338794769621686 0 0.25392674148429573 0.095803574724503654 0 0.24750218216726619 0.070779404123979775 0 0.26293294183978128 0.078212370970451139 0 0.2524803748395158 0.086678666702512744 0 0.2524803748395158 0.086678666702512744 0 0.25392674148429573 0.095803574724503654 0 0.26875395259055851 0.090338794769621686 0 0.25392674148429573 0.095803574724503654 0 0.26875395259055851 0.090338794769621686 0 0.27441050831447811 0.071198114906072321 0 0.2835811636968214 0.084874014814740328 0 0.26293294183978128 0.078212370970451139 0 0.26875395259055851 0.090338794769621686 0 0.27441050831447811 0.071198114906072321 0 0.26875395259055851 0.090338794769621686 0 0.2835811636968214 0.084874014814740328 0 0.2762389541039536 0.098028691545513025 0 0.26875395259055851 0.090338794769621686 0 0.2835811636968214 0.084874014814740328 0 0.2824269746327992 0.052930646230535082 0 0.27441050831447811 0.071198114906072321 0 0.29438928040976953 0.068895212762162941 0 0.27441050831447811 0.071198114906072321 0 0.29438928040976953 0.068895212762162941 0 0.29640645230840867 0.088904853194998246 0 0.27441050831447811 0.071198114906072321 0 0.2835811636968214 0.084874014814740328 0 0.29640645230840867 0.088904853194998246 0 0.27441050831447811 0.071198114906072321 0 0.29640645230840867 0.088904853194998246 0 0.2835811636968214 0.084874014814740328 0 0.29640645230840867 0.088904853194998246 0 0.28633329352286269 0.098536429056730185 0 0.29640645230840867 0.088904853194998246 0 0.30712827729519471 0.079305777702848981 0 0.31095572378782738 0.1031467016689932 0 0.29438928040976953 0.068895212762162941 0 0.29640645230840867 0.088904853194998246 0 0.30712827729519471 0.079305777702848981 0 0.3096919982175666 0.055846016602439298 0 0.29438928040976953 0.068895212762162941 0 0.30712827729519471 0.079305777702848981 0 0.29623417114874911 0.1172103938027434 0 0.29415756672601079 0.1308878990881758 0 0.3126643392444467 0.126693121428755 0 0.31095572378782738 0.1031467016689932 0 0.29623417114874911 0.1172103938027434 0 0.3126643392444467 0.126693121428755 0 0.31095572378782738 0.1031467016689932 0 0.29856821875749012 0.1012490125677972 0 0.29623417114874911 0.1172103938027434 0 0.29640645230840867 0.088904853194998246 0 0.31095572378782738 0.1031467016689932 0 0.29856821875749012 0.1012490125677972 0 0.29856821875749012 0.1012490125677972 0 0.28633329352286269 0.098536429056730185 0 0.29623417114874911 0.1172103938027434 0 0.28633329352286269 0.098536429056730185 0 0.29623417114874911 0.1172103938027434 0 0.27897774522177571 0.1095294537320807 0 0.29640645230840867 0.088904853194998246 0 0.29856821875749012 0.1012490125677972 0 0.28633329352286269 0.098536429056730185 0 0.2835811636968214 0.084874014814740328 0 0.28633329352286269 0.098536429056730185 0 0.2762389541039536 0.098028691545513025 0 0.29623417114874911 0.1172103938027434 0 0.28111331170098158 0.1191473578907971 0 0.27875478843396961 0.12968778889214419 0 0.29623417114874911 0.1172103938027434 0 0.28111331170098158 0.1191473578907971 0 0.27897774522177571 0.1095294537320807 0 0.29623417114874911 0.1172103938027434 0 0.27875478843396961 0.12968778889214419 0 0.28111331170098158 0.1191473578907971 0 0.27048654199943201 0.1201617951362203 0 0.27875478843396961 0.12968778889214419 0 0.28111331170098158 0.1191473578907971 0 0.27897774522177571 0.1095294537320807 0 0.27048654199943201 0.1201617951362203 0 0.27897774522177571 0.1095294537320807 0 0.27048654199943201 0.1201617951362203 0 0.26673479907017872 0.10494534217227459 0 0.28633329352286269 0.098536429056730185 0 0.27897774522177571 0.1095294537320807 0 0.2762389541039536 0.098028691545513025 0 0.27897774522177571 0.1095294537320807 0 0.2762389541039536 0.098028691545513025 0 0.26673479907017872 0.10494534217227459 0 0.26875395259055851 0.090338794769621686 0 0.2762389541039536 0.098028691545513025 0 0.26673479907017872 0.10494534217227459 0 0.25392674148429573 0.095803574724503654 0 0.25760107360174339 0.11898437935302331 0 0.24486564927940621 0.1097597138692932 0 0.25392674148429573 0.095803574724503654 0 0.25760107360174339 0.11898437935302331 0 0.26673479907017872 0.10494534217227459 0 0.25392674148429573 0.095803574724503654 0 0.25760107360174339 0.11898437935302331 0 0.26875395259055851 0.090338794769621686 0 0.26673479907017872 0.10494534217227459 0 0.25392674148429573 0.095803574724503654 0 0.27048654199943201 0.1201617951362203 0 0.26673479907017872 0.10494534217227459 0 0.25760107360174339 0.11898437935302331 0 0.25760107360174339 0.11898437935302331 0 0.26127540571918889 0.14216518398154329 0 0.24333866203151361 0.1362887177115289 0 0.25760107360174339 0.11898437935302331 0 0.26127540571918889 0.14216518398154329 0 0.27048654199943201 0.1201617951362203 0 0.25760107360174339 0.11898437935302331 0 0.26127540571918889 0.14216518398154329 0 0.27048654199943201 0.1201617951362203 0 0.27875478843396961 0.12968778889214419 0 0.26127540571918889 0.14216518398154329 0 0.27875478843396961 0.12968778889214419 0 0.26127540571918889 0.14216518398154329 0 0.27875478843396961 0.12968778889214419 0 0.26127540571918889 0.14216518398154329 0 0.28421927517135992 0.1376362462519985 0 0.27460076035945968 0.15159366054252579 0 0.26127540571918889 0.14216518398154329 0 0.28421927517135992 0.1376362462519985 0 0.27460076035945968 0.15159366054252579 0 0.26127540571918889 0.14216518398154329 0 0.26498224554756039 0.16555107483305381 0 0.27460076035945968 0.15159366054252579 0 0.2807422428195438 0.16258501031261929 0 0.28600886789700031 0.14976007242028991 0 0.27460076035945968 0.15159366054252579 0 0.28421927517135992 0.1376362462519985 0 0.26127540571918889 0.14216518398154329 0 0.26498224554756039 0.16555107483305381 0 0.24376939517358601 0.15466158694845461 0 0.26127540571918889 0.14216518398154329 0 0.24376939517358601 0.15466158694845461 0 0.26127540571918889 0.14216518398154329 0 0.25379803220492553 0.16123186900820269 0 0.26127540571918889 0.14216518398154329 0 0.25379803220492553 0.16123186900820269 0 0.26498224554756039 0.16555107483305381 0 0.24901157607054161 0.17206173630581131 0 0.25379803220492553 0.16123186900820269 0 0.25409310645212357 0.17204905052010619 0 0.25379803220492553 0.16123186900820269 0 0.26498224554756039 0.16555107483305381 0 0.25409310645212357 0.17204905052010619 0 0.26498224554756039 0.16555107483305381 0 0.26587165032663712 0.17116219482994449 0 0.2485805719854664 0.18935152193335669 0 0.26196237252416932 0.18475922759491381 0 0.26587165032663712 0.17116219482994449 0 0.2485805719854664 0.18935152193335669 0 0.26498224554756039 0.16555107483305381 0 0.26587165032663712 0.17116219482994449 0 0.2485805719854664 0.18935152193335669 0 0.26498224554756039 0.16555107483305381 0 0.25409310645212357 0.17204905052010619 0 0.2485805719854664 0.18935152193335669 0 0.24901157607054161 0.17206173630581131 0 0.25409310645212357 0.17204905052010619 0 0.2485805719854664 0.18935152193335669 0 0.26498224554756039 0.16555107483305381 0 0.26196237252416932 0.18475922759491381 0 0.27506141145800428 0.1838500882347493 0 0.27836123550636332 0.1922437717357566 0 0.26196237252416932 0.18475922759491381 0 0.26926950892628881 0.17870326764615879 0 0.27506141145800428 0.1838500882347493 0 0.26926950892628881 0.17870326764615879 0 0.2766945159408235 0.17448961854390169 0 0.26587165032663712 0.17116219482994449 0 0.26196237252416932 0.18475922759491381 0 0.26926950892628881 0.17870326764615879 0 0.26587165032663712 0.17116219482994449 0 0.26926950892628881 0.17870326764615879 0 0.2766945159408235 0.17448961854390169 0 0.27506141145800428 0.1838500882347493 0 0.2766945159408235 0.17448961854390169 0 0.27506141145800428 0.1838500882347493 0 0.28527102783302088 0.1852093796126425 0 0.27506141145800428 0.1838500882347493 0 0.28527102783302088 0.1852093796126425 0 0.27836123550636332 0.1922437717357566 0 0.27460076035945968 0.15159366054252579 0 0.26498224554756039 0.16555107483305381 0 0.27460076035945968 0.15159366054252579 0 0.26498224554756039 0.16555107483305381 0 0.27257828299880488 0.165076311812409 0 0.2766945159408235 0.17448961854390169 0 0.26587165032663712 0.17116219482994449 0 0.27257828299880488 0.165076311812409 0 0.26498224554756039 0.16555107483305381 0 0.26587165032663712 0.17116219482994449 0 0.27257828299880488 0.165076311812409 0 0.2766945159408235 0.17448961854390169 0 0.27257828299880488 0.165076311812409 0 0.2807422428195438 0.16258501031261929 0 0.27460076035945968 0.15159366054252579 0 0.27257828299880488 0.165076311812409 0 0.2807422428195438 0.16258501031261929 0 0.2807422428195438 0.16258501031261929 0 0.2916920852526067 0.17148685421392559 0 0.29742613757110858 0.15400795872534331 0 0.2766945159408235 0.17448961854390169 0 0.2807422428195438 0.16258501031261929 0 0.2916920852526067 0.17148685421392559 0 0.2766945159408235 0.17448961854390169 0 0.2916920852526067 0.17148685421392559 0 0.28527102783302088 0.1852093796126425 0 0.2916920852526067 0.17148685421392559 0 0.28527102783302088 0.1852093796126425 0 0.30032504991974379 0.18503964713739601 0 0.30032504991974379 0.18503964713739601 0 0.31481634911858142 0.188317085911166 0 0.31342963876591129 0.17061694534769059 0 0.2916920852526067 0.17148685421392559 0 0.30032504991974379 0.18503964713739601 0 0.31342963876591129 0.17061694534769059 0 0.2916920852526067 0.17148685421392559 0 0.29742613757110858 0.15400795872534331 0 0.31342963876591129 0.17061694534769059 0 0.29742613757110858 0.15400795872534331 0 0.31799140030355161 0.1474709968583533 0 0.31342963876591129 0.17061694534769059 0 0.29742613757110858 0.15400795872534331 0 0.30304775003941692 0.13954286061194471 0 0.31799140030355161 0.1474709968583533 0 0.29742613757110858 0.15400795872534331 0 0.30304775003941692 0.13954286061194471 0 0.29305592356352939 0.14297748626896251 0 0.30304775003941692 0.13954286061194471 0 0.29415756672601079 0.1308878990881758 0 0.3126643392444467 0.126693121428755 0 0.30304775003941692 0.13954286061194471 0 0.3126643392444467 0.126693121428755 0 0.31799140030355161 0.1474709968583533 0 0.29623417114874911 0.1172103938027434 0 0.27875478843396961 0.12968778889214419 0 0.29415756672601079 0.1308878990881758 0 0.29415756672601079 0.1308878990881758 0 0.28421927517135992 0.1376362462519985 0 0.29305592356352939 0.14297748626896251 0 0.30304775003941692 0.13954286061194471 0 0.29415756672601079 0.1308878990881758 0 0.29305592356352939 0.14297748626896251 0 0.27875478843396961 0.12968778889214419 0 0.29415756672601079 0.1308878990881758 0 0.28421927517135992 0.1376362462519985 0 0.27460076035945968 0.15159366054252579 0 0.28421927517135992 0.1376362462519985 0 0.28600886789700031 0.14976007242028991 0 0.28421927517135992 0.1376362462519985 0 0.28600886789700031 0.14976007242028991 0 0.29305592356352939 0.14297748626896251 0 0.2807422428195438 0.16258501031261929 0 0.29742613757110858 0.15400795872534331 0 0.28600886789700031 0.14976007242028991 0 0.29742613757110858 0.15400795872534331 0 0.28600886789700031 0.14976007242028991 0 0.29305592356352939 0.14297748626896251 0 0.27708967059861178 0.24818733489098141 0 0.27290472987341091 0.23058989293772231 0 0.28839388166682722 0.23156614026390979 0 0.27708967059861178 0.24818733489098141 0 0.26256073417469489 0.24507255676528031 0 0.27290472987341091 0.23058989293772231 0 0.26256073417469489 0.24507255676528031 0 0.25490134515791402 0.2323397017723034 0 0.27290472987341091 0.23058989293772231 0 0.24958104109450691 0.25230577208951122 0 0.25490134515791402 0.2323397017723034 0 0.24958104109450691 0.25230577208951122 0 0.26256073417469489 0.24507255676528031 0 0.25490134515791402 0.2323397017723034 0 0.2432760146068868 0.2189442794711399 0 0.25490134515791402 0.2323397017723034 0 0.26108018085539531 0.20949203133666169 0 0.25490134515791402 0.2323397017723034 0 0.27290472987341091 0.23058989293772231 0 0.26108018085539531 0.20949203133666169 0 0.26108018085539531 0.20949203133666169 0 0.28317911967755022 0.21570296557428131 0 0.27290472987341091 0.23058989293772231 0 0.26108018085539531 0.20949203133666169 0 0.28317911967755022 0.21570296557428131 0 0.26108018085539531 0.20949203133666169 0 0.27484604709759852 0.2022759593054092 0 0.28317911967755022 0.21570296557428131 0 0.23898124203324009 0.20328109709904341 0 0.26108018085539531 0.20949203133666169 0 0.2485805719854664 0.18935152193335669 0 0.26196237252416932 0.18475922759491381 0 0.27484604709759852 0.2022759593054092 0 0.2485805719854664 0.18935152193335669 0 0.27484604709759852 0.2022759593054092 0 0.2485805719854664 0.18935152193335669 0 0.26108018085539531 0.20949203133666169 0 0.27484604709759852 0.2022759593054092 0 0.2485805719854664 0.18935152193335669 0 0.24828177434787149 0.20012577421640601 0 0.26108018085539531 0.20949203133666169 0 0.26196237252416932 0.18475922759491381 0 0.27484604709759852 0.2022759593054092 0 0.27836123550636332 0.1922437717357566 0 0.27484604709759852 0.2022759593054092 0 0.27836123550636332 0.1922437717357566 0 0.28872791591582658 0.19683624852272771 0 0.28527102783302088 0.1852093796126425 0 0.27836123550636332 0.1922437717357566 0 0.28872791591582658 0.19683624852272771 0 0.28527102783302088 0.1852093796126425 0 0.30032504991974379 0.18503964713739601 0 0.28872791591582658 0.19683624852272771 0 0.30032504991974379 0.18503964713739601 0 0.28872791591582658 0.19683624852272771 0 0.30801328263251659 0.19777136921622371 0 0.28872791591582658 0.19683624852272771 0 0.30801328263251659 0.19777136921622371 0 0.312546032121371 0.21374346626920041 0 0.30032504991974379 0.18503964713739601 0 0.30801328263251659 0.19777136921622371 0 0.31481634911858142 0.188317085911166 0 0.28872791591582658 0.19683624852272771 0 0.312546032121371 0.21374346626920041 0 0.28872791591582658 0.19683624852272771 0 0.30111152220972909 0.21520039667746449 0 0.312546032121371 0.21374346626920041 0 0.27484604709759852 0.2022759593054092 0 0.28872791591582658 0.19683624852272771 0 0.30111152220972909 0.21520039667746449 0 0.27484604709759852 0.2022759593054092 0 0.30111152220972909 0.21520039667746449 0 0.28317911967755022 0.21570296557428131 0 0.30111152220972909 0.21520039667746449 0 0.28317911967755022 0.21570296557428131 0 0.30527805849970507 0.22191389981190091 0 0.27484604709759852 0.2022759593054092 0 0.30111152220972909 0.21520039667746449 0 0.28317911967755022 0.21570296557428131 0 0.30527805849970507 0.22191389981190091 0 0.27290472987341091 0.23058989293772231 0 0.28317911967755022 0.21570296557428131 0 0.28839388166682722 0.23156614026390979 0 0.28317911967755022 0.21570296557428131 0 0.28839388166682722 0.23156614026390979 0 0.30527805849970507 0.22191389981190091 0 0.28839388166682722 0.23156614026390979 0 0.30527805849970507 0.22191389981190091 0 0.29934031489322488 0.2446743344374723 0 0.30111152220972909 0.21520039667746449 0 0.30527805849970507 0.22191389981190091 0 0.32737699732185988 0.22812483404952019 0 0.30527805849970507 0.22191389981190091 0 0.29934031489322488 0.2446743344374723 0 0.3144723624525162 0.23405215797917661 0 0.31371191979951529 0.25770746742297268 0 0.29934031489322488 0.2446743344374723 0 0.3185964477682624 0.24555511344464251 0 0.29934031489322488 0.2446743344374723 0 0.3185964477682624 0.24555511344464251 0 0.3144723624525162 0.23405215797917661 0 0.28940372456374941 0.2567547083903251 0 0.27708967059861178 0.24818733489098141 0 0.29934031489322488 0.2446743344374723 0 0.27708967059861178 0.24818733489098141 0 0.28839388166682722 0.23156614026390979 0 0.29934031489322488 0.2446743344374723 0 0.34012718696481897 0.2343988126019256 0 0.33636414832691552 0.23065068401567329 0 0.35201567588648619 0.2417608735130686 0 0.33994873494733441 0.25116528195925508 0 0.34296091477147322 0.2432122620340014 0 0.34821065876602009 0.2475327866197026 0 0.33994873494733441 0.25116528195925508 0 0.34296091477147322 0.2432122620340014 0 0.33420138861807958 0.2407553283960342 0 0.34296091477147322 0.2432122620340014 0 0.34012718696481897 0.2343988126019256 0 0.33420138861807958 0.2407553283960342 0 0.34012718696481897 0.2343988126019256 0 0.33420138861807958 0.2407553283960342 0 0.32737699732185988 0.22812483404952019 0 0.33420138861807958 0.2407553283960342 0 0.32478320628552831 0.23965633005405501 0 0.32737699732185988 0.22812483404952019 0 0.33420138861807958 0.2407553283960342 0 0.32926883526692341 0.24979421640090141 0 0.32478320628552831 0.23965633005405501 0 0.33994873494733441 0.25116528195925508 0 0.33420138861807958 0.2407553283960342 0 0.32926883526692341 0.24979421640090141 0 0.32926883526692341 0.24979421640090141 0 0.3185964477682624 0.24555511344464251 0 0.32478320628552831 0.23965633005405501 0 0.3185964477682624 0.24555511344464251 0 0.32478320628552831 0.23965633005405501 0 0.3144723624525162 0.23405215797917661 0 0.33636414832691552 0.23065068401567329 0 0.312546032121371 0.21374346626920041 0 0.30527805849970507 0.22191389981190091 0 0.32737699732185988 0.22812483404952019 0 0.30527805849970507 0.22191389981190091 0 0.32737699732185988 0.22812483404952019 0 0.3144723624525162 0.23405215797917661 0 0.33636414832691552 0.23065068401567329 0 0.331235534664853 0.21264509467848691 0 0.312546032121371 0.21374346626920041 0 0.30111152220972909 0.21520039667746449 0 0.32737699732185988 0.22812483404952019 0 0.312546032121371 0.21374346626920041 0 0.30111152220972909 0.21520039667746449 0 0.32737699732185988 0.22812483404952019 0 0.32478320628552831 0.23965633005405501 0 0.32737699732185988 0.22812483404952019 0 0.3144723624525162 0.23405215797917661 0 0.32737699732185988 0.22812483404952019 0 0.33636414832691552 0.23065068401567329 0 0.312546032121371 0.21374346626920041 0 0.33636414832691552 0.23065068401567329 0 0.33885226819338449 0.22090061319652271 0 0.331235534664853 0.21264509467848691 0 0.34012718696481897 0.2343988126019256 0 0.32737699732185988 0.22812483404952019 0 0.33636414832691552 0.23065068401567329 0 0.32737699732185988 0.22812483404952019 0 0.33636414832691552 0.23065068401567329 0 0.34012718696481897 0.2343988126019256 0 0.32737699732185988 0.22812483404952019 0 0.33636414832691552 0.23065068401567329 0 0.33885226819338449 0.22090061319652271 0 0.34376377140210501 0.2278067091300093 0 0.33885226819338449 0.22090061319652271 0 0.3472120267046534 0.22445426111396879 0 0.34376377140210501 0.2278067091300093 0 0.331235534664853 0.21264509467848691 0 0.34075497400756272 0.2004282128040682 0 0.34993360306080568 0.21358645737923929 0 0.33885226819338449 0.22090061319652271 0 0.331235534664853 0.21264509467848691 0 0.34993360306080568 0.21358645737923929 0 0.331235534664853 0.21264509467848691 0 0.32412407197880172 0.1993370063299682 0 0.34075497400756272 0.2004282128040682 0 0.331235534664853 0.21264509467848691 0 0.312546032121371 0.21374346626920041 0 0.32412407197880172 0.1993370063299682 0 0.30801328263251659 0.19777136921622371 0 0.312546032121371 0.21374346626920041 0 0.32412407197880172 0.1993370063299682 0 0.30801328263251659 0.19777136921622371 0 0.32412407197880172 0.1993370063299682 0 0.31481634911858142 0.188317085911166 0 0.32412407197880172 0.1993370063299682 0 0.31481634911858142 0.188317085911166 0 0.33748517216379098 0.1817724929821245 0 0.32412407197880172 0.1993370063299682 0 0.34075497400756272 0.2004282128040682 0 0.33748517216379098 0.1817724929821245 0 0.34075497400756272 0.2004282128040682 0 0.36099648816956192 0.1948000126505218 0 0.34993360306080568 0.21358645737923929 0 0.34075497400756272 0.2004282128040682 0 0.36099648816956192 0.1948000126505218 0 0.33748517216379098 0.1817724929821245 0 0.36099648816956192 0.1948000126505218 0 0.33748517216379098 0.1817724929821245 0 0.36099648816956192 0.1948000126505218 0 0.38450780417533292 0.20782753231891921 0 0.36099648816956192 0.1948000126505218 0 0.36469353837646129 0.2093066503234835 0 0.38450780417533292 0.20782753231891921 0 0.36469353837646129 0.2093066503234835 0 0.34993360306080568 0.21358645737923929 0 0.36578983670879922 0.22194381721382561 0 0.36469353837646129 0.2093066503234835 0 0.36578983670879922 0.22194381721382561 0 0.38450780417533292 0.20782753231891921 0 0.36099648816956192 0.1948000126505218 0 0.36469353837646129 0.2093066503234835 0 0.34993360306080568 0.21358645737923929 0 0.33636414832691552 0.23065068401567329 0 0.35262664238346653 0.23522127819387251 0 0.34993360306080568 0.21358645737923929 0 0.35550429191962241 0.22602232602190711 0 0.36578983670879922 0.22194381721382561 0 0.33636414832691552 0.23065068401567329 0 0.34376377140210501 0.2278067091300093 0 0.35262664238346653 0.23522127819387251 0 0.34993360306080568 0.21358645737923929 0 0.3472120267046534 0.22445426111396879 0 0.35550429191962241 0.22602232602190711 0 0.33885226819338449 0.22090061319652271 0 0.34993360306080568 0.21358645737923929 0 0.3472120267046534 0.22445426111396879 0 0.3472120267046534 0.22445426111396879 0 0.34376377140210501 0.2278067091300093 0 0.35262664238346653 0.23522127819387251 0 0.3472120267046534 0.22445426111396879 0 0.35550429191962241 0.22602232602190711 0 0.35262664238346653 0.23522127819387251 0 0.35550429191962241 0.22602232602190711 0 0.362779188353195 0.2309507332471869 0 0.35262664238346653 0.23522127819387251 0 0.35550429191962241 0.22602232602190711 0 0.36578983670879922 0.22194381721382561 0 0.362779188353195 0.2309507332471869 0 0.36578983670879922 0.22194381721382561 0 0.37082638519578809 0.23125727143464511 0 0.37963076450945582 0.22636226901221759 0 0.37082638519578809 0.23125727143464511 0 0.362779188353195 0.2309507332471869 0 0.36888913644001758 0.2397918723720715 0 0.36578983670879922 0.22194381721382561 0 0.37082638519578809 0.23125727143464511 0 0.362779188353195 0.2309507332471869 0 0.36888913644001758 0.2397918723720715 0 0.35262664238346653 0.23522127819387251 0 0.362779188353195 0.2309507332471869 0 0.36888913644001758 0.2397918723720715 0 0.35262664238346653 0.23522127819387251 0 0.36888913644001758 0.2397918723720715 0 0.35757525357500769 0.24883182877581581 0 0.35201567588648619 0.2417608735130686 0 0.36888913644001758 0.2397918723720715 0 0.37427103944133788 0.24689262406039111 0 0.37689519522549292 0.2368843016180161 0 0.37082638519578809 0.23125727143464511 0 0.36888913644001758 0.2397918723720715 0 0.37689519522549292 0.2368843016180161 0 0.36635132434040613 0.25097473958727912 0 0.36888913644001758 0.2397918723720715 0 0.37427103944133788 0.24689262406039111 0 0.36635132434040613 0.25097473958727912 0 0.36888913644001758 0.2397918723720715 0 0.35757525357500769 0.24883182877581581 0 0.36888913644001758 0.2397918723720715 0 0.35262664238346653 0.23522127819387251 0 0.35201567588648619 0.2417608735130686 0 0.33636414832691552 0.23065068401567329 0 0.35262664238346653 0.23522127819387251 0 0.35201567588648619 0.2417608735130686 0 0.33636414832691552 0.23065068401567329 0 0.35201567588648619 0.2417608735130686 0 0.35757525357500769 0.24883182877581581 0 0.35201567588648619 0.2417608735130686 0 0.34821065876602009 0.2475327866197026 0 0.34296091477147322 0.2432122620340014 0 0.34012718696481897 0.2343988126019256 0 0.35201567588648619 0.2417608735130686 0 0.34296091477147322 0.2432122620340014 0 0.35201567588648619 0.2417608735130686 0 0.34821065876602009 0.2475327866197026 0 0.33850618851811171 0.13621938155618121 0 0.33558389501287278 0.1601986604705874 0 0.35327080846695519 0.1501114401324779 0 0.33850618851811171 0.13621938155618121 0 0.31799140030355161 0.1474709968583533 0 0.33558389501287278 0.1601986604705874 0 0.32828376294534273 0.1138355092495273 0 0.33850618851811171 0.13621938155618121 0 0.3126643392444467 0.126693121428755 0 0.33850618851811171 0.13621938155618121 0 0.3126643392444467 0.126693121428755 0 0.31799140030355161 0.1474709968583533 0 0.31799140030355161 0.1474709968583533 0 0.31342963876591129 0.17061694534769059 0 0.33558389501287278 0.1601986604705874 0 0.31481634911858142 0.188317085911166 0 0.31342963876591129 0.17061694534769059 0 0.33748517216379098 0.1817724929821245 0 0.31342963876591129 0.17061694534769059 0 0.33748517216379098 0.1817724929821245 0 0.33558389501287278 0.1601986604705874 0 0.33558389501287278 0.1601986604705874 0 0.36160586275962803 0.17038054414385451 0 0.35327080846695519 0.1501114401324779 0 0.33748517216379098 0.1817724929821245 0 0.33558389501287278 0.1601986604705874 0 0.36160586275962803 0.17038054414385451 0 0.36099648816956192 0.1948000126505218 0 0.33748517216379098 0.1817724929821245 0 0.36160586275962803 0.17038054414385451 0 0.36099648816956192 0.1948000126505218 0 0.36160586275962803 0.17038054414385451 0 0.38227556584466632 0.18649540907567849 0 0.36160586275962803 0.17038054414385451 0 0.3744816833448974 0.15055145978315779 0 0.35327080846695519 0.1501114401324779 0 0.3744816833448974 0.15055145978315779 0 0.35327080846695519 0.1501114401324779 0 0.36467070013983011 0.13662554816682751 0 0.33850618851811171 0.13621938155618121 0 0.35327080846695519 0.1501114401324779 0 0.36467070013983011 0.13662554816682751 0 0.35605963763986248 0.1214469130246147 0 0.33850618851811171 0.13621938155618121 0 0.36467070013983011 0.13662554816682751 0 0.3744816833448974 0.15055145978315779 0 0.36467070013983011 0.13662554816682751 0 0.38130287908035471 0.1308622534414727 0 0.35605963763986248 0.1214469130246147 0 0.36467070013983011 0.13662554816682751 0 0.38130287908035471 0.1308622534414727 0 0.38130287908035471 0.1308622534414727 0 0.39440364122784338 0.14239927978246089 0 0.39575597738173729 0.1191263761156808 0 0.39440364122784338 0.14239927978246089 0 0.41368505699827868 0.1256865302889299 0 0.39575597738173729 0.1191263761156808 0 0.39440364122784338 0.14239927978246089 0 0.38928149272654572 0.16618433276669339 0 0.41325066589999032 0.15051065680661219 0 0.3744816833448974 0.15055145978315779 0 0.39440364122784338 0.14239927978246089 0 0.38928149272654572 0.16618433276669339 0 0.3744816833448974 0.15055145978315779 0 0.38130287908035471 0.1308622534414727 0 0.39440364122784338 0.14239927978246089 0 0.36160586275962803 0.17038054414385451 0 0.3744816833448974 0.15055145978315779 0 0.38928149272654572 0.16618433276669339 0 0.36160586275962803 0.17038054414385451 0 0.38928149272654572 0.16618433276669339 0 0.38227556584466632 0.18649540907567849 0 0.38928149272654572 0.16618433276669339 0 0.38227556584466632 0.18649540907567849 0 0.40853847863906501 0.17602560325832201 0 0.38227556584466632 0.18649540907567849 0 0.40853847863906501 0.17602560325832201 0 0.39983339176527738 0.19734870104091029 0 0.38928149272654572 0.16618433276669339 0 0.40853847863906501 0.17602560325832201 0 0.41325066589999032 0.15051065680661219 0 0.40853847863906501 0.17602560325832201 0 0.42749054144668258 0.16800055393476959 0 0.41325066589999032 0.15051065680661219 0 0.40853847863906501 0.17602560325832201 0 0.42749054144668258 0.16800055393476959 0 0.41775483081389481 0.19442780296104331 0 0.42749054144668258 0.16800055393476959 0 0.41775483081389481 0.19442780296104331 0 0.44664931241591532 0.18231718654053389 0 0.42749054144668258 0.16800055393476959 0 0.41775483081389481 0.19442780296104331 0 0.42749054144668258 0.16800055393476959 0 0.43722625207947052 0.14157330490849609 0 0.44484625454764742 0.15835917289267989 0 0.42749054144668258 0.16800055393476959 0 0.43722625207947052 0.14157330490849609 0 0.43722625207947052 0.14157330490849609 0 0.42378263069228661 0.13559201189329889 0 0.41325066589999032 0.15051065680661219 0 0.42749054144668258 0.16800055393476959 0 0.43722625207947052 0.14157330490849609 0 0.41325066589999032 0.15051065680661219 0 0.43722625207947052 0.14157330490849609 0 0.42378263069228661 0.13559201189329889 0 0.43096854779140698 0.1245975555691573 0 0.42378263069228661 0.13559201189329889 0 0.41368505699827868 0.1256865302889299 0 0.43096854779140698 0.1245975555691573 0 0.42378263069228661 0.13559201189329889 0 0.41368505699827868 0.1256865302889299 0 0.41325066589999032 0.15051065680661219 0 0.39440364122784338 0.14239927978246089 0 0.41368505699827868 0.1256865302889299 0 0.41325066589999032 0.15051065680661219 0 0.38005005016128879 0.25776335855313409 0 0.39955239755798222 0.24383767705057141 0 0.39426844350883539 0.23552257589130551 0 0.39955239755798222 0.24383767705057141 0 0.39426844350883539 0.23552257589130551 0 0.39857890993187212 0.2308230315603651 0 0.38005005016128879 0.25776335855313409 0 0.39426844350883539 0.23552257589130551 0 0.3822022766884321 0.2425393897553747 0 0.38005005016128879 0.25776335855313409 0 0.39426844350883539 0.23552257589130551 0 0.38005005016128879 0.25776335855313409 0 0.37427103944133788 0.24689262406039111 0 0.3822022766884321 0.2425393897553747 0 0.37427103944133788 0.24689262406039111 0 0.3822022766884321 0.2425393897553747 0 0.37689519522549292 0.2368843016180161 0 0.3822022766884321 0.2425393897553747 0 0.37689519522549292 0.2368843016180161 0 0.38519683769717328 0.23361431016961809 0 0.39426844350883539 0.23552257589130551 0 0.3822022766884321 0.2425393897553747 0 0.38519683769717328 0.23361431016961809 0 0.37963076450945582 0.22636226901221759 0 0.39247567847956699 0.22307682131226739 0 0.38450780417533292 0.20782753231891921 0 0.38519683769717328 0.23361431016961809 0 0.37963076450945582 0.22636226901221759 0 0.39247567847956699 0.22307682131226739 0 0.37689519522549292 0.2368843016180161 0 0.38519683769717328 0.23361431016961809 0 0.37963076450945582 0.22636226901221759 0 0.37082638519578809 0.23125727143464511 0 0.37689519522549292 0.2368843016180161 0 0.37963076450945582 0.22636226901221759 0 0.39955239755798222 0.24383767705057141 0 0.40801912018110409 0.22085505198731609 0 0.39955239755798222 0.24383767705057141 0 0.39857890993187212 0.2308230315603651 0 0.40801912018110409 0.22085505198731609 0 0.39426844350883539 0.23552257589130551 0 0.39247567847956699 0.22307682131226739 0 0.39857890993187212 0.2308230315603651 0 0.39426844350883539 0.23552257589130551 0 0.38519683769717328 0.23361431016961809 0 0.39247567847956699 0.22307682131226739 0 0.39247567847956699 0.22307682131226739 0 0.39857890993187212 0.2308230315603651 0 0.40801912018110409 0.22085505198731609 0 0.38450780417533292 0.20782753231891921 0 0.39983339176527738 0.19734870104091029 0 0.40801912018110409 0.22085505198731609 0 0.38450780417533292 0.20782753231891921 0 0.40801912018110409 0.22085505198731609 0 0.39247567847956699 0.22307682131226739 0 0.38450780417533292 0.20782753231891921 0 0.40801912018110409 0.22085505198731609 0 0.36578983670879922 0.22194381721382561 0 0.37963076450945582 0.22636226901221759 0 0.38450780417533292 0.20782753231891921 0 0.36099648816956192 0.1948000126505218 0 0.38227556584466632 0.18649540907567849 0 0.38450780417533292 0.20782753231891921 0 0.38227556584466632 0.18649540907567849 0 0.38450780417533292 0.20782753231891921 0 0.39983339176527738 0.19734870104091029 0 0.40853847863906501 0.17602560325832201 0 0.39983339176527738 0.19734870104091029 0 0.41775483081389481 0.19442780296104331 0 0.41775483081389481 0.19442780296104331 0 0.43394371540976862 0.20693172172015789 0 0.44664931241591532 0.18231718654053389 0 0.41775483081389481 0.19442780296104331 0 0.43394371540976862 0.20693172172015789 0 0.42027296756799298 0.21352820757088409 0 0.43394371540976862 0.20693172172015789 0 0.42027296756799298 0.21352820757088409 0 0.42608458260871479 0.22458381771943101 0 0.43394371540976862 0.20693172172015789 0 0.42608458260871479 0.22458381771943101 0 0.43967112615441462 0.2197280539843833 0 0.41775483081389481 0.19442780296104331 0 0.40801912018110409 0.22085505198731609 0 0.39983339176527738 0.19734870104091029 0 0.41775483081389481 0.19442780296104331 0 0.40801912018110409 0.22085505198731609 0 0.41775483081389481 0.19442780296104331 0 0.42027296756799298 0.21352820757088409 0 0.40801912018110409 0.22085505198731609 0 0.39955239755798222 0.24383767705057141 0 0.40801912018110409 0.22085505198731609 0 0.41200547580906938 0.2361213046464648 0 0.40801912018110409 0.22085505198731609 0 0.41593245719398642 0.22523979819006751 0 0.40801912018110409 0.22085505198731609 0 0.41593245719398642 0.22523979819006751 0 0.41200547580906938 0.2361213046464648 0 0.41593245719398642 0.22523979819006751 0 0.42608458260871479 0.22458381771943101 0 0.42267060231054632 0.23436106407287929 0 0.41593245719398642 0.22523979819006751 0 0.42267060231054632 0.23436106407287929 0 0.41200547580906938 0.2361213046464648 0 0.42027296756799298 0.21352820757088409 0 0.40801912018110409 0.22085505198731609 0 0.41593245719398642 0.22523979819006751 0 0.42027296756799298 0.21352820757088409 0 0.41593245719398642 0.22523979819006751 0 0.42608458260871479 0.22458381771943101 0 0.42608458260871479 0.22458381771943101 0 0.43461414004340881 0.23268046424526129 0 0.43967112615441462 0.2197280539843833 0 0.42608458260871479 0.22458381771943101 0 0.43461414004340881 0.23268046424526129 0 0.42267060231054632 0.23436106407287929 0 0.42267060231054632 0.23436106407287929 0 0.42813652695449439 0.2440396552281682 0 0.41786741325485882 0.24345630686322309 0 0.43461414004340881 0.23268046424526129 0 0.42267060231054632 0.23436106407287929 0 0.42813652695449439 0.2440396552281682 0 0.43461414004340881 0.23268046424526129 0 0.42813652695449439 0.2440396552281682 0 0.44292143030962311 0.24441997396670359 0 0.43161461710054738 0.25556414026238022 0 0.42813652695449439 0.2440396552281682 0 0.44292143030962311 0.24441997396670359 0 0.41913095870798223 0.25375598195856169 0 0.42813652695449439 0.2440396552281682 0 0.41786741325485882 0.24345630686322309 0 0.41913095870798223 0.25375598195856169 0 0.41786741325485882 0.24345630686322309 0 0.41107206742428798 0.247576707337921 0 0.42267060231054632 0.23436106407287929 0 0.41786741325485882 0.24345630686322309 0 0.41200547580906938 0.2361213046464648 0 0.39955239755798222 0.24383767705057141 0 0.41200547580906938 0.2361213046464648 0 0.41107206742428798 0.247576707337921 0 0.41786741325485882 0.24345630686322309 0 0.41200547580906938 0.2361213046464648 0 0.41107206742428798 0.247576707337921 0 0.45814290280531622 0.2552685536325231 0 0.45821855344412832 0.23819320879849831 0 0.47378082791383752 0.24637555301280281 0 0.45821855344412832 0.23819320879849831 0 0.47110672344971172 0.232605249828163 0 0.47378082791383752 0.24637555301280281 0 0.43461414004340881 0.23268046424526129 0 0.44292143030962311 0.24441997396670359 0 0.449219695827272 0.2272425500218114 0 0.45814290280531622 0.2552685536325231 0 0.45821855344412832 0.23819320879849831 0 0.44292143030962311 0.24441997396670359 0 0.45821855344412832 0.23819320879849831 0 0.44292143030962311 0.24441997396670359 0 0.449219695827272 0.2272425500218114 0 0.43461414004340881 0.23268046424526129 0 0.449219695827272 0.2272425500218114 0 0.43967112615441462 0.2197280539843833 0 0.45821855344412832 0.23819320879849831 0 0.449219695827272 0.2272425500218114 0 0.46264198903810572 0.22134345251264531 0 0.45821855344412832 0.23819320879849831 0 0.46264198903810572 0.22134345251264531 0 0.47110672344971172 0.232605249828163 0 0.449219695827272 0.2272425500218114 0 0.46264198903810572 0.22134345251264531 0 0.45449349688290869 0.2072017162152551 0 0.46264198903810572 0.22134345251264531 0 0.45449349688290869 0.2072017162152551 0 0.47907409387828259 0.21238434731284761 0 0.43394371540976862 0.20693172172015789 0 0.43967112615441462 0.2197280539843833 0 0.45449349688290869 0.2072017162152551 0 0.449219695827272 0.2272425500218114 0 0.43967112615441462 0.2197280539843833 0 0.45449349688290869 0.2072017162152551 0 0.43394371540976862 0.20693172172015789 0 0.45449349688290869 0.2072017162152551 0 0.44664931241591532 0.18231718654053389 0 0.45449349688290869 0.2072017162152551 0 0.44664931241591532 0.18231718654053389 0 0.47001748968620333 0.18741157220362861 0 0.45449349688290869 0.2072017162152551 0 0.47907409387828259 0.21238434731284761 0 0.47001748968620333 0.18741157220362861 0 0.5 0.18923067378328651 0 0.47907409387828259 0.21238434731284761 0 0.47001748968620333 0.18741157220362861 0 0.47907409387828259 0.21238434731284761 0 0.47001748968620333 0.18741157220362861 0 0.5 0.18923067378328651 0 0.5 0.21808679017639351 0 0.47907409387828259 0.21238434731284761 0 0.46264198903810572 0.22134345251264531 0 0.47907409387828259 0.21238434731284761 0 0.47110672344971172 0.232605249828163 0 0.47907409387828259 0.21238434731284761 0 0.47110672344971172 0.232605249828163 0 0.48498502696935231 0.23051882189138101 0 0.5 0.21808679017639351 0 0.47907409387828259 0.21238434731284761 0 0.48498502696935231 0.23051882189138101 0 0.5 0.21808679017639351 0 0.48498502696935231 0.23051882189138101 0 0.5 0.24694290656950069 0 0.48498502696935231 0.23051882189138101 0 0.5 0.24694290656950069 0 0.47378082791383752 0.24637555301280281 0 0.47110672344971172 0.232605249828163 0 0.48498502696935231 0.23051882189138101 0 0.47378082791383752 0.24637555301280281 0 0.45190428130204469 0.13746602198519051 0 0.46096088549412401 0.1624387970944095 0 0.46597596141660219 0.1461782497813944 0 0.45190428130204469 0.13746602198519051 0 0.46096088549412401 0.1624387970944095 0 0.46151725921624631 0.13470351208237921 0 0.45383055467853051 0.1262304887388418 0 0.47434483947749723 0.114404410791872 0 0.46597596141660219 0.1461782497813944 0 0.46151725921624631 0.13470351208237921 0 0.47757485429934232 0.1337434871397217 0 0.46151725921624631 0.13470351208237921 0 0.45383055467853051 0.1262304887388418 0 0.45190428130204469 0.13746602198519051 0 0.46597596141660219 0.1461782497813944 0 0.46151725921624631 0.13470351208237921 0 0.45190428130204469 0.13746602198519051 0 0.43722625207947052 0.14157330490849609 0 0.45383055467853051 0.1262304887388418 0 0.45190428130204469 0.13746602198519051 0 0.43722625207947052 0.14157330490849609 0 0.4469619627122583 0.1151460558822224 0 0.43722625207947052 0.14157330490849609 0 0.4469619627122583 0.1151460558822224 0 0.43096854779140698 0.1245975555691573 0 0.43722625207947052 0.14157330490849609 0 0.45383055467853051 0.1262304887388418 0 0.4469619627122583 0.1151460558822224 0 0.45190428130204469 0.13746602198519051 0 0.44484625454764742 0.15835917289267989 0 0.46096088549412401 0.1624387970944095 0 0.43722625207947052 0.14157330490849609 0 0.45190428130204469 0.13746602198519051 0 0.44484625454764742 0.15835917289267989 0 0.42749054144668258 0.16800055393476959 0 0.44484625454764742 0.15835917289267989 0 0.44664931241591532 0.18231718654053389 0 0.44484625454764742 0.15835917289267989 0 0.44664931241591532 0.18231718654053389 0 0.46096088549412401 0.1624387970944095 0 0.46096088549412401 0.1624387970944095 0 0.47001748968620333 0.18741157220362861 0 0.44664931241591532 0.18231718654053389 0 0.46096088549412401 0.1624387970944095 0 0.47001748968620333 0.18741157220362861 0 0.46096088549412401 0.1624387970944095 0 0.48178484460580251 0.16988782907767069 0 0.48089977266481332 0.15065710272841579 0 0.46096088549412401 0.1624387970944095 0 0.48178484460580251 0.16988782907767069 0 0.47001748968620333 0.18741157220362861 0 0.5 0.18923067378328651 0 0.48178484460580251 0.16988782907767069 0 0.47001748968620333 0.18741157220362861 0 0.5 0.18923067378328651 0 0.48178484460580251 0.16988782907767069 0 0.5 0.16037455739017931 0 0.48178484460580251 0.16988782907767069 0 0.5 0.16037455739017931 0 0.48089977266481332 0.15065710272841579 0 0.5 0.16037455739017931 0 0.48089977266481332 0.15065710272841579 0 0.5 0.13151844099707199 0 0.46597596141660219 0.1461782497813944 0 0.48089977266481332 0.15065710272841579 0 0.47757485429934232 0.1337434871397217 0 0.46597596141660219 0.1461782497813944 0 0.46096088549412401 0.1624387970944095 0 0.48089977266481332 0.15065710272841579 0 0.47757485429934232 0.1337434871397217 0 0.5 0.13151844099707199 0 0.47434483947749723 0.114404410791872 0 0.46151725921624631 0.13470351208237921 0 0.47757485429934232 0.1337434871397217 0 0.47434483947749723 0.114404410791872 0 0.48089977266481332 0.15065710272841579 0 0.47757485429934232 0.1337434871397217 0 0.5 0.13151844099707199 0 0.5 0.13151844099707199 0 0.5 0.10266232460396479 0 0.47434483947749723 0.114404410791872 0 0.5 0.10266232460396479 0 0.48717241973874797 0.094105309501364684 0 0.47434483947749723 0.114404410791872 0 0.48717241973874797 0.094105309501364684 0 0.47434483947749723 0.114404410791872 0 0.4679307905641571 0.097078045808013116 0 0.48717241973874797 0.094105309501364684 0 0.47434483947749723 0.114404410791872 0 0.49999999999999928 0.073806208210857607 0 0.48181208444762591 0.078394634660207421 0 0.48122332093823311 0.061027386636455058 0 0.5 0.10266232460396479 0 0.48717241973874797 0.094105309501364684 0 0.49999999999999928 0.073806208210857607 0 0.48717241973874797 0.094105309501364684 0 0.49999999999999928 0.073806208210857607 0 0.48181208444762591 0.078394634660207421 0 0.48717241973874797 0.094105309501364684 0 0.49999999999999928 0.073806208210857607 0 0.48717241973874797 0.094105309501364684 0 0.48181208444762591 0.078394634660207421 0 0.4679307905641571 0.097078045808013116 0 0.48181208444762591 0.078394634660207421 0 0.46252707256678849 0.083078561158763137 0 0.4679307905641571 0.097078045808013116 0 0.46704873944728997 0.069818396455168463 0 0.45940569882299581 0.057945555287072098 0 0.48122332093823311 0.061027386636455058 0 0.48181208444762591 0.078394634660207421 0 0.46704873944728997 0.069818396455168463 0 0.48122332093823311 0.061027386636455058 0 0.48181208444762591 0.078394634660207421 0 0.46704873944728997 0.069818396455168463 0 0.46252707256678849 0.083078561158763137 0 0.46704873944728997 0.069818396455168463 0 0.44155480951490111 0.075944346976641583 0 0.45940569882299581 0.057945555287072098 0 0.46704873944728997 0.069818396455168463 0 0.46252707256678849 0.083078561158763137 0 0.44155480951490111 0.075944346976641583 0 0.46252707256678849 0.083078561158763137 0 0.4679307905641571 0.097078045808013116 0 0.44792325653824472 0.095245658097940472 0 0.44155480951490111 0.075944346976641583 0 0.44792325653824472 0.095245658097940472 0 0.42370392020680647 0.093943138666211054 0 0.46252707256678849 0.083078561158763137 0 0.44155480951490111 0.075944346976641583 0 0.44792325653824472 0.095245658097940472 0 0.44155480951490111 0.075944346976641583 0 0.45940569882299581 0.057945555287072098 0 0.46151725921624631 0.13470351208237921 0 0.47434483947749723 0.114404410791872 0 0.45383055467853051 0.1262304887388418 0 0.47434483947749723 0.114404410791872 0 0.4469619627122583 0.1151460558822224 0 0.47434483947749723 0.114404410791872 0 0.4679307905641571 0.097078045808013116 0 0.4469619627122583 0.1151460558822224 0 0.4679307905641571 0.097078045808013116 0 0.44792325653824472 0.095245658097940472 0 0.4469619627122583 0.1151460558822224 0 0.44792325653824472 0.095245658097940472 0 0.4469619627122583 0.1151460558822224 0 0.42979246259240511 0.1094966475788586 0 0.4469619627122583 0.1151460558822224 0 0.42979246259240511 0.1094966475788586 0 0.43096854779140698 0.1245975555691573 0 0.41368505699827868 0.1256865302889299 0 0.42979246259240511 0.1094966475788586 0 0.43096854779140698 0.1245975555691573 0 0.41368505699827868 0.1256865302889299 0 0.40965793200358153 0.1060813886813297 0 0.39575597738173729 0.1191263761156808 0 0.41368505699827868 0.1256865302889299 0 0.42979246259240511 0.1094966475788586 0 0.40965793200358153 0.1060813886813297 0 0.42979246259240511 0.1094966475788586 0 0.40965793200358153 0.1060813886813297 0 0.42370392020680647 0.093943138666211054 0 0.40965793200358153 0.1060813886813297 0 0.42370392020680647 0.093943138666211054 0 0.40251772420822551 0.089091842202986007 0 0.44792325653824472 0.095245658097940472 0 0.42979246259240511 0.1094966475788586 0 0.42370392020680647 0.093943138666211054 0 0.44155480951490111 0.075944346976641583 0 0.42370392020680647 0.093943138666211054 0 0.41506922370834148 0.077341241717090031 0 0.44155480951490111 0.075944346976641583 0 0.42370392020680647 0.093943138666211054 0 0.44155480951490111 0.075944346976641583 0 0.42206654348944461 0.060105467181437319 0 0.43610210351916712 0.056047439702439077 0 0.44155480951490111 0.075944346976641583 0 0.41506922370834148 0.077341241717090031 0 0.42206654348944461 0.060105467181437319 0 0.41506922370834148 0.077341241717090031 0 0.40739296289078353 0.064818913470615969 0 0.42206654348944461 0.060105467181437319 0 0.41506922370834148 0.077341241717090031 0 0.40739296289078353 0.064818913470615969 0 0.39692838494085358 0.072773447205272623 0 0.42370392020680647 0.093943138666211054 0 0.41506922370834148 0.077341241717090031 0 0.40251772420822551 0.089091842202986007 0 0.40251772420822551 0.089091842202986007 0 0.39692838494085358 0.072773447205272623 0 0.37894588349604069 0.084055118791055303 0 0.41506922370834148 0.077341241717090031 0 0.40251772420822551 0.089091842202986007 0 0.39692838494085358 0.072773447205272623 0 0.40251772420822551 0.089091842202986007 0 0.37894588349604069 0.084055118791055303 0 0.39080100089372888 0.10035671815695731 0 0.40739296289078353 0.064818913470615969 0 0.39692838494085358 0.072773447205272623 0 0.39532209427962639 0.055445848302347847 0 0.39692838494085358 0.072773447205272623 0 0.38335979141773929 0.064522793429934278 0 0.39532209427962639 0.055445848302347847 0 0.36422833598036031 0.06683999076674603 0 0.38335979141773929 0.064522793429934278 0 0.37894588349604069 0.084055118791055303 0 0.39692838494085358 0.072773447205272623 0 0.38335979141773929 0.064522793429934278 0 0.37894588349604069 0.084055118791055303 0 0.37326045262454233 0.10667709446177109 0 0.37894588349604069 0.084055118791055303 0 0.39080100089372888 0.10035671815695731 0 0.37326045262454233 0.10667709446177109 0 0.39575597738173729 0.1191263761156808 0 0.39080100089372888 0.10035671815695731 0 0.37326045262454233 0.10667709446177109 0 0.38130287908035471 0.1308622534414727 0 0.39575597738173729 0.1191263761156808 0 0.40965793200358153 0.1060813886813297 0 0.39575597738173729 0.1191263761156808 0 0.39080100089372888 0.10035671815695731 0 0.40965793200358153 0.1060813886813297 0 0.40251772420822551 0.089091842202986007 0 0.39080100089372888 0.10035671815695731 0 0.39393553555156552 0.023356749624004029 0 0.39803516424019952 0.024460278449919409 0 0.41653749089266179 0.03739819312072086 0 0.39393553555156552 0.023356749624004029 0 0.41653749089266179 0.03739819312072086 0 0.39393553555156552 0.023356749624004029 0 0.39877560900385572 0.03221831538294069 0 0.41653749089266179 0.03739819312072086 0 0.39581473285203478 0.021944396026053439 0 0.39393553555156552 0.023356749624004029 0 0.38352394300865789 0.0080181912771904 0 0.39581473285203478 0.021944396026053439 0 0.39393553555156552 0.023356749624004029 0 0.39803516424019952 0.024460278449919409 0 0.39581473285203478 0.021944396026053439 0 0.39393553555156552 0.023356749624004029 0 0.39581473285203478 0.021944396026053439 0 0.39803516424019952 0.024460278449919409 0 0.39393553555156552 0.023356749624004029 0 0.39228797535480392 0.024595011072738902 0 0.39877560900385572 0.03221831538294069 0 0.39393553555156552 0.023356749624004029 0 0.39228797535480392 0.024595011072738902 0 0.39228797535480392 0.024595011072738902 0 0.39198460167625532 0.031354368562821533 0 0.39877560900385572 0.03221831538294069 0 0.39228797535480392 0.024595011072738902 0 0.38889071784646939 0.02964999172293423 0 0.39198460167625532 0.031354368562821533 0 0.39581473285203478 0.021944396026053439 0 0.39803516424019952 0.024460278449919409 0 0.41019597796800022 0.023478224745721522 0 0.39581473285203478 0.021944396026053439 0 0.40127117392756811 0.004177348713597844 0 0.41780940858020987 0.0054137957571585814 0 0.39581473285203478 0.021944396026053439 0 0.40127117392756811 0.004177348713597844 0 0.38352394300865789 0.0080181912771904 0 0.37564971735227343 0.011996702266959191 0 0.38352394300865789 0.0080181912771904 0 0.37123315316528049 -0.0059080134716723524 0 0.39393553555156552 0.023356749624004029 0 0.37564971735227343 0.011996702266959191 0 0.38352394300865789 0.0080181912771904 0 0.39581473285203478 0.021944396026053439 0 0.38352394300865789 0.0080181912771904 0 0.38352394300865789 0.0080181912771904 0 0.37123315316528049 -0.0059080134716723524 0 0.37450317888499479 0.031820825249951917 0 0.37564971735227343 0.011996702266959191 0 0.38365221450376691 0.026417527045553169 0 0.39393553555156552 0.023356749624004029 0 0.37564971735227343 0.011996702266959191 0 0.39228797535480392 0.024595011072738902 0 0.37564971735227343 0.011996702266959191 0 0.38365221450376691 0.026417527045553169 0 0.39393553555156552 0.023356749624004029 0 0.39228797535480392 0.024595011072738902 0 0.37564971735227343 0.011996702266959191 0 0.39228797535480392 0.024595011072738902 0 0.38365221450376691 0.026417527045553169 0 0.38889071784646939 0.02964999172293423 0 0.38365221450376691 0.026417527045553169 0 0.38889071784646939 0.02964999172293423 0 0.38763807985105198 0.036233060210623343 0 0.37450317888499479 0.031820825249951917 0 0.38220062249786901 0.043342231525355247 0 0.38763807985105198 0.036233060210623343 0 0.37450317888499479 0.031820825249951917 0 0.38365221450376691 0.026417527045553169 0 0.38763807985105198 0.036233060210623343 0 0.369721840317497 0.044825910495318172 0 0.38220062249786901 0.043342231525355247 0 0.369721840317497 0.044825910495318172 0 0.37450317888499479 0.031820825249951917 0 0.38220062249786901 0.043342231525355247 0 0.38220062249786901 0.043342231525355247 0 0.38763807985105198 0.036233060210623343 0 0.38220062249786901 0.043342231525355247 0 0.38763807985105198 0.036233060210623343 0 0.39316772900585373 0.036750189226976232 0 0.38889071784646939 0.02964999172293423 0 0.38763807985105198 0.036233060210623343 0 0.39198460167625532 0.031354368562821533 0 0.38335979141773929 0.064522793429934278 0 0.38220062249786901 0.043342231525355247 0 0.39532209427962639 0.055445848302347847 0 0.36422833598036031 0.06683999076674603 0 0.38335979141773929 0.064522793429934278 0 0.38220062249786901 0.043342231525355247 0 0.39532209427962639 0.055445848302347847 0 0.40523973200023689 0.040602970453140319 0 0.40890373348529951 0.053415372718126367 0 0.40739296289078353 0.064818913470615969 0 0.39532209427962639 0.055445848302347847 0 0.40890373348529951 0.053415372718126367 0 0.38220062249786901 0.043342231525355247 0 0.39532209427962639 0.055445848302347847 0 0.40523973200023689 0.040602970453140319 0 0.38220062249786901 0.043342231525355247 0 0.39316772900585373 0.036750189226976232 0 0.40523973200023689 0.040602970453140319 0 0.38220062249786901 0.043342231525355247 0 0.40523973200023689 0.040602970453140319 0 0.39198460167625532 0.031354368562821533 0 0.39316772900585373 0.036750189226976232 0 0.39877560900385572 0.03221831538294069 0 0.38763807985105198 0.036233060210623343 0 0.39198460167625532 0.031354368562821533 0 0.39316772900585373 0.036750189226976232 0 0.39316772900585373 0.036750189226976232 0 0.40523973200023689 0.040602970453140319 0 0.39877560900385572 0.03221831538294069 0 0.40523973200023689 0.040602970453140319 0 0.41653749089266179 0.03739819312072086 0 0.42827884150260481 0.037863709380925557 0 0.40523973200023689 0.040602970453140319 0 0.41852481437662242 0.047638385273393917 0 0.42827884150260481 0.037863709380925557 0 0.40523973200023689 0.040602970453140319 0 0.39877560900385572 0.03221831538294069 0 0.41653749089266179 0.03739819312072086 0 0.40523973200023689 0.040602970453140319 0 0.42827884150260481 0.037863709380925557 0 0.40739296289078353 0.064818913470615969 0 0.40890373348529951 0.053415372718126367 0 0.42206654348944461 0.060105467181437319 0 0.40523973200023689 0.040602970453140319 0 0.40890373348529951 0.053415372718126367 0 0.41852481437662242 0.047638385273393917 0 0.40890373348529951 0.053415372718126367 0 0.41852481437662242 0.047638385273393917 0 0.42206654348944461 0.060105467181437319 0 0.42206654348944461 0.060105467181437319 0 0.428823681257051 0.049056801720522708 0 0.43610210351916712 0.056047439702439077 0 0.41852481437662242 0.047638385273393917 0 0.42206654348944461 0.060105467181437319 0 0.428823681257051 0.049056801720522708 0 0.428823681257051 0.049056801720522708 0 0.43610210351916712 0.056047439702439077 0 0.43914610339741622 0.043629007064417621 0 0.41653749089266179 0.03739819312072086 0 0.42827884150260481 0.037863709380925557 0 0.42278309327489477 0.028174460374755361 0 0.41852481437662242 0.047638385273393917 0 0.428823681257051 0.049056801720522708 0 0.42827884150260481 0.037863709380925557 0 0.428823681257051 0.049056801720522708 0 0.42827884150260481 0.037863709380925557 0 0.43914610339741622 0.043629007064417621 0 0.43653431017187522 0.021377221442627381 0 0.42278309327489477 0.028174460374755361 0 0.41780940858020987 0.0054137957571585814 0 0.42827884150260481 0.037863709380925557 0 0.43653431017187522 0.021377221442627381 0 0.42278309327489477 0.028174460374755361 0 0.42278309327489477 0.028174460374755361 0 0.41019597796800022 0.023478224745721522 0 0.41780940858020987 0.0054137957571585814 0 0.39581473285203478 0.021944396026053439 0 0.41019597796800022 0.023478224745721522 0 0.41780940858020987 0.0054137957571585814 0 0.41653749089266179 0.03739819312072086 0 0.42278309327489477 0.028174460374755361 0 0.41019597796800022 0.023478224745721522 0 0.39803516424019952 0.024460278449919409 0 0.41653749089266179 0.03739819312072086 0 0.41019597796800022 0.023478224745721522 0 0.39581473285203478 0.021944396026053439 0 0.41780940858020987 0.0054137957571585814 0 0.43653431017187522 0.021377221442627381 0 0.41780940858020987 0.0054137957571585814 0 0.44046060815170712 0.0056007035502888963 0 0.43653431017187522 0.021377221442627381 0 0.44046060815170712 0.0056007035502888963 0 0.45481155401550177 0.01420049727892992 0 0.44046060815170712 0.0056007035502888963 0 0.45481155401550177 0.01420049727892992 0 0.45830515702602981 -0.0067234537508513992 0 0.45481155401550177 0.01420049727892992 0 0.45131795100497268 0.03512444830871108 0 0.43653431017187522 0.021377221442627381 0 0.45481155401550177 0.01420049727892992 0 0.45131795100497268 0.03512444830871108 0 0.46457072501033941 0.022283775647680911 0 0.45481155401550177 0.01420049727892992 0 0.45131795100497268 0.03512444830871108 0 0.46457072501033941 0.022283775647680911 0 0.45131795100497268 0.03512444830871108 0 0.46475711612804582 0.033526583518801417 0 0.46457072501033941 0.022283775647680911 0 0.45481155401550177 0.01420049727892992 0 0.47062652038803721 0.0084381466365560567 0 0.45481155401550177 0.01420049727892992 0 0.47062652038803721 0.0084381466365560567 0 0.45830515702602981 -0.0067234537508513992 0 0.45481155401550177 0.01420049727892992 0 0.45830515702602981 -0.0067234537508513992 0 0.44155480951490111 0.075944346976641583 0 0.43610210351916712 0.056047439702439077 0 0.44776407683495251 0.053468593879507628 0 0.44155480951490111 0.075944346976641583 0 0.44776407683495251 0.053468593879507628 0 0.45940569882299581 0.057945555287072098 0 0.43610210351916712 0.056047439702439077 0 0.44776407683495251 0.053468593879507628 0 0.43914610339741622 0.043629007064417621 0 0.44776407683495251 0.053468593879507628 0 0.45011704365521871 0.042316944565972611 0 0.46025870210001651 0.044928269680502772 0 0.42827884150260481 0.037863709380925557 0 0.43653431017187522 0.021377221442627381 0 0.45131795100497268 0.03512444830871108 0 0.42827884150260481 0.037863709380925557 0 0.43914610339741622 0.043629007064417621 0 0.45131795100497268 0.03512444830871108 0 0.42827884150260481 0.037863709380925557 0 0.45131795100497268 0.03512444830871108 0 0.44776407683495251 0.053468593879507628 0 0.45011704365521871 0.042316944565972611 0 0.43914610339741622 0.043629007064417621 0 0.45011704365521871 0.042316944565972611 0 0.43914610339741622 0.043629007064417621 0 0.45131795100497268 0.03512444830871108 0 0.45011704365521871 0.042316944565972611 0 0.45131795100497268 0.03512444830871108 0 0.45706728533895502 0.03951452275866401 0 0.45011704365521871 0.042316944565972611 0 0.45131795100497268 0.03512444830871108 0 0.46475711612804582 0.033526583518801417 0 0.46025870210001651 0.044928269680502772 0 0.47725658813109029 0.039946763597502613 0 0.45131795100497268 0.03512444830871108 0 0.46475711612804582 0.033526583518801417 0 0.45706728533895502 0.03951452275866401 0 0.45131795100497268 0.03512444830871108 0 0.46475711612804582 0.033526583518801417 0 0.45011704365521871 0.042316944565972611 0 0.46025870210001651 0.044928269680502772 0 0.45706728533895502 0.03951452275866401 0 0.46475711612804582 0.033526583518801417 0 0.46025870210001651 0.044928269680502772 0 0.45706728533895502 0.03951452275866401 0 0.46025870210001651 0.044928269680502772 0 0.45940569882299581 0.057945555287072098 0 0.47725658813109029 0.039946763597502613 0 0.45940569882299581 0.057945555287072098 0 0.47725658813109029 0.039946763597502613 0 0.44776407683495251 0.053468593879507628 0 0.46025870210001651 0.044928269680502772 0 0.45940569882299581 0.057945555287072098 0 0.45940569882299581 0.057945555287072098 0 0.48122332093823311 0.061027386636455058 0 0.47725658813109029 0.039946763597502613 0 0.47725658813109029 0.039946763597502613 0 0.48931287651177258 0.032798552584733652 0 0.47948179746436981 0.02285251719709518 0 0.46475711612804582 0.033526583518801417 0 0.47725658813109029 0.039946763597502613 0 0.47948179746436981 0.02285251719709518 0 0.48931287651177258 0.032798552584733652 0 0.5 0.047773282950275719 0 0.5 0.021740357689693849 0 0.47725658813109029 0.039946763597502613 0 0.48931287651177258 0.032798552584733652 0 0.5 0.047773282950275719 0 0.48122332093823311 0.061027386636455058 0 0.47725658813109029 0.039946763597502613 0 0.5 0.047773282950275719 0 0.49999999999999928 0.073806208210857607 0 0.48122332093823311 0.061027386636455058 0 0.5 0.047773282950275719 0 0.47062652038803721 0.0084381466365560567 0 0.47948179746436981 0.02285251719709518 0 0.48624703751632242 0.0056581924049780774 0 0.47062652038803721 0.0084381466365560567 0 0.48624703751632242 0.0056581924049780774 0 0.47533913058011529 -0.003516918943253598 0 0.46457072501033941 0.022283775647680911 0 0.47062652038803721 0.0084381466365560567 0 0.47948179746436981 0.02285251719709518 0 0.46457072501033941 0.022283775647680911 0 0.46475711612804582 0.033526583518801417 0 0.47948179746436981 0.02285251719709518 0 0.47948179746436981 0.02285251719709518 0 0.5 0.021740357689693849 0 0.48624703751632242 0.0056581924049780774 0 0.48931287651177258 0.032798552584733652 0 0.47948179746436981 0.02285251719709518 0 0.5 0.021740357689693849 0 0.5 0.021740357689693849 0 0.48624703751632242 0.0056581924049780774 0 0.5 -0.0042925675708879729 0 0.48624703751632242 0.0056581924049780774 0 0.48872598892572627 -0.010399998173576371 0 0.5 -0.0042925675708879729 0 0.48872598892572627 -0.010399998173576371 0 0.5 -0.0042925675708879729 0 0.5 -0.030325492831469791 0 0.48624703751632242 0.0056581924049780774 0 0.48872598892572627 -0.010399998173576371 0 0.47533913058011529 -0.003516918943253598 0 0.47279094904446078 -0.01455748183337436 0 0.47533913058011529 -0.003516918943253598 0 0.45830515702602981 -0.0067234537508513992 0 0.48872598892572627 -0.010399998173576371 0 0.47279094904446078 -0.01455748183337436 0 0.47533913058011529 -0.003516918943253598 0 0.48872598892572627 -0.010399998173576371 0 0.47279094904446078 -0.01455748183337436 0 0.48459685269821601 -0.026039241511979991 0 0.47279094904446078 -0.01455748183337436 0 0.48459685269821601 -0.026039241511979991 0 0.46179876003655901 -0.027647404780632569 0 0.48872598892572627 -0.010399998173576371 0 0.5 -0.030325492831469791 0 0.48459685269821601 -0.026039241511979991 0 0.48872598892572627 -0.010399998173576371 0 0.48459685269821601 -0.026039241511979991 0 0.5 -0.030325492831469791 0 0.50000000000000633 -0.056358418092051658 0 0.48046771647070358 -0.041678484850383078 0 0.5 -0.030325492831469791 0 0.48459685269821601 -0.026039241511979991 0 0.48046771647070358 -0.041678484850383078 0 0.50000000000000633 -0.056358418092051658 0 0.48046771647070358 -0.041678484850383078 0 0.50000000000000633 -0.056358418092051658 0 0.47497843978257598 -0.062469306258871343 0 0.48046771647070358 -0.041678484850383078 0 0.47497843978257598 -0.062469306258871343 0 0.46687832241467142 -0.041770603974782723 0 0.47497843978257598 -0.062469306258871343 0 0.48046771647070358 -0.041678484850383078 0 0.47497843978257598 -0.062469306258871343 0 0.48046771647070358 -0.041678484850383078 0 0.46687832241467142 -0.041770603974782723 0 0.47497843978257598 -0.062469306258871343 0 0.46687832241467142 -0.041770603974782723 0 0.46613252975870229 -0.053603297641738719 0 0.48459685269821601 -0.026039241511979991 0 0.48046771647070358 -0.041678484850383078 0 0.48046771647070358 -0.041678484850383078 0 0.46179876003655901 -0.027647404780632569 0 0.48459685269821601 -0.026039241511979991 0 0.48046771647070358 -0.041678484850383078 0 0.46179876003655901 -0.027647404780632569 0 0.48046771647070358 -0.041678484850383078 0 0.46687832241467142 -0.041770603974782723 0 0.46179876003655901 -0.027647404780632569 0 0.46613252975870229 -0.053603297641738719 0 0.46179876003655901 -0.027647404780632569 0 0.46613252975870229 -0.053603297641738719 0 0.44328820794961649 -0.048262690164602648 0 0.46179876003655901 -0.027647404780632569 0 0.46687832241467142 -0.041770603974782723 0 0.46613252975870229 -0.053603297641738719 0 0.46179876003655901 -0.027647404780632569 0 0.46613252975870229 -0.053603297641738719 0 0.44328820794961649 -0.048262690164602648 0 0.45250615397952398 -0.067312496917547066 0 0.44328820794961649 -0.048262690164602648 0 0.45250615397952398 -0.067312496917547066 0 0.43741237164347868 -0.064710028503811162 0 0.44328820794961649 -0.048262690164602648 0 0.44239695889332042 -0.02954087584907511 0 0.46179876003655901 -0.027647404780632569 0 0.44239695889332042 -0.02954087584907511 0 0.43980408430838469 -0.01111680451173664 0 0.46179876003655901 -0.027647404780632569 0 0.43980408430838469 -0.01111680451173664 0 0.46179876003655901 -0.027647404780632569 0 0.44046060815170712 0.0056007035502888963 0 0.43980408430838469 -0.01111680451173664 0 0.45830515702602981 -0.0067234537508513992 0 0.43980408430838469 -0.01111680451173664 0 0.45830515702602981 -0.0067234537508513992 0 0.46179876003655901 -0.027647404780632569 0 0.47062652038803721 0.0084381466365560567 0 0.47533913058011529 -0.003516918943253598 0 0.45830515702602981 -0.0067234537508513992 0 0.47279094904446078 -0.01455748183337436 0 0.45830515702602981 -0.0067234537508513992 0 0.46179876003655901 -0.027647404780632569 0 0.45830515702602981 -0.0067234537508513992 0 0.46179876003655901 -0.027647404780632569 0 0.4744569781868318 -0.12287049531733001 0 0.49186136577403272 -0.1056112316050592 0 0.47458148160181501 -0.104205914506198 0 0.4744569781868318 -0.12287049531733001 0 0.47458148160181501 -0.104205914506198 0 0.45864601881325179 -0.11532858304818901 0 0.4744569781868318 -0.12287049531733001 0 0.49186136577403272 -0.1056112316050592 0 0.4744569781868318 -0.12287049531733001 0 0.49186136577403272 -0.1056112316050592 0 0.49999999999999878 -0.12640835826273031 0 0.49186136577403272 -0.1056112316050592 0 0.49999999999999789 -0.097540460159649067 0 0.49999999999999878 -0.12640835826273031 0 0.49186136577403272 -0.1056112316050592 0 0.49999999999999878 -0.12640835826273031 0 0.49186136577403272 -0.1056112316050592 0 0.49999999999999789 -0.097540460159649067 0 0.48341990277830499 -0.084040268931964979 0 0.49186136577403272 -0.1056112316050592 0 0.48341990277830499 -0.084040268931964979 0 0.49186136577403272 -0.1056112316050592 0 0.49999999999999789 -0.097540460159649067 0 0.49186136577403272 -0.1056112316050592 0 0.47458148160181501 -0.104205914506198 0 0.48341990277830499 -0.084040268931964979 0 0.47458148160181501 -0.104205914506198 0 0.48341990277830499 -0.084040268931964979 0 0.47046629948084728 -0.07955919050284449 0 0.47458148160181501 -0.104205914506198 0 0.47046629948084728 -0.07955919050284449 0 0.46861789985252089 -0.086560066710662881 0 0.47458148160181501 -0.104205914506198 0 0.47046629948084728 -0.07955919050284449 0 0.47046629948084728 -0.07955919050284449 0 0.46861789985252089 -0.086560066710662881 0 0.49999999999999789 -0.097540460159649067 0 0.48341990277830499 -0.084040268931964979 0 0.5 -0.076949439125850339 0 0.48341990277830499 -0.084040268931964979 0 0.48959958564022238 -0.069954358102183839 0 0.5 -0.076949439125850339 0 0.50000000000000633 -0.056358418092051658 0 0.47497843978257598 -0.062469306258871343 0 0.48959958564022238 -0.069954358102183839 0 0.50000000000000633 -0.056358418092051658 0 0.48959958564022238 -0.069954358102183839 0 0.5 -0.076949439125850339 0 0.47497843978257598 -0.062469306258871343 0 0.48341990277830499 -0.084040268931964979 0 0.47497843978257598 -0.062469306258871343 0 0.47046629948084728 -0.07955919050284449 0 0.47497843978257598 -0.062469306258871343 0 0.48341990277830499 -0.084040268931964979 0 0.48959958564022238 -0.069954358102183839 0 0.47497843978257598 -0.062469306258871343 0 0.48341990277830499 -0.084040268931964979 0 0.47046629948084728 -0.07955919050284449 0 0.47497843978257598 -0.062469306258871343 0 0.46613252975870229 -0.053603297641738719 0 0.47046629948084728 -0.07955919050284449 0 0.47046629948084728 -0.07955919050284449 0 0.45250615397952398 -0.067312496917547066 0 0.45759186057117301 -0.081051039010301529 0 0.46613252975870229 -0.053603297641738719 0 0.47046629948084728 -0.07955919050284449 0 0.45250615397952398 -0.067312496917547066 0 0.46613252975870229 -0.053603297641738719 0 0.47046629948084728 -0.07955919050284449 0 0.45250615397952398 -0.067312496917547066 0 0.44303227507459297 -0.077052621696075463 0 0.43741237164347868 -0.064710028503811162 0 0.45250615397952398 -0.067312496917547066 0 0.44303227507459297 -0.077052621696075463 0 0.45759186057117301 -0.081051039010301529 0 0.45026933014760401 -0.090751268547256583 0 0.44229883444949469 -0.09770527407557919 0 0.43424924558611472 -0.088861158965401491 0 0.44303227507459297 -0.077052621696075463 0 0.45026933014760401 -0.090751268547256583 0 0.45759186057117301 -0.081051039010301529 0 0.44303227507459297 -0.077052621696075463 0 0.45026933014760401 -0.090751268547256583 0 0.43424924558611472 -0.088861158965401491 0 0.45026933014760401 -0.090751268547256583 0 0.45978195404215211 -0.088954506704080782 0 0.46287923895583638 -0.098330150055326498 0 0.45026933014760401 -0.090751268547256583 0 0.45978195404215211 -0.088954506704080782 0 0.45759186057117301 -0.081051039010301529 0 0.47046629948084728 -0.07955919050284449 0 0.45759186057117301 -0.081051039010301529 0 0.46861789985252089 -0.086560066710662881 0 0.45978195404215211 -0.088954506704080782 0 0.45759186057117301 -0.081051039010301529 0 0.46861789985252089 -0.086560066710662881 0 0.45978195404215211 -0.088954506704080782 0 0.46861789985252089 -0.086560066710662881 0 0.46287923895583638 -0.098330150055326498 0 0.46287923895583638 -0.098330150055326498 0 0.45225190755352179 -0.1029698743467234 0 0.45864601881325179 -0.11532858304818901 0 0.47458148160181501 -0.104205914506198 0 0.46861789985252089 -0.086560066710662881 0 0.46287923895583638 -0.098330150055326498 0 0.47458148160181501 -0.104205914506198 0 0.46287923895583638 -0.098330150055326498 0 0.45864601881325179 -0.11532858304818901 0 0.45026933014760401 -0.090751268547256583 0 0.46287923895583638 -0.098330150055326498 0 0.45225190755352179 -0.1029698743467234 0 0.44234757387187901 -0.1090578910295588 0 0.45225190755352179 -0.1029698743467234 0 0.45864601881325179 -0.11532858304818901 0 0.45026933014760401 -0.090751268547256583 0 0.44229883444949469 -0.09770527407557919 0 0.45225190755352179 -0.1029698743467234 0 0.44229883444949469 -0.09770527407557919 0 0.44234757387187901 -0.1090578910295588 0 0.45225190755352179 -0.1029698743467234 0 0.44234757387187901 -0.1090578910295588 0 0.44264915891585099 -0.12490491623807359 0 0.43079908961701191 -0.1144394175275404 0 0.44234757387187901 -0.1090578910295588 0 0.44264915891585099 -0.12490491623807359 0 0.45864601881325179 -0.11532858304818901 0 0.41663681084309417 -0.1152884728635276 0 0.42930872760811462 -0.12829017978249699 0 0.41196866687269063 -0.13121249838849369 0 0.41663681084309417 -0.1152884728635276 0 0.40934382295136967 -0.1012026781495013 0 0.40032333897405847 -0.1147250846197897 0 0.41663681084309417 -0.1152884728635276 0 0.40032333897405847 -0.1147250846197897 0 0.41196866687269063 -0.13121249838849369 0 0.41663681084309417 -0.1152884728635276 0 0.43079908961701191 -0.1144394175275404 0 0.42930872760811462 -0.12829017978249699 0 0.44264915891585099 -0.12490491623807359 0 0.43079908961701191 -0.1144394175275404 0 0.42930872760811462 -0.12829017978249699 0 0.41663681084309417 -0.1152884728635276 0 0.43079908961701191 -0.1144394175275404 0 0.42726017092885271 -0.1020194880346383 0 0.44229883444949469 -0.09770527407557919 0 0.44234757387187901 -0.1090578910295588 0 0.42726017092885271 -0.1020194880346383 0 0.44234757387187901 -0.1090578910295588 0 0.43079908961701191 -0.1144394175275404 0 0.42726017092885271 -0.1020194880346383 0 0.44229883444949469 -0.09770527407557919 0 0.42726017092885271 -0.1020194880346383 0 0.43424924558611472 -0.088861158965401491 0 0.41663681084309417 -0.1152884728635276 0 0.42726017092885271 -0.1020194880346383 0 0.40934382295136967 -0.1012026781495013 0 0.42726017092885271 -0.1020194880346383 0 0.40934382295136967 -0.1012026781495013 0 0.41783386671566269 -0.088371712692010509 0 0.41783386671566269 -0.088371712692010509 0 0.42685316295997983 -0.074635516526112791 0 0.40996146066443251 -0.071961642015224606 0 0.41783386671566269 -0.088371712692010509 0 0.40996146066443251 -0.071961642015224606 0 0.40072750401860308 -0.086735970871575988 0 0.40934382295136967 -0.1012026781495013 0 0.41783386671566269 -0.088371712692010509 0 0.40072750401860308 -0.086735970871575988 0 0.41783386671566269 -0.088371712692010509 0 0.43424924558611472 -0.088861158965401491 0 0.42685316295997983 -0.074635516526112791 0 0.42726017092885271 -0.1020194880346383 0 0.41783386671566269 -0.088371712692010509 0 0.43424924558611472 -0.088861158965401491 0 0.44303227507459297 -0.077052621696075463 0 0.43424924558611472 -0.088861158965401491 0 0.42685316295997983 -0.074635516526112791 0 0.44303227507459297 -0.077052621696075463 0 0.42685316295997983 -0.074635516526112791 0 0.43741237164347868 -0.064710028503811162 0 0.42685316295997983 -0.074635516526112791 0 0.43741237164347868 -0.064710028503811162 0 0.4213820582536803 -0.056286817214717857 0 0.42685316295997983 -0.074635516526112791 0 0.40996146066443251 -0.071961642015224606 0 0.4213820582536803 -0.056286817214717857 0 0.39446271721786802 -0.073557156419901223 0 0.38155876950809092 -0.070259838969888189 0 0.39603549476349498 -0.052257610984957729 0 0.40996146066443251 -0.071961642015224606 0 0.39446271721786802 -0.073557156419901223 0 0.39603549476349498 -0.052257610984957729 0 0.40996146066443251 -0.071961642015224606 0 0.39446271721786802 -0.073557156419901223 0 0.40072750401860308 -0.086735970871575988 0 0.39446271721786802 -0.073557156419901223 0 0.38155876950809092 -0.070259838969888189 0 0.38475200523600261 -0.085245187848419363 0 0.38475200523600261 -0.085245187848419363 0 0.37562624623853141 -0.098224658724342884 0 0.36719968003829062 -0.082281643487074077 0 0.38155876950809092 -0.070259838969888189 0 0.38475200523600261 -0.085245187848419363 0 0.36719968003829062 -0.082281643487074077 0 0.38475200523600261 -0.085245187848419363 0 0.40072750401860308 -0.086735970871575988 0 0.39080728617064048 -0.1001502724333941 0 0.39446271721786802 -0.073557156419901223 0 0.38475200523600261 -0.085245187848419363 0 0.40072750401860308 -0.086735970871575988 0 0.40934382295136967 -0.1012026781495013 0 0.39080728617064048 -0.1001502724333941 0 0.40032333897405847 -0.1147250846197897 0 0.40934382295136967 -0.1012026781495013 0 0.40072750401860308 -0.086735970871575988 0 0.39080728617064048 -0.1001502724333941 0 0.39080728617064048 -0.1001502724333941 0 0.37562624623853141 -0.098224658724342884 0 0.37854635819662008 -0.1156713151383153 0 0.38475200523600261 -0.085245187848419363 0 0.39080728617064048 -0.1001502724333941 0 0.37562624623853141 -0.098224658724342884 0 0.39080728617064048 -0.1001502724333941 0 0.37854635819662008 -0.1156713151383153 0 0.40032333897405847 -0.1147250846197897 0 0.37854635819662008 -0.1156713151383153 0 0.40032333897405847 -0.1147250846197897 0 0.3948268618251311 -0.13315639205198329 0 0.42469678327872079 -0.031136603939329301 0 0.397964968222001 -0.018522308705500069 0 0.42469678327872079 -0.031136603939329301 0 0.41232080379732772 -0.043479134976397327 0 0.397964968222001 -0.018522308705500069 0 0.41999244840758182 -0.01217327823367095 0 0.42469678327872079 -0.031136603939329301 0 0.397964968222001 -0.018522308705500069 0 0.40127117392756811 0.004177348713597844 0 0.41780940858020987 0.0054137957571585814 0 0.41999244840758182 -0.01217327823367095 0 0.40127117392756811 0.004177348713597844 0 0.41999244840758182 -0.01217327823367095 0 0.397964968222001 -0.018522308705500069 0 0.41780940858020987 0.0054137957571585814 0 0.44046060815170712 0.0056007035502888963 0 0.43980408430838469 -0.01111680451173664 0 0.41780940858020987 0.0054137957571585814 0 0.43980408430838469 -0.01111680451173664 0 0.41780940858020987 0.0054137957571585814 0 0.43980408430838469 -0.01111680451173664 0 0.41999244840758182 -0.01217327823367095 0 0.43980408430838469 -0.01111680451173664 0 0.41999244840758182 -0.01217327823367095 0 0.42469678327872079 -0.031136603939329301 0 0.44239695889332042 -0.02954087584907511 0 0.43980408430838469 -0.01111680451173664 0 0.42469678327872079 -0.031136603939329301 0 0.44328820794961649 -0.048262690164602648 0 0.42469678327872079 -0.031136603939329301 0 0.4213820582536803 -0.056286817214717857 0 0.44328820794961649 -0.048262690164602648 0 0.44239695889332042 -0.02954087584907511 0 0.42469678327872079 -0.031136603939329301 0 0.44328820794961649 -0.048262690164602648 0 0.43741237164347868 -0.064710028503811162 0 0.4213820582536803 -0.056286817214717857 0 0.40996146066443251 -0.071961642015224606 0 0.4213820582536803 -0.056286817214717857 0 0.39603549476349498 -0.052257610984957729 0 0.4213820582536803 -0.056286817214717857 0 0.41232080379732772 -0.043479134976397327 0 0.39603549476349498 -0.052257610984957729 0 0.42469678327872079 -0.031136603939329301 0 0.4213820582536803 -0.056286817214717857 0 0.41232080379732772 -0.043479134976397327 0 0.41232080379732772 -0.043479134976397327 0 0.39603549476349498 -0.052257610984957729 0 0.397964968222001 -0.018522308705500069 0 0.39603549476349498 -0.052257610984957729 0 0.37804825698774358 -0.02609741688590772 0 0.397964968222001 -0.018522308705500069 0 0.38155876950809092 -0.070259838969888189 0 0.39603549476349498 -0.052257610984957729 0 0.37432077480964271 -0.056701982424257828 0 0.39603549476349498 -0.052257610984957729 0 0.37804825698774358 -0.02609741688590772 0 0.37432077480964271 -0.056701982424257828 0 0.37804825698774358 -0.02609741688590772 0 0.397964968222001 -0.018522308705500069 0 0.37123315316528049 -0.0059080134716723524 0 0.40127117392756811 0.004177348713597844 0 0.38352394300865789 0.0080181912771904 0 0.397964968222001 -0.018522308705500069 0 0.397964968222001 -0.018522308705500069 0 0.37123315316528049 -0.0059080134716723524 0 0.38352394300865789 0.0080181912771904 0 0.397964968222001 -0.018522308705500069 0 0.37123315316528049 -0.0059080134716723524 0 0.35736389915298061 0.00063665490991555995 0 0.37123315316528049 -0.0059080134716723524 0 0.35716841291622231 -0.021844210814881589 0 0.37123315316528049 -0.0059080134716723524 0 0.35716841291622231 -0.021844210814881589 0 0.35736389915298061 0.00063665490991555995 0 0.37123315316528049 -0.0059080134716723524 0 0.37804825698774358 -0.02609741688590772 0 0.35716841291622231 -0.021844210814881589 0 0.36123888945189858 -0.039079040301988111 0 0.37804825698774358 -0.02609741688590772 0 0.37123315316528049 -0.0059080134716723524 0 0.35716841291622231 -0.021844210814881589 0 0.35716841291622231 -0.021844210814881589 0 0.34158566891360848 -0.018193792184732899 0 0.34310367266716368 -0.0377804081580905 0 0.35716841291622231 -0.021844210814881589 0 0.34310367266716368 -0.0377804081580905 0 0.35736389915298061 0.00063665490991555995 0 0.35716841291622231 -0.021844210814881589 0 0.35114907972309722 -0.0032242958153672718 0 0.35716841291622231 -0.021844210814881589 0 0.35114907972309722 -0.0032242958153672718 0 0.34158566891360848 -0.018193792184732899 0 0.35736389915298061 0.00063665490991555995 0 0.35114907972309722 -0.0032242958153672718 0 0.32545890658654791 0.0038092771472236732 0 0.33806859054193572 -0.0039740695336162304 0 0.32510023370196822 -0.015374191721709941 0 0.33806859054193572 -0.0039740695336162304 0 0.34158566891360848 -0.018193792184732899 0 0.32510023370196822 -0.015374191721709941 0 0.35114907972309722 -0.0032242958153672718 0 0.33806859054193572 -0.0039740695336162304 0 0.34158566891360848 -0.018193792184732899 0 0.34158566891360848 -0.018193792184732899 0 0.32510023370196822 -0.015374191721709941 0 0.32567579776304212 -0.033314194417013027 0 0.34158566891360848 -0.018193792184732899 0 0.32567579776304212 -0.033314194417013027 0 0.34310367266716368 -0.0377804081580905 0 0.32510023370196822 -0.015374191721709941 0 0.32567579776304212 -0.033314194417013027 0 0.30952440453564961 -0.02425258302475412 0 0.32545890658654791 0.0038092771472236732 0 0.32510023370196822 -0.015374191721709941 0 0.30477680989958089 -0.0049793546113547143 0 0.32510023370196822 -0.015374191721709941 0 0.30477680989958089 -0.0049793546113547143 0 0.30952440453564961 -0.02425258302475412 0 0.33115277279105187 -0.057857385730815038 0 0.30774065136823631 -0.041817520034836048 0 0.33115277279105187 -0.057857385730815038 0 0.30434905623492547 -0.066935512596115521 0 0.30774065136823631 -0.041817520034836048 0 0.32567579776304212 -0.033314194417013027 0 0.33115277279105187 -0.057857385730815038 0 0.30774065136823631 -0.041817520034836048 0 0.32567579776304212 -0.033314194417013027 0 0.30952440453564961 -0.02425258302475412 0 0.30774065136823631 -0.041817520034836048 0 0.32567579776304212 -0.033314194417013027 0 0.34310367266716368 -0.0377804081580905 0 0.33115277279105187 -0.057857385730815038 0 0.34310367266716368 -0.0377804081580905 0 0.33115277279105187 -0.057857385730815038 0 0.35355332987872112 -0.05297118322680288 0 0.33115277279105187 -0.057857385730815038 0 0.35355332987872112 -0.05297118322680288 0 0.35456489421386761 -0.073897251426794069 0 0.34310367266716368 -0.0377804081580905 0 0.35355332987872112 -0.05297118322680288 0 0.36123888945189858 -0.039079040301988111 0 0.35716841291622231 -0.021844210814881589 0 0.34310367266716368 -0.0377804081580905 0 0.36123888945189858 -0.039079040301988111 0 0.37804825698774358 -0.02609741688590772 0 0.36123888945189858 -0.039079040301988111 0 0.37432077480964271 -0.056701982424257828 0 0.35355332987872112 -0.05297118322680288 0 0.37432077480964271 -0.056701982424257828 0 0.35456489421386761 -0.073897251426794069 0 0.35355332987872112 -0.05297118322680288 0 0.36123888945189858 -0.039079040301988111 0 0.37432077480964271 -0.056701982424257828 0 0.37432077480964271 -0.056701982424257828 0 0.36719968003829062 -0.082281643487074077 0 0.35456489421386761 -0.073897251426794069 0 0.38155876950809092 -0.070259838969888189 0 0.37432077480964271 -0.056701982424257828 0 0.36719968003829062 -0.082281643487074077 0 0.37432077480964271 -0.056701982424257828 0 0.36719968003829062 -0.082281643487074077 0 0.36719968003829062 -0.082281643487074077 0 0.35252948511211513 -0.088657026824111668 0 0.36007858526693859 -0.10786130454989031 0 0.35252948511211513 -0.088657026824111668 0 0.35456489421386761 -0.073897251426794069 0 0.33773978186458831 -0.082175974586986278 0 0.36719968003829062 -0.082281643487074077 0 0.35252948511211513 -0.088657026824111668 0 0.35456489421386761 -0.073897251426794069 0 0.35252948511211513 -0.088657026824111668 0 0.34306448417689028 -0.097068960069813554 0 0.33773978186458831 -0.082175974586986278 0 0.36636865252987599 -0.1225680660333143 0 0.36007858526693859 -0.10786130454989031 0 0.35295749049558678 -0.1334409656127066 0 0.37854635819662008 -0.1156713151383153 0 0.36636865252987599 -0.1225680660333143 0 0.36007858526693859 -0.10786130454989031 0 0.37854635819662008 -0.1156713151383153 0 0.36636865252987599 -0.1225680660333143 0 0.37389217616035891 -0.133298678832345 0 0.37562624623853141 -0.098224658724342884 0 0.36719968003829062 -0.082281643487074077 0 0.36007858526693859 -0.10786130454989031 0 0.37562624623853141 -0.098224658724342884 0 0.37854635819662008 -0.1156713151383153 0 0.36007858526693859 -0.10786130454989031 0 0.36719968003829062 -0.082281643487074077 0 0.36007858526693859 -0.10786130454989031 0 0.35252948511211513 -0.088657026824111668 0 0.36007858526693859 -0.10786130454989031 0 0.34306448417689028 -0.097068960069813554 0 0.36007858526693859 -0.10786130454989031 0 0.34661881834045621 -0.1101912302262404 0 0.34306448417689028 -0.097068960069813554 0 0.36007858526693859 -0.10786130454989031 0 0.35076062705475808 -0.1230510828362328 0 0.35295749049558678 -0.1334409656127066 0 0.36007858526693859 -0.10786130454989031 0 0.35295749049558678 -0.1334409656127066 0 0.36007858526693859 -0.10786130454989031 0 0.34661881834045621 -0.1101912302262404 0 0.35076062705475808 -0.1230510828362328 0 0.34661881834045621 -0.1101912302262404 0 0.35076062705475808 -0.1230510828362328 0 0.33318797297550118 -0.1136753215238876 0 0.35076062705475808 -0.1230510828362328 0 0.33318797297550118 -0.1136753215238876 0 0.33248008939783191 -0.13358014436700169 0 0.33318797297550118 -0.1136753215238876 0 0.32010776459640811 -0.11897688674367771 0 0.33248008939783191 -0.13358014436700169 0 0.34661881834045621 -0.1101912302262404 0 0.33318797297550118 -0.1136753215238876 0 0.34306448417689028 -0.097068960069813554 0 0.33318797297550118 -0.1136753215238876 0 0.34306448417689028 -0.097068960069813554 0 0.32348602686819089 -0.098265863828396222 0 0.32348602686819089 -0.098265863828396222 0 0.32010776459640811 -0.11897688674367771 0 0.30724056861519572 -0.1099101413287093 0 0.33318797297550118 -0.1136753215238876 0 0.32348602686819089 -0.098265863828396222 0 0.32010776459640811 -0.11897688674367771 0 0.33115277279105187 -0.057857385730815038 0 0.35456489421386761 -0.073897251426794069 0 0.33115277279105187 -0.057857385730815038 0 0.33773978186458831 -0.082175974586986278 0 0.31956970431297921 -0.079448711859034821 0 0.33115277279105187 -0.057857385730815038 0 0.35456489421386761 -0.073897251426794069 0 0.33773978186458831 -0.082175974586986278 0 0.34306448417689028 -0.097068960069813554 0 0.32348602686819089 -0.098265863828396222 0 0.33773978186458831 -0.082175974586986278 0 0.32348602686819089 -0.098265863828396222 0 0.31956970431297921 -0.079448711859034821 0 0.30269421486978459 -0.091713087739813126 0 0.32348602686819089 -0.098265863828396222 0 0.33773978186458831 -0.082175974586986278 0 0.31956970431297921 -0.079448711859034821 0 0.33115277279105187 -0.057857385730815038 0 0.31956970431297921 -0.079448711859034821 0 0.30434905623492547 -0.066935512596115521 0 0.31956970431297921 -0.079448711859034821 0 0.30434905623492547 -0.066935512596115521 0 0.30269421486978459 -0.091713087739813126 0 0.30269421486978459 -0.091713087739813126 0 0.28362547765984569 -0.099255143318465508 0 0.27999851952766852 -0.077600721258048053 0 0.30434905623492547 -0.066935512596115521 0 0.30269421486978459 -0.091713087739813126 0 0.27999851952766852 -0.077600721258048053 0 0.30434905623492547 -0.066935512596115521 0 0.27999851952766852 -0.077600721258048053 0 0.28325997147287352 -0.051229089722093932 0 0.30699046189600437 -0.12296440779935 0 0.30724056861519572 -0.1099101413287093 0 0.2914202373139162 -0.11844320335632411 0 0.30724056861519572 -0.1099101413287093 0 0.29605511742469409 -0.1048632992091186 0 0.2914202373139162 -0.11844320335632411 0 0.32010776459640811 -0.11897688674367771 0 0.30699046189600437 -0.12296440779935 0 0.30724056861519572 -0.1099101413287093 0 0.32348602686819089 -0.098265863828396222 0 0.30269421486978459 -0.091713087739813126 0 0.30724056861519572 -0.1099101413287093 0 0.30269421486978459 -0.091713087739813126 0 0.30724056861519572 -0.1099101413287093 0 0.29605511742469409 -0.1048632992091186 0 0.29605511742469409 -0.1048632992091186 0 0.28362547765984569 -0.099255143318465508 0 0.2914202373139162 -0.11844320335632411 0 0.30269421486978459 -0.091713087739813126 0 0.29605511742469409 -0.1048632992091186 0 0.28362547765984569 -0.099255143318465508 0 0.28362547765984569 -0.099255143318465508 0 0.2914202373139162 -0.11844320335632411 0 0.27268985627268649 -0.1113839684480642 0 0.2914202373139162 -0.11844320335632411 0 0.27268985627268649 -0.1113839684480642 0 0.27300404430955061 -0.1265723678475347 0 0.27268985627268649 -0.1113839684480642 0 0.25672581006507389 -0.1198520958760038 0 0.27300404430955061 -0.1265723678475347 0 0.28362547765984569 -0.099255143318465508 0 0.27268985627268649 -0.1113839684480642 0 0.2623325697497782 -0.095071195901665934 0 0.2623325697497782 -0.095071195901665934 0 0.25672581006507389 -0.1198520958760038 0 0.24013014933723581 -0.10671319096599791 0 0.27268985627268649 -0.1113839684480642 0 0.2623325697497782 -0.095071195901665934 0 0.25672581006507389 -0.1198520958760038 0 0.27999851952766852 -0.077600721258048053 0 0.26203314637308173 -0.077946919042116758 0 0.26178618614965182 -0.060969966007363492 0 0.27999851952766852 -0.077600721258048053 0 0.26178618614965182 -0.060969966007363492 0 0.28325997147287352 -0.051229089722093932 0 0.28362547765984569 -0.099255143318465508 0 0.2623325697497782 -0.095071195901665934 0 0.27999851952766852 -0.077600721258048053 0 0.2623325697497782 -0.095071195901665934 0 0.27999851952766852 -0.077600721258048053 0 0.26203314637308173 -0.077946919042116758 0 0.2623325697497782 -0.095071195901665934 0 0.26203314637308173 -0.077946919042116758 0 0.24436469559967089 -0.0778227166031734 0 0.26203314637308173 -0.077946919042116758 0 0.26178618614965182 -0.060969966007363492 0 0.24436469559967089 -0.0778227166031734 0 0.26178618614965182 -0.060969966007363492 0 0.26218827993346561 -0.036179541460579619 0 0.24338285006687491 -0.050640326903654227 0 0.26178618614965182 -0.060969966007363492 0 0.26218827993346561 -0.036179541460579619 0 0.28325997147287352 -0.051229089722093932 0 0.26218827993346561 -0.036179541460579619 0 0.28432852994542052 -0.025777654338856901 0 0.28325997147287352 -0.051229089722093932 0 0.26218827993346561 -0.036179541460579619 0 0.25868691773078378 -0.0042192312531555004 0 0.28432852994542052 -0.025777654338856901 0 0.26218827993346561 -0.036179541460579619 0 0.25868691773078378 -0.0042192312531555004 0 0.24168522423518959 -0.024240980538353701 0 0.25868691773078378 -0.0042192312531555004 0 0.24168522423518959 -0.024240980538353701 0 0.25868691773078378 -0.0042192312531555004 0 0.28432852994542052 -0.025777654338856901 0 0.28240757554887569 -0.0024959148755900888 0 0.28432852994542052 -0.025777654338856901 0 0.28240757554887569 -0.0024959148755900888 0 0.30477680989958089 -0.0049793546113547143 0 0.28432852994542052 -0.025777654338856901 0 0.30477680989958089 -0.0049793546113547143 0 0.30952440453564961 -0.02425258302475412 0 0.28432852994542052 -0.025777654338856901 0 0.30952440453564961 -0.02425258302475412 0 0.30774065136823631 -0.041817520034836048 0 0.30434905623492547 -0.066935512596115521 0 0.30774065136823631 -0.041817520034836048 0 0.28325997147287352 -0.051229089722093932 0 0.28432852994542052 -0.025777654338856901 0 0.30774065136823631 -0.041817520034836048 0 0.28432852994542052 -0.025777654338856901 0 0.30774065136823631 -0.041817520034836048 0 0.28325997147287352 -0.051229089722093932 0 0.29155685992617503 -0.21470860522131971 0 0.28790143173469068 -0.200866875708089 0 0.30241424372712261 -0.21081748382422591 0 0.29155685992617503 -0.21470860522131971 0 0.28793831523184849 -0.2254826817844901 0 0.27979944897023379 -0.214276350982499 0 0.29155685992617503 -0.21470860522131971 0 0.28790143173469068 -0.200866875708089 0 0.27979944897023379 -0.214276350982499 0 0.28790143173469068 -0.200866875708089 0 0.29154635323332528 -0.18814249431442609 0 0.27965771127203148 -0.1853688606591051 0 0.28790143173469068 -0.200866875708089 0 0.29154635323332528 -0.18814249431442609 0 0.30192217950308281 -0.19583982495233429 0 0.30192217950308281 -0.19583982495233429 0 0.31808458092245151 -0.20696667275820241 0 0.31616969935199452 -0.19145861285637031 0 0.28790143173469068 -0.200866875708089 0 0.30192217950308281 -0.19583982495233429 0 0.30241424372712261 -0.21081748382422591 0 0.29154635323332528 -0.18814249431442609 0 0.30192217950308281 -0.19583982495233429 0 0.30302309201691441 -0.18245508343163419 0 0.30192217950308281 -0.19583982495233429 0 0.30302309201691441 -0.18245508343163419 0 0.31616969935199452 -0.19145861285637031 0 0.30241424372712261 -0.21081748382422591 0 0.31219845473944408 -0.22327184091514679 0 0.31808458092245151 -0.20696667275820241 0 0.30192217950308281 -0.19583982495233429 0 0.30241424372712261 -0.21081748382422591 0 0.31808458092245151 -0.20696667275820241 0 0.29155685992617503 -0.21470860522131971 0 0.30241424372712261 -0.21081748382422591 0 0.29973085996697968 -0.22209963380729439 0 0.30241424372712261 -0.21081748382422591 0 0.31219845473944408 -0.22327184091514679 0 0.29973085996697968 -0.22209963380729439 0 0.31219845473944408 -0.22327184091514679 0 0.30018890331696307 -0.2337125117860015 0 0.31205752073155169 -0.24060092456712501 0 0.31219845473944408 -0.22327184091514679 0 0.30018890331696307 -0.2337125117860015 0 0.29973085996697968 -0.22209963380729439 0 0.31205752073155169 -0.24060092456712501 0 0.29446357617183783 -0.24816443971273511 0 0.30754541678850039 -0.25445181965460062 0 0.30018890331696307 -0.2337125117860015 0 0.31205752073155169 -0.24060092456712501 0 0.29446357617183783 -0.24816443971273511 0 0.30018890331696307 -0.2337125117860015 0 0.29446357617183783 -0.24816443971273511 0 0.28182866472133727 -0.23964836693660141 0 0.29446357617183783 -0.24816443971273511 0 0.28182866472133727 -0.23964836693660141 0 0.28186142461365599 -0.25125271573050939 0 0.30018890331696307 -0.2337125117860015 0 0.28182866472133727 -0.23964836693660141 0 0.28793831523184849 -0.2254826817844901 0 0.29155685992617503 -0.21470860522131971 0 0.29973085996697968 -0.22209963380729439 0 0.28793831523184849 -0.2254826817844901 0 0.30018890331696307 -0.2337125117860015 0 0.29973085996697968 -0.22209963380729439 0 0.28793831523184849 -0.2254826817844901 0 0.28793831523184849 -0.2254826817844901 0 0.27211401522010842 -0.2242589776808977 0 0.27979944897023379 -0.214276350982499 0 0.28182866472133727 -0.23964836693660141 0 0.28793831523184849 -0.2254826817844901 0 0.27211401522010842 -0.2242589776808977 0 0.28182866472133727 -0.23964836693660141 0 0.27001310421560493 -0.249991519231302 0 0.2627807940160618 -0.23934886456829191 0 0.28182866472133727 -0.23964836693660141 0 0.27211401522010842 -0.2242589776808977 0 0.2627807940160618 -0.23934886456829191 0 0.28182866472133727 -0.23964836693660141 0 0.27001310421560493 -0.249991519231302 0 0.28186142461365599 -0.25125271573050939 0 0.2627807940160618 -0.23934886456829191 0 0.25455705962084613 -0.2492274359405969 0 0.24635707094536871 -0.23502713197709979 0 0.27001310421560493 -0.249991519231302 0 0.2627807940160618 -0.23934886456829191 0 0.25455705962084613 -0.2492274359405969 0 0.27211401522010842 -0.2242589776808977 0 0.2627807940160618 -0.23934886456829191 0 0.25354506743999072 -0.21705698090367409 0 0.2627807940160618 -0.23934886456829191 0 0.25354506743999072 -0.21705698090367409 0 0.24635707094536871 -0.23502713197709979 0 0.25354506743999072 -0.21705698090367409 0 0.26552349410169462 -0.20887078135039711 0 0.24889351788783889 -0.19049339273463589 0 0.27211401522010842 -0.2242589776808977 0 0.25354506743999072 -0.21705698090367409 0 0.26552349410169462 -0.20887078135039711 0 0.26552349410169462 -0.20887078135039711 0 0.27979944897023379 -0.214276350982499 0 0.27072880731133392 -0.1965285253314126 0 0.28790143173469068 -0.200866875708089 0 0.27979944897023379 -0.214276350982499 0 0.27072880731133392 -0.1965285253314126 0 0.27211401522010842 -0.2242589776808977 0 0.26552349410169462 -0.20887078135039711 0 0.27979944897023379 -0.214276350982499 0 0.28790143173469068 -0.200866875708089 0 0.27072880731133392 -0.1965285253314126 0 0.27965771127203148 -0.1853688606591051 0 0.27072880731133392 -0.1965285253314126 0 0.26566543736575682 -0.17644835261139249 0 0.24889351788783889 -0.19049339273463589 0 0.26552349410169462 -0.20887078135039711 0 0.27072880731133392 -0.1965285253314126 0 0.24889351788783889 -0.19049339273463589 0 0.26566543736575682 -0.17644835261139249 0 0.24759659070107831 -0.17163842505134699 0 0.24889351788783889 -0.19049339273463589 0 0.26566543736575682 -0.17644835261139249 0 0.24889351788783889 -0.19049339273463589 0 0.25926405639917721 -0.16067325664675011 0 0.26964380282896711 -0.16310906146888249 0 0.26566543736575682 -0.17644835261139249 0 0.25926405639917721 -0.16067325664675011 0 0.24555869062980629 -0.15163383778365189 0 0.24759659070107831 -0.17163842505134699 0 0.25926405639917721 -0.16067325664675011 0 0.26566543736575682 -0.17644835261139249 0 0.24759659070107831 -0.17163842505134699 0 0.2804890381621275 -0.1640348618222148 0 0.26566543736575682 -0.17644835261139249 0 0.26964380282896711 -0.16310906146888249 0 0.2804890381621275 -0.1640348618222148 0 0.26566543736575682 -0.17644835261139249 0 0.25926405639917721 -0.16067325664675011 0 0.26964380282896711 -0.16310906146888249 0 0.26909252641320208 -0.1552325829482038 0 0.26964380282896711 -0.16310906146888249 0 0.2751077360029357 -0.15904048541313351 0 0.26909252641320208 -0.1552325829482038 0 0.26964380282896711 -0.16310906146888249 0 0.2751077360029357 -0.15904048541313351 0 0.2804890381621275 -0.1640348618222148 0 0.2751077360029357 -0.15904048541313351 0 0.27949540670244372 -0.15894676647652561 0 0.27710566777265339 -0.15422278589389299 0 0.2751077360029357 -0.15904048541313351 0 0.2804890381621275 -0.1640348618222148 0 0.27949540670244372 -0.15894676647652561 0 0.2804890381621275 -0.1640348618222148 0 0.27949540670244372 -0.15894676647652561 0 0.28243735684367488 -0.16240331248814929 0 0.2804890381621275 -0.1640348618222148 0 0.27778792255040519 -0.17388781367281381 0 0.28243735684367488 -0.16240331248814929 0 0.2804890381621275 -0.1640348618222148 0 0.27778792255040519 -0.17388781367281381 0 0.26566543736575682 -0.17644835261139249 0 0.27778792255040519 -0.17388781367281381 0 0.27965771127203148 -0.1853688606591051 0 0.26566543736575682 -0.17644835261139249 0 0.27072880731133392 -0.1965285253314126 0 0.27965771127203148 -0.1853688606591051 0 0.26566543736575682 -0.17644835261139249 0 0.25672581006507389 -0.1198520958760038 0 0.26212712747989081 -0.132536595412827 0 0.27300404430955061 -0.1265723678475347 0 0.25672581006507389 -0.1198520958760038 0 0.26212712747989081 -0.132536595412827 0 0.25161379454461469 -0.135401718200473 0 0.26212712747989081 -0.132536595412827 0 0.25161379454461469 -0.135401718200473 0 0.26186671277005941 -0.1458058669276999 0 0.25161379454461469 -0.135401718200473 0 0.26186671277005941 -0.1458058669276999 0 0.24555869062980629 -0.15163383778365189 0 0.25926405639917721 -0.16067325664675011 0 0.26186671277005941 -0.1458058669276999 0 0.24555869062980629 -0.15163383778365189 0 0.25926405639917721 -0.16067325664675011 0 0.26186671277005941 -0.1458058669276999 0 0.26909252641320208 -0.1552325829482038 0 0.26186671277005941 -0.1458058669276999 0 0.26909252641320208 -0.1552325829482038 0 0.27257478707242749 -0.14786503502569379 0 0.26909252641320208 -0.1552325829482038 0 0.27710566777265339 -0.15422278589389299 0 0.27257478707242749 -0.14786503502569379 0 0.2751077360029357 -0.15904048541313351 0 0.26909252641320208 -0.1552325829482038 0 0.27710566777265339 -0.15422278589389299 0 0.27710566777265339 -0.15422278589389299 0 0.27257478707242749 -0.14786503502569379 0 0.28386405326627268 -0.1464448639639675 0 0.27949540670244372 -0.15894676647652561 0 0.27710566777265339 -0.15422278589389299 0 0.28334261543275058 -0.15487961155364491 0 0.27257478707242749 -0.14786503502569379 0 0.27303748428372893 -0.13805680564958511 0 0.28386405326627268 -0.1464448639639675 0 0.26186671277005941 -0.1458058669276999 0 0.27257478707242749 -0.14786503502569379 0 0.27303748428372893 -0.13805680564958511 0 0.26212712747989081 -0.132536595412827 0 0.26186671277005941 -0.1458058669276999 0 0.27303748428372893 -0.13805680564958511 0 0.27303748428372893 -0.13805680564958511 0 0.28603937918301819 -0.13448345551879209 0 0.28386405326627268 -0.1464448639639675 0 0.27303748428372893 -0.13805680564958511 0 0.27300404430955061 -0.1265723678475347 0 0.28603937918301819 -0.13448345551879209 0 0.26212712747989081 -0.132536595412827 0 0.27303748428372893 -0.13805680564958511 0 0.27300404430955061 -0.1265723678475347 0 0.2914202373139162 -0.11844320335632411 0 0.27300404430955061 -0.1265723678475347 0 0.28603937918301819 -0.13448345551879209 0 0.2914202373139162 -0.11844320335632411 0 0.28603937918301819 -0.13448345551879209 0 0.29996246283705719 -0.1338011569230256 0 0.28603937918301819 -0.13448345551879209 0 0.29461029779571479 -0.14355697567915129 0 0.29996246283705719 -0.1338011569230256 0 0.29201987577830352 -0.15437877700812849 0 0.30745872312075351 -0.14799172842757569 0 0.28243735684367488 -0.16240331248814929 0 0.30745872312075351 -0.14799172842757569 0 0.28243735684367488 -0.16240331248814929 0 0.29461029779571479 -0.14355697567915129 0 0.28386405326627268 -0.1464448639639675 0 0.29201987577830352 -0.15437877700812849 0 0.28603937918301819 -0.13448345551879209 0 0.29461029779571479 -0.14355697567915129 0 0.28386405326627268 -0.1464448639639675 0 0.27710566777265339 -0.15422278589389299 0 0.28386405326627268 -0.1464448639639675 0 0.28334261543275058 -0.15487961155364491 0 0.28386405326627268 -0.1464448639639675 0 0.28334261543275058 -0.15487961155364491 0 0.29201987577830352 -0.15437877700812849 0 0.29461029779571479 -0.14355697567915129 0 0.29201987577830352 -0.15437877700812849 0 0.30745872312075351 -0.14799172842757569 0 0.29461029779571479 -0.14355697567915129 0 0.30745872312075351 -0.14799172842757569 0 0.29996246283705719 -0.1338011569230256 0 0.30699046189600437 -0.12296440779935 0 0.29996246283705719 -0.1338011569230256 0 0.31622127611744461 -0.13369065064501351 0 0.29996246283705719 -0.1338011569230256 0 0.31622127611744461 -0.13369065064501351 0 0.30745872312075351 -0.14799172842757569 0 0.29996246283705719 -0.1338011569230256 0 0.31622127611744461 -0.13369065064501351 0 0.30699046189600437 -0.12296440779935 0 0.2914202373139162 -0.11844320335632411 0 0.29996246283705719 -0.1338011569230256 0 0.29154635323332528 -0.18814249431442609 0 0.28970071591230689 -0.17436326483616091 0 0.30302309201691441 -0.18245508343163419 0 0.29154635323332528 -0.18814249431442609 0 0.27965771127203148 -0.1853688606591051 0 0.28970071591230689 -0.17436326483616091 0 0.27778792255040519 -0.17388781367281381 0 0.27965771127203148 -0.1853688606591051 0 0.28970071591230689 -0.17436326483616091 0 0.27778792255040519 -0.17388781367281381 0 0.28970071591230689 -0.17436326483616091 0 0.28453118960796348 -0.16940295420610291 0 0.30745872312075351 -0.14799172842757569 0 0.28243735684367488 -0.16240331248814929 0 0.2954206120797549 -0.163104319380769 0 0.27778792255040519 -0.17388781367281381 0 0.28453118960796348 -0.16940295420610291 0 0.28243735684367488 -0.16240331248814929 0 0.28819876312546699 -0.1669574258272877 0 0.28243735684367488 -0.16240331248814929 0 0.2954206120797549 -0.163104319380769 0 0.28453118960796348 -0.16940295420610291 0 0.28819876312546699 -0.1669574258272877 0 0.28243735684367488 -0.16240331248814929 0 0.28970071591230689 -0.17436326483616091 0 0.28453118960796348 -0.16940295420610291 0 0.28819876312546699 -0.1669574258272877 0 0.28334261543275058 -0.15487961155364491 0 0.29201987577830352 -0.15437877700812849 0 0.28243735684367488 -0.16240331248814929 0 0.29201987577830352 -0.15437877700812849 0 0.28243735684367488 -0.16240331248814929 0 0.27949540670244372 -0.15894676647652561 0 0.28334261543275058 -0.15487961155364491 0 0.28243735684367488 -0.16240331248814929 0 0.2804890381621275 -0.1640348618222148 0 0.28243735684367488 -0.16240331248814929 0 0.28970071591230689 -0.17436326483616091 0 0.2954206120797549 -0.163104319380769 0 0.30321409107331582 -0.1690870220243072 0 0.28970071591230689 -0.17436326483616091 0 0.28819876312546699 -0.1669574258272877 0 0.2954206120797549 -0.163104319380769 0 0.2954206120797549 -0.163104319380769 0 0.30321409107331582 -0.1690870220243072 0 0.30521284227273082 -0.16029561370672921 0 0.30745872312075351 -0.14799172842757569 0 0.2954206120797549 -0.163104319380769 0 0.30521284227273082 -0.16029561370672921 0 0.30321409107331582 -0.1690870220243072 0 0.30521284227273082 -0.16029561370672921 0 0.3147579428170994 -0.160999384994265 0 0.30745872312075351 -0.14799172842757569 0 0.30521284227273082 -0.16029561370672921 0 0.3147579428170994 -0.160999384994265 0 0.30321409107331582 -0.1690870220243072 0 0.31558551302746091 -0.17583928160620649 0 0.3147579428170994 -0.160999384994265 0 0.30321409107331582 -0.1690870220243072 0 0.30302309201691441 -0.18245508343163419 0 0.31558551302746091 -0.17583928160620649 0 0.28970071591230689 -0.17436326483616091 0 0.30321409107331582 -0.1690870220243072 0 0.30302309201691441 -0.18245508343163419 0 0.30302309201691441 -0.18245508343163419 0 0.31558551302746091 -0.17583928160620649 0 0.31616969935199452 -0.19145861285637031 0 0.31558551302746091 -0.17583928160620649 0 0.32952881819289981 -0.1673267683656515 0 0.33034962731754802 -0.18475437860178631 0 0.31558551302746091 -0.17583928160620649 0 0.33034962731754802 -0.18475437860178631 0 0.31616969935199452 -0.19145861285637031 0 0.31558551302746091 -0.17583928160620649 0 0.3147579428170994 -0.160999384994265 0 0.32952881819289981 -0.1673267683656515 0 0.3147579428170994 -0.160999384994265 0 0.32952881819289981 -0.1673267683656515 0 0.32758658591536938 -0.150934396887662 0 0.32952881819289981 -0.1673267683656515 0 0.32758658591536938 -0.150934396887662 0 0.34754581543751711 -0.1528802257563027 0 0.32952881819289981 -0.1673267683656515 0 0.34356052582674829 -0.1727539265971286 0 0.34754581543751711 -0.1528802257563027 0 0.34356052582674829 -0.1727539265971286 0 0.33034962731754802 -0.18475437860178631 0 0.3521440134203398 -0.1889201552762852 0 0.32952881819289981 -0.1673267683656515 0 0.34356052582674829 -0.1727539265971286 0 0.33034962731754802 -0.18475437860178631 0 0.32010776459640811 -0.11897688674367771 0 0.31622127611744461 -0.13369065064501351 0 0.33248008939783191 -0.13358014436700169 0 0.30745872312075351 -0.14799172842757569 0 0.31622127611744461 -0.13369065064501351 0 0.33248008939783191 -0.13358014436700169 0 0.31622127611744461 -0.13369065064501351 0 0.33248008939783191 -0.13358014436700169 0 0.32010776459640811 -0.11897688674367771 0 0.30699046189600437 -0.12296440779935 0 0.31622127611744461 -0.13369065064501351 0 0.30745872312075351 -0.14799172842757569 0 0.3147579428170994 -0.160999384994265 0 0.32758658591536938 -0.150934396887662 0 0.30745872312075351 -0.14799172842757569 0 0.32758658591536938 -0.150934396887662 0 0.33248008939783191 -0.13358014436700169 0 0.30745872312075351 -0.14799172842757569 0 0.33248008939783191 -0.13358014436700169 0 0.32758658591536938 -0.150934396887662 0 0.34277022256926348 -0.141077848194085 0 0.33248008939783191 -0.13358014436700169 0 0.32758658591536938 -0.150934396887662 0 0.34277022256926348 -0.141077848194085 0 0.34754581543751711 -0.1528802257563027 0 0.34277022256926348 -0.141077848194085 0 0.33248008939783191 -0.13358014436700169 0 0.35295749049558678 -0.1334409656127066 0 0.33248008939783191 -0.13358014436700169 0 0.35295749049558678 -0.1334409656127066 0 0.35076062705475808 -0.1230510828362328 0 0.33248008939783191 -0.13358014436700169 0 0.35076062705475808 -0.1230510828362328 0 0.33248008939783191 -0.13358014436700169 0 0.35295749049558678 -0.1334409656127066 0 0.35295749049558678 -0.1334409656127066 0 0.34754581543751711 -0.1528802257563027 0 0.3642046287472156 -0.15019267604014361 0 0.35295749049558678 -0.1334409656127066 0 0.34754581543751711 -0.1528802257563027 0 0.34277022256926348 -0.141077848194085 0 0.35295749049558678 -0.1334409656127066 0 0.34754581543751711 -0.1528802257563027 0 0.3642046287472156 -0.15019267604014361 0 0.38050891111654561 -0.14780390559119291 0 0.37603419743285188 -0.16755879917940339 0 0.3642046287472156 -0.15019267604014361 0 0.37389217616035891 -0.133298678832345 0 0.38050891111654561 -0.14780390559119291 0 0.35295749049558678 -0.1334409656127066 0 0.3642046287472156 -0.15019267604014361 0 0.37389217616035891 -0.133298678832345 0 0.35295749049558678 -0.1334409656127066 0 0.37389217616035891 -0.133298678832345 0 0.36636865252987599 -0.1225680660333143 0 0.35295749049558678 -0.1334409656127066 0 0.37389217616035891 -0.133298678832345 0 0.34356052582674829 -0.1727539265971286 0 0.35823435476543691 -0.16988810498561721 0 0.3521440134203398 -0.1889201552762852 0 0.34356052582674829 -0.1727539265971286 0 0.34754581543751711 -0.1528802257563027 0 0.35823435476543691 -0.16988810498561721 0 0.34754581543751711 -0.1528802257563027 0 0.3642046287472156 -0.15019267604014361 0 0.35823435476543691 -0.16988810498561721 0 0.3642046287472156 -0.15019267604014361 0 0.35823435476543691 -0.16988810498561721 0 0.37603419743285188 -0.16755879917940339 0 0.35823435476543691 -0.16988810498561721 0 0.37106244907009223 -0.18603834833275151 0 0.37603419743285188 -0.16755879917940339 0 0.35823435476543691 -0.16988810498561721 0 0.37106244907009223 -0.18603834833275151 0 0.3521440134203398 -0.1889201552762852 0 0.37106244907009223 -0.18603834833275151 0 0.36586573650674747 -0.20445589966911559 0 0.3521440134203398 -0.1889201552762852 0 0.36586573650674747 -0.20445589966911559 0 0.3601091534693725 -0.2243683779185256 0 0.37784553787102793 -0.2213712594811858 0 0.36586573650674747 -0.20445589966911559 0 0.34748891598371368 -0.21355633268550109 0 0.35297021593977562 -0.20201805337627041 0 0.36586573650674747 -0.20445589966911559 0 0.34748891598371368 -0.21355633268550109 0 0.3601091534693725 -0.2243683779185256 0 0.34748891598371368 -0.21355633268550109 0 0.35297021593977562 -0.20201805337627041 0 0.33472030344038128 -0.199655256918292 0 0.3521440134203398 -0.1889201552762852 0 0.35297021593977562 -0.20201805337627041 0 0.33472030344038128 -0.199655256918292 0 0.36586573650674747 -0.20445589966911559 0 0.3521440134203398 -0.1889201552762852 0 0.35297021593977562 -0.20201805337627041 0 0.33034962731754802 -0.18475437860178631 0 0.3521440134203398 -0.1889201552762852 0 0.33472030344038128 -0.199655256918292 0 0.34748891598371368 -0.21355633268550109 0 0.33472030344038128 -0.199655256918292 0 0.32986501292085979 -0.21776064400344131 0 0.31219845473944408 -0.22327184091514679 0 0.32986501292085979 -0.21776064400344131 0 0.31808458092245151 -0.20696667275820241 0 0.33472030344038128 -0.199655256918292 0 0.32986501292085979 -0.21776064400344131 0 0.31808458092245151 -0.20696667275820241 0 0.33472030344038128 -0.199655256918292 0 0.31808458092245151 -0.20696667275820241 0 0.31616969935199452 -0.19145861285637031 0 0.33034962731754802 -0.18475437860178631 0 0.33472030344038128 -0.199655256918292 0 0.31616969935199452 -0.19145861285637031 0 0.31205752073155169 -0.24060092456712501 0 0.32766044863187682 -0.24260060168933739 0 0.32355555352009258 -0.23006353794403339 0 0.31205752073155169 -0.24060092456712501 0 0.32766044863187682 -0.24260060168933739 0 0.32119773225087778 -0.25384030700783711 0 0.31205752073155169 -0.24060092456712501 0 0.32119773225087778 -0.25384030700783711 0 0.30754541678850039 -0.25445181965460062 0 0.31219845473944408 -0.22327184091514679 0 0.32986501292085979 -0.21776064400344131 0 0.32355555352009258 -0.23006353794403339 0 0.31219845473944408 -0.22327184091514679 0 0.31205752073155169 -0.24060092456712501 0 0.32355555352009258 -0.23006353794403339 0 0.32986501292085979 -0.21776064400344131 0 0.32355555352009258 -0.23006353794403339 0 0.34140307362514521 -0.23307976422736179 0 0.34748891598371368 -0.21355633268550109 0 0.32986501292085979 -0.21776064400344131 0 0.34140307362514521 -0.23307976422736179 0 0.32766044863187682 -0.24260060168933739 0 0.34140307362514521 -0.23307976422736179 0 0.3405178516727696 -0.25574781199485208 0 0.32766044863187682 -0.24260060168933739 0 0.32355555352009258 -0.23006353794403339 0 0.34140307362514521 -0.23307976422736179 0 0.34140307362514521 -0.23307976422736179 0 0.3601091534693725 -0.2243683779185256 0 0.36090647266810522 -0.25024146894725041 0 0.34140307362514521 -0.23307976422736179 0 0.3405178516727696 -0.25574781199485208 0 0.36090647266810522 -0.25024146894725041 0 0.34748891598371368 -0.21355633268550109 0 0.34140307362514521 -0.23307976422736179 0 0.3601091534693725 -0.2243683779185256 0 0.3601091534693725 -0.2243683779185256 0 0.3777908798362497 -0.23646064334568881 0 0.37784553787102793 -0.2213712594811858 0 0.3601091534693725 -0.2243683779185256 0 0.3777908798362497 -0.23646064334568881 0 0.36090647266810522 -0.25024146894725041 0 0.3777908798362497 -0.23646064334568881 0 0.38333934894335803 -0.25022549416803852 0 0.36090647266810522 -0.25024146894725041 0 0.3601091534693725 -0.2243683779185256 0 0.36090647266810522 -0.25024146894725041 0 0.3777908798362497 -0.23646064334568881 0 0.38935473130469528 -0.24136950405278759 0 0.39321724091785992 -0.2301427132995858 0 0.3777908798362497 -0.23646064334568881 0 0.38935473130469528 -0.24136950405278759 0 0.38333934894335803 -0.25022549416803852 0 0.38935473130469528 -0.24136950405278759 0 0.38333934894335803 -0.25022549416803852 0 0.39711162360718733 -0.25008620228502709 0 0.38935473130469528 -0.24136950405278759 0 0.39937511234840373 -0.24029155688694939 0 0.39711162360718733 -0.25008620228502709 0 0.38935473130469528 -0.24136950405278759 0 0.39937511234840373 -0.24029155688694939 0 0.39321724091785992 -0.2301427132995858 0 0.39937511234840373 -0.24029155688694939 0 0.39321724091785992 -0.2301427132995858 0 0.40663822396447369 -0.23312483881061241 0 0.39937511234840373 -0.24029155688694939 0 0.40755408091140588 -0.24102023699132541 0 0.40663822396447369 -0.23312483881061241 0 0.39937511234840373 -0.24029155688694939 0 0.40399359422752062 -0.24654297328395219 0 0.39711162360718733 -0.25008620228502709 0 0.39937511234840373 -0.24029155688694939 0 0.40399359422752062 -0.24654297328395219 0 0.40755408091140588 -0.24102023699132541 0 0.39321724091785992 -0.2301427132995858 0 0.39679410670278398 -0.21568987767600201 0 0.40784036359536741 -0.2219934187476939 0 0.39321724091785992 -0.2301427132995858 0 0.40663822396447369 -0.23312483881061241 0 0.40784036359536741 -0.2219934187476939 0 0.39321724091785992 -0.2301427132995858 0 0.37784553787102793 -0.2213712594811858 0 0.39679410670278398 -0.21568987767600201 0 0.3777908798362497 -0.23646064334568881 0 0.39321724091785992 -0.2301427132995858 0 0.37784553787102793 -0.2213712594811858 0 0.37784553787102793 -0.2213712594811858 0 0.39286398187891108 -0.19624960006263981 0 0.39679410670278398 -0.21568987767600201 0 0.37784553787102793 -0.2213712594811858 0 0.39286398187891108 -0.19624960006263981 0 0.36586573650674747 -0.20445589966911559 0 0.37784553787102793 -0.2213712594811858 0 0.39286398187891108 -0.19624960006263981 0 0.37106244907009223 -0.18603834833275151 0 0.36586573650674747 -0.20445589966911559 0 0.39286398187891108 -0.19624960006263981 0 0.39286398187891108 -0.19624960006263981 0 0.39679410670278398 -0.21568987767600201 0 0.41220340925075383 -0.20869239678890489 0 0.39679410670278398 -0.21568987767600201 0 0.41220340925075383 -0.20869239678890489 0 0.40784036359536741 -0.2219934187476939 0 0.41220340925075383 -0.20869239678890489 0 0.40784036359536741 -0.2219934187476939 0 0.42175278164480329 -0.22003411848971019 0 0.41220340925075383 -0.20869239678890489 0 0.43091231480823688 -0.2100281396588351 0 0.42175278164480329 -0.22003411848971019 0 0.39286398187891108 -0.19624960006263981 0 0.41743752045457011 -0.19530814919016171 0 0.41311850022578539 -0.18419046561306879 0 0.39286398187891108 -0.19624960006263981 0 0.41220340925075383 -0.20869239678890489 0 0.41743752045457011 -0.19530814919016171 0 0.41220340925075383 -0.20869239678890489 0 0.41743752045457011 -0.19530814919016171 0 0.42937613943948999 -0.19748314846609899 0 0.41743752045457011 -0.19530814919016171 0 0.41311850022578539 -0.18419046561306879 0 0.42624549969324571 -0.18559343833767189 0 0.41743752045457011 -0.19530814919016171 0 0.42937613943948999 -0.19748314846609899 0 0.42624549969324571 -0.18559343833767189 0 0.42937613943948999 -0.19748314846609899 0 0.43091231480823688 -0.2100281396588351 0 0.44356906754867248 -0.20006884186999249 0 0.42937613943948999 -0.19748314846609899 0 0.42624549969324571 -0.18559343833767189 0 0.43940387368767292 -0.18702246135929021 0 0.42937613943948999 -0.19748314846609899 0 0.43940387368767292 -0.18702246135929021 0 0.44356906754867248 -0.20006884186999249 0 0.41220340925075383 -0.20869239678890489 0 0.42937613943948999 -0.19748314846609899 0 0.43091231480823688 -0.2100281396588351 0 0.43091231480823688 -0.2100281396588351 0 0.43408563983497678 -0.22305259845247369 0 0.42175278164480329 -0.22003411848971019 0 0.43091231480823688 -0.2100281396588351 0 0.43408563983497678 -0.22305259845247369 0 0.44553327963131412 -0.2139002293675733 0 0.43408563983497678 -0.22305259845247369 0 0.42674763903549062 -0.23198513249188421 0 0.42175278164480329 -0.22003411848971019 0 0.43408563983497678 -0.22305259845247369 0 0.42674763903549062 -0.23198513249188421 0 0.43763544190921849 -0.2362444288047498 0 0.42674763903549062 -0.23198513249188421 0 0.42845474966349872 -0.2483124378755284 0 0.43763544190921849 -0.2362444288047498 0 0.42674763903549062 -0.23198513249188421 0 0.42845474966349872 -0.2483124378755284 0 0.41698275749372171 -0.23965516549908911 0 0.42845474966349872 -0.2483124378755284 0 0.43882385968512821 -0.24738306959961509 0 0.43763544190921849 -0.2362444288047498 0 0.42845474966349872 -0.2483124378755284 0 0.41698275749372171 -0.23965516549908911 0 0.41811765583917881 -0.24954801842739499 0 0.41698275749372171 -0.23965516549908911 0 0.41811765583917881 -0.24954801842739499 0 0.41059453376712718 -0.24791741758402339 0 0.41698275749372171 -0.23965516549908911 0 0.41059453376712718 -0.24791741758402339 0 0.40755408091140588 -0.24102023699132541 0 0.40399359422752062 -0.24654297328395219 0 0.41059453376712718 -0.24791741758402339 0 0.40755408091140588 -0.24102023699132541 0 0.40399359422752062 -0.24654297328395219 0 0.41059453376712718 -0.24791741758402339 0 0.40533262050347851 -0.25339945267243591 0 0.41698275749372171 -0.23965516549908911 0 0.40755408091140588 -0.24102023699132541 0 0.40663822396447369 -0.23312483881061241 0 0.41698275749372171 -0.23965516549908911 0 0.40663822396447369 -0.23312483881061241 0 0.41599235314677141 -0.229358534807798 0 0.40663822396447369 -0.23312483881061241 0 0.40784036359536741 -0.2219934187476939 0 0.41599235314677141 -0.229358534807798 0 0.40784036359536741 -0.2219934187476939 0 0.42175278164480329 -0.22003411848971019 0 0.41599235314677141 -0.229358534807798 0 0.42674763903549062 -0.23198513249188421 0 0.42175278164480329 -0.22003411848971019 0 0.41599235314677141 -0.229358534807798 0 0.42674763903549062 -0.23198513249188421 0 0.41698275749372171 -0.23965516549908911 0 0.41599235314677141 -0.229358534807798 0 0.3948268618251311 -0.13315639205198329 0 0.40565929548706992 -0.14488187122796731 0 0.41196866687269063 -0.13121249838849369 0 0.40032333897405847 -0.1147250846197897 0 0.3948268618251311 -0.13315639205198329 0 0.41196866687269063 -0.13121249838849369 0 0.37389217616035891 -0.133298678832345 0 0.3948268618251311 -0.13315639205198329 0 0.37854635819662008 -0.1156713151383153 0 0.37389217616035891 -0.133298678832345 0 0.3948268618251311 -0.13315639205198329 0 0.37389217616035891 -0.133298678832345 0 0.3948268618251311 -0.13315639205198329 0 0.38050891111654561 -0.14780390559119291 0 0.3948268618251311 -0.13315639205198329 0 0.38050891111654561 -0.14780390559119291 0 0.39358669141717012 -0.154812981852089 0 0.3948268618251311 -0.13315639205198329 0 0.39358669141717012 -0.154812981852089 0 0.40565929548706992 -0.14488187122796731 0 0.39358669141717012 -0.154812981852089 0 0.40565929548706992 -0.14488187122796731 0 0.40451947594656279 -0.1576025112534519 0 0.39358669141717012 -0.154812981852089 0 0.40451947594656279 -0.1576025112534519 0 0.39256809704710233 -0.17118348131756209 0 0.40451947594656279 -0.1576025112534519 0 0.39256809704710233 -0.17118348131756209 0 0.40788242588679419 -0.1711279406440937 0 0.39358669141717012 -0.154812981852089 0 0.39256809704710233 -0.17118348131756209 0 0.37603419743285188 -0.16755879917940339 0 0.38050891111654561 -0.14780390559119291 0 0.39358669141717012 -0.154812981852089 0 0.37603419743285188 -0.16755879917940339 0 0.37106244907009223 -0.18603834833275151 0 0.39286398187891108 -0.19624960006263981 0 0.38188421934702971 -0.1790412679593455 0 0.39256809704710233 -0.17118348131756209 0 0.37603419743285188 -0.16755879917940339 0 0.38188421934702971 -0.1790412679593455 0 0.37106244907009223 -0.18603834833275151 0 0.37603419743285188 -0.16755879917940339 0 0.38188421934702971 -0.1790412679593455 0 0.39286398187891108 -0.19624960006263981 0 0.39256809704710233 -0.17118348131756209 0 0.38188421934702971 -0.1790412679593455 0 0.39286398187891108 -0.19624960006263981 0 0.39256809704710233 -0.17118348131756209 0 0.40788242588679419 -0.1711279406440937 0 0.39286398187891108 -0.19624960006263981 0 0.40788242588679419 -0.1711279406440937 0 0.39286398187891108 -0.19624960006263981 0 0.41311850022578539 -0.18419046561306879 0 0.40788242588679419 -0.1711279406440937 0 0.41311850022578539 -0.18419046561306879 0 0.4222438154252301 -0.17464828645414371 0 0.40788242588679419 -0.1711279406440937 0 0.41311850022578539 -0.18419046561306879 0 0.42624549969324571 -0.18559343833767189 0 0.4222438154252301 -0.17464828645414371 0 0.42624549969324571 -0.18559343833767189 0 0.43519072589127961 -0.17573247793271399 0 0.43940387368767292 -0.18702246135929021 0 0.42624549969324571 -0.18559343833767189 0 0.43519072589127961 -0.17573247793271399 0 0.4222438154252301 -0.17464828645414371 0 0.4222438154252301 -0.17464828645414371 0 0.42379648888012939 -0.16174959133136449 0 0.43964820301243068 -0.15738902274187239 0 0.43519072589127961 -0.17573247793271399 0 0.4222438154252301 -0.17464828645414371 0 0.43964820301243068 -0.15738902274187239 0 0.4222438154252301 -0.17464828645414371 0 0.43964820301243068 -0.15738902274187239 0 0.4222438154252301 -0.17464828645414371 0 0.42379648888012939 -0.16174959133136449 0 0.40788242588679419 -0.1711279406440937 0 0.42379648888012939 -0.16174959133136449 0 0.40788242588679419 -0.1711279406440937 0 0.42290086989467751 -0.1460062812255476 0 0.40451947594656279 -0.1576025112534519 0 0.40788242588679419 -0.1711279406440937 0 0.42290086989467751 -0.1460062812255476 0 0.40788242588679419 -0.1711279406440937 0 0.42290086989467751 -0.1460062812255476 0 0.40565929548706992 -0.14488187122796731 0 0.40451947594656279 -0.1576025112534519 0 0.42290086989467751 -0.1460062812255476 0 0.40565929548706992 -0.14488187122796731 0 0.42290086989467751 -0.1460062812255476 0 0.41196866687269063 -0.13121249838849369 0 0.42379648888012939 -0.16174959133136449 0 0.42290086989467751 -0.1460062812255476 0 0.43964820301243068 -0.15738902274187239 0 0.42290086989467751 -0.1460062812255476 0 0.43814877942873448 -0.14015535614852881 0 0.43964820301243068 -0.15738902274187239 0 0.42290086989467751 -0.1460062812255476 0 0.42930872760811462 -0.12829017978249699 0 0.43814877942873448 -0.14015535614852881 0 0.44264915891585099 -0.12490491623807359 0 0.42930872760811462 -0.12829017978249699 0 0.43814877942873448 -0.14015535614852881 0 0.42290086989467751 -0.1460062812255476 0 0.42930872760811462 -0.12829017978249699 0 0.41196866687269063 -0.13121249838849369 0 0.4744569781868318 -0.12287049531733001 0 0.45705259059963121 -0.1401297590296012 0 0.4744569781868318 -0.12287049531733001 0 0.45864601881325179 -0.11532858304818901 0 0.45705259059963121 -0.1401297590296012 0 0.44264915891585099 -0.12490491623807359 0 0.45705259059963121 -0.1401297590296012 0 0.43814877942873448 -0.14015535614852881 0 0.44264915891585099 -0.12490491623807359 0 0.45864601881325179 -0.11532858304818901 0 0.45705259059963121 -0.1401297590296012 0 0.45705259059963121 -0.1401297590296012 0 0.45639702411748989 -0.16021603219866429 0 0.43964820301243068 -0.15738902274187239 0 0.45705259059963121 -0.1401297590296012 0 0.43814877942873448 -0.14015535614852881 0 0.43964820301243068 -0.15738902274187239 0 0.45705259059963121 -0.1401297590296012 0 0.43964820301243068 -0.15738902274187239 0 0.45705259059963121 -0.1401297590296012 0 0.45639702411748989 -0.16021603219866429 0 0.47274233370932323 -0.15854654413575531 0 0.45639702411748989 -0.16021603219866429 0 0.44829028919416458 -0.17415229865070381 0 0.46717746314290348 -0.17453936661517849 0 0.45639702411748989 -0.16021603219866429 0 0.46717746314290348 -0.17453936661517849 0 0.47274233370932323 -0.15854654413575531 0 0.43519072589127961 -0.17573247793271399 0 0.43964820301243068 -0.15738902274187239 0 0.44829028919416458 -0.17415229865070381 0 0.45639702411748989 -0.16021603219866429 0 0.43964820301243068 -0.15738902274187239 0 0.44829028919416458 -0.17415229865070381 0 0.44829028919416458 -0.17415229865070381 0 0.43940387368767292 -0.18702246135929021 0 0.45726026790150331 -0.1888245821345142 0 0.43519072589127961 -0.17573247793271399 0 0.44829028919416458 -0.17415229865070381 0 0.43940387368767292 -0.18702246135929021 0 0.46717746314290348 -0.17453936661517849 0 0.45726026790150331 -0.1888245821345142 0 0.47823686167758023 -0.18802095719103551 0 0.44829028919416458 -0.17415229865070381 0 0.46717746314290348 -0.17453936661517849 0 0.45726026790150331 -0.1888245821345142 0 0.46717746314290348 -0.17453936661517849 0 0.48437466286544673 -0.17321160060080951 0 0.47823686167758023 -0.18802095719103551 0 0.48437466286544673 -0.17321160060080951 0 0.5 -0.16924991960465929 0 0.49999999999999928 -0.19067070027562391 0 0.48437466286544673 -0.17321160060080951 0 0.47823686167758023 -0.18802095719103551 0 0.49999999999999928 -0.19067070027562391 0 0.5 -0.16924991960465929 0 0.4880913186628732 -0.15824211578260419 0 0.5 -0.14782913893369479 0 0.48437466286544673 -0.17321160060080951 0 0.5 -0.16924991960465929 0 0.4880913186628732 -0.15824211578260419 0 0.48437466286544673 -0.17321160060080951 0 0.4880913186628732 -0.15824211578260419 0 0.47274233370932323 -0.15854654413575531 0 0.46717746314290348 -0.17453936661517849 0 0.48437466286544673 -0.17321160060080951 0 0.47274233370932323 -0.15854654413575531 0 0.4880913186628732 -0.15824211578260419 0 0.47274233370932323 -0.15854654413575531 0 0.48211912223943049 -0.14238730415804821 0 0.45705259059963121 -0.1401297590296012 0 0.47274233370932323 -0.15854654413575531 0 0.48211912223943049 -0.14238730415804821 0 0.4880913186628732 -0.15824211578260419 0 0.48211912223943049 -0.14238730415804821 0 0.5 -0.14782913893369479 0 0.4744569781868318 -0.12287049531733001 0 0.48211912223943049 -0.14238730415804821 0 0.49999999999999878 -0.12640835826273031 0 0.48211912223943049 -0.14238730415804821 0 0.5 -0.14782913893369479 0 0.49999999999999878 -0.12640835826273031 0 0.4744569781868318 -0.12287049531733001 0 0.45705259059963121 -0.1401297590296012 0 0.48211912223943049 -0.14238730415804821 0 0.46630712430240467 -0.22438452298356271 0 0.44946068645360748 -0.24124143433753231 0 0.46630712430240467 -0.22438452298356271 0 0.44946068645360748 -0.24124143433753231 0 0.44642395299660648 -0.2273737534402272 0 0.46630712430240467 -0.22438452298356271 0 0.44946068645360748 -0.24124143433753231 0 0.47361348502627648 -0.2465279123383507 0 0.44946068645360748 -0.24124143433753231 0 0.47361348502627648 -0.2465279123383507 0 0.44722697005255457 -0.25838480226432298 0 0.44946068645360748 -0.24124143433753231 0 0.43882385968512821 -0.24738306959961509 0 0.44722697005255457 -0.25838480226432298 0 0.44946068645360748 -0.24124143433753231 0 0.43763544190921849 -0.2362444288047498 0 0.44642395299660648 -0.2273737534402272 0 0.44946068645360748 -0.24124143433753231 0 0.43882385968512821 -0.24738306959961509 0 0.43763544190921849 -0.2362444288047498 0 0.46630712430240467 -0.22438452298356271 0 0.44642395299660648 -0.2273737534402272 0 0.44553327963131412 -0.2139002293675733 0 0.43408563983497678 -0.22305259845247369 0 0.43763544190921849 -0.2362444288047498 0 0.44642395299660648 -0.2273737534402272 0 0.43408563983497678 -0.22305259845247369 0 0.44642395299660648 -0.2273737534402272 0 0.44553327963131412 -0.2139002293675733 0 0.43091231480823688 -0.2100281396588351 0 0.44553327963131412 -0.2139002293675733 0 0.44356906754867248 -0.20006884186999249 0 0.44553327963131412 -0.2139002293675733 0 0.44356906754867248 -0.20006884186999249 0 0.45621941544284289 -0.20508696143005159 0 0.44356906754867248 -0.20006884186999249 0 0.45726026790150331 -0.1888245821345142 0 0.45621941544284289 -0.20508696143005159 0 0.43940387368767292 -0.18702246135929021 0 0.44356906754867248 -0.20006884186999249 0 0.45726026790150331 -0.1888245821345142 0 0.45726026790150331 -0.1888245821345142 0 0.45621941544284289 -0.20508696143005159 0 0.46917696233480882 -0.19940132552199399 0 0.45726026790150331 -0.1888245821345142 0 0.47823686167758023 -0.18802095719103551 0 0.46917696233480882 -0.19940132552199399 0 0.46630712430240467 -0.22438452298356271 0 0.45621941544284289 -0.20508696143005159 0 0.46917696233480882 -0.19940132552199399 0 0.46630712430240467 -0.22438452298356271 0 0.44553327963131412 -0.2139002293675733 0 0.45621941544284289 -0.20508696143005159 0 0.46630712430240467 -0.22438452298356271 0 0.48315356215120181 -0.2075276116295931 0 0.46917696233480882 -0.19940132552199399 0 0.46630712430240467 -0.22438452298356271 0 0.48315356215120181 -0.2075276116295931 0 0.48315356215120181 -0.2075276116295931 0 0.47823686167758023 -0.18802095719103551 0 0.46917696233480882 -0.19940132552199399 0 0.48315356215120181 -0.2075276116295931 0 0.47823686167758023 -0.18802095719103551 0 0.49999999999999928 -0.19067070027562391 0 0.48315356215120181 -0.2075276116295931 0 0.49999999999999928 -0.19067070027562391 0 0.48315356215120181 -0.2075276116295931 0 0.49999999999999928 -0.19067070027562391 0 0.5 -0.21267086134400129 0 0.48315356215120181 -0.2075276116295931 0 0.5 -0.21267086134400129 0 0.48461483429597618 -0.22515638614157721 0 0.5 -0.21267086134400129 0 0.48461483429597618 -0.22515638614157721 0 0.49999999999999839 -0.23467102241237869 0 0.46630712430240467 -0.22438452298356271 0 0.48315356215120181 -0.2075276116295931 0 0.48461483429597618 -0.22515638614157721 0 0.46630712430240467 -0.22438452298356271 0 0.48461483429597618 -0.22515638614157721 0 0.47361348502627648 -0.2465279123383507 0 0.47361348502627648 -0.2465279123383507 0 0.48898165796729159 -0.24076127333828501 0 0.47211537446654472 -0.25482449980955951 0 0.48898165796729159 -0.24076127333828501 0 0.47211537446654472 -0.25482449980955951 0 0.49999999999999839 -0.23467102241237869 0 0.48898165796729159 -0.24076127333828501 0 0.5 -0.2578726775916349 0 0.48461483429597618 -0.22515638614157721 0 0.47361348502627648 -0.2465279123383507 0 0.49999999999999839 -0.23467102241237869 0 0.47361348502627648 -0.2465279123383507 0 0.49999999999999839 -0.23467102241237869 0 0.48898165796729159 -0.24076127333828501 0 0.47361348502627648 -0.2465279123383507 0 0.49999999999999839 -0.23467102241237869 0 0.48898165796729159 -0.24076127333828501 0 0.5 -0.2578726775916349 0 0.48624599298361121 -0.25462597417172478 0 0.48624599298361121 -0.25462597417172478 0 0.48886049528228998 -0.26853998502210691 0 0.47939699631335292 -0.26270558920923698 0 0.5 -0.2578726775916349 0 0.48624599298361121 -0.25462597417172478 0 0.48886049528228998 -0.26853998502210691 0 0.5 -0.2578726775916349 0 0.5 -0.28107433277089122 0 0.48886049528228998 -0.26853998502210691 0 0.48886049528228998 -0.26853998502210691 0 0.48051278779114781 -0.27247612921189951 0 0.48700719460562769 -0.2824852071772545 0 0.5 -0.28107433277089122 0 0.48886049528228998 -0.26853998502210691 0 0.48700719460562769 -0.2824852071772545 0 0.48051278779114781 -0.27247612921189951 0 0.46882531357124491 -0.28666233177460992 0 0.48700719460562769 -0.2824852071772545 0 0.48051278779114781 -0.27247612921189951 0 0.4690117612060371 -0.26824791357681471 0 0.46882531357124491 -0.28666233177460992 0 0.48886049528228998 -0.26853998502210691 0 0.48051278779114781 -0.27247612921189951 0 0.47939699631335292 -0.26270558920923698 0 0.48051278779114781 -0.27247612921189951 0 0.4690117612060371 -0.26824791357681471 0 0.47939699631335292 -0.26270558920923698 0 0.48898165796729159 -0.24076127333828501 0 0.48624599298361121 -0.25462597417172478 0 0.47211537446654472 -0.25482449980955951 0 0.48624599298361121 -0.25462597417172478 0 0.47939699631335292 -0.26270558920923698 0 0.47211537446654472 -0.25482449980955951 0 0.4690117612060371 -0.26824791357681471 0 0.47939699631335292 -0.26270558920923698 0 0.47211537446654472 -0.25482449980955951 0 0.47361348502627648 -0.2465279123383507 0 0.44722697005255457 -0.25838480226432298 0 0.47211537446654472 -0.25482449980955951 0 0.4552490909658008 -0.26888772628083779 0 0.44722697005255457 -0.25838480226432298 0 0.47361348502627648 -0.2465279123383507 0 0.47211537446654472 -0.25482449980955951 0 0.44722697005255457 -0.25838480226432298 0 0.4690117612060371 -0.26824791357681471 0 0.47211537446654472 -0.25482449980955951 0 0.4552490909658008 -0.26888772628083779 0 0.47211537446654472 -0.25482449980955951 0 0.4552490909658008 -0.26888772628083779 0 0.4552490909658008 -0.26888772628083779 0 0.45438261369731792 -0.28266339638425808 0 0.46882531357124491 -0.28666233177460992 0 0.4690117612060371 -0.26824791357681471 0 0.4552490909658008 -0.26888772628083779 0 0.46882531357124491 -0.28666233177460992 0 0.4552490909658008 -0.26888772628083779 0 0.46882531357124491 -0.28666233177460992 0 0.4552490909658008 -0.26888772628083779 0 0.44116212596358267 -0.28063353733104518 0 0.44502091774509073 -0.26905764465622528 0 0.4552490909658008 -0.26888772628083779 0 0.44116212596358267 -0.28063353733104518 0 0.45438261369731792 -0.28266339638425808 0 0.4552490909658008 -0.26888772628083779 0 0.44116212596358267 -0.28063353733104518 0 0.44116212596358267 -0.28063353733104518 0 0.44502091774509073 -0.26905764465622528 0 0.43482230726328908 -0.27214768018865709 0 0.44502091774509073 -0.26905764465622528 0 0.44722697005255457 -0.25838480226432298 0 0.43482230726328908 -0.27214768018865709 0 0.43882385968512821 -0.24738306959961509 0 0.44722697005255457 -0.25838480226432298 0 0.43882385968512821 -0.24738306959961509 0 0.44722697005255457 -0.25838480226432298 0 0.43418301206512111 -0.25725841621920448 0 0.4552490909658008 -0.26888772628083779 0 0.44722697005255457 -0.25838480226432298 0 0.4552490909658008 -0.26888772628083779 0 0.44502091774509073 -0.26905764465622528 0 0.44722697005255457 -0.25838480226432298 0 0.43952928564973531 -0.29781018123794128 0 0.44765790414929502 -0.31227155232301018 0 0.42945731288578781 -0.30929647800385479 0 0.43952928564973531 -0.29781018123794128 0 0.44765790414929502 -0.31227155232301018 0 0.45229392428864329 -0.29446999015053987 0 0.44116212596358267 -0.28063353733104518 0 0.43952928564973531 -0.29781018123794128 0 0.45229392428864329 -0.29446999015053987 0 0.44116212596358267 -0.28063353733104518 0 0.45229392428864329 -0.29446999015053987 0 0.45438261369731792 -0.28266339638425808 0 0.45229392428864329 -0.29446999015053987 0 0.45438261369731792 -0.28266339638425808 0 0.46882531357124491 -0.28666233177460992 0 0.45229392428864329 -0.29446999015053987 0 0.4638864190596757 -0.30517954271471531 0 0.46882531357124491 -0.28666233177460992 0 0.44765790414929502 -0.31227155232301018 0 0.4638864190596757 -0.30517954271471531 0 0.46086261496408992 -0.31942210117044001 0 0.44765790414929502 -0.31227155232301018 0 0.45229392428864329 -0.29446999015053987 0 0.4638864190596757 -0.30517954271471531 0 0.4638864190596757 -0.30517954271471531 0 0.48240153617668879 -0.30443693726838189 0 0.47459590526571449 -0.31792760380208079 0 0.4638864190596757 -0.30517954271471531 0 0.48240153617668879 -0.30443693726838189 0 0.46882531357124491 -0.28666233177460992 0 0.48240153617668879 -0.30443693726838189 0 0.47459590526571449 -0.31792760380208079 0 0.48240153617668879 -0.30443693726838189 0 0.46882531357124491 -0.28666233177460992 0 0.48240153617668879 -0.30443693726838189 0 0.46882531357124491 -0.28666233177460992 0 0.48735331916215879 -0.29587864726388058 0 0.46882531357124491 -0.28666233177460992 0 0.48700719460562769 -0.2824852071772545 0 0.48735331916215879 -0.29587864726388058 0 0.5 -0.28107433277089122 0 0.48735331916215879 -0.29587864726388058 0 0.5 -0.3042759879501476 0 0.5 -0.28107433277089122 0 0.48700719460562769 -0.2824852071772545 0 0.48735331916215879 -0.29587864726388058 0 0.48240153617668879 -0.30443693726838189 0 0.48735331916215879 -0.29587864726388058 0 0.5 -0.3042759879501476 0 0.48240153617668879 -0.30443693726838189 0 0.5 -0.3042759879501476 0 0.50000000000000033 -0.32747764312940392 0 0.48240153617668879 -0.30443693726838189 0 0.48735331916215879 -0.29587864726388058 0 0.48240153617668879 -0.30443693726838189 0 0.50000000000000033 -0.32747764312940392 0 0.47459590526571449 -0.31792760380208079 0 0.48240153617668879 -0.30443693726838189 0 0.50000000000000033 -0.32747764312940392 0 0.50000000000000033 -0.32747764312940392 0 0.48382496421502669 -0.3350152234490329 0 0.47459590526571449 -0.31792760380208079 0 0.50000000000000033 -0.32747764312940392 0 0.48382496421502669 -0.3350152234490329 0 0.5 -0.3478479192181968 0 0.48382496421502669 -0.3350152234490329 0 0.47781156632376731 -0.35044687471734959 0 0.46671734948565058 -0.33137607637813332 0 0.47781156632376731 -0.35044687471734959 0 0.46671734948565058 -0.33137607637813332 0 0.48382496421502669 -0.3350152234490329 0 0.47459590526571449 -0.31792760380208079 0 0.46671734948565058 -0.33137607637813332 0 0.47459590526571449 -0.31792760380208079 0 0.46671734948565058 -0.33137607637813332 0 0.48890578316188399 -0.36951767305656591 0 0.5 -0.36821819530698963 0 0.49318379059965239 -0.35803305726259282 0 0.5 -0.3478479192181968 0 0.49318379059965239 -0.35803305726259282 0 0.47781156632376731 -0.35044687471734959 0 0.48382496421502669 -0.3350152234490329 0 0.5 -0.3478479192181968 0 0.47781156632376731 -0.35044687471734959 0 0.48890578316188399 -0.36951767305656591 0 0.49318379059965239 -0.35803305726259282 0 0.47781156632376731 -0.35044687471734959 0 0.5 -0.36821819530698963 0 0.5 -0.3478479192181968 0 0.49318379059965239 -0.35803305726259282 0 0.47781156632376731 -0.35044687471734959 0 0.46598634507101722 -0.35019169518646831 0 0.46671734948565058 -0.33137607637813332 0 0.47781156632376731 -0.35044687471734959 0 0.46715909310558812 -0.36240798071238639 0 0.46598634507101722 -0.35019169518646831 0 0.48890578316188399 -0.36951767305656591 0 0.47781156632376731 -0.35044687471734959 0 0.46715909310558812 -0.36240798071238639 0 0.47888425719630989 -0.38135221446411111 0 0.4631462755499467 -0.37791412586692741 0 0.48890578316188399 -0.36951767305656591 0 0.46715909310558812 -0.36240798071238639 0 0.47888425719630989 -0.38135221446411111 0 0.48890578316188399 -0.36951767305656591 0 0.47781156632376731 -0.35044687471734959 0 0.46715909310558812 -0.36240798071238639 0 0.4522573713690628 -0.35653584893800372 0 0.4631462755499467 -0.37791412586692741 0 0.44742366001349748 -0.36489007280047492 0 0.4631462755499467 -0.37791412586692741 0 0.44995794901578129 -0.37558694339784893 0 0.4522573713690628 -0.35653584893800372 0 0.44742366001349748 -0.36489007280047492 0 0.4631462755499467 -0.37791412586692741 0 0.46715909310558812 -0.36240798071238639 0 0.4522573713690628 -0.35653584893800372 0 0.4631462755499467 -0.37791412586692741 0 0.46598634507101722 -0.35019169518646831 0 0.4522573713690628 -0.35653584893800372 0 0.46671734948565058 -0.33137607637813332 0 0.4522573713690628 -0.35653584893800372 0 0.46671734948565058 -0.33137607637813332 0 0.46715909310558812 -0.36240798071238639 0 0.46598634507101722 -0.35019169518646831 0 0.4522573713690628 -0.35653584893800372 0 0.44270849049719768 -0.35115465181275379 0 0.44296756414311628 -0.36219461239271711 0 0.42967332529556429 -0.34176368509698118 0 0.44593570118104731 -0.34412446082331338 0 0.4522573713690628 -0.35653584893800372 0 0.45295098426827213 -0.33224766491365731 0 0.44593570118104731 -0.34412446082331338 0 0.44270849049719768 -0.35115465181275379 0 0.42967332529556429 -0.34176368509698118 0 0.44593570118104731 -0.34412446082331338 0 0.44270849049719768 -0.35115465181275379 0 0.4522573713690628 -0.35653584893800372 0 0.44593570118104731 -0.34412446082331338 0 0.4522573713690628 -0.35653584893800372 0 0.44270849049719768 -0.35115465181275379 0 0.4522573713690628 -0.35653584893800372 0 0.44296756414311628 -0.36219461239271711 0 0.4522573713690628 -0.35653584893800372 0 0.44742366001349748 -0.36489007280047492 0 0.44296756414311628 -0.36219461239271711 0 0.4522573713690628 -0.35653584893800372 0 0.44742366001349748 -0.36489007280047492 0 0.44296756414311628 -0.36219461239271711 0 0.44262729680421953 -0.36872613293028211 0 0.43355030021078972 -0.365876599361322 0 0.44742366001349748 -0.36489007280047492 0 0.44296756414311628 -0.36219461239271711 0 0.44262729680421953 -0.36872613293028211 0 0.44262729680421953 -0.36872613293028211 0 0.43355030021078972 -0.365876599361322 0 0.43923701063791237 -0.37508243669904728 0 0.44262729680421953 -0.36872613293028211 0 0.43923701063791237 -0.37508243669904728 0 0.44995794901578129 -0.37558694339784893 0 0.44742366001349748 -0.36489007280047492 0 0.44262729680421953 -0.36872613293028211 0 0.44995794901578129 -0.37558694339784893 0 0.44765790414929502 -0.31227155232301018 0 0.46086261496408992 -0.31942210117044001 0 0.45295098426827213 -0.33224766491365731 0 0.46086261496408992 -0.31942210117044001 0 0.46671734948565058 -0.33137607637813332 0 0.45295098426827213 -0.33224766491365731 0 0.4638864190596757 -0.30517954271471531 0 0.47459590526571449 -0.31792760380208079 0 0.46086261496408992 -0.31942210117044001 0 0.47459590526571449 -0.31792760380208079 0 0.46086261496408992 -0.31942210117044001 0 0.46671734948565058 -0.33137607637813332 0 0.4522573713690628 -0.35653584893800372 0 0.46671734948565058 -0.33137607637813332 0 0.45295098426827213 -0.33224766491365731 0 0.44593570118104731 -0.34412446082331338 0 0.45295098426827213 -0.33224766491365731 0 0.43925400556211519 -0.32718752295143411 0 0.44593570118104731 -0.34412446082331338 0 0.43925400556211519 -0.32718752295143411 0 0.42967332529556429 -0.34176368509698118 0 0.44765790414929502 -0.31227155232301018 0 0.45295098426827213 -0.33224766491365731 0 0.43925400556211519 -0.32718752295143411 0 0.44765790414929502 -0.31227155232301018 0 0.43925400556211519 -0.32718752295143411 0 0.42945731288578781 -0.30929647800385479 0 0.43925400556211519 -0.32718752295143411 0 0.41637908644801253 -0.32133275780124543 0 0.42945731288578781 -0.30929647800385479 0 0.42967332529556429 -0.34176368509698118 0 0.41637908644801253 -0.32133275780124543 0 0.43925400556211519 -0.32718752295143411 0 0.42967332529556429 -0.34176368509698118 0 0.41637908644801253 -0.32133275780124543 0 0.41637908644801253 -0.32133275780124543 0 0.41679305270202288 -0.34812437517823258 0 0.40014341068739961 -0.34418570611223048 0 0.42967332529556429 -0.34176368509698118 0 0.41637908644801253 -0.32133275780124543 0 0.41679305270202288 -0.34812437517823258 0 0.42677258635154658 -0.3749332580036383 0 0.43355030021078972 -0.365876599361322 0 0.42019727275754382 -0.36472546087404412 0 0.42677258635154658 -0.3749332580036383 0 0.43355030021078972 -0.365876599361322 0 0.43923701063791237 -0.37508243669904728 0 0.44296756414311628 -0.36219461239271711 0 0.43355030021078972 -0.365876599361322 0 0.42879343714774709 -0.35672064957243182 0 0.43355030021078972 -0.365876599361322 0 0.42879343714774709 -0.35672064957243182 0 0.42019727275754382 -0.36472546087404412 0 0.44296756414311628 -0.36219461239271711 0 0.42967332529556429 -0.34176368509698118 0 0.42879343714774709 -0.35672064957243182 0 0.41679305270202288 -0.34812437517823258 0 0.42019727275754382 -0.36472546087404412 0 0.44296756414311628 -0.36219461239271711 0 0.42967332529556429 -0.34176368509698118 0 0.42879343714774709 -0.35672064957243182 0 0.42967332529556429 -0.34176368509698118 0 0.42879343714774709 -0.35672064957243182 0 0.41679305270202288 -0.34812437517823258 0 0.41679305270202288 -0.34812437517823258 0 0.40638303778773338 -0.36058422813979729 0 0.42019727275754382 -0.36472546087404412 0 0.41679305270202288 -0.34812437517823258 0 0.40638303778773338 -0.36058422813979729 0 0.40014341068739961 -0.34418570611223048 0 0.42677258635154658 -0.3749332580036383 0 0.42019727275754382 -0.36472546087404412 0 0.40925695482945812 -0.38485506115452017 0 0.40638303778773338 -0.36058422813979729 0 0.42019727275754382 -0.36472546087404412 0 0.40925695482945812 -0.38485506115452017 0 0.40638303778773338 -0.36058422813979729 0 0.3925986320736925 -0.36596811989831218 0 0.40925695482945812 -0.38485506115452017 0 0.40638303778773338 -0.36058422813979729 0 0.3925986320736925 -0.36596811989831218 0 0.40014341068739961 -0.34418570611223048 0 0.3925986320736925 -0.36596811989831218 0 0.40014341068739961 -0.34418570611223048 0 0.37866672140045798 -0.34475883950335778 0 0.3925986320736925 -0.36596811989831218 0 0.37958901774467713 -0.37097982288782783 0 0.39205036675891192 -0.38296881205853611 0 0.3925986320736925 -0.36596811989831218 0 0.37866672140045798 -0.34475883950335778 0 0.37958901774467713 -0.37097982288782783 0 0.41637908644801253 -0.32133275780124543 0 0.39087578450045951 -0.32283033500443359 0 0.40308484760046093 -0.30090183050550928 0 0.41637908644801253 -0.32133275780124543 0 0.40014341068739961 -0.34418570611223048 0 0.39087578450045951 -0.32283033500443359 0 0.37866672140045798 -0.34475883950335778 0 0.39087578450045951 -0.32283033500443359 0 0.37866672140045798 -0.34475883950335778 0 0.39087578450045951 -0.32283033500443359 0 0.37456276850872128 -0.31795325020909232 0 0.40014341068739961 -0.34418570611223048 0 0.37866672140045798 -0.34475883950335778 0 0.39087578450045951 -0.32283033500443359 0 0.39087578450045951 -0.32283033500443359 0 0.38662310881970252 -0.30421031148583899 0 0.37456276850872128 -0.31795325020909232 0 0.38662310881970252 -0.30421031148583899 0 0.37478582324056919 -0.29720950799901269 0 0.37456276850872128 -0.31795325020909232 0 0.38662310881970252 -0.30421031148583899 0 0.38612398480222387 -0.29336885913428412 0 0.37478582324056919 -0.29720950799901269 0 0.38662310881970252 -0.30421031148583899 0 0.39347322979963228 -0.29650765023087677 0 0.38612398480222387 -0.29336885913428412 0 0.39087578450045951 -0.32283033500443359 0 0.38662310881970252 -0.30421031148583899 0 0.40308484760046093 -0.30090183050550928 0 0.38662310881970252 -0.30421031148583899 0 0.40308484760046093 -0.30090183050550928 0 0.39347322979963228 -0.29650765023087677 0 0.39087578450045951 -0.32283033500443359 0 0.40308484760046093 -0.30090183050550928 0 0.40308484760046093 -0.30090183050550928 0 0.39809418850287331 -0.29323205757981952 0 0.39347322979963228 -0.29650765023087677 0 0.40308484760046093 -0.30090183050550928 0 0.39809418850287331 -0.29323205757981952 0 0.40253264458630211 -0.2858091159178186 0 0.39809418850287331 -0.29323205757981952 0 0.41116143286782447 -0.28639560386709523 0 0.40253264458630211 -0.2858091159178186 0 0.39809418850287331 -0.29323205757981952 0 0.39692470029567672 -0.28709572400065958 0 0.40253264458630211 -0.2858091159178186 0 0.39479500543975959 -0.2819453229937765 0 0.39819975940207669 -0.28054459462959419 0 0.40308484760046093 -0.30090183050550928 0 0.39809418850287331 -0.29323205757981952 0 0.41116143286782447 -0.28639560386709523 0 0.39809418850287331 -0.29323205757981952 0 0.39344001927290112 -0.29082519244893201 0 0.39692470029567672 -0.28709572400065958 0 0.39809418850287331 -0.29323205757981952 0 0.39347322979963228 -0.29650765023087677 0 0.39344001927290112 -0.29082519244893201 0 0.39347322979963228 -0.29650765023087677 0 0.39344001927290112 -0.29082519244893201 0 0.38612398480222387 -0.29336885913428412 0 0.39344001927290112 -0.29082519244893201 0 0.3928209274526403 -0.28830877464441312 0 0.38612398480222387 -0.29336885913428412 0 0.39344001927290112 -0.29082519244893201 0 0.3928209274526403 -0.28830877464441312 0 0.39692470029567672 -0.28709572400065958 0 0.3928209274526403 -0.28830877464441312 0 0.39479500543975959 -0.2819453229937765 0 0.38612398480222387 -0.29336885913428412 0 0.3928209274526403 -0.28830877464441312 0 0.39692470029567672 -0.28709572400065958 0 0.39479500543975959 -0.2819453229937765 0 0.40253264458630211 -0.2858091159178186 0 0.39692470029567672 -0.28709572400065958 0 0.39479500543975959 -0.2819453229937765 0 0.38258567684197747 -0.27864216351807158 0 0.37107261961076121 -0.28490836642647249 0 0.37478582324056919 -0.29720950799901269 0 0.39479500543975959 -0.2819453229937765 0 0.38612398480222387 -0.29336885913428412 0 0.37478582324056919 -0.29720950799901269 0 0.39479500543975959 -0.2819453229937765 0 0.38258567684197747 -0.27864216351807158 0 0.37478582324056919 -0.29720950799901269 0 0.39479500543975959 -0.2819453229937765 0 0.37478582324056919 -0.29720950799901269 0 0.38258567684197747 -0.27864216351807158 0 0.37224740429399489 -0.27019434982176871 0 0.37107261961076121 -0.28490836642647249 0 0.38258567684197747 -0.27864216351807158 0 0.3824412414375053 -0.26369032525419078 0 0.37224740429399489 -0.27019434982176871 0 0.38899637305767037 -0.27426798152371301 0 0.3824412414375053 -0.26369032525419078 0 0.3928672081758473 -0.26917777337291637 0 0.38258567684197747 -0.27864216351807158 0 0.38899637305767037 -0.27426798152371301 0 0.3824412414375053 -0.26369032525419078 0 0.38258567684197747 -0.27864216351807158 0 0.38899637305767037 -0.27426798152371301 0 0.39278842932042679 -0.27780878068218878 0 0.39479500543975959 -0.2819453229937765 0 0.38258567684197747 -0.27864216351807158 0 0.39278842932042679 -0.27780878068218878 0 0.3824412414375053 -0.26369032525419078 0 0.38333934894335803 -0.25022549416803852 0 0.36090647266810522 -0.25024146894725041 0 0.3824412414375053 -0.26369032525419078 0 0.3928968041102564 -0.25954600113720278 0 0.3928672081758473 -0.26917777337291637 0 0.3824412414375053 -0.26369032525419078 0 0.38333934894335803 -0.25022549416803852 0 0.3928968041102564 -0.25954600113720278 0 0.38333934894335803 -0.25022549416803852 0 0.39711162360718733 -0.25008620228502709 0 0.3928968041102564 -0.25954600113720278 0 0.39711162360718733 -0.25008620228502709 0 0.3928968041102564 -0.25954600113720278 0 0.40069987486117442 -0.25845516774938498 0 0.3928968041102564 -0.25954600113720278 0 0.39860883946524223 -0.26453582051260388 0 0.3928672081758473 -0.26917777337291637 0 0.3928968041102564 -0.25954600113720278 0 0.39860883946524223 -0.26453582051260388 0 0.40069987486117442 -0.25845516774938498 0 0.39860883946524223 -0.26453582051260388 0 0.40364702325651552 -0.26330219980891301 0 0.40323244527460628 -0.26748814397361359 0 0.39860883946524223 -0.26453582051260388 0 0.40364702325651552 -0.26330219980891301 0 0.40069987486117442 -0.25845516774938498 0 0.40364702325651552 -0.26330219980891301 0 0.40323244527460628 -0.26748814397361359 0 0.40755304724838221 -0.26524822740712828 0 0.40364702325651552 -0.26330219980891301 0 0.40660233822436709 -0.25986133008012779 0 0.40755304724838221 -0.26524822740712828 0 0.40364702325651552 -0.26330219980891301 0 0.40069987486117442 -0.25845516774938498 0 0.40660233822436709 -0.25986133008012779 0 0.40399359422752062 -0.24654297328395219 0 0.39711162360718733 -0.25008620228502709 0 0.40533262050347851 -0.25339945267243591 0 0.39711162360718733 -0.25008620228502709 0 0.40069987486117442 -0.25845516774938498 0 0.40533262050347851 -0.25339945267243591 0 0.40069987486117442 -0.25845516774938498 0 0.40533262050347851 -0.25339945267243591 0 0.40660233822436709 -0.25986133008012779 0 0.3969358319091375 -0.2740547478145885 0 0.39620990974575721 -0.27750082152027478 0 0.39278842932042679 -0.27780878068218878 0 0.3969358319091375 -0.2740547478145885 0 0.39832863055260548 -0.27658397993905609 0 0.39620990974575721 -0.27750082152027478 0 0.39819975940207669 -0.28054459462959419 0 0.39640696212752458 -0.27928095956150722 0 0.40003924017602388 -0.27775856703275648 0 0.39832863055260548 -0.27658397993905609 0 0.39640696212752458 -0.27928095956150722 0 0.39620990974575721 -0.27750082152027478 0 0.39832863055260548 -0.27658397993905609 0 0.39640696212752458 -0.27928095956150722 0 0.40003924017602388 -0.27775856703275648 0 0.39479500543975959 -0.2819453229937765 0 0.39620990974575721 -0.27750082152027478 0 0.39278842932042679 -0.27780878068218878 0 0.39479500543975959 -0.2819453229937765 0 0.39640696212752458 -0.27928095956150722 0 0.39620990974575721 -0.27750082152027478 0 0.39479500543975959 -0.2819453229937765 0 0.39819975940207669 -0.28054459462959419 0 0.39479500543975959 -0.2819453229937765 0 0.39819975940207669 -0.28054459462959419 0 0.39640696212752458 -0.27928095956150722 0 0.3969358319091375 -0.2740547478145885 0 0.39278842932042679 -0.27780878068218878 0 0.39289696061577062 -0.27382732084835171 0 0.38899637305767037 -0.27426798152371301 0 0.39278842932042679 -0.27780878068218878 0 0.39289696061577062 -0.27382732084835171 0 0.38899637305767037 -0.27426798152371301 0 0.39289696061577062 -0.27382732084835171 0 0.3928672081758473 -0.26917777337291637 0 0.3969358319091375 -0.2740547478145885 0 0.39289696061577062 -0.27382732084835171 0 0.3928672081758473 -0.26917777337291637 0 0.39860883946524223 -0.26453582051260388 0 0.3928672081758473 -0.26917777337291637 0 0.39976758950914371 -0.26971955242018919 0 0.3969358319091375 -0.2740547478145885 0 0.3928672081758473 -0.26917777337291637 0 0.39976758950914371 -0.26971955242018919 0 0.3969358319091375 -0.2740547478145885 0 0.39976758950914371 -0.26971955242018919 0 0.40065506028694609 -0.27309219534148788 0 0.39976758950914371 -0.26971955242018919 0 0.40323244527460628 -0.26748814397361359 0 0.40362074972085382 -0.27169501649285899 0 0.39976758950914371 -0.26971955242018919 0 0.40065506028694609 -0.27309219534148788 0 0.40362074972085382 -0.27169501649285899 0 0.40065506028694609 -0.27309219534148788 0 0.40362074972085382 -0.27169501649285899 0 0.40273278644445792 -0.27464054168478202 0 0.39860883946524223 -0.26453582051260388 0 0.39976758950914371 -0.26971955242018919 0 0.40323244527460628 -0.26748814397361359 0 0.40323244527460628 -0.26748814397361359 0 0.4065575374018422 -0.26961055648277449 0 0.40755304724838221 -0.26524822740712828 0 0.40323244527460628 -0.26748814397361359 0 0.40362074972085382 -0.27169501649285899 0 0.4065575374018422 -0.26961055648277449 0 0.40362074972085382 -0.27169501649285899 0 0.40480547917863829 -0.27390213611099512 0 0.40273278644445792 -0.27464054168478202 0 0.40362074972085382 -0.27169501649285899 0 0.40653071663441892 -0.27240585168950449 0 0.4065575374018422 -0.26961055648277449 0 0.40362074972085382 -0.27169501649285899 0 0.40480547917863829 -0.27390213611099512 0 0.40653071663441892 -0.27240585168950449 0 0.40480547917863829 -0.27390213611099512 0 0.40425182586112218 -0.276721165503241 0 0.40689131723233879 -0.27404810518458927 0 0.40480547917863829 -0.27390213611099512 0 0.40689131723233879 -0.27404810518458927 0 0.40653071663441892 -0.27240585168950449 0 0.40425182586112218 -0.276721165503241 0 0.40273278644445792 -0.27464054168478202 0 0.40181054908318542 -0.27611784812895013 0 0.40480547917863829 -0.27390213611099512 0 0.40425182586112218 -0.276721165503241 0 0.40273278644445792 -0.27464054168478202 0 0.40425182586112218 -0.276721165503241 0 0.40181054908318542 -0.27611784812895013 0 0.40003924017602388 -0.27775856703275648 0 0.40065506028694609 -0.27309219534148788 0 0.40273278644445792 -0.27464054168478202 0 0.40021834385113758 -0.27535111829502101 0 0.40273278644445792 -0.27464054168478202 0 0.40181054908318542 -0.27611784812895013 0 0.40021834385113758 -0.27535111829502101 0 0.40181054908318542 -0.27611784812895013 0 0.40021834385113758 -0.27535111829502101 0 0.40003924017602388 -0.27775856703275648 0 0.39832863055260548 -0.27658397993905609 0 0.40021834385113758 -0.27535111829502101 0 0.40003924017602388 -0.27775856703275648 0 0.3969358319091375 -0.2740547478145885 0 0.40065506028694609 -0.27309219534148788 0 0.40021834385113758 -0.27535111829502101 0 0.3969358319091375 -0.2740547478145885 0 0.39832863055260548 -0.27658397993905609 0 0.40021834385113758 -0.27535111829502101 0 0.39819975940207669 -0.28054459462959419 0 0.40425182586112218 -0.276721165503241 0 0.40003924017602388 -0.27775856703275648 0 0.39819975940207669 -0.28054459462959419 0 0.42101098774615719 -0.27016506262904988 0 0.40425182586112218 -0.276721165503241 0 0.41011672210583178 -0.27363570507108248 0 0.42101098774615719 -0.27016506262904988 0 0.40253264458630211 -0.2858091159178186 0 0.39819975940207669 -0.28054459462959419 0 0.4192380181351878 -0.27188937722868101 0 0.39819975940207669 -0.28054459462959419 0 0.4192380181351878 -0.27188937722868101 0 0.42101098774615719 -0.27016506262904988 0 0.39819975940207669 -0.28054459462959419 0 0.40425182586112218 -0.276721165503241 0 0.42101098774615719 -0.27016506262904988 0 0.41011672210583178 -0.27363570507108248 0 0.40689131723233879 -0.27404810518458927 0 0.40834022797151648 -0.27285520450023709 0 0.40425182586112218 -0.276721165503241 0 0.41011672210583178 -0.27363570507108248 0 0.40689131723233879 -0.27404810518458927 0 0.40653071663441892 -0.27240585168950449 0 0.40897959379531768 -0.27108302577948878 0 0.40834022797151648 -0.27285520450023709 0 0.40689131723233879 -0.27404810518458927 0 0.40653071663441892 -0.27240585168950449 0 0.40834022797151648 -0.27285520450023709 0 0.40653071663441892 -0.27240585168950449 0 0.4065575374018422 -0.26961055648277449 0 0.40897959379531768 -0.27108302577948878 0 0.40897959379531768 -0.27108302577948878 0 0.40941376878493951 -0.26821510621464811 0 0.41183224834769983 -0.26943947693084258 0 0.4065575374018422 -0.26961055648277449 0 0.40897959379531768 -0.27108302577948878 0 0.40941376878493951 -0.26821510621464811 0 0.41011672210583178 -0.27363570507108248 0 0.40897959379531768 -0.27108302577948878 0 0.40834022797151648 -0.27285520450023709 0 0.40941376878493951 -0.26821510621464811 0 0.41214641713145572 -0.26569424447300638 0 0.40755304724838221 -0.26524822740712828 0 0.4065575374018422 -0.26961055648277449 0 0.40941376878493951 -0.26821510621464811 0 0.40755304724838221 -0.26524822740712828 0 0.40941376878493951 -0.26821510621464811 0 0.41183224834769983 -0.26943947693084258 0 0.41214641713145572 -0.26569424447300638 0 0.41183224834769983 -0.26943947693084258 0 0.41366625147229491 -0.27014017246395061 0 0.41478991043389479 -0.26831369979561082 0 0.41183224834769983 -0.26943947693084258 0 0.41214641713145572 -0.26569424447300638 0 0.41478991043389479 -0.26831369979561082 0 0.41011672210583178 -0.27363570507108248 0 0.41173204843900207 -0.27199657392382881 0 0.41630789054162459 -0.27081871169812211 0 0.41173204843900207 -0.27199657392382881 0 0.41366625147229491 -0.27014017246395061 0 0.41630789054162459 -0.27081871169812211 0 0.41011672210583178 -0.27363570507108248 0 0.40897959379531768 -0.27108302577948878 0 0.41173204843900207 -0.27199657392382881 0 0.40897959379531768 -0.27108302577948878 0 0.41183224834769983 -0.26943947693084258 0 0.41173204843900207 -0.27199657392382881 0 0.41183224834769983 -0.26943947693084258 0 0.41173204843900207 -0.27199657392382881 0 0.41366625147229491 -0.27014017246395061 0 0.41011672210583178 -0.27363570507108248 0 0.41630789054162459 -0.27081871169812211 0 0.42101098774615719 -0.27016506262904988 0 0.41366625147229491 -0.27014017246395061 0 0.41630789054162459 -0.27081871169812211 0 0.41478991043389479 -0.26831369979561082 0 0.41214641713145572 -0.26569424447300638 0 0.41478991043389479 -0.26831369979561082 0 0.41675112789001578 -0.26549697045485771 0 0.41630789054162459 -0.27081871169812211 0 0.41478991043389479 -0.26831369979561082 0 0.41803552722027848 -0.26829262275288562 0 0.41478991043389479 -0.26831369979561082 0 0.41803552722027848 -0.26829262275288562 0 0.41675112789001578 -0.26549697045485771 0 0.41954947132865539 -0.26594381585864169 0 0.41803552722027848 -0.26829262275288562 0 0.42101098774615719 -0.27016506262904988 0 0.41954947132865539 -0.26594381585864169 0 0.42101098774615719 -0.27016506262904988 0 0.42309762947788621 -0.26366241704632681 0 0.41954947132865539 -0.26594381585864169 0 0.41803552722027848 -0.26829262275288562 0 0.41675112789001578 -0.26549697045485771 0 0.4192380181351878 -0.27188937722868101 0 0.42101098774615719 -0.27016506262904988 0 0.42439432025916762 -0.2754175187477178 0 0.41630789054162459 -0.27081871169812211 0 0.41803552722027848 -0.26829262275288562 0 0.42101098774615719 -0.27016506262904988 0 0.4192380181351878 -0.27188937722868101 0 0.42439432025916762 -0.2754175187477178 0 0.42021296876551673 -0.28384180006229598 0 0.4192380181351878 -0.27188937722868101 0 0.41116143286782447 -0.28639560386709523 0 0.4192380181351878 -0.27188937722868101 0 0.41116143286782447 -0.28639560386709523 0 0.42021296876551673 -0.28384180006229598 0 0.41811765583917881 -0.24954801842739499 0 0.41059453376712718 -0.24791741758402339 0 0.41145986589434791 -0.25570850572708231 0 0.41059453376712718 -0.24791741758402339 0 0.40533262050347851 -0.25339945267243591 0 0.41145986589434791 -0.25570850572708231 0 0.40533262050347851 -0.25339945267243591 0 0.41145986589434791 -0.25570850572708231 0 0.40660233822436709 -0.25986133008012779 0 0.41145986589434791 -0.25570850572708231 0 0.41047281544740383 -0.26141303753446538 0 0.41460240873846588 -0.26055287998498228 0 0.41145986589434791 -0.25570850572708231 0 0.41047281544740383 -0.26141303753446538 0 0.40660233822436709 -0.25986133008012779 0 0.41047281544740383 -0.26141303753446538 0 0.40660233822436709 -0.25986133008012779 0 0.40755304724838221 -0.26524822740712828 0 0.41214641713145572 -0.26569424447300638 0 0.41047281544740383 -0.26141303753446538 0 0.40755304724838221 -0.26524822740712828 0 0.41214641713145572 -0.26569424447300638 0 0.41047281544740383 -0.26141303753446538 0 0.41460240873846588 -0.26055287998498228 0 0.41675112789001578 -0.26549697045485771 0 0.41885208430893928 -0.26210200641008868 0 0.41460240873846588 -0.26055287998498228 0 0.41214641713145572 -0.26569424447300638 0 0.41675112789001578 -0.26549697045485771 0 0.41460240873846588 -0.26055287998498228 0 0.41954947132865539 -0.26594381585864169 0 0.41885208430893928 -0.26210200641008868 0 0.42309762947788621 -0.26366241704632681 0 0.41954947132865539 -0.26594381585864169 0 0.41675112789001578 -0.26549697045485771 0 0.41885208430893928 -0.26210200641008868 0 0.41885208430893928 -0.26210200641008868 0 0.42043655466143132 -0.25666881383623458 0 0.42309762947788621 -0.26366241704632681 0 0.41885208430893928 -0.26210200641008868 0 0.41460240873846588 -0.26055287998498228 0 0.42043655466143132 -0.25666881383623458 0 0.41145986589434791 -0.25570850572708231 0 0.41460240873846588 -0.26055287998498228 0 0.42043655466143132 -0.25666881383623458 0 0.41811765583917881 -0.24954801842739499 0 0.41145986589434791 -0.25570850572708231 0 0.42043655466143132 -0.25666881383623458 0 0.44722697005255457 -0.25838480226432298 0 0.42101098774615719 -0.27016506262904988 0 0.43418301206512111 -0.25725841621920448 0 0.44722697005255457 -0.25838480226432298 0 0.42101098774615719 -0.27016506262904988 0 0.42845474966349872 -0.2483124378755284 0 0.41811765583917881 -0.24954801842739499 0 0.42043655466143132 -0.25666881383623458 0 0.42845474966349872 -0.2483124378755284 0 0.42043655466143132 -0.25666881383623458 0 0.42745910567738482 -0.25646882654637299 0 0.42101098774615719 -0.27016506262904988 0 0.42309762947788621 -0.26366241704632681 0 0.43418301206512111 -0.25725841621920448 0 0.42745910567738482 -0.25646882654637299 0 0.42309762947788621 -0.26366241704632681 0 0.43418301206512111 -0.25725841621920448 0 0.42043655466143132 -0.25666881383623458 0 0.42745910567738482 -0.25646882654637299 0 0.42309762947788621 -0.26366241704632681 0 0.42845474966349872 -0.2483124378755284 0 0.43882385968512821 -0.24738306959961509 0 0.43418301206512111 -0.25725841621920448 0 0.42845474966349872 -0.2483124378755284 0 0.42745910567738482 -0.25646882654637299 0 0.43418301206512111 -0.25725841621920448 0 0.44722697005255457 -0.25838480226432298 0 0.42101098774615719 -0.27016506262904988 0 0.43482230726328908 -0.27214768018865709 0 0.42439432025916762 -0.2754175187477178 0 0.42969581953840669 -0.28022313202440452 0 0.42021296876551673 -0.28384180006229598 0 0.42439432025916762 -0.2754175187477178 0 0.43482230726328908 -0.27214768018865709 0 0.42969581953840669 -0.28022313202440452 0 0.42101098774615719 -0.27016506262904988 0 0.42439432025916762 -0.2754175187477178 0 0.43482230726328908 -0.27214768018865709 0 0.44116212596358267 -0.28063353733104518 0 0.43482230726328908 -0.27214768018865709 0 0.42969581953840669 -0.28022313202440452 0 0.44116212596358267 -0.28063353733104518 0 0.42969581953840669 -0.28022313202440452 0 0.42707516096136772 -0.2923793483812564 0 0.44116212596358267 -0.28063353733104518 0 0.42707516096136772 -0.2923793483812564 0 0.44116212596358267 -0.28063353733104518 0 0.43952928564973531 -0.29781018123794128 0 0.42707516096136772 -0.2923793483812564 0 0.42969581953840669 -0.28022313202440452 0 0.42707516096136772 -0.2923793483812564 0 0.42021296876551673 -0.28384180006229598 0 0.43952928564973531 -0.29781018123794128 0 0.42707516096136772 -0.2923793483812564 0 0.42945731288578781 -0.30929647800385479 0 0.42707516096136772 -0.2923793483812564 0 0.42945731288578781 -0.30929647800385479 0 0.41780458289432337 -0.29906039935492662 0 0.41637908644801253 -0.32133275780124543 0 0.40308484760046093 -0.30090183050550928 0 0.41637908644801253 -0.32133275780124543 0 0.40308484760046093 -0.30090183050550928 0 0.41780458289432337 -0.29906039935492662 0 0.41637908644801253 -0.32133275780124543 0 0.42945731288578781 -0.30929647800385479 0 0.41780458289432337 -0.29906039935492662 0 0.40308484760046093 -0.30090183050550928 0 0.41780458289432337 -0.29906039935492662 0 0.41116143286782447 -0.28639560386709523 0 0.40308484760046093 -0.30090183050550928 0 0.41116143286782447 -0.28639560386709523 0 0.40253264458630211 -0.2858091159178186 0 0.4192380181351878 -0.27188937722868101 0 0.41116143286782447 -0.28639560386709523 0 0.42707516096136772 -0.2923793483812564 0 0.41780458289432337 -0.29906039935492662 0 0.42021296876551673 -0.28384180006229598 0 0.41780458289432337 -0.29906039935492662 0 0.41116143286782447 -0.28639560386709523 0 0.42021296876551673 -0.28384180006229598 0 0.46038737057962481 -0.47712352048290002 0 0.5 -0.5 0 0.39126927820156943 -0.5 0 0.46038737057962481 -0.47712352048290002 0 0.44130838900954278 -0.46511317065553143 0 0.43374108039262821 -0.4763519986165855 0 0.46038737057962481 -0.47712352048290002 0 0.5 -0.5 0 0.47428162893715281 -0.45539681797898168 0 0.5 -0.5 0 0.47428162893715281 -0.45539681797898168 0 0.5 -0.4523928185499777 0 0.5 -0.4523928185499777 0 0.4802059439448722 -0.43999517387944032 0 0.48492408391171871 -0.42067067972477229 0 0.47428162893715281 -0.45539681797898168 0 0.5 -0.4523928185499777 0 0.4802059439448722 -0.43999517387944032 0 0.47428162893715281 -0.45539681797898168 0 0.4802059439448722 -0.43999517387944032 0 0.46161806293061741 -0.43152037926402981 0 0.47428162893715281 -0.45539681797898168 0 0.44817040974617012 -0.45343035913381752 0 0.46161806293061741 -0.43152037926402981 0 0.46038737057962481 -0.47712352048290002 0 0.47428162893715281 -0.45539681797898168 0 0.44817040974617012 -0.45343035913381752 0 0.46038737057962481 -0.47712352048290002 0 0.44817040974617012 -0.45343035913381752 0 0.44130838900954278 -0.46511317065553143 0 0.44817040974617012 -0.45343035913381752 0 0.44130838900954278 -0.46511317065553143 0 0.42913942840804781 -0.45915567021314252 0 0.44817040974617012 -0.45343035913381752 0 0.42913942840804781 -0.45915567021314252 0 0.44817040974617012 -0.45343035913381752 0 0.44219147129740888 -0.43467881348459197 0 0.42913942840804781 -0.45915567021314252 0 0.44817040974617012 -0.45343035913381752 0 0.44219147129740888 -0.43467881348459197 0 0.46161806293061741 -0.43152037926402981 0 0.5 -0.4523928185499777 0 0.48492408391171871 -0.42067067972477229 0 0.50000000000000044 -0.38858847139578251 0 0.44219147129740888 -0.43467881348459197 0 0.44612328496782599 -0.41100700679757568 0 0.46161806293061741 -0.43152037926402981 0 0.44219147129740888 -0.43467881348459197 0 0.44612328496782599 -0.41100700679757568 0 0.43113799721324331 -0.41833412240216911 0 0.44612328496782599 -0.41100700679757568 0 0.4637198708397508 -0.41382410116553853 0 0.46161806293061741 -0.43152037926402981 0 0.4802059439448722 -0.43999517387944032 0 0.46161806293061741 -0.43152037926402981 0 0.48492408391171871 -0.42067067972477229 0 0.4637198708397508 -0.41382410116553853 0 0.46161806293061741 -0.43152037926402981 0 0.48492408391171871 -0.42067067972477229 0 0.48492408391171871 -0.42067067972477229 0 0.47403517973083259 -0.39929240279584988 0 0.4637198708397508 -0.41382410116553853 0 0.48492408391171871 -0.42067067972477229 0 0.47403517973083259 -0.39929240279584988 0 0.48492408391171871 -0.42067067972477229 0 0.47403517973083259 -0.39929240279584988 0 0.50000000000000044 -0.38858847139578251 0 0.48890578316188399 -0.36951767305656591 0 0.50000000000000044 -0.38858847139578251 0 0.47888425719630989 -0.38135221446411111 0 0.48890578316188399 -0.36951767305656591 0 0.5 -0.36821819530698963 0 0.50000000000000044 -0.38858847139578251 0 0.48890578316188399 -0.36951767305656591 0 0.50000000000000044 -0.38858847139578251 0 0.47403517973083259 -0.39929240279584988 0 0.50000000000000044 -0.38858847139578251 0 0.47888425719630989 -0.38135221446411111 0 0.47403517973083259 -0.39929240279584988 0 0.47888425719630989 -0.38135221446411111 0 0.4631462755499467 -0.37791412586692741 0 0.47403517973083259 -0.39929240279584988 0 0.4631462755499467 -0.37791412586692741 0 0.44954508878428812 -0.38946705952743388 0 0.47403517973083259 -0.39929240279584988 0 0.4631462755499467 -0.37791412586692741 0 0.4631462755499467 -0.37791412586692741 0 0.44995794901578129 -0.37558694339784893 0 0.44954508878428812 -0.38946705952743388 0 0.4637198708397508 -0.41382410116553853 0 0.47403517973083259 -0.39929240279584988 0 0.44954508878428812 -0.38946705952743388 0 0.44612328496782599 -0.41100700679757568 0 0.4637198708397508 -0.41382410116553853 0 0.44954508878428812 -0.38946705952743388 0 0.44954508878428812 -0.38946705952743388 0 0.43162139332202931 -0.38412673192925773 0 0.43141703172844992 -0.40129426517832872 0 0.44612328496782599 -0.41100700679757568 0 0.44954508878428812 -0.38946705952743388 0 0.43141703172844992 -0.40129426517832872 0 0.43923701063791237 -0.37508243669904728 0 0.44954508878428812 -0.38946705952743388 0 0.43162139332202931 -0.38412673192925773 0 0.43923701063791237 -0.37508243669904728 0 0.44995794901578129 -0.37558694339784893 0 0.44954508878428812 -0.38946705952743388 0 0.43162139332202931 -0.38412673192925773 0 0.43141703172844992 -0.40129426517832872 0 0.40925695482945812 -0.38485506115452017 0 0.42677258635154658 -0.3749332580036383 0 0.43162139332202931 -0.38412673192925773 0 0.40925695482945812 -0.38485506115452017 0 0.42677258635154658 -0.3749332580036383 0 0.43923701063791237 -0.37508243669904728 0 0.43162139332202931 -0.38412673192925773 0 0.40925695482945812 -0.38485506115452017 0 0.41588444602232111 -0.40962193084072762 0 0.43141703172844992 -0.40129426517832872 0 0.40925695482945812 -0.38485506115452017 0 0.41588444602232111 -0.40962193084072762 0 0.3925986320736925 -0.36596811989831218 0 0.40925695482945812 -0.38485506115452017 0 0.39205036675891192 -0.38296881205853611 0 0.40925695482945812 -0.38485506115452017 0 0.39205036675891192 -0.38296881205853611 0 0.39173627156435781 -0.40048382869401489 0 0.39205036675891192 -0.38296881205853611 0 0.37886434390645363 -0.38760358268241102 0 0.39173627156435781 -0.40048382869401489 0 0.37958901774467713 -0.37097982288782783 0 0.37886434390645363 -0.38760358268241102 0 0.36890701975443169 -0.37977397185759371 0 0.37958901774467713 -0.37097982288782783 0 0.39205036675891192 -0.38296881205853611 0 0.37886434390645363 -0.38760358268241102 0 0.37886434390645363 -0.38760358268241102 0 0.39173627156435781 -0.40048382869401489 0 0.37296523370819401 -0.39807597407313527 0 0.39173627156435781 -0.40048382869401489 0 0.37260695886445472 -0.41511125818861921 0 0.37296523370819401 -0.39807597407313527 0 0.40925695482945812 -0.38485506115452017 0 0.39173627156435781 -0.40048382869401489 0 0.41588444602232111 -0.40962193084072762 0 0.39173627156435781 -0.40048382869401489 0 0.40044704197612729 -0.42425604705918563 0 0.41588444602232111 -0.40962193084072762 0 0.39173627156435781 -0.40048382869401489 0 0.40044704197612729 -0.42425604705918563 0 0.37260695886445472 -0.41511125818861921 0 0.40044704197612729 -0.42425604705918563 0 0.38924893984856218 -0.44047566850470932 0 0.37260695886445472 -0.41511125818861921 0 0.40044704197612729 -0.42425604705918563 0 0.41039636685216119 -0.44642713843200449 0 0.38924893984856218 -0.44047566850470932 0 0.40044704197612729 -0.42425604705918563 0 0.4225119372151841 -0.43438880052693513 0 0.41039636685216119 -0.44642713843200449 0 0.41588444602232111 -0.40962193084072762 0 0.4225119372151841 -0.43438880052693513 0 0.40044704197612729 -0.42425604705918563 0 0.41588444602232111 -0.40962193084072762 0 0.4225119372151841 -0.43438880052693513 0 0.43141703172844992 -0.40129426517832872 0 0.41588444602232111 -0.40962193084072762 0 0.43113799721324331 -0.41833412240216911 0 0.44612328496782599 -0.41100700679757568 0 0.43141703172844992 -0.40129426517832872 0 0.43113799721324331 -0.41833412240216911 0 0.41588444602232111 -0.40962193084072762 0 0.43113799721324331 -0.41833412240216911 0 0.4225119372151841 -0.43438880052693513 0 0.44219147129740888 -0.43467881348459197 0 0.43113799721324331 -0.41833412240216911 0 0.4225119372151841 -0.43438880052693513 0 0.46038737057962481 -0.47712352048290002 0 0.39126927820156943 -0.5 0 0.43374108039262821 -0.4763519986165855 0 0.44219147129740888 -0.43467881348459197 0 0.4225119372151841 -0.43438880052693513 0 0.42913942840804781 -0.45915567021314252 0 0.4225119372151841 -0.43438880052693513 0 0.42913942840804781 -0.45915567021314252 0 0.42913942840804781 -0.45915567021314252 0 0.43374108039262821 -0.4763519986165855 0 0.44130838900954278 -0.46511317065553143 0 0.42913942840804781 -0.45915567021314252 0 0.43374108039262821 -0.4763519986165855 0 0.42913942840804781 -0.45915567021314252 0 0.40495062888079131 -0.46643266762428282 0 0.43374108039262821 -0.4763519986165855 0 0.42913942840804781 -0.45915567021314252 0 0.41039636685216119 -0.44642713843200449 0 0.40495062888079131 -0.46643266762428282 0 0.42913942840804781 -0.45915567021314252 0 0.40495062888079131 -0.46643266762428282 0 0.4225119372151841 -0.43438880052693513 0 0.42913942840804781 -0.45915567021314252 0 0.41039636685216119 -0.44642713843200449 0 0.41039636685216119 -0.44642713843200449 0 0.38924893984856218 -0.44047566850470932 0 0.40495062888079131 -0.46643266762428282 0 0.38924893984856218 -0.44047566850470932 0 0.37763169722374829 -0.45520961609726762 0 0.36004226505395309 -0.44867804555043739 0 0.38924893984856218 -0.44047566850470932 0 0.37763169722374829 -0.45520961609726762 0 0.40495062888079131 -0.46643266762428282 0 0.37763169722374829 -0.45520961609726762 0 0.40495062888079131 -0.46643266762428282 0 0.3807618293535347 -0.47370966503542311 0 0.40495062888079131 -0.46643266762428282 0 0.3807618293535347 -0.47370966503542311 0 0.40495062888079131 -0.46643266762428282 0 0.39126927820156943 -0.5 0 0.3807618293535347 -0.47370966503542311 0 0.39126927820156943 -0.5 0 0.3807618293535347 -0.47370966503542311 0 0.35657302982627809 -0.48098666244656341 0 0.40495062888079131 -0.46643266762428282 0 0.39126927820156943 -0.5 0 0.43374108039262821 -0.4763519986165855 0 0.35657302982627809 -0.48098666244656341 0 0.31711338044285192 -0.46005557718064921 0 0.28253855640313891 -0.5 0 0.39126927820156943 -0.5 0 0.35657302982627809 -0.48098666244656341 0 0.28253855640313891 -0.5 0 0.3807618293535347 -0.47370966503542311 0 0.35657302982627809 -0.48098666244656341 0 0.37763169722374829 -0.45520961609726762 0 0.3807618293535347 -0.47370966503542311 0 0.35657302982627809 -0.48098666244656341 0 0.35657302982627809 -0.48098666244656341 0 0.36004226505395309 -0.44867804555043739 0 0.34356395629671271 -0.45808680972475818 0 0.37763169722374829 -0.45520961609726762 0 0.35657302982627809 -0.48098666244656341 0 0.36004226505395309 -0.44867804555043739 0 0.38924893984856218 -0.44047566850470932 0 0.36004226505395309 -0.44867804555043739 0 0.359220040281169 -0.42923527410939161 0 0.36004226505395309 -0.44867804555043739 0 0.34052714986376742 -0.44262695372138289 0 0.34356395629671271 -0.45808680972475818 0 0.36004226505395309 -0.44867804555043739 0 0.34052714986376742 -0.44262695372138289 0 0.359220040281169 -0.42923527410939161 0 0.35657302982627809 -0.48098666244656341 0 0.34356395629671271 -0.45808680972475818 0 0.31711338044285192 -0.46005557718064921 0 0.34052714986376742 -0.44262695372138289 0 0.34356395629671271 -0.45808680972475818 0 0.31711338044285192 -0.46005557718064921 0 0.34052714986376742 -0.44262695372138289 0 0.31711338044285192 -0.46005557718064921 0 0.3214046975643654 -0.43226429839903668 0 0.3214046975643654 -0.43226429839903668 0 0.32452413281109338 -0.41420984129433391 0 0.30979902579224089 -0.41812042973369079 0 0.32452413281109338 -0.41420984129433391 0 0.31590317754990738 -0.40397218934212398 0 0.30979902579224089 -0.41812042973369079 0 0.33390156586067937 -0.40804003513376408 0 0.33975164385101381 -0.42205738010539118 0 0.34425393707669349 -0.40589114668815712 0 0.32452413281109338 -0.41420984129433391 0 0.33390156586067937 -0.40804003513376408 0 0.32918327053492069 -0.39857816425297438 0 0.32452413281109338 -0.41420984129433391 0 0.33390156586067937 -0.40804003513376408 0 0.33975164385101381 -0.42205738010539118 0 0.3214046975643654 -0.43226429839903668 0 0.32452413281109338 -0.41420984129433391 0 0.33975164385101381 -0.42205738010539118 0 0.34052714986376742 -0.44262695372138289 0 0.3214046975643654 -0.43226429839903668 0 0.33975164385101381 -0.42205738010539118 0 0.34052714986376742 -0.44262695372138289 0 0.33975164385101381 -0.42205738010539118 0 0.359220040281169 -0.42923527410939161 0 0.33975164385101381 -0.42205738010539118 0 0.359220040281169 -0.42923527410939161 0 0.35372804503132782 -0.41628672855311771 0 0.38924893984856218 -0.44047566850470932 0 0.359220040281169 -0.42923527410939161 0 0.37260695886445472 -0.41511125818861921 0 0.359220040281169 -0.42923527410939161 0 0.37260695886445472 -0.41511125818861921 0 0.35372804503132782 -0.41628672855311771 0 0.37260695886445472 -0.41511125818861921 0 0.35372804503132782 -0.41628672855311771 0 0.35451380703404739 -0.4060556691140606 0 0.33975164385101381 -0.42205738010539118 0 0.35372804503132782 -0.41628672855311771 0 0.34425393707669349 -0.40589114668815712 0 0.35372804503132782 -0.41628672855311771 0 0.34425393707669349 -0.40589114668815712 0 0.35451380703404739 -0.4060556691140606 0 0.34851843824855572 -0.39916807393010278 0 0.34425393707669349 -0.40589114668815712 0 0.34090972957386462 -0.39325331171103323 0 0.34851843824855572 -0.39916807393010278 0 0.34425393707669349 -0.40589114668815712 0 0.35451380703404739 -0.4060556691140606 0 0.34851843824855572 -0.39916807393010278 0 0.35516897530611941 -0.39318419415968697 0 0.34090972957386462 -0.39325331171103323 0 0.34851843824855572 -0.39916807393010278 0 0.35516897530611941 -0.39318419415968697 0 0.35451380703404739 -0.4060556691140606 0 0.37260695886445472 -0.41511125818861921 0 0.35516897530611941 -0.39318419415968697 0 0.35451380703404739 -0.4060556691140606 0 0.37260695886445472 -0.41511125818861921 0 0.35516897530611941 -0.39318419415968697 0 0.37296523370819401 -0.39807597407313527 0 0.37260695886445472 -0.41511125818861921 0 0.35516897530611941 -0.39318419415968697 0 0.35516897530611941 -0.39318419415968697 0 0.37296523370819401 -0.39807597407313527 0 0.36539675507279851 -0.38874672656529169 0 0.37886434390645363 -0.38760358268241102 0 0.37296523370819401 -0.39807597407313527 0 0.36539675507279851 -0.38874672656529169 0 0.36890701975443169 -0.37977397185759371 0 0.35424859520045482 -0.3886158485012064 0 0.3664576583004564 -0.36668734400228209 0 0.35424859520045482 -0.3886158485012064 0 0.3664576583004564 -0.36668734400228209 0 0.37886434390645363 -0.38760358268241102 0 0.36890701975443169 -0.37977397185759371 0 0.36539675507279851 -0.38874672656529169 0 0.36890701975443169 -0.37977397185759371 0 0.36539675507279851 -0.38874672656529169 0 0.35424859520045482 -0.3886158485012064 0 0.35424859520045482 -0.3886158485012064 0 0.35226578307847362 -0.37263603392736938 0 0.3377309917477842 -0.37125713013075479 0 0.35516897530611941 -0.39318419415968697 0 0.35424859520045482 -0.3886158485012064 0 0.3377309917477842 -0.37125713013075479 0 0.35516897530611941 -0.39318419415968697 0 0.34090972957386462 -0.39325331171103323 0 0.3377309917477842 -0.37125713013075479 0 0.35424859520045482 -0.3886158485012064 0 0.3664576583004564 -0.36668734400228209 0 0.35226578307847362 -0.37263603392736938 0 0.35516897530611941 -0.39318419415968697 0 0.3377309917477842 -0.37125713013075479 0 0.35516897530611941 -0.39318419415968697 0 0.36539675507279851 -0.38874672656529169 0 0.35424859520045482 -0.3886158485012064 0 0.32913940627196669 -0.38743185069235142 0 0.34090972957386462 -0.39325331171103323 0 0.3377309917477842 -0.37125713013075479 0 0.32913940627196669 -0.38743185069235142 0 0.31808107052221241 -0.3806994021779051 0 0.3377309917477842 -0.37125713013075479 0 0.33390156586067937 -0.40804003513376408 0 0.34425393707669349 -0.40589114668815712 0 0.34090972957386462 -0.39325331171103323 0 0.33390156586067937 -0.40804003513376408 0 0.34090972957386462 -0.39325331171103323 0 0.32918327053492069 -0.39857816425297438 0 0.32913940627196669 -0.38743185069235142 0 0.34090972957386462 -0.39325331171103323 0 0.32918327053492069 -0.39857816425297438 0 0.32452413281109338 -0.41420984129433391 0 0.32918327053492069 -0.39857816425297438 0 0.31590317754990738 -0.40397218934212398 0 0.32913940627196669 -0.38743185069235142 0 0.32918327053492069 -0.39857816425297438 0 0.31979196898105161 -0.39337124518908939 0 0.32918327053492069 -0.39857816425297438 0 0.31590317754990738 -0.40397218934212398 0 0.31979196898105161 -0.39337124518908939 0 0.31590317754990738 -0.40397218934212398 0 0.31979196898105161 -0.39337124518908939 0 0.30632255535169528 -0.39319854703840168 0 0.31979196898105161 -0.39337124518908939 0 0.31808107052221241 -0.3806994021779051 0 0.30632255535169528 -0.39319854703840168 0 0.32913940627196669 -0.38743185069235142 0 0.31979196898105161 -0.39337124518908939 0 0.31808107052221241 -0.3806994021779051 0 0.31808107052221241 -0.3806994021779051 0 0.3010830811801154 -0.3808440203505673 0 0.30964671703916741 -0.37107739286853159 0 0.31808107052221241 -0.3806994021779051 0 0.3010830811801154 -0.3808440203505673 0 0.30632255535169528 -0.39319854703840168 0 0.3010830811801154 -0.3808440203505673 0 0.30632255535169528 -0.39319854703840168 0 0.29031846358342051 -0.39337493640785143 0 0.30632255535169528 -0.39319854703840168 0 0.29031846358342051 -0.39337493640785143 0 0.29412252291869068 -0.40582937808976272 0 0.31590317754990738 -0.40397218934212398 0 0.30632255535169528 -0.39319854703840168 0 0.30579811182844269 -0.40635490854425338 0 0.30632255535169528 -0.39319854703840168 0 0.29412252291869068 -0.40582937808976272 0 0.30579811182844269 -0.40635490854425338 0 0.29031846358342051 -0.39337493640785143 0 0.29412252291869068 -0.40582937808976272 0 0.28302731692306088 -0.40426004926870929 0 0.29031846358342051 -0.39337493640785143 0 0.28302731692306088 -0.40426004926870929 0 0.27479946430285862 -0.39501617647278758 0 0.29031846358342051 -0.39337493640785143 0 0.28586241599515561 -0.38036007039878178 0 0.27479946430285862 -0.39501617647278758 0 0.3010830811801154 -0.3808440203505673 0 0.29031846358342051 -0.39337493640785143 0 0.28586241599515561 -0.38036007039878178 0 0.3010830811801154 -0.3808440203505673 0 0.28586241599515561 -0.38036007039878178 0 0.29748567671689008 -0.36795077478440552 0 0.27053427856246798 -0.37729828801807308 0 0.25825347389310072 -0.39328036489402762 0 0.27479946430285862 -0.39501617647278758 0 0.28586241599515561 -0.38036007039878178 0 0.27053427856246798 -0.37729828801807308 0 0.27479946430285862 -0.39501617647278758 0 0.27053427856246798 -0.37729828801807308 0 0.25825347389310072 -0.39328036489402762 0 0.25190501404728483 -0.37379947616854159 0 0.25825347389310072 -0.39328036489402762 0 0.26596373055515371 -0.40211133387749098 0 0.25817321622282391 -0.410951051489166 0 0.25825347389310072 -0.39328036489402762 0 0.25817321622282391 -0.410951051489166 0 0.24535846250041571 -0.40205732319788412 0 0.26596373055515371 -0.40211133387749098 0 0.27479946430285862 -0.39501617647278758 0 0.27262876780183171 -0.40919774265398301 0 0.25825347389310072 -0.39328036489402762 0 0.26596373055515371 -0.40211133387749098 0 0.27479946430285862 -0.39501617647278758 0 0.28302731692306088 -0.40426004926870929 0 0.27479946430285862 -0.39501617647278758 0 0.27262876780183171 -0.40919774265398301 0 0.28302731692306088 -0.40426004926870929 0 0.27262876780183171 -0.40919774265398301 0 0.28326736600850322 -0.41788201271916198 0 0.27262876780183171 -0.40919774265398301 0 0.27102782368278622 -0.42260773941300528 0 0.28326736600850322 -0.41788201271916198 0 0.27262876780183171 -0.40919774265398301 0 0.25817321622282391 -0.410951051489166 0 0.27102782368278622 -0.42260773941300528 0 0.26596373055515371 -0.40211133387749098 0 0.27262876780183171 -0.40919774265398301 0 0.25817321622282391 -0.410951051489166 0 0.25817321622282391 -0.410951051489166 0 0.2593647285678411 -0.42819794701606811 0 0.27102782368278622 -0.42260773941300528 0 0.25817321622282391 -0.410951051489166 0 0.2593647285678411 -0.42819794701606811 0 0.24688638074536551 -0.41758091111182538 0 0.25817321622282391 -0.410951051489166 0 0.24688638074536551 -0.41758091111182538 0 0.25817321622282391 -0.410951051489166 0 0.24688638074536551 -0.41758091111182538 0 0.24535846250041571 -0.40205732319788412 0 0.2593647285678411 -0.42819794701606811 0 0.25737168387317522 -0.44611796734715697 0 0.24403409695939129 -0.43385166784782159 0 0.2593647285678411 -0.42819794701606811 0 0.2704960783649723 -0.43636218111163011 0 0.25737168387317522 -0.44611796734715697 0 0.2593647285678411 -0.42819794701606811 0 0.24403409695939129 -0.43385166784782159 0 0.24688638074536551 -0.41758091111182538 0 0.2593647285678411 -0.42819794701606811 0 0.24688638074536551 -0.41758091111182538 0 0.2593647285678411 -0.42819794701606811 0 0.2704960783649723 -0.43636218111163011 0 0.27102782368278622 -0.42260773941300528 0 0.27102782368278622 -0.42260773941300528 0 0.28332829338801357 -0.43129247512784169 0 0.28326736600850322 -0.41788201271916198 0 0.2704960783649723 -0.43636218111163011 0 0.27102782368278622 -0.42260773941300528 0 0.28332829338801357 -0.43129247512784169 0 0.28332829338801357 -0.43129247512784169 0 0.29590876552999162 -0.41924528159010283 0 0.29846520573360369 -0.43515264535716081 0 0.28332829338801357 -0.43129247512784169 0 0.28326736600850322 -0.41788201271916198 0 0.29590876552999162 -0.41924528159010283 0 0.29412252291869068 -0.40582937808976272 0 0.28302731692306088 -0.40426004926870929 0 0.28326736600850322 -0.41788201271916198 0 0.29412252291869068 -0.40582937808976272 0 0.28326736600850322 -0.41788201271916198 0 0.29590876552999162 -0.41924528159010283 0 0.29590876552999162 -0.41924528159010283 0 0.30579811182844269 -0.40635490854425338 0 0.30979902579224089 -0.41812042973369079 0 0.29412252291869068 -0.40582937808976272 0 0.29590876552999162 -0.41924528159010283 0 0.30579811182844269 -0.40635490854425338 0 0.31590317754990738 -0.40397218934212398 0 0.30579811182844269 -0.40635490854425338 0 0.30979902579224089 -0.41812042973369079 0 0.3214046975643654 -0.43226429839903668 0 0.30979902579224089 -0.41812042973369079 0 0.29846520573360369 -0.43515264535716081 0 0.29590876552999162 -0.41924528159010283 0 0.30979902579224089 -0.41812042973369079 0 0.29846520573360369 -0.43515264535716081 0 0.31711338044285192 -0.46005557718064921 0 0.29846520573360369 -0.43515264535716081 0 0.28258567320282402 -0.45281768880553569 0 0.31711338044285192 -0.46005557718064921 0 0.3214046975643654 -0.43226429839903668 0 0.29846520573360369 -0.43515264535716081 0 0.28332829338801357 -0.43129247512784169 0 0.29846520573360369 -0.43515264535716081 0 0.28258567320282402 -0.45281768880553569 0 0.2704960783649723 -0.43636218111163011 0 0.28332829338801357 -0.43129247512784169 0 0.28258567320282402 -0.45281768880553569 0 0.2704960783649723 -0.43636218111163011 0 0.28258567320282402 -0.45281768880553569 0 0.25737168387317522 -0.44611796734715697 0 0.28258567320282402 -0.45281768880553569 0 0.25737168387317522 -0.44611796734715697 0 0.25478569439939841 -0.46392345883803549 0 0.25478569439939841 -0.46392345883803549 0 0.28253855640313891 -0.5 0 0.22044836618549329 -0.47342604393703852 0 0.28258567320282402 -0.45281768880553569 0 0.25478569439939841 -0.46392345883803549 0 0.28253855640313891 -0.5 0 0.31711338044285192 -0.46005557718064921 0 0.28258567320282402 -0.45281768880553569 0 0.28253855640313891 -0.5 0 0.33584700637991682 -0.29124148864821708 0 0.32772893670760361 -0.2803906869842685 0 0.3416911373955942 -0.2739718867043861 0 0.33584700637991682 -0.29124148864821708 0 0.3416911373955942 -0.2739718867043861 0 0.34985654604027627 -0.28893039676928589 0 0.33584700637991682 -0.29124148864821708 0 0.33479670926735738 -0.3118747991706835 0 0.32017363368845297 -0.29620261169813572 0 0.33584700637991682 -0.29124148864821708 0 0.33479670926735738 -0.3118747991706835 0 0.34753968349346198 -0.30133639751315072 0 0.33479670926735738 -0.3118747991706835 0 0.31913861700288843 -0.3119810841648924 0 0.32017363368845297 -0.29620261169813572 0 0.31913861700288843 -0.3119810841648924 0 0.32017363368845297 -0.29620261169813572 0 0.31032708598615127 -0.3066364942707232 0 0.31913861700288843 -0.3119810841648924 0 0.30982570659953818 -0.31791169561106059 0 0.31032708598615127 -0.3066364942707232 0 0.32017363368845297 -0.29620261169813572 0 0.3126911897017981 -0.27874094137706351 0 0.32772893670760361 -0.2803906869842685 0 0.33584700637991682 -0.29124148864821708 0 0.32017363368845297 -0.29620261169813572 0 0.32772893670760361 -0.2803906869842685 0 0.3126911897017981 -0.27874094137706351 0 0.32629196520926029 -0.26619273933617282 0 0.31311319047130792 -0.26344794480493472 0 0.3126911897017981 -0.27874094137706351 0 0.32629196520926029 -0.26619273933617282 0 0.32772893670760361 -0.2803906869842685 0 0.31311319047130792 -0.26344794480493472 0 0.32119773225087778 -0.25384030700783711 0 0.30754541678850039 -0.25445181965460062 0 0.32629196520926029 -0.26619273933617282 0 0.31311319047130792 -0.26344794480493472 0 0.32119773225087778 -0.25384030700783711 0 0.32629196520926029 -0.26619273933617282 0 0.32119773225087778 -0.25384030700783711 0 0.3405178516727696 -0.25574781199485208 0 0.32629196520926029 -0.26619273933617282 0 0.3405178516727696 -0.25574781199485208 0 0.3416911373955942 -0.2739718867043861 0 0.32766044863187682 -0.24260060168933739 0 0.32119773225087778 -0.25384030700783711 0 0.3405178516727696 -0.25574781199485208 0 0.32629196520926029 -0.26619273933617282 0 0.32772893670760361 -0.2803906869842685 0 0.3416911373955942 -0.2739718867043861 0 0.3405178516727696 -0.25574781199485208 0 0.3416911373955942 -0.2739718867043861 0 0.36170379186683788 -0.27611455997597539 0 0.3416911373955942 -0.2739718867043861 0 0.36170379186683788 -0.27611455997597539 0 0.34985654604027627 -0.28893039676928589 0 0.3405178516727696 -0.25574781199485208 0 0.36090647266810522 -0.25024146894725041 0 0.36170379186683788 -0.27611455997597539 0 0.36090647266810522 -0.25024146894725041 0 0.36170379186683788 -0.27611455997597539 0 0.36090647266810522 -0.25024146894725041 0 0.36170379186683788 -0.27611455997597539 0 0.37224740429399489 -0.27019434982176871 0 0.3824412414375053 -0.26369032525419078 0 0.36090647266810522 -0.25024146894725041 0 0.37224740429399489 -0.27019434982176871 0 0.36170379186683788 -0.27611455997597539 0 0.37224740429399489 -0.27019434982176871 0 0.37107261961076121 -0.28490836642647249 0 0.36170379186683788 -0.27611455997597539 0 0.36250111106557048 -0.30198765100470032 0 0.37107261961076121 -0.28490836642647249 0 0.36250111106557048 -0.30198765100470032 0 0.37478582324056919 -0.29720950799901269 0 0.36170379186683788 -0.27611455997597539 0 0.37107261961076121 -0.28490836642647249 0 0.36250111106557048 -0.30198765100470032 0 0.36170379186683788 -0.27611455997597539 0 0.34985654604027627 -0.28893039676928589 0 0.36250111106557048 -0.30198765100470032 0 0.33584700637991682 -0.29124148864821708 0 0.34985654604027627 -0.28893039676928589 0 0.34753968349346198 -0.30133639751315072 0 0.33479670926735738 -0.3118747991706835 0 0.34753968349346198 -0.30133639751315072 0 0.35412874505323411 -0.31374434419309649 0 0.34985654604027627 -0.28893039676928589 0 0.34753968349346198 -0.30133639751315072 0 0.36250111106557048 -0.30198765100470032 0 0.34753968349346198 -0.30133639751315072 0 0.36250111106557048 -0.30198765100470032 0 0.35412874505323411 -0.31374434419309649 0 0.37478582324056919 -0.29720950799901269 0 0.35412874505323411 -0.31374434419309649 0 0.37478582324056919 -0.29720950799901269 0 0.37456276850872128 -0.31795325020909232 0 0.35412874505323411 -0.31374434419309649 0 0.36250111106557048 -0.30198765100470032 0 0.37478582324056919 -0.29720950799901269 0 0.35412874505323411 -0.31374434419309649 0 0.36229642803790468 -0.3249661630688141 0 0.37456276850872128 -0.31795325020909232 0 0.35412874505323411 -0.31374434419309649 0 0.37866672140045798 -0.34475883950335778 0 0.36229642803790468 -0.3249661630688141 0 0.37456276850872128 -0.31795325020909232 0 0.37866672140045798 -0.34475883950335778 0 0.36229642803790468 -0.3249661630688141 0 0.35611026897185449 -0.33739080391782922 0 0.35611026897185449 -0.33739080391782922 0 0.34447837116967261 -0.35473241394074512 0 0.33347166686589902 -0.33027918038718029 0 0.35412874505323411 -0.31374434419309649 0 0.33347166686589902 -0.33027918038718029 0 0.35611026897185449 -0.33739080391782922 0 0.35412874505323411 -0.31374434419309649 0 0.33347166686589902 -0.33027918038718029 0 0.36229642803790468 -0.3249661630688141 0 0.35611026897185449 -0.33739080391782922 0 0.35412874505323411 -0.31374434419309649 0 0.37866672140045798 -0.34475883950335778 0 0.37958901774467713 -0.37097982288782783 0 0.3664576583004564 -0.36668734400228209 0 0.37958901774467713 -0.37097982288782783 0 0.36890701975443169 -0.37977397185759371 0 0.3664576583004564 -0.36668734400228209 0 0.37866672140045798 -0.34475883950335778 0 0.35611026897185449 -0.33739080391782922 0 0.3664576583004564 -0.36668734400228209 0 0.37866672140045798 -0.34475883950335778 0 0.3664576583004564 -0.36668734400228209 0 0.35611026897185449 -0.33739080391782922 0 0.3664576583004564 -0.36668734400228209 0 0.34447837116967261 -0.35473241394074512 0 0.3664576583004564 -0.36668734400228209 0 0.34447837116967261 -0.35473241394074512 0 0.35226578307847362 -0.37263603392736938 0 0.34447837116967261 -0.35473241394074512 0 0.35226578307847362 -0.37263603392736938 0 0.3377309917477842 -0.37125713013075479 0 0.3377309917477842 -0.37125713013075479 0 0.32029300818944889 -0.3493300661018226 0 0.34447837116967261 -0.35473241394074512 0 0.3377309917477842 -0.37125713013075479 0 0.32029300818944889 -0.3493300661018226 0 0.34447837116967261 -0.35473241394074512 0 0.32029300818944889 -0.3493300661018226 0 0.33347166686589902 -0.33027918038718029 0 0.32029300818944889 -0.3493300661018226 0 0.31897648083479119 -0.36603587518432301 0 0.3081893367848153 -0.35798094327836721 0 0.3377309917477842 -0.37125713013075479 0 0.32029300818944889 -0.3493300661018226 0 0.31897648083479119 -0.36603587518432301 0 0.31808107052221241 -0.3806994021779051 0 0.3377309917477842 -0.37125713013075479 0 0.31897648083479119 -0.36603587518432301 0 0.31808107052221241 -0.3806994021779051 0 0.31897648083479119 -0.36603587518432301 0 0.30964671703916741 -0.37107739286853159 0 0.33479670926735738 -0.3118747991706835 0 0.35412874505323411 -0.31374434419309649 0 0.33347166686589902 -0.33027918038718029 0 0.33479670926735738 -0.3118747991706835 0 0.33347166686589902 -0.33027918038718029 0 0.31956902141333332 -0.3254364028587759 0 0.32029300818944889 -0.3493300661018226 0 0.31956902141333332 -0.3254364028587759 0 0.3028550246311138 -0.32740300207289053 0 0.32029300818944889 -0.3493300661018226 0 0.33347166686589902 -0.33027918038718029 0 0.31956902141333332 -0.3254364028587759 0 0.33479670926735738 -0.3118747991706835 0 0.31913861700288843 -0.3119810841648924 0 0.31956902141333332 -0.3254364028587759 0 0.31913861700288843 -0.3119810841648924 0 0.31956902141333332 -0.3254364028587759 0 0.30982570659953818 -0.31791169561106059 0 0.31956902141333332 -0.3254364028587759 0 0.30982570659953818 -0.31791169561106059 0 0.3028550246311138 -0.32740300207289053 0 0.30982570659953818 -0.31791169561106059 0 0.3028550246311138 -0.32740300207289053 0 0.30195043702868218 -0.31078390176091042 0 0.32029300818944889 -0.3493300661018226 0 0.3028550246311138 -0.32740300207289053 0 0.32029300818944889 -0.3493300661018226 0 0.3028550246311138 -0.32740300207289053 0 0.30254366403159411 -0.34176620752000969 0 0.3028550246311138 -0.32740300207289053 0 0.30254366403159411 -0.34176620752000969 0 0.29896551806038663 -0.33475981470946131 0 0.3028550246311138 -0.32740300207289053 0 0.29896551806038663 -0.33475981470946131 0 0.29580077946762062 -0.32908030495472013 0 0.29580077946762062 -0.32908030495472013 0 0.2875167198995785 -0.34161845623243309 0 0.26709704744686691 -0.33090192522326528 0 0.29580077946762062 -0.32908030495472013 0 0.26709704744686691 -0.33090192522326528 0 0.29896551806038663 -0.33475981470946131 0 0.29580077946762062 -0.32908030495472013 0 0.2875167198995785 -0.34161845623243309 0 0.30254366403159411 -0.34176620752000969 0 0.29896551806038663 -0.33475981470946131 0 0.2875167198995785 -0.34161845623243309 0 0.3028550246311138 -0.32740300207289053 0 0.29580077946762062 -0.32908030495472013 0 0.28541704107277838 -0.30547593804395817 0 0.3028550246311138 -0.32740300207289053 0 0.28541704107277838 -0.30547593804395817 0 0.30195043702868218 -0.31078390176091042 0 0.29580077946762062 -0.32908030495472013 0 0.28088393319089572 -0.32092364512809729 0 0.26709704744686691 -0.33090192522326528 0 0.3028550246311138 -0.32740300207289053 0 0.28541704107277838 -0.30547593804395817 0 0.29580077946762062 -0.32908030495472013 0 0.28088393319089572 -0.32092364512809729 0 0.28541704107277838 -0.30547593804395817 0 0.3010830811801154 -0.3808440203505673 0 0.29748567671689008 -0.36795077478440552 0 0.30964671703916741 -0.37107739286853159 0 0.31897648083479119 -0.36603587518432301 0 0.30964671703916741 -0.37107739286853159 0 0.3081893367848153 -0.35798094327836721 0 0.29748567671689008 -0.36795077478440552 0 0.30964671703916741 -0.37107739286853159 0 0.3081893367848153 -0.35798094327836721 0 0.29748567671689008 -0.36795077478440552 0 0.3081893367848153 -0.35798094327836721 0 0.29598711385540638 -0.35427596252559768 0 0.32029300818944889 -0.3493300661018226 0 0.30254366403159411 -0.34176620752000969 0 0.3081893367848153 -0.35798094327836721 0 0.30254366403159411 -0.34176620752000969 0 0.3081893367848153 -0.35798094327836721 0 0.29598711385540638 -0.35427596252559768 0 0.2875167198995785 -0.34161845623243309 0 0.29598711385540638 -0.35427596252559768 0 0.28414539544668133 -0.36316625928458762 0 0.30254366403159411 -0.34176620752000969 0 0.2875167198995785 -0.34161845623243309 0 0.29598711385540638 -0.35427596252559768 0 0.28586241599515561 -0.38036007039878178 0 0.29748567671689008 -0.36795077478440552 0 0.28414539544668133 -0.36316625928458762 0 0.29748567671689008 -0.36795077478440552 0 0.29598711385540638 -0.35427596252559768 0 0.28414539544668133 -0.36316625928458762 0 0.28586241599515561 -0.38036007039878178 0 0.27053427856246798 -0.37729828801807308 0 0.28414539544668133 -0.36316625928458762 0 0.27053427856246798 -0.37729828801807308 0 0.28414539544668133 -0.36316625928458762 0 0.26790799905493418 -0.35750764915328831 0 0.2875167198995785 -0.34161845623243309 0 0.28414539544668133 -0.36316625928458762 0 0.26790799905493418 -0.35750764915328831 0 0.26790799905493418 -0.35750764915328831 0 0.26709704744686691 -0.33090192522326528 0 0.24704613705154299 -0.35381478089132012 0 0.27053427856246798 -0.37729828801807308 0 0.26790799905493418 -0.35750764915328831 0 0.25190501404728483 -0.37379947616854159 0 0.26790799905493418 -0.35750764915328831 0 0.25190501404728483 -0.37379947616854159 0 0.24704613705154299 -0.35381478089132012 0 0.27133619789318092 -0.31539941691950729 0 0.28088393319089572 -0.32092364512809729 0 0.26709704744686691 -0.33090192522326528 0 0.27133619789318092 -0.31539941691950729 0 0.28088393319089572 -0.32092364512809729 0 0.28541704107277838 -0.30547593804395817 0 0.2875167198995785 -0.34161845623243309 0 0.26790799905493418 -0.35750764915328831 0 0.26709704744686691 -0.33090192522326528 0 0.26709704744686691 -0.33090192522326528 0 0.23839331542611331 -0.33272354549181049 0 0.24704613705154299 -0.35381478089132012 0 0.26709704744686691 -0.33090192522326528 0 0.23839331542611331 -0.33272354549181049 0 0.26709704744686691 -0.33090192522326528 0 0.25585275030884419 -0.31556969471708879 0 0.23839331542611331 -0.33272354549181049 0 0.27133619789318092 -0.31539941691950729 0 0.26709704744686691 -0.33090192522326528 0 0.25585275030884419 -0.31556969471708879 0 0.25585275030884419 -0.31556969471708879 0 0.25774539133869501 -0.30196387060884122 0 0.24768925578127321 -0.30119157499571259 0 0.25774539133869501 -0.30196387060884122 0 0.2562709620739651 -0.29467299108852057 0 0.24768925578127321 -0.30119157499571259 0 0.25774539133869501 -0.30196387060884122 0 0.26651124863729708 -0.29534251575399673 0 0.26743021744651929 -0.3041258814851272 0 0.25774539133869501 -0.30196387060884122 0 0.2562709620739651 -0.29467299108852057 0 0.26651124863729708 -0.29534251575399673 0 0.25585275030884419 -0.31556969471708879 0 0.25774539133869501 -0.30196387060884122 0 0.26743021744651929 -0.3041258814851272 0 0.27133619789318092 -0.31539941691950729 0 0.25585275030884419 -0.31556969471708879 0 0.26743021744651929 -0.3041258814851272 0 0.25669864166290329 -0.28751105288598222 0 0.26797905751444401 -0.28354887401502521 0 0.24445984613380661 -0.27449865710361659 0 0.25669864166290329 -0.28751105288598222 0 0.2562709620739651 -0.29467299108852057 0 0.2482720939550038 -0.28949222646875211 0 0.2562709620739651 -0.29467299108852057 0 0.2482720939550038 -0.28949222646875211 0 0.24768925578127321 -0.30119157499571259 0 0.25669864166290329 -0.28751105288598222 0 0.2562709620739651 -0.29467299108852057 0 0.26651124863729708 -0.29534251575399673 0 0.25669864166290329 -0.28751105288598222 0 0.26797905751444401 -0.28354887401502521 0 0.26651124863729708 -0.29534251575399673 0 0.26797905751444401 -0.28354887401502521 0 0.28504333780545399 -0.29011522675412299 0 0.26797905751444401 -0.28354887401502521 0 0.26651124863729708 -0.29534251575399673 0 0.28541704107277838 -0.30547593804395817 0 0.26797905751444401 -0.28354887401502521 0 0.28504333780545399 -0.29011522675412299 0 0.28058705387573513 -0.28002527754623729 0 0.26797905751444401 -0.28354887401502521 0 0.28541704107277838 -0.30547593804395817 0 0.26797905751444401 -0.28354887401502521 0 0.28541704107277838 -0.30547593804395817 0 0.28504333780545399 -0.29011522675412299 0 0.26797905751444401 -0.28354887401502521 0 0.26432696681113588 -0.2789566213372438 0 0.26651124863729708 -0.29534251575399673 0 0.26743021744651929 -0.3041258814851272 0 0.28541704107277838 -0.30547593804395817 0 0.27133619789318092 -0.31539941691950729 0 0.26743021744651929 -0.3041258814851272 0 0.28541704107277838 -0.30547593804395817 0 0.28541704107277838 -0.30547593804395817 0 0.28504333780545399 -0.29011522675412299 0 0.30210761809646358 -0.29668157949322183 0 0.28541704107277838 -0.30547593804395817 0 0.30210761809646358 -0.29668157949322183 0 0.30195043702868218 -0.31078390176091042 0 0.28504333780545399 -0.29011522675412299 0 0.30210761809646358 -0.29668157949322183 0 0.29485603655489789 -0.28044186459697568 0 0.28504333780545399 -0.29011522675412299 0 0.30210761809646358 -0.29668157949322183 0 0.28504333780545399 -0.29011522675412299 0 0.29485603655489789 -0.28044186459697568 0 0.28058705387573513 -0.28002527754623729 0 0.32017363368845297 -0.29620261169813572 0 0.3126911897017981 -0.27874094137706351 0 0.30210761809646358 -0.29668157949322183 0 0.3126911897017981 -0.27874094137706351 0 0.30210761809646358 -0.29668157949322183 0 0.29485603655489789 -0.28044186459697568 0 0.32017363368845297 -0.29620261169813572 0 0.30210761809646358 -0.29668157949322183 0 0.31032708598615127 -0.3066364942707232 0 0.30982570659953818 -0.31791169561106059 0 0.31032708598615127 -0.3066364942707232 0 0.30195043702868218 -0.31078390176091042 0 0.30210761809646358 -0.29668157949322183 0 0.31032708598615127 -0.3066364942707232 0 0.30195043702868218 -0.31078390176091042 0 0.29446357617183783 -0.24816443971273511 0 0.29962704936441881 -0.26511019998488938 0 0.30754541678850039 -0.25445181965460062 0 0.31311319047130792 -0.26344794480493472 0 0.29962704936441881 -0.26511019998488938 0 0.30754541678850039 -0.25445181965460062 0 0.3126911897017981 -0.27874094137706351 0 0.31311319047130792 -0.26344794480493472 0 0.29962704936441881 -0.26511019998488938 0 0.3126911897017981 -0.27874094137706351 0 0.29962704936441881 -0.26511019998488938 0 0.29485603655489789 -0.28044186459697568 0 0.29962704936441881 -0.26511019998488938 0 0.29485603655489789 -0.28044186459697568 0 0.28691784394043068 -0.26970846494803402 0 0.28691784394043068 -0.26970846494803402 0 0.28058705387573513 -0.28002527754623729 0 0.27724480074086461 -0.27162833939556602 0 0.29485603655489789 -0.28044186459697568 0 0.28691784394043068 -0.26970846494803402 0 0.28058705387573513 -0.28002527754623729 0 0.28691784394043068 -0.26970846494803402 0 0.28785677670574328 -0.25915079170078209 0 0.27636785402759673 -0.26128498589202581 0 0.29446357617183783 -0.24816443971273511 0 0.29962704936441881 -0.26511019998488938 0 0.28785677670574328 -0.25915079170078209 0 0.29962704936441881 -0.26511019998488938 0 0.28691784394043068 -0.26970846494803402 0 0.28785677670574328 -0.25915079170078209 0 0.28785677670574328 -0.25915079170078209 0 0.28186142461365599 -0.25125271573050939 0 0.27636785402759673 -0.26128498589202581 0 0.29446357617183783 -0.24816443971273511 0 0.28785677670574328 -0.25915079170078209 0 0.28186142461365599 -0.25125271573050939 0 0.27001310421560493 -0.249991519231302 0 0.28186142461365599 -0.25125271573050939 0 0.27636785402759673 -0.26128498589202581 0 0.27636785402759673 -0.26128498589202581 0 0.26763751755760018 -0.26872799932265451 0 0.26268282829413142 -0.25918674631978678 0 0.27001310421560493 -0.249991519231302 0 0.27636785402759673 -0.26128498589202581 0 0.26268282829413142 -0.25918674631978678 0 0.28058705387573513 -0.28002527754623729 0 0.27724480074086461 -0.27162833939556602 0 0.27180667300671379 -0.27675654860859428 0 0.26797905751444401 -0.28354887401502521 0 0.28058705387573513 -0.28002527754623729 0 0.27180667300671379 -0.27675654860859428 0 0.28691784394043068 -0.26970846494803402 0 0.27636785402759673 -0.26128498589202581 0 0.27724480074086461 -0.27162833939556602 0 0.27636785402759673 -0.26128498589202581 0 0.27724480074086461 -0.27162833939556602 0 0.26763751755760018 -0.26872799932265451 0 0.26763751755760018 -0.26872799932265451 0 0.27180667300671379 -0.27675654860859428 0 0.26698116239991521 -0.27416561644689469 0 0.27724480074086461 -0.27162833939556602 0 0.26763751755760018 -0.26872799932265451 0 0.27180667300671379 -0.27675654860859428 0 0.27180667300671379 -0.27675654860859428 0 0.26698116239991521 -0.27416561644689469 0 0.26432696681113588 -0.2789566213372438 0 0.26797905751444401 -0.28354887401502521 0 0.27180667300671379 -0.27675654860859428 0 0.26432696681113588 -0.2789566213372438 0 0.26432696681113588 -0.2789566213372438 0 0.25960672964122239 -0.26928855132643997 0 0.24445984613380661 -0.27449865710361659 0 0.26797905751444401 -0.28354887401502521 0 0.24445984613380661 -0.27449865710361659 0 0.26797905751444401 -0.28354887401502521 0 0.26432696681113588 -0.2789566213372438 0 0.24445984613380661 -0.27449865710361659 0 0.26698116239991521 -0.27416561644689469 0 0.26432696681113588 -0.2789566213372438 0 0.25960672964122239 -0.26928855132643997 0 0.26763751755760018 -0.26872799932265451 0 0.25960672964122239 -0.26928855132643997 0 0.26268282829413142 -0.25918674631978678 0 0.26763751755760018 -0.26872799932265451 0 0.26698116239991521 -0.27416561644689469 0 0.25960672964122239 -0.26928855132643997 0 0.25960672964122239 -0.26928855132643997 0 0.25192004568551901 -0.26067291314870922 0 0.24445984613380661 -0.27449865710361659 0 0.27001310421560493 -0.249991519231302 0 0.25455705962084613 -0.2492274359405969 0 0.26268282829413142 -0.25918674631978678 0 0.25960672964122239 -0.26928855132643997 0 0.26268282829413142 -0.25918674631978678 0 0.25192004568551901 -0.26067291314870922 0 0.25455705962084613 -0.2492274359405969 0 0.26268282829413142 -0.25918674631978678 0 0.25192004568551901 -0.26067291314870922 0 0.25192004568551901 -0.26067291314870922 0 0.23902974280713549 -0.25211766649363682 0 0.24445984613380661 -0.27449865710361659 0 0.23902974280713549 -0.25211766649363682 0 0.24445984613380661 -0.27449865710361659 0 0.22094063475316891 -0.26544844019220898 0 0.25455705962084613 -0.2492274359405969 0 0.25192004568551901 -0.26067291314870922 0 0.23902974280713549 -0.25211766649363682 0 0.24445984613380661 -0.27449865710361659 0 0.22094063475316891 -0.26544844019220898 0 0.24445984613380661 -0.27449865710361659 0 0.22094063475316891 -0.26544844019220898 0 0.23399786290661639 -0.28941804977155661 0 0.22094063475316891 -0.26544844019220898 0 0.21667446586391181 -0.28439322935061279 0 0.23399786290661639 -0.28941804977155661 0 0.23902974280713549 -0.25211766649363682 0 0.22094063475316891 -0.26544844019220898 0 0.21459981479714119 -0.24605728887083039 0 0.22094063475316891 -0.26544844019220898 0 0.19556472110513859 -0.25597414667967999 0 0.21459981479714119 -0.24605728887083039 0 0.22094063475316891 -0.26544844019220898 0 0.19556472110513859 -0.25597414667967999 0 0.19898216070862229 -0.28151462688038459 0 0.22094063475316891 -0.26544844019220898 0 0.19898216070862229 -0.28151462688038459 0 0.21667446586391181 -0.28439322935061279 0 0.19556472110513859 -0.25597414667967999 0 0.19898216070862229 -0.28151462688038459 0 0.184268935290058 -0.27078202946236329 0 0.19988538665421191 -0.30207068760972439 0 0.19437274140051741 -0.32025060470400668 0 0.17610248570370321 -0.30999692821369251 0 0.19988538665421191 -0.30207068760972439 0 0.19898216070862229 -0.28151462688038459 0 0.17121912002280229 -0.28362707039848328 0 0.19988538665421191 -0.30207068760972439 0 0.19898216070862229 -0.28151462688038459 0 0.21667446586391181 -0.28439322935061279 0 0.19988538665421191 -0.30207068760972439 0 0.21667446586391181 -0.28439322935061279 0 0.2195580654994744 -0.30109399350327098 0 0.19988538665421191 -0.30207068760972439 0 0.2195580654994744 -0.30109399350327098 0 0.2159994466651112 -0.31750081094469162 0 0.2195580654994744 -0.30109399350327098 0 0.23495225686139609 -0.31109190855258512 0 0.2159994466651112 -0.31750081094469162 0 0.2195580654994744 -0.30109399350327098 0 0.23399786290661639 -0.28941804977155661 0 0.23495225686139609 -0.31109190855258512 0 0.21667446586391181 -0.28439322935061279 0 0.2195580654994744 -0.30109399350327098 0 0.23399786290661639 -0.28941804977155661 0 0.23399786290661639 -0.28941804977155661 0 0.2482720939550038 -0.28949222646875211 0 0.24768925578127321 -0.30119157499571259 0 0.25669864166290329 -0.28751105288598222 0 0.24445984613380661 -0.27449865710361659 0 0.2482720939550038 -0.28949222646875211 0 0.24445984613380661 -0.27449865710361659 0 0.23399786290661639 -0.28941804977155661 0 0.2482720939550038 -0.28949222646875211 0 0.25585275030884419 -0.31556969471708879 0 0.23495225686139609 -0.31109190855258512 0 0.24768925578127321 -0.30119157499571259 0 0.23399786290661639 -0.28941804977155661 0 0.23495225686139609 -0.31109190855258512 0 0.24768925578127321 -0.30119157499571259 0 0.25585275030884419 -0.31556969471708879 0 0.23495225686139609 -0.31109190855258512 0 0.23839331542611331 -0.33272354549181049 0 0.23839331542611331 -0.33272354549181049 0 0.2096895834053597 -0.33454516576035581 0 0.23839331542611331 -0.33272354549181049 0 0.21715597511539861 -0.34835297319673919 0 0.2096895834053597 -0.33454516576035581 0 0.23839331542611331 -0.33272354549181049 0 0.2159994466651112 -0.31750081094469162 0 0.2096895834053597 -0.33454516576035581 0 0.23495225686139609 -0.31109190855258512 0 0.23839331542611331 -0.33272354549181049 0 0.2159994466651112 -0.31750081094469162 0 0.24704613705154299 -0.35381478089132012 0 0.23112900042788359 -0.35448123105430213 0 0.22964552449756909 -0.37040890260165321 0 0.25190501404728483 -0.37379947616854159 0 0.24704613705154299 -0.35381478089132012 0 0.22964552449756909 -0.37040890260165321 0 0.23839331542611331 -0.33272354549181049 0 0.24704613705154299 -0.35381478089132012 0 0.23112900042788359 -0.35448123105430213 0 0.23839331542611331 -0.33272354549181049 0 0.23112900042788359 -0.35448123105430213 0 0.21715597511539861 -0.34835297319673919 0 0.23112900042788359 -0.35448123105430213 0 0.2192483472032507 -0.3611607055402698 0 0.21715597511539861 -0.34835297319673919 0 0.22964552449756909 -0.37040890260165321 0 0.2192483472032507 -0.3611607055402698 0 0.21169085291040679 -0.37202966629356382 0 0.23112900042788359 -0.35448123105430213 0 0.22964552449756909 -0.37040890260165321 0 0.2192483472032507 -0.3611607055402698 0 0.21169085291040679 -0.37202966629356382 0 0.20627123392171129 -0.36105794554980242 0 0.1953864927280326 -0.37376291790287292 0 0.2192483472032507 -0.3611607055402698 0 0.21169085291040679 -0.37202966629356382 0 0.20627123392171129 -0.36105794554980242 0 0.20627123392171129 -0.36105794554980242 0 0.21715597511539861 -0.34835297319673919 0 0.2037946408844647 -0.34661919656320128 0 0.20627123392171129 -0.36105794554980242 0 0.21715597511539861 -0.34835297319673919 0 0.2192483472032507 -0.3611607055402698 0 0.20627123392171129 -0.36105794554980242 0 0.21715597511539861 -0.34835297319673919 0 0.2037946408844647 -0.34661919656320128 0 0.1923436853700066 -0.35134140261880131 0 0.19134402725775609 -0.3415679801284075 0 0.1923436853700066 -0.35134140261880131 0 0.19134402725775609 -0.3415679801284075 0 0.18543734499928111 -0.34360564043311409 0 0.1923436853700066 -0.35134140261880131 0 0.19491121462491839 -0.36097765660267961 0 0.18564344647992331 -0.35774836033924179 0 0.20627123392171129 -0.36105794554980242 0 0.2037946408844647 -0.34661919656320128 0 0.1923436853700066 -0.35134140261880131 0 0.20627123392171129 -0.36105794554980242 0 0.1923436853700066 -0.35134140261880131 0 0.19491121462491839 -0.36097765660267961 0 0.19491121462491839 -0.36097765660267961 0 0.1953864927280326 -0.37376291790287292 0 0.18564344647992331 -0.35774836033924179 0 0.20627123392171129 -0.36105794554980242 0 0.19491121462491839 -0.36097765660267961 0 0.1953864927280326 -0.37376291790287292 0 0.20627123392171129 -0.36105794554980242 0 0.1953864927280326 -0.37376291790287292 0 0.19988538665421191 -0.30207068760972439 0 0.2159994466651112 -0.31750081094469162 0 0.19437274140051741 -0.32025060470400668 0 0.2159994466651112 -0.31750081094469162 0 0.2096895834053597 -0.33454516576035581 0 0.19437274140051741 -0.32025060470400668 0 0.21715597511539861 -0.34835297319673919 0 0.2037946408844647 -0.34661919656320128 0 0.2096895834053597 -0.33454516576035581 0 0.2037946408844647 -0.34661919656320128 0 0.2096895834053597 -0.33454516576035581 0 0.19134402725775609 -0.3415679801284075 0 0.2096895834053597 -0.33454516576035581 0 0.19134402725775609 -0.3415679801284075 0 0.18098585138460621 -0.33636678602890119 0 0.2096895834053597 -0.33454516576035581 0 0.18098585138460621 -0.33636678602890119 0 0.2096895834053597 -0.33454516576035581 0 0.19437274140051741 -0.32025060470400668 0 0.18098585138460621 -0.33636678602890119 0 0.18098585138460621 -0.33636678602890119 0 0.17610248570370321 -0.30999692821369251 0 0.18098585138460621 -0.33636678602890119 0 0.17924126107227509 -0.33647750267964699 0 0.17610248570370321 -0.30999692821369251 0 0.19437274140051741 -0.32025060470400668 0 0.18098585138460621 -0.33636678602890119 0 0.17610248570370321 -0.30999692821369251 0 0.17924126107227509 -0.33647750267964699 0 0.16783921287702089 -0.33275684508957137 0 0.17610248570370321 -0.30999692821369251 0 0.19134402725775609 -0.3415679801284075 0 0.18098585138460621 -0.33636678602890119 0 0.18133128620955891 -0.33823211166980222 0 0.19134402725775609 -0.3415679801284075 0 0.18543734499928111 -0.34360564043311409 0 0.18133128620955891 -0.33823211166980222 0 0.18098585138460621 -0.33636678602890119 0 0.18133128620955891 -0.33823211166980222 0 0.17924126107227509 -0.33647750267964699 0 0.18098585138460621 -0.33636678602890119 0 0.17924126107227509 -0.33647750267964699 0 0.18098585138460621 -0.33636678602890119 0 0.18133128620955891 -0.33823211166980222 0 0.18133128620955891 -0.33823211166980222 0 0.18039111896175899 -0.34329119567938798 0 0.17788975778009669 -0.34020944796313812 0 0.18543734499928111 -0.34360564043311409 0 0.18133128620955891 -0.33823211166980222 0 0.18039111896175899 -0.34329119567938798 0 0.17788975778009669 -0.34020944796313812 0 0.17276893402837079 -0.34349718869724571 0 0.16783921287702089 -0.33275684508957137 0 0.17788975778009669 -0.34020944796313812 0 0.17924126107227509 -0.33647750267964699 0 0.16783921287702089 -0.33275684508957137 0 0.18039111896175899 -0.34329119567938798 0 0.17788975778009669 -0.34020944796313812 0 0.17276893402837079 -0.34349718869724571 0 0.18133128620955891 -0.33823211166980222 0 0.17788975778009669 -0.34020944796313812 0 0.17924126107227509 -0.33647750267964699 0 0.16783921287702089 -0.33275684508957137 0 0.15471618946814061 -0.31656994673960848 0 0.15422231876872169 -0.33873892922168658 0 0.17276893402837079 -0.34349718869724571 0 0.16783921287702089 -0.33275684508957137 0 0.15422231876872169 -0.33873892922168658 0 0.16783921287702089 -0.33275684508957137 0 0.15471618946814061 -0.31656994673960848 0 0.17610248570370321 -0.30999692821369251 0 0.1953864927280326 -0.37376291790287292 0 0.17480440574837719 -0.35625092356227978 0 0.18564344647992331 -0.35774836033924179 0 0.1953864927280326 -0.37376291790287292 0 0.18149366736238681 -0.36928063621943591 0 0.17480440574837719 -0.35625092356227978 0 0.1953864927280326 -0.37376291790287292 0 0.17480440574837719 -0.35625092356227978 0 0.17599692020796701 -0.37290279302657481 0 0.17556508135093979 -0.36669977615701738 0 0.16708740627389571 -0.36306658277218751 0 0.17599692020796701 -0.37290279302657481 0 0.17556508135093979 -0.36669977615701738 0 0.17599692020796701 -0.37290279302657481 0 0.18149366736238681 -0.36928063621943591 0 0.17556508135093979 -0.36669977615701738 0 0.17599692020796701 -0.37290279302657481 0 0.18149366736238681 -0.36928063621943591 0 0.18482170096862729 -0.37510216624099152 0 0.17599692020796701 -0.37290279302657481 0 0.18482170096862729 -0.37510216624099152 0 0.1953864927280326 -0.37376291790287292 0 0.18149366736238681 -0.36928063621943591 0 0.18482170096862729 -0.37510216624099152 0 0.17556508135093979 -0.36669977615701738 0 0.17480440574837719 -0.35625092356227978 0 0.16708740627389571 -0.36306658277218751 0 0.18149366736238681 -0.36928063621943591 0 0.17556508135093979 -0.36669977615701738 0 0.17480440574837719 -0.35625092356227978 0 0.17480440574837719 -0.35625092356227978 0 0.18564344647992331 -0.35774836033924179 0 0.18159925036481611 -0.34894356732434972 0 0.1923436853700066 -0.35134140261880131 0 0.18564344647992331 -0.35774836033924179 0 0.18159925036481611 -0.34894356732434972 0 0.1923436853700066 -0.35134140261880131 0 0.18543734499928111 -0.34360564043311409 0 0.18159925036481611 -0.34894356732434972 0 0.18543734499928111 -0.34360564043311409 0 0.18039111896175899 -0.34329119567938798 0 0.18159925036481611 -0.34894356732434972 0 0.18039111896175899 -0.34329119567938798 0 0.17276893402837079 -0.34349718869724571 0 0.18159925036481611 -0.34894356732434972 0 0.17276893402837079 -0.34349718869724571 0 0.17480440574837719 -0.35625092356227978 0 0.18159925036481611 -0.34894356732434972 0 0.17276893402837079 -0.34349718869724571 0 0.17480440574837719 -0.35625092356227978 0 0.15422231876872169 -0.33873892922168658 0 0.17480440574837719 -0.35625092356227978 0 0.1563430720449466 -0.35408304260251572 0 0.16708740627389571 -0.36306658277218751 0 0.17480440574837719 -0.35625092356227978 0 0.15422231876872169 -0.33873892922168658 0 0.17480440574837719 -0.35625092356227978 0 0.1563430720449466 -0.35408304260251572 0 0.15422231876872169 -0.33873892922168658 0 0.17599692020796701 -0.37290279302657481 0 0.15267218905301269 -0.36708964136570399 0 0.1621378733416888 -0.38397946178054709 0 0.17599692020796701 -0.37290279302657481 0 0.15267218905301269 -0.36708964136570399 0 0.17599692020796701 -0.37290279302657481 0 0.16708740627389571 -0.36306658277218751 0 0.15267218905301269 -0.36708964136570399 0 0.1563430720449466 -0.35408304260251572 0 0.16708740627389571 -0.36306658277218751 0 0.15267218905301269 -0.36708964136570399 0 0.15267218905301269 -0.36708964136570399 0 0.14470826612290211 -0.35567322459744077 0 0.12934745789805871 -0.36127648970483162 0 0.15267218905301269 -0.36708964136570399 0 0.12934745789805871 -0.36127648970483162 0 0.14470826612290211 -0.35567322459744077 0 0.1444309751886062 -0.34774278494336619 0 0.13747447441161581 -0.35220050604046138 0 0.1563430720449466 -0.35408304260251572 0 0.15267218905301269 -0.36708964136570399 0 0.14470826612290211 -0.35567322459744077 0 0.1563430720449466 -0.35408304260251572 0 0.14470826612290211 -0.35567322459744077 0 0.1444309751886062 -0.34774278494336619 0 0.1563430720449466 -0.35408304260251572 0 0.1444309751886062 -0.34774278494336619 0 0.15422231876872169 -0.33873892922168658 0 0.1444309751886062 -0.34774278494336619 0 0.13569814110369791 -0.34626986039990398 0 0.1380842157155184 -0.34118440965134361 0 0.1444309751886062 -0.34774278494336619 0 0.13569814110369791 -0.34626986039990398 0 0.13747447441161581 -0.35220050604046138 0 0.13569814110369791 -0.34626986039990398 0 0.1312791037401865 -0.34973789588834742 0 0.13747447441161581 -0.35220050604046138 0 0.13569814110369791 -0.34626986039990398 0 0.1300828430355265 -0.34547496400907002 0 0.13147320667429141 -0.34188145733909692 0 0.1300828430355265 -0.34547496400907002 0 0.1255377283462269 -0.34668240120303773 0 0.1312791037401865 -0.34973789588834742 0 0.13569814110369791 -0.34626986039990398 0 0.1300828430355265 -0.34547496400907002 0 0.1312791037401865 -0.34973789588834742 0 0.1255377283462269 -0.34668240120303773 0 0.12710803422884071 -0.3437317446043614 0 0.1225705617438942 -0.34261761099399812 0 0.1300828430355265 -0.34547496400907002 0 0.1255377283462269 -0.34668240120303773 0 0.12710803422884071 -0.3437317446043614 0 0.1255377283462269 -0.34668240120303773 0 0.12720976250858129 -0.35065639189542902 0 0.1312791037401865 -0.34973789588834742 0 0.12720976250858129 -0.35065639189542902 0 0.1312791037401865 -0.34973789588834742 0 0.12965086678062371 -0.35237706248126882 0 0.1312791037401865 -0.34973789588834742 0 0.13170748074580541 -0.35397514405354702 0 0.12965086678062371 -0.35237706248126882 0 0.12840712012792149 -0.35513881808775188 0 0.12934745789805871 -0.36127648970483162 0 0.12123743704460439 -0.3515616361745782 0 0.13170748074580541 -0.35397514405354702 0 0.12965086678062371 -0.35237706248126882 0 0.12840712012792149 -0.35513881808775188 0 0.12720976250858129 -0.35065639189542902 0 0.12965086678062371 -0.35237706248126882 0 0.12840712012792149 -0.35513881808775188 0 0.12720976250858129 -0.35065639189542902 0 0.12840712012792149 -0.35513881808775188 0 0.12123743704460439 -0.3515616361745782 0 0.13170748074580541 -0.35397514405354702 0 0.12840712012792149 -0.35513881808775188 0 0.12934745789805871 -0.36127648970483162 0 0.13170748074580541 -0.35397514405354702 0 0.13747447441161581 -0.35220050604046138 0 0.12934745789805871 -0.36127648970483162 0 0.14470826612290211 -0.35567322459744077 0 0.13747447441161581 -0.35220050604046138 0 0.12934745789805871 -0.36127648970483162 0 0.1312791037401865 -0.34973789588834742 0 0.13170748074580541 -0.35397514405354702 0 0.13747447441161581 -0.35220050604046138 0 0.15267218905301269 -0.36708964136570399 0 0.12934745789805871 -0.36127648970483162 0 0.13666267833149809 -0.37561165957690418 0 0.12934745789805871 -0.36127648970483162 0 0.13666267833149809 -0.37561165957690418 0 0.1240463933514106 -0.3849859221468 0 0.15471618946814061 -0.31656994673960848 0 0.15422231876872169 -0.33873892922168658 0 0.13364023178906509 -0.32122693488109499 0 0.15471618946814061 -0.31656994673960848 0 0.13364023178906509 -0.32122693488109499 0 0.13990936519416119 -0.30844322227962312 0 0.15422231876872169 -0.33873892922168658 0 0.1349564528092484 -0.33305479597114029 0 0.13364023178906509 -0.32122693488109499 0 0.1444309751886062 -0.34774278494336619 0 0.15422231876872169 -0.33873892922168658 0 0.1380842157155184 -0.34118440965134361 0 0.15422231876872169 -0.33873892922168658 0 0.1349564528092484 -0.33305479597114029 0 0.1380842157155184 -0.34118440965134361 0 0.15422231876872169 -0.33873892922168658 0 0.13364023178906509 -0.32122693488109499 0 0.1349564528092484 -0.33305479597114029 0 0.1380842157155184 -0.34118440965134361 0 0.13284164099116311 -0.33793082256215462 0 0.1380842157155184 -0.34118440965134361 0 0.13284164099116311 -0.33793082256215462 0 0.13147320667429141 -0.34188145733909692 0 0.13569814110369791 -0.34626986039990398 0 0.1380842157155184 -0.34118440965134361 0 0.13147320667429141 -0.34188145733909692 0 0.13147320667429141 -0.34188145733909692 0 0.12940777708764961 -0.33819363731716728 0 0.1271039503091683 -0.34051378942124461 0 0.1300828430355265 -0.34547496400907002 0 0.13147320667429141 -0.34188145733909692 0 0.12710803422884071 -0.3437317446043614 0 0.13284164099116311 -0.33793082256215462 0 0.13147320667429141 -0.34188145733909692 0 0.12940777708764961 -0.33819363731716728 0 0.13284164099116311 -0.33793082256215462 0 0.12940777708764961 -0.33819363731716728 0 0.12936839635055461 -0.33499287307672238 0 0.12940777708764961 -0.33819363731716728 0 0.12600167772950349 -0.33771173106650532 0 0.12936839635055461 -0.33499287307672238 0 0.12940777708764961 -0.33819363731716728 0 0.12600167772950349 -0.33771173106650532 0 0.1271039503091683 -0.34051378942124461 0 0.13147320667429141 -0.34188145733909692 0 0.12710803422884071 -0.3437317446043614 0 0.1271039503091683 -0.34051378942124461 0 0.12600167772950349 -0.33771173106650532 0 0.1271039503091683 -0.34051378942124461 0 0.1225705617438942 -0.34261761099399812 0 0.12710803422884071 -0.3437317446043614 0 0.1271039503091683 -0.34051378942124461 0 0.1225705617438942 -0.34261761099399812 0 0.1349564528092484 -0.33305479597114029 0 0.1281415211465316 -0.33084658555773239 0 0.1298844357727339 -0.32643599217616071 0 0.1349564528092484 -0.33305479597114029 0 0.13284164099116311 -0.33793082256215462 0 0.12936839635055461 -0.33499287307672238 0 0.1349564528092484 -0.33305479597114029 0 0.12936839635055461 -0.33499287307672238 0 0.1281415211465316 -0.33084658555773239 0 0.12936839635055461 -0.33499287307672238 0 0.1256076556112169 -0.33336104972237751 0 0.1281415211465316 -0.33084658555773239 0 0.12600167772950349 -0.33771173106650532 0 0.12936839635055461 -0.33499287307672238 0 0.1256076556112169 -0.33336104972237751 0 0.1256076556112169 -0.33336104972237751 0 0.1281415211465316 -0.33084658555773239 0 0.1221238192537293 -0.32689191011031199 0 0.1281415211465316 -0.33084658555773239 0 0.1298844357727339 -0.32643599217616071 0 0.1221238192537293 -0.32689191011031199 0 0.1298844357727339 -0.32643599217616071 0 0.13364023178906509 -0.32122693488109499 0 0.1221238192537293 -0.32689191011031199 0 0.1349564528092484 -0.33305479597114029 0 0.1298844357727339 -0.32643599217616071 0 0.13364023178906509 -0.32122693488109499 0 0.13364023178906509 -0.32122693488109499 0 0.1187637634689758 -0.29771600926829322 0 0.13990936519416119 -0.30844322227962312 0 0.14883045064343861 -0.295757287745051 0 0.1187637634689758 -0.29771600926829322 0 0.13364023178906509 -0.32122693488109499 0 0.13990936519416119 -0.30844322227962312 0 0.1187637634689758 -0.29771600926829322 0 0.15471618946814061 -0.31656994673960848 0 0.13990936519416119 -0.30844322227962312 0 0.14883045064343861 -0.295757287745051 0 0.14883045064343861 -0.295757287745051 0 0.1289710773948595 -0.27879709444731843 0 0.1505359906407584 -0.27485792983364199 0 0.14883045064343861 -0.295757287745051 0 0.1289710773948595 -0.27879709444731843 0 0.1187637634689758 -0.29771600926829322 0 0.1289710773948595 -0.27879709444731843 0 0.13732355080079039 -0.25885098399408318 0 0.1505359906407584 -0.27485792983364199 0 0.1289710773948595 -0.27879709444731843 0 0.13732355080079039 -0.25885098399408318 0 0.11138665200370231 -0.25153653965536849 0 0.13732355080079039 -0.25885098399408318 0 0.1505359906407584 -0.27485792983364199 0 0.1663357543419014 -0.25725721258327422 0 0.13732355080079039 -0.25885098399408318 0 0.1663357543419014 -0.25725721258327422 0 0.13889870601213769 -0.23544629165886791 0 0.1663357543419014 -0.25725721258327422 0 0.17121912002280229 -0.28362707039848328 0 0.1505359906407584 -0.27485792983364199 0 0.1663357543419014 -0.25725721258327422 0 0.17121912002280229 -0.28362707039848328 0 0.19556472110513859 -0.25597414667967999 0 0.1663357543419014 -0.25725721258327422 0 0.184268935290058 -0.27078202946236329 0 0.19556472110513859 -0.25597414667967999 0 0.1663357543419014 -0.25725721258327422 0 0.18111383101942111 -0.23923559038020439 0 0.1663357543419014 -0.25725721258327422 0 0.184268935290058 -0.27078202946236329 0 0.17121912002280229 -0.28362707039848328 0 0.19898216070862229 -0.28151462688038459 0 0.184268935290058 -0.27078202946236329 0 0.17121912002280229 -0.28362707039848328 0 0.17610248570370321 -0.30999692821369251 0 0.17121912002280229 -0.28362707039848328 0 0.19988538665421191 -0.30207068760972439 0 0.17610248570370321 -0.30999692821369251 0 0.17121912002280229 -0.28362707039848328 0 0.15471618946814061 -0.31656994673960848 0 0.14883045064343861 -0.295757287745051 0 0.17610248570370321 -0.30999692821369251 0 0.14883045064343861 -0.295757287745051 0 0.1505359906407584 -0.27485792983364199 0 0.17121912002280229 -0.28362707039848328 0 0.14883045064343861 -0.295757287745051 0 0.17610248570370321 -0.30999692821369251 0 0.17121912002280229 -0.28362707039848328 0 0.28253855640313891 -0.5 0 0.22044836618549329 -0.47342604393703852 0 0.18344956846806421 -0.5 0 0.19030582575203281 -0.48723110688610899 0 0.22044836618549329 -0.47342604393703852 0 0.18344956846806421 -0.5 0 0.19030582575203281 -0.48723110688610899 0 0.1897477064049628 -0.47408588767245219 0 0.19892039867705441 -0.4689648645962915 0 0.1897477064049628 -0.47408588767245219 0 0.19892039867705441 -0.4689648645962915 0 0.1881033502105974 -0.46622589948885412 0 0.19030582575203281 -0.48723110688610899 0 0.19892039867705441 -0.4689648645962915 0 0.22044836618549329 -0.47342604393703852 0 0.25478569439939841 -0.46392345883803549 0 0.22044836618549329 -0.47342604393703852 0 0.23071173408456311 -0.44578573754516998 0 0.22044836618549329 -0.47342604393703852 0 0.23071173408456311 -0.44578573754516998 0 0.21650369113051179 -0.45793880159207678 0 0.25737168387317522 -0.44611796734715697 0 0.23071173408456311 -0.44578573754516998 0 0.24403409695939129 -0.43385166784782159 0 0.25737168387317522 -0.44611796734715697 0 0.25478569439939841 -0.46392345883803549 0 0.23071173408456311 -0.44578573754516998 0 0.23071173408456311 -0.44578573754516998 0 0.2068147352142384 -0.45047083715617792 0 0.23071173408456311 -0.44578573754516998 0 0.217243864999837 -0.44240266476125539 0 0.22556349927821451 -0.43010591966361161 0 0.217243864999837 -0.44240266476125539 0 0.20424061781106401 -0.44263092821539879 0 0.22556349927821451 -0.43010591966361161 0 0.23071173408456311 -0.44578573754516998 0 0.217243864999837 -0.44240266476125539 0 0.2068147352142384 -0.45047083715617792 0 0.23071173408456311 -0.44578573754516998 0 0.2068147352142384 -0.45047083715617792 0 0.21650369113051179 -0.45793880159207678 0 0.217243864999837 -0.44240266476125539 0 0.20424061781106401 -0.44263092821539879 0 0.2068147352142384 -0.45047083715617792 0 0.19892039867705441 -0.4689648645962915 0 0.22044836618549329 -0.47342604393703852 0 0.20803992903775259 -0.46207258772992099 0 0.22044836618549329 -0.47342604393703852 0 0.21650369113051179 -0.45793880159207678 0 0.20803992903775259 -0.46207258772992099 0 0.2068147352142384 -0.45047083715617792 0 0.21650369113051179 -0.45793880159207678 0 0.20803992903775259 -0.46207258772992099 0 0.2068147352142384 -0.45047083715617792 0 0.20803992903775259 -0.46207258772992099 0 0.19643737709330711 -0.45973776795290011 0 0.2068147352142384 -0.45047083715617792 0 0.19643737709330711 -0.45973776795290011 0 0.18291773634391351 -0.45515593676718591 0 0.19892039867705441 -0.4689648645962915 0 0.20803992903775259 -0.46207258772992099 0 0.19643737709330711 -0.45973776795290011 0 0.19892039867705441 -0.4689648645962915 0 0.19643737709330711 -0.45973776795290011 0 0.1881033502105974 -0.46622589948885412 0 0.19643737709330711 -0.45973776795290011 0 0.1881033502105974 -0.46622589948885412 0 0.18291773634391351 -0.45515593676718591 0 0.2068147352142384 -0.45047083715617792 0 0.18291773634391351 -0.45515593676718591 0 0.20424061781106401 -0.44263092821539879 0 0.18291773634391351 -0.45515593676718591 0 0.20424061781106401 -0.44263092821539879 0 0.19030797103620439 -0.44512943398319821 0 0.18291773634391351 -0.45515593676718591 0 0.20424061781106401 -0.44263092821539879 0 0.2068147352142384 -0.45047083715617792 0 0.18291773634391351 -0.45515593676718591 0 0.19030797103620439 -0.44512943398319821 0 0.19485519674938251 -0.43763352192630173 0 0.187867698000866 -0.43687967386228432 0 0.20424061781106401 -0.44263092821539879 0 0.19485519674938251 -0.43763352192630173 0 0.20080663399279289 -0.4325007521014767 0 0.20424061781106401 -0.44263092821539879 0 0.19030797103620439 -0.44512943398319821 0 0.19485519674938251 -0.43763352192630173 0 0.20080663399279289 -0.4325007521014767 0 0.19192632060053971 -0.42133447058452389 0 0.20392847218949661 -0.41857322438359851 0 0.19485519674938251 -0.43763352192630173 0 0.20080663399279289 -0.4325007521014767 0 0.19105306290598509 -0.43102682146915028 0 0.19485519674938251 -0.43763352192630173 0 0.187867698000866 -0.43687967386228432 0 0.19105306290598509 -0.43102682146915028 0 0.20080663399279289 -0.4325007521014767 0 0.19105306290598509 -0.43102682146915028 0 0.19192632060053971 -0.42133447058452389 0 0.1924483263132061 -0.40852774266858422 0 0.20392847218949661 -0.41857322438359851 0 0.20898080959352591 -0.40481774741540211 0 0.19192632060053971 -0.42133447058452389 0 0.1924483263132061 -0.40852774266858422 0 0.1793586191211054 -0.4211908864417595 0 0.19192632060053971 -0.42133447058452389 0 0.1924483263132061 -0.40852774266858422 0 0.20392847218949661 -0.41857322438359851 0 0.20392847218949661 -0.41857322438359851 0 0.2185738249609549 -0.41736923195300513 0 0.20898080959352591 -0.40481774741540211 0 0.20392847218949661 -0.41857322438359851 0 0.2185738249609549 -0.41736923195300513 0 0.21058396207020799 -0.42828696095212782 0 0.20424061781106401 -0.44263092821539879 0 0.22556349927821451 -0.43010591966361161 0 0.2185738249609549 -0.41736923195300513 0 0.21058396207020799 -0.42828696095212782 0 0.22556349927821451 -0.43010591966361161 0 0.20424061781106401 -0.44263092821539879 0 0.21058396207020799 -0.42828696095212782 0 0.22556349927821451 -0.43010591966361161 0 0.20080663399279289 -0.4325007521014767 0 0.20392847218949661 -0.41857322438359851 0 0.21058396207020799 -0.42828696095212782 0 0.20424061781106401 -0.44263092821539879 0 0.20080663399279289 -0.4325007521014767 0 0.21058396207020799 -0.42828696095212782 0 0.23071173408456311 -0.44578573754516998 0 0.22556349927821451 -0.43010591966361161 0 0.24403409695939129 -0.43385166784782159 0 0.22556349927821451 -0.43010591966361161 0 0.24403409695939129 -0.43385166784782159 0 0.24688638074536551 -0.41758091111182538 0 0.22556349927821451 -0.43010591966361161 0 0.24688638074536551 -0.41758091111182538 0 0.24688638074536551 -0.41758091111182538 0 0.2301858640976969 -0.41700774402598789 0 0.22971975140625289 -0.40297491337550978 0 0.24688638074536551 -0.41758091111182538 0 0.22971975140625289 -0.40297491337550978 0 0.24535846250041571 -0.40205732319788412 0 0.24688638074536551 -0.41758091111182538 0 0.22971975140625289 -0.40297491337550978 0 0.22556349927821451 -0.43010591966361161 0 0.24688638074536551 -0.41758091111182538 0 0.2301858640976969 -0.41700774402598789 0 0.2185738249609549 -0.41736923195300513 0 0.22971975140625289 -0.40297491337550978 0 0.20898080959352591 -0.40481774741540211 0 0.2185738249609549 -0.41736923195300513 0 0.22556349927821451 -0.43010591966361161 0 0.2301858640976969 -0.41700774402598789 0 0.2185738249609549 -0.41736923195300513 0 0.2301858640976969 -0.41700774402598789 0 0.22971975140625289 -0.40297491337550978 0 0.22971975140625289 -0.40297491337550978 0 0.21255312206714269 -0.38836891563919129 0 0.22971975140625289 -0.40297491337550978 0 0.23728649415681929 -0.38689217967844358 0 0.21255312206714269 -0.38836891563919129 0 0.25825347389310072 -0.39328036489402762 0 0.24535846250041571 -0.40205732319788412 0 0.23728649415681929 -0.38689217967844358 0 0.22971975140625289 -0.40297491337550978 0 0.24535846250041571 -0.40205732319788412 0 0.23728649415681929 -0.38689217967844358 0 0.25190501404728483 -0.37379947616854159 0 0.22964552449756909 -0.37040890260165321 0 0.23728649415681929 -0.38689217967844358 0 0.25825347389310072 -0.39328036489402762 0 0.25190501404728483 -0.37379947616854159 0 0.23728649415681929 -0.38689217967844358 0 0.22964552449756909 -0.37040890260165321 0 0.23728649415681929 -0.38689217967844358 0 0.21255312206714269 -0.38836891563919129 0 0.21169085291040679 -0.37202966629356382 0 0.1953864927280326 -0.37376291790287292 0 0.21255312206714269 -0.38836891563919129 0 0.22964552449756909 -0.37040890260165321 0 0.21169085291040679 -0.37202966629356382 0 0.21255312206714269 -0.38836891563919129 0 0.1953864927280326 -0.37376291790287292 0 0.21255312206714269 -0.38836891563919129 0 0.22971975140625289 -0.40297491337550978 0 0.21255312206714269 -0.38836891563919129 0 0.20898080959352591 -0.40481774741540211 0 0.21255312206714269 -0.38836891563919129 0 0.20898080959352591 -0.40481774741540211 0 0.1966613606241023 -0.39309245647252361 0 0.1924483263132061 -0.40852774266858422 0 0.20898080959352591 -0.40481774741540211 0 0.1966613606241023 -0.39309245647252361 0 0.1924483263132061 -0.40852774266858422 0 0.1966613606241023 -0.39309245647252361 0 0.17750947803165301 -0.39462946616810418 0 0.1953864927280326 -0.37376291790287292 0 0.21255312206714269 -0.38836891563919129 0 0.1966613606241023 -0.39309245647252361 0 0.1953864927280326 -0.37376291790287292 0 0.1966613606241023 -0.39309245647252361 0 0.17750947803165301 -0.39462946616810418 0 0.17599692020796701 -0.37290279302657481 0 0.17750947803165301 -0.39462946616810418 0 0.1621378733416888 -0.38397946178054709 0 0.17599692020796701 -0.37290279302657481 0 0.18482170096862729 -0.37510216624099152 0 0.17750947803165301 -0.39462946616810418 0 0.17599692020796701 -0.37290279302657481 0 0.17750947803165301 -0.39462946616810418 0 0.1953864927280326 -0.37376291790287292 0 0.18482170096862729 -0.37510216624099152 0 0.17750947803165301 -0.39462946616810418 0 0.1953864927280326 -0.37376291790287292 0 0.17750947803165301 -0.39462946616810418 0 0.17750947803165301 -0.39462946616810418 0 0.16133394940225271 -0.39700352272903849 0 0.16270371328225641 -0.41191116616076229 0 0.17750947803165301 -0.39462946616810418 0 0.16133394940225271 -0.39700352272903849 0 0.1621378733416888 -0.38397946178054709 0 0.17750947803165301 -0.39462946616810418 0 0.16270371328225641 -0.41191116616076229 0 0.16133394940225271 -0.39700352272903849 0 0.15293816066932181 -0.40221994835537739 0 0.16270371328225641 -0.41191116616076229 0 0.16133394940225271 -0.39700352272903849 0 0.1621378733416888 -0.38397946178054709 0 0.15542829247040391 -0.3909424639975575 0 0.16133394940225271 -0.39700352272903849 0 0.15542829247040391 -0.3909424639975575 0 0.15293816066932181 -0.40221994835537739 0 0.15267218905301269 -0.36708964136570399 0 0.14906337254527799 -0.38298584154269349 0 0.13666267833149809 -0.37561165957690418 0 0.15267218905301269 -0.36708964136570399 0 0.1621378733416888 -0.38397946178054709 0 0.14906337254527799 -0.38298584154269349 0 0.1621378733416888 -0.38397946178054709 0 0.14906337254527799 -0.38298584154269349 0 0.15542829247040391 -0.3909424639975575 0 0.14906337254527799 -0.38298584154269349 0 0.14758647619778059 -0.39210215802084131 0 0.15542829247040391 -0.3909424639975575 0 0.14906337254527799 -0.38298584154269349 0 0.13904238625318049 -0.38893520877308851 0 0.14758647619778059 -0.39210215802084131 0 0.14906337254527799 -0.38298584154269349 0 0.13666267833149809 -0.37561165957690418 0 0.13904238625318049 -0.38893520877308851 0 0.13666267833149809 -0.37561165957690418 0 0.13904238625318049 -0.38893520877308851 0 0.1240463933514106 -0.3849859221468 0 0.13904238625318049 -0.38893520877308851 0 0.1298480413541909 -0.39321636365670182 0 0.1240463933514106 -0.3849859221468 0 0.13904238625318049 -0.38893520877308851 0 0.1240463933514106 -0.3849859221468 0 0.1289053541512519 -0.40137049547715842 0 0.13345976254876879 -0.40921954988896769 0 0.124281242463502 -0.40797367401447882 0 0.1289053541512519 -0.40137049547715842 0 0.1298480413541909 -0.39321636365670182 0 0.13720791449280231 -0.39858310817465342 0 0.1289053541512519 -0.40137049547715842 0 0.1298480413541909 -0.39321636365670182 0 0.11836026358356309 -0.39768801098006351 0 0.13904238625318049 -0.38893520877308851 0 0.1298480413541909 -0.39321636365670182 0 0.13720791449280231 -0.39858310817465342 0 0.13720791449280231 -0.39858310817465342 0 0.14314602463677009 -0.40875961446191228 0 0.13345976254876879 -0.40921954988896769 0 0.1289053541512519 -0.40137049547715842 0 0.13720791449280231 -0.39858310817465342 0 0.13345976254876879 -0.40921954988896769 0 0.14758647619778059 -0.39210215802084131 0 0.15293816066932181 -0.40221994835537739 0 0.14314602463677009 -0.40875961446191228 0 0.13720791449280231 -0.39858310817465342 0 0.14758647619778059 -0.39210215802084131 0 0.14314602463677009 -0.40875961446191228 0 0.14758647619778059 -0.39210215802084131 0 0.14314602463677009 -0.40875961446191228 0 0.13904238625318049 -0.38893520877308851 0 0.13720791449280231 -0.39858310817465342 0 0.14758647619778059 -0.39210215802084131 0 0.14758647619778059 -0.39210215802084131 0 0.15542829247040391 -0.3909424639975575 0 0.15293816066932181 -0.40221994835537739 0 0.14314602463677009 -0.40875961446191228 0 0.13870557307576209 -0.42541707090298397 0 0.15293816066932181 -0.40221994835537739 0 0.15130974113750731 -0.41460398785688501 0 0.14314602463677009 -0.40875961446191228 0 0.1478979485328602 -0.42919286615342078 0 0.16270371328225641 -0.41191116616076229 0 0.15293816066932181 -0.40221994835537739 0 0.15130974113750731 -0.41460398785688501 0 0.16270371328225641 -0.41191116616076229 0 0.14314602463677009 -0.40875961446191228 0 0.13870557307576209 -0.42541707090298397 0 0.14518920129419821 -0.42231843155897569 0 0.15130974113750731 -0.41460398785688501 0 0.1478979485328602 -0.42919286615342078 0 0.16270371328225641 -0.41191116616076229 0 0.15130974113750731 -0.41460398785688501 0 0.14314602463677009 -0.40875961446191228 0 0.14518920129419821 -0.42231843155897569 0 0.14314602463677009 -0.40875961446191228 0 0.13345976254876879 -0.40921954988896769 0 0.13870557307576209 -0.42541707090298397 0 0.1263287535862064 -0.41552425162229017 0 0.13870557307576209 -0.42541707090298397 0 0.1193375066840482 -0.42315812779913509 0 0.13345976254876879 -0.40921954988896769 0 0.1263287535862064 -0.41552425162229017 0 0.13870557307576209 -0.42541707090298397 0 0.13345976254876879 -0.40921954988896769 0 0.1263287535862064 -0.41552425162229017 0 0.124281242463502 -0.40797367401447882 0 0.13870557307576209 -0.42541707090298397 0 0.1478979485328602 -0.42919286615342078 0 0.1330921837834643 -0.4464745661460795 0 0.13870557307576209 -0.42541707090298397 0 0.1129147015354512 -0.43774297957305358 0 0.13870557307576209 -0.42541707090298397 0 0.1330921837834643 -0.4464745661460795 0 0.13870557307576209 -0.42541707090298397 0 0.1478979485328602 -0.42919286615342078 0 0.14518920129419821 -0.42231843155897569 0 0.15130974113750731 -0.41460398785688501 0 0.1478979485328602 -0.42919286615342078 0 0.14518920129419821 -0.42231843155897569 0 0.13870557307576209 -0.42541707090298397 0 0.14518920129419821 -0.42231843155897569 0 0.1478979485328602 -0.42919286615342078 0 0.15451518907022299 -0.43680411103913919 0 0.14553712478662781 -0.44136767263047288 0 0.1478979485328602 -0.42919286615342078 0 0.15451518907022299 -0.43680411103913919 0 0.1584071431673244 -0.42755997996320139 0 0.15451518907022299 -0.43680411103913919 0 0.16121182558556871 -0.4339301067821798 0 0.1584071431673244 -0.42755997996320139 0 0.1478979485328602 -0.42919286615342078 0 0.1584071431673244 -0.42755997996320139 0 0.16270371328225641 -0.41191116616076229 0 0.15451518907022299 -0.43680411103913919 0 0.16121182558556871 -0.4339301067821798 0 0.16305936871436749 -0.44079335831519528 0 0.16121182558556871 -0.4339301067821798 0 0.17009372284233379 -0.43521786942305118 0 0.16305936871436749 -0.44079335831519528 0 0.16121182558556871 -0.4339301067821798 0 0.17009372284233379 -0.43521786942305118 0 0.16570703936571379 -0.42596164968050482 0 0.17009372284233379 -0.43521786942305118 0 0.16570703936571379 -0.42596164968050482 0 0.1793586191211054 -0.4211908864417595 0 0.16121182558556871 -0.4339301067821798 0 0.16570703936571379 -0.42596164968050482 0 0.1584071431673244 -0.42755997996320139 0 0.16570703936571379 -0.42596164968050482 0 0.1584071431673244 -0.42755997996320139 0 0.16270371328225641 -0.41191116616076229 0 0.16570703936571379 -0.42596164968050482 0 0.16270371328225641 -0.41191116616076229 0 0.1793586191211054 -0.4211908864417595 0 0.17750947803165301 -0.39462946616810418 0 0.1793586191211054 -0.4211908864417595 0 0.17750947803165301 -0.39462946616810418 0 0.16270371328225641 -0.41191116616076229 0 0.1793586191211054 -0.4211908864417595 0 0.1924483263132061 -0.40852774266858422 0 0.17750947803165301 -0.39462946616810418 0 0.1793586191211054 -0.4211908864417595 0 0.17009372284233379 -0.43521786942305118 0 0.1793586191211054 -0.4211908864417595 0 0.18120776021055701 -0.44775230671541499 0 0.187867698000866 -0.43687967386228432 0 0.19105306290598509 -0.43102682146915028 0 0.1793586191211054 -0.4211908864417595 0 0.19105306290598509 -0.43102682146915028 0 0.19192632060053971 -0.42133447058452389 0 0.1793586191211054 -0.4211908864417595 0 0.187867698000866 -0.43687967386228432 0 0.1793586191211054 -0.4211908864417595 0 0.18120776021055701 -0.44775230671541499 0 0.1793586191211054 -0.4211908864417595 0 0.18120776021055701 -0.44775230671541499 0 0.14731663019965921 -0.47824174855490859 0 0.18344956846806421 -0.5 0 0.1093536631954372 -0.5 0 0.17482815358792961 -0.45258411396647807 0 0.18120776021055701 -0.44775230671541499 0 0.18291773634391351 -0.45515593676718591 0 0.17482815358792961 -0.45258411396647807 0 0.18120776021055701 -0.44775230671541499 0 0.17047957583759249 -0.44587170490574662 0 0.17009372284233379 -0.43521786942305118 0 0.18120776021055701 -0.44775230671541499 0 0.17047957583759249 -0.44587170490574662 0 0.19030797103620439 -0.44512943398319821 0 0.187867698000866 -0.43687967386228432 0 0.18120776021055701 -0.44775230671541499 0 0.19030797103620439 -0.44512943398319821 0 0.18120776021055701 -0.44775230671541499 0 0.18291773634391351 -0.45515593676718591 0 0.17482815358792961 -0.45258411396647807 0 0.18291773634391351 -0.45515593676718591 0 0.15854452736843161 -0.45993439922222851 0 0.1881033502105974 -0.46622589948885412 0 0.1788714335221174 -0.46596312507908921 0 0.18166125098016661 -0.47392167971855392 0 0.1881033502105974 -0.46622589948885412 0 0.18291773634391351 -0.45515593676718591 0 0.1788714335221174 -0.46596312507908921 0 0.1788714335221174 -0.46596312507908921 0 0.16811248144282659 -0.46385250737529932 0 0.1722056372529919 -0.47190935331014949 0 0.18291773634391351 -0.45515593676718591 0 0.1788714335221174 -0.46596312507908921 0 0.16811248144282659 -0.46385250737529932 0 0.18291773634391351 -0.45515593676718591 0 0.16811248144282659 -0.46385250737529932 0 0.18291773634391351 -0.45515593676718591 0 0.16811248144282659 -0.46385250737529932 0 0.15854452736843161 -0.45993439922222851 0 0.18291773634391351 -0.45515593676718591 0 0.15854452736843161 -0.45993439922222851 0 0.17482815358792961 -0.45258411396647807 0 0.15854452736843161 -0.45993439922222851 0 0.16856524289890901 -0.45235914993564369 0 0.16811248144282659 -0.46385250737529932 0 0.15330722654173959 -0.47254907798341261 0 0.16811248144282659 -0.46385250737529932 0 0.15854452736843161 -0.45993439922222851 0 0.15330722654173959 -0.47254907798341261 0 0.15854452736843161 -0.45993439922222851 0 0.1619602995175273 -0.45247374092577958 0 0.16856524289890901 -0.45235914993564369 0 0.15854452736843161 -0.45993439922222851 0 0.15712677984954149 -0.44966289468590848 0 0.1619602995175273 -0.45247374092577958 0 0.15712677984954149 -0.44966289468590848 0 0.1636046479532271 -0.44793851985933769 0 0.1569294809129744 -0.44323387758111349 0 0.15712677984954149 -0.44966289468590848 0 0.1636046479532271 -0.44793851985933769 0 0.1619602995175273 -0.45247374092577958 0 0.1636046479532271 -0.44793851985933769 0 0.1619602995175273 -0.45247374092577958 0 0.16856524289890901 -0.45235914993564369 0 0.1636046479532271 -0.44793851985933769 0 0.17047957583759249 -0.44587170490574662 0 0.16856524289890901 -0.45235914993564369 0 0.17482815358792961 -0.45258411396647807 0 0.17047957583759249 -0.44587170490574662 0 0.16856524289890901 -0.45235914993564369 0 0.17009372284233379 -0.43521786942305118 0 0.17047957583759249 -0.44587170490574662 0 0.16305936871436749 -0.44079335831519528 0 0.1636046479532271 -0.44793851985933769 0 0.17047957583759249 -0.44587170490574662 0 0.16305936871436749 -0.44079335831519528 0 0.15451518907022299 -0.43680411103913919 0 0.16305936871436749 -0.44079335831519528 0 0.1569294809129744 -0.44323387758111349 0 0.1636046479532271 -0.44793851985933769 0 0.16305936871436749 -0.44079335831519528 0 0.1569294809129744 -0.44323387758111349 0 0.15451518907022299 -0.43680411103913919 0 0.15095410418139879 -0.4445940969061245 0 0.14553712478662781 -0.44136767263047288 0 0.1478979485328602 -0.42919286615342078 0 0.14553712478662781 -0.44136767263047288 0 0.1330921837834643 -0.4464745661460795 0 0.15451518907022299 -0.43680411103913919 0 0.1569294809129744 -0.44323387758111349 0 0.15095410418139879 -0.4445940969061245 0 0.15712677984954149 -0.44966289468590848 0 0.15095410418139879 -0.4445940969061245 0 0.15052914184907981 -0.45199319993055909 0 0.15712677984954149 -0.44966289468590848 0 0.1569294809129744 -0.44323387758111349 0 0.15095410418139879 -0.4445940969061245 0 0.15052914184907981 -0.45199319993055909 0 0.14241014109566261 -0.44945267638090408 0 0.14361015675036429 -0.45632193245762948 0 0.15095410418139879 -0.4445940969061245 0 0.15052914184907981 -0.45199319993055909 0 0.14241014109566261 -0.44945267638090408 0 0.15095410418139879 -0.4445940969061245 0 0.14241014109566261 -0.44945267638090408 0 0.14553712478662781 -0.44136767263047288 0 0.13870557307576209 -0.42541707090298397 0 0.1330921837834643 -0.4464745661460795 0 0.1230401310932962 -0.4442669518182536 0 0.1478979485328602 -0.42919286615342078 0 0.1330921837834643 -0.4464745661460795 0 0.14241014109566261 -0.44945267638090408 0 0.14553712478662781 -0.44136767263047288 0 0.1330921837834643 -0.4464745661460795 0 0.14241014109566261 -0.44945267638090408 0 0.1330921837834643 -0.4464745661460795 0 0.13499896376758119 -0.45687896679917428 0 0.1330921837834643 -0.4464745661460795 0 0.12552163423609239 -0.45531112192497408 0 0.1330921837834643 -0.4464745661460795 0 0.12552163423609239 -0.45531112192497408 0 0.1230401310932962 -0.4442669518182536 0 0.1330921837834643 -0.4464745661460795 0 0.12582203242347181 -0.47374706938931083 0 0.12363145775268571 -0.46456234185325612 0 0.1330921837834643 -0.4464745661460795 0 0.12552163423609239 -0.45531112192497408 0 0.12363145775268571 -0.46456234185325612 0 0.1330921837834643 -0.4464745661460795 0 0.12582203242347181 -0.47374706938931083 0 0.13499896376758119 -0.45687896679917428 0 0.13417131839294949 -0.46471286167727133 0 0.12582203242347181 -0.47374706938931083 0 0.1330921837834643 -0.4464745661460795 0 0.13499896376758119 -0.45687896679917428 0 0.12582203242347181 -0.47374706938931083 0 0.13499896376758119 -0.45687896679917428 0 0.13417131839294949 -0.46471286167727133 0 0.14361015675036429 -0.45632193245762948 0 0.14241014109566261 -0.44945267638090408 0 0.13499896376758119 -0.45687896679917428 0 0.14361015675036429 -0.45632193245762948 0 0.15854452736843161 -0.45993439922222851 0 0.13417131839294949 -0.46471286167727133 0 0.1438323469852503 -0.46983703136542632 0 0.15854452736843161 -0.45993439922222851 0 0.13417131839294949 -0.46471286167727133 0 0.14361015675036429 -0.45632193245762948 0 0.15854452736843161 -0.45993439922222851 0 0.13417131839294949 -0.46471286167727133 0 0.15854452736843161 -0.45993439922222851 0 0.15712677984954149 -0.44966289468590848 0 0.15052914184907981 -0.45199319993055909 0 0.15854452736843161 -0.45993439922222851 0 0.15052914184907981 -0.45199319993055909 0 0.14361015675036429 -0.45632193245762948 0 0.15854452736843161 -0.45993439922222851 0 0.15330722654173959 -0.47254907798341261 0 0.1438323469852503 -0.46983703136542632 0 0.14731663019965921 -0.47824174855490859 0 0.12582203242347181 -0.47374706938931083 0 0.1093536631954372 -0.5 0 0.15330722654173959 -0.47254907798341261 0 0.14731663019965921 -0.47824174855490859 0 0.1438323469852503 -0.46983703136542632 0 0.14731663019965921 -0.47824174855490859 0 0.1438323469852503 -0.46983703136542632 0 0.12582203242347181 -0.47374706938931083 0 0.13417131839294949 -0.46471286167727133 0 0.1438323469852503 -0.46983703136542632 0 0.12582203242347181 -0.47374706938931083 0 0.14731663019965921 -0.47824174855490859 0 0.12582203242347181 -0.47374706938931083 0 0.14731663019965921 -0.47824174855490859 0 0.168811227975846 -0.48273642772050879 0 0.18344956846806421 -0.5 0 0.14731663019965921 -0.47824174855490859 0 0.168811227975846 -0.48273642772050879 0 0.15330722654173959 -0.47254907798341261 0 0.14731663019965921 -0.47824174855490859 0 0.168811227975846 -0.48273642772050879 0 0.15330722654173959 -0.47254907798341261 0 0.1650270430292515 -0.47285075161447221 0 0.168811227975846 -0.48273642772050879 0 0.16811248144282659 -0.46385250737529932 0 0.15330722654173959 -0.47254907798341261 0 0.1650270430292515 -0.47285075161447221 0 0.16811248144282659 -0.46385250737529932 0 0.1650270430292515 -0.47285075161447221 0 0.1722056372529919 -0.47190935331014949 0 0.1650270430292515 -0.47285075161447221 0 0.168811227975846 -0.48273642772050879 0 0.1722056372529919 -0.47190935331014949 0 0.19030582575203281 -0.48723110688610899 0 0.168811227975846 -0.48273642772050879 0 0.18166125098016661 -0.47392167971855392 0 0.168811227975846 -0.48273642772050879 0 0.1722056372529919 -0.47190935331014949 0 0.18166125098016661 -0.47392167971855392 0 0.1788714335221174 -0.46596312507908921 0 0.1722056372529919 -0.47190935331014949 0 0.18166125098016661 -0.47392167971855392 0 0.1897477064049628 -0.47408588767245219 0 0.1881033502105974 -0.46622589948885412 0 0.18166125098016661 -0.47392167971855392 0 0.19030582575203281 -0.48723110688610899 0 0.1897477064049628 -0.47408588767245219 0 0.18166125098016661 -0.47392167971855392 0 0.19030582575203281 -0.48723110688610899 0 0.168811227975846 -0.48273642772050879 0 0.18344956846806421 -0.5 0 0.19030582575203281 -0.48723110688610899 0 0.168811227975846 -0.48273642772050879 0 0.081764024552871212 -0.48381809061948222 0 0.1093536631954372 -0.5 0 0.054311161249343209 -0.5 0 0.081764024552871212 -0.48381809061948222 0 0.06187357105381909 -0.47914763424148932 0 0.054311161249343209 -0.5 0 0.078401811541976757 -0.46875181186442411 0 0.061332958454827953 -0.46239479691319002 0 0.06187357105381909 -0.47914763424148932 0 0.078401811541976757 -0.46875181186442411 0 0.081764024552871212 -0.48381809061948222 0 0.06187357105381909 -0.47914763424148932 0 0.078401811541976757 -0.46875181186442411 0 0.081764024552871212 -0.48381809061948222 0 0.099914673653226038 -0.46832964930483678 0 0.081764024552871212 -0.48381809061948222 0 0.1093536631954372 -0.5 0 0.10846513504012879 -0.4801915300716596 0 0.12582203242347181 -0.47374706938931083 0 0.1093536631954372 -0.5 0 0.10846513504012879 -0.4801915300716596 0 0.12582203242347181 -0.47374706938931083 0 0.099914673653226038 -0.46832964930483678 0 0.12582203242347181 -0.47374706938931083 0 0.10846513504012879 -0.4801915300716596 0 0.099914673653226038 -0.46832964930483678 0 0.081764024552871212 -0.48381809061948222 0 0.10846513504012879 -0.4801915300716596 0 0.099914673653226038 -0.46832964930483678 0 0.099914673653226038 -0.46832964930483678 0 0.1046994029081529 -0.45309762893714067 0 0.087123829995139498 -0.45006888824312191 0 0.099914673653226038 -0.46832964930483678 0 0.1135421378179324 -0.46240310614794972 0 0.1046994029081529 -0.45309762893714067 0 0.12582203242347181 -0.47374706938931083 0 0.099914673653226038 -0.46832964930483678 0 0.1135421378179324 -0.46240310614794972 0 0.1135421378179324 -0.46240310614794972 0 0.1164753360309702 -0.45312178868506747 0 0.1046994029081529 -0.45309762893714067 0 0.12552163423609239 -0.45531112192497408 0 0.12363145775268571 -0.46456234185325612 0 0.1164753360309702 -0.45312178868506747 0 0.1135421378179324 -0.46240310614794972 0 0.12363145775268571 -0.46456234185325612 0 0.1164753360309702 -0.45312178868506747 0 0.12582203242347181 -0.47374706938931083 0 0.1135421378179324 -0.46240310614794972 0 0.12363145775268571 -0.46456234185325612 0 0.1230401310932962 -0.4442669518182536 0 0.1164753360309702 -0.45312178868506747 0 0.1129147015354512 -0.43774297957305358 0 0.12552163423609239 -0.45531112192497408 0 0.1230401310932962 -0.4442669518182536 0 0.1164753360309702 -0.45312178868506747 0 0.1164753360309702 -0.45312178868506747 0 0.1129147015354512 -0.43774297957305358 0 0.1046994029081529 -0.45309762893714067 0 0.1129147015354512 -0.43774297957305358 0 0.087123829995139498 -0.45006888824312191 0 0.091733101639532869 -0.43223889399855581 0 0.1129147015354512 -0.43774297957305358 0 0.087123829995139498 -0.45006888824312191 0 0.1129147015354512 -0.43774297957305358 0 0.1046994029081529 -0.45309762893714067 0 0.087123829995139498 -0.45006888824312191 0 0.087123829995139498 -0.45006888824312191 0 0.077935438753884853 -0.4388868232431371 0 0.071047492642636711 -0.44957608791627818 0 0.087123829995139498 -0.45006888824312191 0 0.077935438753884853 -0.4388868232431371 0 0.091733101639532869 -0.43223889399855581 0 0.078401811541976757 -0.46875181186442411 0 0.099914673653226038 -0.46832964930483678 0 0.087123829995139498 -0.45006888824312191 0 0.087123829995139498 -0.45006888824312191 0 0.061332958454827953 -0.46239479691319002 0 0.078401811541976757 -0.46875181186442411 0 0.087123829995139498 -0.45006888824312191 0 0.061332958454827953 -0.46239479691319002 0 0.087123829995139498 -0.45006888824312191 0 0.071047492642636711 -0.44957608791627818 0 0.061332958454827953 -0.46239479691319002 0 0.064025580991902586 -0.45333298396580168 0 0.071047492642636711 -0.44957608791627818 0 0.061332958454827953 -0.46239479691319002 0 0.064025580991902586 -0.45333298396580168 0 0.071047492642636711 -0.44957608791627818 0 0.066022234672033456 -0.43378257618550542 0 0.077935438753884853 -0.4388868232431371 0 0.071047492642636711 -0.44957608791627818 0 0.066022234672033456 -0.43378257618550542 0 0.066022234672033456 -0.43378257618550542 0 0.066768669446150217 -0.42219990128412183 0 0.076270820638328338 -0.41294910748815938 0 0.066022234672033456 -0.43378257618550542 0 0.076270820638328338 -0.41294910748815938 0 0.080014077851127782 -0.42772804631722161 0 0.066022234672033456 -0.43378257618550542 0 0.076270820638328338 -0.41294910748815938 0 0.077935438753884853 -0.4388868232431371 0 0.066022234672033456 -0.43378257618550542 0 0.080014077851127782 -0.42772804631722161 0 0.066768669446150217 -0.42219990128412183 0 0.076270820638328338 -0.41294910748815938 0 0.058937780365538449 -0.412480092189978 0 0.066768669446150217 -0.42219990128412183 0 0.076270820638328338 -0.41294910748815938 0 0.076270820638328338 -0.41294910748815938 0 0.089299044876878966 -0.41563596647936779 0 0.080014077851127782 -0.42772804631722161 0 0.076270820638328338 -0.41294910748815938 0 0.089299044876878966 -0.41563596647936779 0 0.087942494696664306 -0.40158618052734468 0 0.076270820638328338 -0.41294910748815938 0 0.087942494696664306 -0.40158618052734468 0 0.089299044876878966 -0.41563596647936779 0 0.1006539648943138 -0.41006117183914492 0 0.087942494696664306 -0.40158618052734468 0 0.089299044876878966 -0.41563596647936779 0 0.087942494696664306 -0.40158618052734468 0 0.089299044876878966 -0.41563596647936779 0 0.080014077851127782 -0.42772804631722161 0 0.091733101639532869 -0.43223889399855581 0 0.077935438753884853 -0.4388868232431371 0 0.080014077851127782 -0.42772804631722161 0 0.091733101639532869 -0.43223889399855581 0 0.089299044876878966 -0.41563596647936779 0 0.091733101639532869 -0.43223889399855581 0 0.1044164216228496 -0.42315407189480803 0 0.1129147015354512 -0.43774297957305358 0 0.091733101639532869 -0.43223889399855581 0 0.1044164216228496 -0.42315407189480803 0 0.13870557307576209 -0.42541707090298397 0 0.1129147015354512 -0.43774297957305358 0 0.1193375066840482 -0.42315812779913509 0 0.13870557307576209 -0.42541707090298397 0 0.1230401310932962 -0.4442669518182536 0 0.1129147015354512 -0.43774297957305358 0 0.1129147015354512 -0.43774297957305358 0 0.1044164216228496 -0.42315407189480803 0 0.1193375066840482 -0.42315812779913509 0 0.1263287535862064 -0.41552425162229017 0 0.124281242463502 -0.40797367401447882 0 0.1159273456852468 -0.41080273124097588 0 0.1263287535862064 -0.41552425162229017 0 0.1193375066840482 -0.42315812779913509 0 0.1159273456852468 -0.41080273124097588 0 0.1044164216228496 -0.42315407189480803 0 0.1193375066840482 -0.42315812779913509 0 0.1159273456852468 -0.41080273124097588 0 0.1159273456852468 -0.41080273124097588 0 0.1006539648943138 -0.41006117183914492 0 0.1056845175899291 -0.39912690905322801 0 0.1044164216228496 -0.42315407189480803 0 0.1159273456852468 -0.41080273124097588 0 0.1006539648943138 -0.41006117183914492 0 0.089299044876878966 -0.41563596647936779 0 0.1044164216228496 -0.42315407189480803 0 0.1006539648943138 -0.41006117183914492 0 0.1090504004496403 -0.38103663552051309 0 0.086944625135727871 -0.39125124862162369 0 0.087942494696664306 -0.40158618052734468 0 0.1006539648943138 -0.41006117183914492 0 0.1056845175899291 -0.39912690905322801 0 0.087942494696664306 -0.40158618052734468 0 0.1056845175899291 -0.39912690905322801 0 0.1090504004496403 -0.38103663552051309 0 0.087942494696664306 -0.40158618052734468 0 0.1090504004496403 -0.38103663552051309 0 0.087942494696664306 -0.40158618052734468 0 0.1159273456852468 -0.41080273124097588 0 0.1056845175899291 -0.39912690905322801 0 0.11836026358356309 -0.39768801098006351 0 0.1056845175899291 -0.39912690905322801 0 0.11836026358356309 -0.39768801098006351 0 0.1090504004496403 -0.38103663552051309 0 0.1298480413541909 -0.39321636365670182 0 0.11836026358356309 -0.39768801098006351 0 0.1240463933514106 -0.3849859221468 0 0.1289053541512519 -0.40137049547715842 0 0.124281242463502 -0.40797367401447882 0 0.11836026358356309 -0.39768801098006351 0 0.124281242463502 -0.40797367401447882 0 0.1159273456852468 -0.41080273124097588 0 0.11836026358356309 -0.39768801098006351 0 0.11836026358356309 -0.39768801098006351 0 0.1240463933514106 -0.3849859221468 0 0.1090504004496403 -0.38103663552051309 0 0.12934745789805871 -0.36127648970483162 0 0.1240463933514106 -0.3849859221468 0 0.1090504004496403 -0.38103663552051309 0 0.1240463933514106 -0.3849859221468 0 0.1090504004496403 -0.38103663552051309 0 0.1090504004496403 -0.38103663552051309 0 0.093928560919589746 -0.37705420641347548 0 0.086944625135727871 -0.39125124862162369 0 0.1090504004496403 -0.38103663552051309 0 0.093928560919589746 -0.37705420641347548 0 0.086944625135727871 -0.39125124862162369 0 0.085355871887418527 -0.37479653622332187 0 0.093928560919589746 -0.37705420641347548 0 0.085355871887418527 -0.37479653622332187 0 0.086944625135727871 -0.39125124862162369 0 0.075609100599868806 -0.3818576615806647 0 0.085355871887418527 -0.37479653622332187 0 0.093928560919589746 -0.37705420641347548 0 0.086944625135727871 -0.39125124862162369 0 0.085355871887418527 -0.37479653622332187 0 0.086944625135727871 -0.39125124862162369 0 0.075609100599868806 -0.3818576615806647 0 0.077915964314114405 -0.39060011523747512 0 0.093928560919589746 -0.37705420641347548 0 0.086944625135727871 -0.39125124862162369 0 0.076270820638328338 -0.41294910748815938 0 0.086944625135727871 -0.39125124862162369 0 0.087942494696664306 -0.40158618052734468 0 0.076270820638328338 -0.41294910748815938 0 0.086944625135727871 -0.39125124862162369 0 0.077915964314114405 -0.39060011523747512 0 0.086944625135727871 -0.39125124862162369 0 0.087942494696664306 -0.40158618052734468 0 0.076270820638328338 -0.41294910748815938 0 0.086944625135727871 -0.39125124862162369 0 0.077915964314114405 -0.39060011523747512 0 0.058937780365538449 -0.412480092189978 0 0.065732077330700009 -0.39152533780250692 0 0.077915964314114405 -0.39060011523747512 0 0.062049790475699917 -0.39983862200235742 0 0.076270820638328338 -0.41294910748815938 0 0.077915964314114405 -0.39060011523747512 0 0.058937780365538449 -0.412480092189978 0 0.077915964314114405 -0.39060011523747512 0 0.062049790475699917 -0.39983862200235742 0 0.058937780365538449 -0.412480092189978 0 0.075609100599868806 -0.3818576615806647 0 0.085355871887418527 -0.37479653622332187 0 0.062010294324964257 -0.36864833531029662 0 0.065732077330700009 -0.39152533780250692 0 0.06581874733711765 -0.38399207251060591 0 0.077915964314114405 -0.39060011523747512 0 0.065732077330700009 -0.39152533780250692 0 0.06581874733711765 -0.38399207251060591 0 0.05714380719586807 -0.39167054145958929 0 0.06581874733711765 -0.38399207251060591 0 0.075609100599868806 -0.3818576615806647 0 0.062010294324964257 -0.36864833531029662 0 0.06581874733711765 -0.38399207251060591 0 0.075609100599868806 -0.3818576615806647 0 0.077915964314114405 -0.39060011523747512 0 0.053214375586651583 -0.38057794005804801 0 0.05714380719586807 -0.39167054145958929 0 0.045833129478285287 -0.39253212827897949 0 0.053214375586651583 -0.38057794005804801 0 0.041118130871362159 -0.38240364203310578 0 0.046926021905011571 -0.36938880868386681 0 0.06581874733711765 -0.38399207251060591 0 0.053214375586651583 -0.38057794005804801 0 0.062010294324964257 -0.36864833531029662 0 0.06581874733711765 -0.38399207251060591 0 0.053214375586651583 -0.38057794005804801 0 0.05714380719586807 -0.39167054145958929 0 0.065732077330700009 -0.39152533780250692 0 0.05714380719586807 -0.39167054145958929 0 0.062049790475699917 -0.39983862200235742 0 0.05714380719586807 -0.39167054145958929 0 0.062049790475699917 -0.39983862200235742 0 0.050583008033106253 -0.40273554160373332 0 0.062049790475699917 -0.39983862200235742 0 0.050583008033106253 -0.40273554160373332 0 0.058937780365538449 -0.412480092189978 0 0.05714380719586807 -0.39167054145958929 0 0.050583008033106253 -0.40273554160373332 0 0.045833129478285287 -0.39253212827897949 0 0.050583008033106253 -0.40273554160373332 0 0.045833129478285287 -0.39253212827897949 0 0.037128528241132643 -0.40299163637139501 0 0.045833129478285287 -0.39253212827897949 0 0.037128528241132643 -0.40299163637139501 0 0.033568008283301767 -0.39103607825456632 0 0.037128528241132643 -0.40299163637139501 0 0.033568008283301767 -0.39103607825456632 0 0.02561593629204208 -0.39998176177647887 0 0.033568008283301767 -0.39103607825456632 0 0.041118130871362159 -0.38240364203310578 0 0.030980956590171551 -0.38177545030772081 0 0.045833129478285287 -0.39253212827897949 0 0.033568008283301767 -0.39103607825456632 0 0.041118130871362159 -0.38240364203310578 0 0.053214375586651583 -0.38057794005804801 0 0.045833129478285287 -0.39253212827897949 0 0.041118130871362159 -0.38240364203310578 0 0.041118130871362159 -0.38240364203310578 0 0.046926021905011571 -0.36938880868386681 0 0.036282547989001823 -0.37360220994629112 0 0.030980956590171551 -0.38177545030772081 0 0.036282547989001823 -0.37360220994629112 0 0.02812919298327066 -0.37177100991921153 0 0.041118130871362159 -0.38240364203310578 0 0.030980956590171551 -0.38177545030772081 0 0.036282547989001823 -0.37360220994629112 0 0.030980956590171551 -0.38177545030772081 0 0.022813545397475699 -0.38158504384921133 0 0.02812919298327066 -0.37177100991921153 0 0.030980956590171551 -0.38177545030772081 0 0.02471414071031398 -0.38929158523359292 0 0.022813545397475699 -0.38158504384921133 0 0.033568008283301767 -0.39103607825456632 0 0.030980956590171551 -0.38177545030772081 0 0.02471414071031398 -0.38929158523359292 0 0.017765937200356269 -0.38821766457213719 0 0.022813545397475699 -0.38158504384921133 0 0.015183816742863881 -0.38031857521349072 0 0.02471414071031398 -0.38929158523359292 0 0.017765937200356269 -0.38821766457213719 0 0.022813545397475699 -0.38158504384921133 0 -0.0016893671389383981 -0.37919974328916961 0 0.015183816742863881 -0.38031857521349072 0 0.0042953364882115088 -0.36977124520528598 0 -0.0084894724356538182 -0.39372600845071221 0 0.015183816742863881 -0.38031857521349072 0 -0.0084894724356538182 -0.39372600845071221 0 0.015183816742863881 -0.38031857521349072 0 0.0089579951430958926 -0.39460938956006331 0 -0.0016893671389383981 -0.37919974328916961 0 -0.0084894724356538182 -0.39372600845071221 0 0.015183816742863881 -0.38031857521349072 0 0.017765937200356269 -0.38821766457213719 0 0.015183816742863881 -0.38031857521349072 0 0.0089579951430958926 -0.39460938956006331 0 -0.001692443151624877 -0.40712221425302447 0 0.0089579951430958926 -0.39460938956006331 0 0.013439672004097351 -0.40511836222957243 0 0.0089579951430958926 -0.39460938956006331 0 0.013439672004097351 -0.40511836222957243 0 0.017160188008031901 -0.39528372900432762 0 0.017765937200356269 -0.38821766457213719 0 0.0089579951430958926 -0.39460938956006331 0 0.017160188008031901 -0.39528372900432762 0 0.013439672004097351 -0.40511836222957243 0 0.017160188008031901 -0.39528372900432762 0 0.02561593629204208 -0.39998176177647887 0 0.02471414071031398 -0.38929158523359292 0 0.017160188008031901 -0.39528372900432762 0 0.02561593629204208 -0.39998176177647887 0 0.02471414071031398 -0.38929158523359292 0 0.017765937200356269 -0.38821766457213719 0 0.017160188008031901 -0.39528372900432762 0 0.033568008283301767 -0.39103607825456632 0 0.02471414071031398 -0.38929158523359292 0 0.02561593629204208 -0.39998176177647887 0 0.037128528241132643 -0.40299163637139501 0 0.02561593629204208 -0.39998176177647887 0 0.026011539552926 -0.41596279576521239 0 0.013439672004097351 -0.40511836222957243 0 0.02561593629204208 -0.39998176177647887 0 0.026011539552926 -0.41596279576521239 0 0.013439672004097351 -0.40511836222957243 0 0.026011539552926 -0.41596279576521239 0 0.0058201528149410958 -0.41984333082949382 0 -0.001692443151624877 -0.40712221425302447 0 0.013439672004097351 -0.40511836222957243 0 0.0058201528149410958 -0.41984333082949382 0 -0.006595032483859389 -0.43425466644025262 0 0.0058201528149410958 -0.41984333082949382 0 0.01451469174445418 -0.43648440320309262 0 0.026011539552926 -0.41596279576521239 0 0.0058201528149410958 -0.41984333082949382 0 0.01451469174445418 -0.43648440320309262 0 0.026011539552926 -0.41596279576521239 0 0.01451469174445418 -0.43648440320309262 0 0.039959596416962478 -0.43436006914248088 0 0.026011539552926 -0.41596279576521239 0 0.039959596416962478 -0.43436006914248088 0 0.041766778262437271 -0.41628462165274288 0 0.037128528241132643 -0.40299163637139501 0 0.026011539552926 -0.41596279576521239 0 0.041766778262437271 -0.41628462165274288 0 0.050583008033106253 -0.40273554160373332 0 0.037128528241132643 -0.40299163637139501 0 0.041766778262437271 -0.41628462165274288 0 0.050583008033106253 -0.40273554160373332 0 0.041766778262437271 -0.41628462165274288 0 0.058937780365538449 -0.412480092189978 0 0.039959596416962478 -0.43436006914248088 0 0.041766778262437271 -0.41628462165274288 0 0.058937780365538449 -0.412480092189978 0 0.039959596416962478 -0.43436006914248088 0 0.058937780365538449 -0.412480092189978 0 0.066768669446150217 -0.42219990128412183 0 0.039959596416962478 -0.43436006914248088 0 0.058937780365538449 -0.412480092189978 0 0.066022234672033456 -0.43378257618550542 0 0.066768669446150217 -0.42219990128412183 0 0.039959596416962478 -0.43436006914248088 0 0.066022234672033456 -0.43378257618550542 0 0.039959596416962478 -0.43436006914248088 0 0.05104088880770967 -0.44310986354300741 0 -0.016974955428761911 -0.49999999999999267 0 0.035276476773150309 -0.49628298227754442 0 0.054311161249343209 -0.5 0 0.064025580991902586 -0.45333298396580168 0 0.066022234672033456 -0.43378257618550542 0 0.05577364870573906 -0.45461604488285179 0 0.066022234672033456 -0.43378257618550542 0 0.05577364870573906 -0.45461604488285179 0 0.066022234672033456 -0.43378257618550542 0 0.05104088880770967 -0.44310986354300741 0 0.05577364870573906 -0.45461604488285179 0 0.05104088880770967 -0.44310986354300741 0 0.05577364870573906 -0.45461604488285179 0 0.042408075436103698 -0.44968076396119139 0 0.05577364870573906 -0.45461604488285179 0 0.061332958454827953 -0.46239479691319002 0 0.045525062739444677 -0.4754495135801981 0 0.064025580991902586 -0.45333298396580168 0 0.05577364870573906 -0.45461604488285179 0 0.061332958454827953 -0.46239479691319002 0 0.05577364870573906 -0.45461604488285179 0 0.045525062739444677 -0.4754495135801981 0 0.05577364870573906 -0.45461604488285179 0 0.03907252625714408 -0.46127323524104979 0 0.045525062739444677 -0.4754495135801981 0 0.03907252625714408 -0.46127323524104979 0 0.042408075436103698 -0.44968076396119139 0 0.020981412468386518 -0.4562400460949837 0 0.05577364870573906 -0.45461604488285179 0 0.03907252625714408 -0.46127323524104979 0 0.042408075436103698 -0.44968076396119139 0 0.039959596416962478 -0.43436006914248088 0 0.042408075436103698 -0.44968076396119139 0 0.020981412468386518 -0.4562400460949837 0 0.039959596416962478 -0.43436006914248088 0 0.05104088880770967 -0.44310986354300741 0 0.042408075436103698 -0.44968076396119139 0 0.01451469174445418 -0.43648440320309262 0 0.039959596416962478 -0.43436006914248088 0 0.020981412468386518 -0.4562400460949837 0 0.039959596416962478 -0.43436006914248088 0 0.020981412468386518 -0.4562400460949837 0 -0.006595032483859389 -0.43425466644025262 0 -0.0038098490265959001 -0.45446473785298619 0 0.01451469174445418 -0.43648440320309262 0 -0.0038098490265959001 -0.45446473785298619 0 0.01451469174445418 -0.43648440320309262 0 0.020981412468386518 -0.4562400460949837 0 0.020981412468386518 -0.4562400460949837 0 0.0020032285198105168 -0.47812002304748658 0 -0.0038098490265959001 -0.45446473785298619 0 0.020981412468386518 -0.4562400460949837 0 0.0020032285198105168 -0.47812002304748658 0 0.03907252625714408 -0.46127323524104979 0 0.020981412468386518 -0.4562400460949837 0 0.028466832550132101 -0.47303446570534269 0 0.028466832550132101 -0.47303446570534269 0 0.0020032285198105168 -0.47812002304748658 0 0.035276476773150309 -0.49628298227754442 0 -0.016974955428761911 -0.49999999999999267 0 0.0020032285198105168 -0.47812002304748658 0 0.035276476773150309 -0.49628298227754442 0 0.020981412468386518 -0.4562400460949837 0 0.028466832550132101 -0.47303446570534269 0 0.0020032285198105168 -0.47812002304748658 0 0.035276476773150309 -0.49628298227754442 0 0.045525062739444677 -0.4754495135801981 0 0.035276476773150309 -0.49628298227754442 0 0.045525062739444677 -0.4754495135801981 0 0.054311161249343209 -0.5 0 0.028466832550132101 -0.47303446570534269 0 0.035276476773150309 -0.49628298227754442 0 0.045525062739444677 -0.4754495135801981 0 0.03907252625714408 -0.46127323524104979 0 0.028466832550132101 -0.47303446570534269 0 0.045525062739444677 -0.4754495135801981 0 0.061332958454827953 -0.46239479691319002 0 0.045525062739444677 -0.4754495135801981 0 0.06187357105381909 -0.47914763424148932 0 0.045525062739444677 -0.4754495135801981 0 0.06187357105381909 -0.47914763424148932 0 0.054311161249343209 -0.5 0 0.090229702806057493 -0.28429166497265129 0 0.080592051686841859 -0.3070926385933278 0 0.063969334051748747 -0.29164412132645429 0 0.090229702806057493 -0.28429166497265129 0 0.080592051686841859 -0.3070926385933278 0 0.096794366368503165 -0.3110857913956675 0 0.080592051686841859 -0.3070926385933278 0 0.064970457884638552 -0.31121424059424641 0 0.063969334051748747 -0.29164412132645429 0 0.090229702806057493 -0.28429166497265129 0 0.063969334051748747 -0.29164412132645429 0 0.068524438314553043 -0.2658240300184303 0 0.068524438314553043 -0.2658240300184303 0 0.088409152317876091 -0.26753684917050069 0 0.072206511680236646 -0.24937510136449451 0 0.068524438314553043 -0.2658240300184303 0 0.046819173823047497 -0.24735639506421059 0 0.072206511680236646 -0.24937510136449451 0 0.089010826828800765 -0.25069415804268758 0 0.088409152317876091 -0.26753684917050069 0 0.072206511680236646 -0.24937510136449451 0 0.090229702806057493 -0.28429166497265129 0 0.068524438314553043 -0.2658240300184303 0 0.090229702806057493 -0.28429166497265129 0 0.068524438314553043 -0.2658240300184303 0 0.088409152317876091 -0.26753684917050069 0 0.090229702806057493 -0.28429166497265129 0 0.088409152317876091 -0.26753684917050069 0 0.1038872951488882 -0.27420508365549029 0 0.089010826828800765 -0.25069415804268758 0 0.1038872951488882 -0.27420508365549029 0 0.11138665200370231 -0.25153653965536849 0 0.089010826828800765 -0.25069415804268758 0 0.088409152317876091 -0.26753684917050069 0 0.1038872951488882 -0.27420508365549029 0 0.089010826828800765 -0.25069415804268758 0 0.1038872951488882 -0.27420508365549029 0 0.1289710773948595 -0.27879709444731843 0 0.1038872951488882 -0.27420508365549029 0 0.11138665200370231 -0.25153653965536849 0 0.1289710773948595 -0.27879709444731843 0 0.1038872951488882 -0.27420508365549029 0 0.1187637634689758 -0.29771600926829322 0 0.1038872951488882 -0.27420508365549029 0 0.1119349672975619 -0.30275929992687239 0 0.1187637634689758 -0.29771600926829322 0 0.1038872951488882 -0.27420508365549029 0 0.1187637634689758 -0.29771600926829322 0 0.090229702806057493 -0.28429166497265129 0 0.1119349672975619 -0.30275929992687239 0 0.090229702806057493 -0.28429166497265129 0 0.1038872951488882 -0.27420508365549029 0 0.1119349672975619 -0.30275929992687239 0 0.090229702806057493 -0.28429166497265129 0 0.096794366368503165 -0.3110857913956675 0 0.1119349672975619 -0.30275929992687239 0 0.096794366368503165 -0.3110857913956675 0 0.1119349672975619 -0.30275929992687239 0 0.1083042420512106 -0.32362370145040248 0 0.13364023178906509 -0.32122693488109499 0 0.1119349672975619 -0.30275929992687239 0 0.13364023178906509 -0.32122693488109499 0 0.1119349672975619 -0.30275929992687239 0 0.1187637634689758 -0.29771600926829322 0 0.1119349672975619 -0.30275929992687239 0 0.1221238192537293 -0.32689191011031199 0 0.1083042420512106 -0.32362370145040248 0 0.13364023178906509 -0.32122693488109499 0 0.1119349672975619 -0.30275929992687239 0 0.1221238192537293 -0.32689191011031199 0 0.1256076556112169 -0.33336104972237751 0 0.1221238192537293 -0.32689191011031199 0 0.12195172527453731 -0.33659142586752189 0 0.1221238192537293 -0.32689191011031199 0 0.12195172527453731 -0.33659142586752189 0 0.11532627014699121 -0.33775723682283593 0 0.12600167772950349 -0.33771173106650532 0 0.1256076556112169 -0.33336104972237751 0 0.12195172527453731 -0.33659142586752189 0 0.1225705617438942 -0.34261761099399812 0 0.11532627014699121 -0.33775723682283593 0 0.1154913407638469 -0.34668643850099901 0 0.12600167772950349 -0.33771173106650532 0 0.1225705617438942 -0.34261761099399812 0 0.12195172527453731 -0.33659142586752189 0 0.1225705617438942 -0.34261761099399812 0 0.12195172527453731 -0.33659142586752189 0 0.11532627014699121 -0.33775723682283593 0 0.1221238192537293 -0.32689191011031199 0 0.11532627014699121 -0.33775723682283593 0 0.1083042420512106 -0.32362370145040248 0 0.1033568542532933 -0.33713910817451043 0 0.098751535568209828 -0.32608649062571898 0 0.1083042420512106 -0.32362370145040248 0 0.11532627014699121 -0.33775723682283593 0 0.1033568542532933 -0.33713910817451043 0 0.1083042420512106 -0.32362370145040248 0 0.11532627014699121 -0.33775723682283593 0 0.1033568542532933 -0.33713910817451043 0 0.1085652670367937 -0.3473005057831734 0 0.1033568542532933 -0.33713910817451043 0 0.1085652670367937 -0.3473005057831734 0 0.098515953220003685 -0.34604758229631633 0 0.1033568542532933 -0.33713910817451043 0 0.091987445246959593 -0.33237269455956292 0 0.093013458820591421 -0.3409530749684706 0 0.1033568542532933 -0.33713910817451043 0 0.098515953220003685 -0.34604758229631633 0 0.093013458820591421 -0.3409530749684706 0 0.1033568542532933 -0.33713910817451043 0 0.098751535568209828 -0.32608649062571898 0 0.091987445246959593 -0.33237269455956292 0 0.096794366368503165 -0.3110857913956675 0 0.098751535568209828 -0.32608649062571898 0 0.1083042420512106 -0.32362370145040248 0 0.096794366368503165 -0.3110857913956675 0 0.098751535568209828 -0.32608649062571898 0 0.087263364195597687 -0.32260726085343749 0 0.12934745789805871 -0.36127648970483162 0 0.1090504004496403 -0.38103663552051309 0 0.10471060266437179 -0.35513632135867268 0 0.12934745789805871 -0.36127648970483162 0 0.1090504004496403 -0.38103663552051309 0 0.12934745789805871 -0.36127648970483162 0 0.12123743704460439 -0.3515616361745782 0 0.10471060266437179 -0.35513632135867268 0 0.12934745789805871 -0.36127648970483162 0 0.10471060266437179 -0.35513632135867268 0 0.12123743704460439 -0.3515616361745782 0 0.1154913407638469 -0.34668643850099901 0 0.10471060266437179 -0.35513632135867268 0 0.1225705617438942 -0.34261761099399812 0 0.12123743704460439 -0.3515616361745782 0 0.1154913407638469 -0.34668643850099901 0 0.1255377283462269 -0.34668240120303773 0 0.1225705617438942 -0.34261761099399812 0 0.12123743704460439 -0.3515616361745782 0 0.1255377283462269 -0.34668240120303773 0 0.12720976250858129 -0.35065639189542902 0 0.12123743704460439 -0.3515616361745782 0 0.1154913407638469 -0.34668643850099901 0 0.1085652670367937 -0.3473005057831734 0 0.10471060266437179 -0.35513632135867268 0 0.11532627014699121 -0.33775723682283593 0 0.1154913407638469 -0.34668643850099901 0 0.1085652670367937 -0.3473005057831734 0 0.10471060266437179 -0.35513632135867268 0 0.082933583324968141 -0.34970890119675502 0 0.098515953220003685 -0.34604758229631633 0 0.10471060266437179 -0.35513632135867268 0 0.082933583324968141 -0.34970890119675502 0 0.1085652670367937 -0.3473005057831734 0 0.098515953220003685 -0.34604758229631633 0 0.10471060266437179 -0.35513632135867268 0 0.1085652670367937 -0.3473005057831734 0 0.10471060266437179 -0.35513632135867268 0 0.093928560919589746 -0.37705420641347548 0 0.10471060266437179 -0.35513632135867268 0 0.1090504004496403 -0.38103663552051309 0 0.093928560919589746 -0.37705420641347548 0 0.10471060266437179 -0.35513632135867268 0 0.093928560919589746 -0.37705420641347548 0 0.10471060266437179 -0.35513632135867268 0 0.091550371972330749 -0.36153768089851618 0 0.085355871887418527 -0.37479653622332187 0 0.082933583324968141 -0.34970890119675502 0 0.072669741069305474 -0.3598214625453669 0 0.085355871887418527 -0.37479653622332187 0 0.091550371972330749 -0.36153768089851618 0 0.082933583324968141 -0.34970890119675502 0 0.085355871887418527 -0.37479653622332187 0 0.082933583324968141 -0.34970890119675502 0 0.093928560919589746 -0.37705420641347548 0 0.085355871887418527 -0.37479653622332187 0 0.091550371972330749 -0.36153768089851618 0 0.10471060266437179 -0.35513632135867268 0 0.091550371972330749 -0.36153768089851618 0 0.082933583324968141 -0.34970890119675502 0 0.098515953220003685 -0.34604758229631633 0 0.082933583324968141 -0.34970890119675502 0 0.093013458820591421 -0.3409530749684706 0 0.082933583324968141 -0.34970890119675502 0 0.070081439750118171 -0.34650580062202341 0 0.081620551435575381 -0.33610983404596978 0 0.070081439750118171 -0.34650580062202341 0 0.072669741069305474 -0.3598214625453669 0 0.051558953746491963 -0.35287293903015648 0 0.082933583324968141 -0.34970890119675502 0 0.070081439750118171 -0.34650580062202341 0 0.082933583324968141 -0.34970890119675502 0 0.070081439750118171 -0.34650580062202341 0 0.072669741069305474 -0.3598214625453669 0 0.085355871887418527 -0.37479653622332187 0 0.062010294324964257 -0.36864833531029662 0 0.085355871887418527 -0.37479653622332187 0 0.072669741069305474 -0.3598214625453669 0 0.062010294324964257 -0.36864833531029662 0 0.080592051686841859 -0.3070926385933278 0 0.096794366368503165 -0.3110857913956675 0 0.087263364195597687 -0.32260726085343749 0 0.087263364195597687 -0.32260726085343749 0 0.081620551435575381 -0.33610983404596978 0 0.073605017254525132 -0.32249551030387391 0 0.080592051686841859 -0.3070926385933278 0 0.087263364195597687 -0.32260726085343749 0 0.073605017254525132 -0.32249551030387391 0 0.098751535568209828 -0.32608649062571898 0 0.087263364195597687 -0.32260726085343749 0 0.091987445246959593 -0.33237269455956292 0 0.087263364195597687 -0.32260726085343749 0 0.091987445246959593 -0.33237269455956292 0 0.081620551435575381 -0.33610983404596978 0 0.091987445246959593 -0.33237269455956292 0 0.093013458820591421 -0.3409530749684706 0 0.081620551435575381 -0.33610983404596978 0 0.082933583324968141 -0.34970890119675502 0 0.093013458820591421 -0.3409530749684706 0 0.081620551435575381 -0.33610983404596978 0 0.082933583324968141 -0.34970890119675502 0 0.081620551435575381 -0.33610983404596978 0 0.081620551435575381 -0.33610983404596978 0 0.068229857953526832 -0.33370541808700971 0 0.073605017254525132 -0.32249551030387391 0 0.070081439750118171 -0.34650580062202341 0 0.081620551435575381 -0.33610983404596978 0 0.068229857953526832 -0.33370541808700971 0 0.070081439750118171 -0.34650580062202341 0 0.068229857953526832 -0.33370541808700971 0 0.057660569920693662 -0.33936559734894151 0 0.064970457884638552 -0.31121424059424641 0 0.073605017254525132 -0.32249551030387391 0 0.057499664008777561 -0.32417425178710912 0 0.068229857953526832 -0.33370541808700971 0 0.073605017254525132 -0.32249551030387391 0 0.057499664008777561 -0.32417425178710912 0 0.080592051686841859 -0.3070926385933278 0 0.064970457884638552 -0.31121424059424641 0 0.073605017254525132 -0.32249551030387391 0 0.057499664008777561 -0.32417425178710912 0 0.036635581933414318 -0.32143192065133519 0 0.051782839459243862 -0.30545337585322979 0 0.064970457884638552 -0.31121424059424641 0 0.057499664008777561 -0.32417425178710912 0 0.051782839459243862 -0.30545337585322979 0 0.057660569920693662 -0.33936559734894151 0 0.043760742935618019 -0.3367055169259634 0 0.051558953746491963 -0.35287293903015648 0 0.068229857953526832 -0.33370541808700971 0 0.057499664008777561 -0.32417425178710912 0 0.057660569920693662 -0.33936559734894151 0 0.057499664008777561 -0.32417425178710912 0 0.057660569920693662 -0.33936559734894151 0 0.043760742935618019 -0.3367055169259634 0 0.043760742935618019 -0.3367055169259634 0 0.036635581933414318 -0.32143192065133519 0 0.02585282312279169 -0.33333428044277569 0 0.043760742935618019 -0.3367055169259634 0 0.027807420346607149 -0.34938167068112058 0 0.02585282312279169 -0.33333428044277569 0 0.057499664008777561 -0.32417425178710912 0 0.043760742935618019 -0.3367055169259634 0 0.036635581933414318 -0.32143192065133519 0 0.046926021905011571 -0.36938880868386681 0 0.062010294324964257 -0.36864833531029662 0 0.051558953746491963 -0.35287293903015648 0 0.072669741069305474 -0.3598214625453669 0 0.062010294324964257 -0.36864833531029662 0 0.051558953746491963 -0.35287293903015648 0 0.053214375586651583 -0.38057794005804801 0 0.046926021905011571 -0.36938880868386681 0 0.062010294324964257 -0.36864833531029662 0 0.070081439750118171 -0.34650580062202341 0 0.057660569920693662 -0.33936559734894151 0 0.051558953746491963 -0.35287293903015648 0 0.043760742935618019 -0.3367055169259634 0 0.051558953746491963 -0.35287293903015648 0 0.027807420346607149 -0.34938167068112058 0 0.051558953746491963 -0.35287293903015648 0 0.034258437595193189 -0.36267213878755039 0 0.027807420346607149 -0.34938167068112058 0 0.046926021905011571 -0.36938880868386681 0 0.051558953746491963 -0.35287293903015648 0 0.034258437595193189 -0.36267213878755039 0 0.034258437595193189 -0.36267213878755039 0 0.036282547989001823 -0.37360220994629112 0 0.02812919298327066 -0.37177100991921153 0 0.046926021905011571 -0.36938880868386681 0 0.034258437595193189 -0.36267213878755039 0 0.036282547989001823 -0.37360220994629112 0 0.022813545397475699 -0.38158504384921133 0 0.015183816742863881 -0.38031857521349072 0 0.01456968129707501 -0.35950987101812881 0 0.022813545397475699 -0.38158504384921133 0 0.02812919298327066 -0.37177100991921153 0 0.01456968129707501 -0.35950987101812881 0 0.022813545397475699 -0.38158504384921133 0 0.01456968129707501 -0.35950987101812881 0 0.034258437595193189 -0.36267213878755039 0 0.02812919298327066 -0.37177100991921153 0 0.01456968129707501 -0.35950987101812881 0 0.027807420346607149 -0.34938167068112058 0 0.01456968129707501 -0.35950987101812881 0 0.0063258171966743184 -0.33743469818704608 0 0.034258437595193189 -0.36267213878755039 0 0.027807420346607149 -0.34938167068112058 0 0.01456968129707501 -0.35950987101812881 0 0.01456968129707501 -0.35950987101812881 0 0.0063258171966743184 -0.33743469818704608 0 -0.0074049784124641266 -0.35600761405568238 0 0.01456968129707501 -0.35950987101812881 0 0.0063258171966743184 -0.33743469818704608 0 0.015183816742863881 -0.38031857521349072 0 0.01456968129707501 -0.35950987101812881 0 0.0042953364882115088 -0.36977124520528598 0 -0.0074049784124641266 -0.35600761405568238 0 0.01456968129707501 -0.35950987101812881 0 0.0042953364882115088 -0.36977124520528598 0 0.036635581933414318 -0.32143192065133519 0 0.02585282312279169 -0.33333428044277569 0 0.01473455320164462 -0.32171759576841352 0 0.036635581933414318 -0.32143192065133519 0 0.01473455320164462 -0.32171759576841352 0 0.028429474247214651 -0.30609468134930901 0 0.027807420346607149 -0.34938167068112058 0 0.02585282312279169 -0.33333428044277569 0 0.0063258171966743184 -0.33743469818704608 0 0.02585282312279169 -0.33333428044277569 0 0.0063258171966743184 -0.33743469818704608 0 0.01473455320164462 -0.32171759576841352 0 -0.001918046903726611 -0.31535952535596368 0 0.01473455320164462 -0.32171759576841352 0 0.0050761090351854731 -0.30673598684538772 0 -0.001918046903726611 -0.31535952535596368 0 0.0063258171966743184 -0.33743469818704608 0 0.01473455320164462 -0.32171759576841352 0 -0.001918046903726611 -0.31535952535596368 0 0.0063258171966743184 -0.33743469818704608 0 -0.0050347760176988662 -0.30701364131170411 0 0.0050761090351854731 -0.30673598684538772 0 -0.001918046903726611 -0.31535952535596368 0 0.0050761090351854731 -0.30673598684538772 0 -0.0050347760176988662 -0.30701364131170411 0 0.0050761090351854731 -0.30673598684538772 0 0.0018400144392212521 -0.2951070344519468 0 0.0050761090351854731 -0.30673598684538772 0 0.0018400144392212521 -0.2951070344519468 0 0.015207262407401809 -0.29424464521318322 0 0.0050761090351854731 -0.30673598684538772 0 0.015207262407401809 -0.29424464521318322 0 0.015207262407401809 -0.29424464521318322 0 0.02533841577961847 -0.28175330358097878 0 0.0057535085207450288 -0.27864841266387669 0 0.0018400144392212521 -0.2951070344519468 0 0.015207262407401809 -0.29424464521318322 0 0.0057535085207450288 -0.27864841266387669 0 0.015207262407401809 -0.29424464521318322 0 0.02533841577961847 -0.28175330358097878 0 0.015207262407401809 -0.29424464521318322 0 0.027293422355372111 -0.29331277951269319 0 0.02533841577961847 -0.28175330358097878 0 0.027293422355372111 -0.29331277951269319 0 0.02533841577961847 -0.28175330358097878 0 0.040198536987253529 -0.29115848790730198 0 0.01473455320164462 -0.32171759576841352 0 0.0050761090351854731 -0.30673598684538772 0 0.028429474247214651 -0.30609468134930901 0 0.0050761090351854731 -0.30673598684538772 0 0.015207262407401809 -0.29424464521318322 0 0.028429474247214651 -0.30609468134930901 0 0.0050761090351854731 -0.30673598684538772 0 0.028429474247214651 -0.30609468134930901 0 0.015207262407401809 -0.29424464521318322 0 0.027293422355372111 -0.29331277951269319 0 0.028429474247214651 -0.30609468134930901 0 0.028429474247214651 -0.30609468134930901 0 0.051782839459243862 -0.30545337585322979 0 0.036635581933414318 -0.32143192065133519 0 0.028429474247214651 -0.30609468134930901 0 0.051782839459243862 -0.30545337585322979 0 0.028429474247214651 -0.30609468134930901 0 0.040198536987253529 -0.29115848790730198 0 0.051782839459243862 -0.30545337585322979 0 0.02533841577961847 -0.28175330358097878 0 0.040198536987253529 -0.29115848790730198 0 0.036663416718409517 -0.27200777087421379 0 0.027293422355372111 -0.29331277951269319 0 0.028429474247214651 -0.30609468134930901 0 0.040198536987253529 -0.29115848790730198 0 0.063969334051748747 -0.29164412132645429 0 0.040198536987253529 -0.29115848790730198 0 0.051782839459243862 -0.30545337585322979 0 0.063969334051748747 -0.29164412132645429 0 0.040198536987253529 -0.29115848790730198 0 0.051670068616526163 -0.27610762466896283 0 0.064970457884638552 -0.31121424059424641 0 0.063969334051748747 -0.29164412132645429 0 0.051782839459243862 -0.30545337585322979 0 0.068524438314553043 -0.2658240300184303 0 0.047656394770283862 -0.263534575247241 0 0.046819173823047497 -0.24735639506421059 0 0.068524438314553043 -0.2658240300184303 0 0.046819173823047497 -0.24735639506421059 0 0.068524438314553043 -0.2658240300184303 0 0.047656394770283862 -0.263534575247241 0 0.051670068616526163 -0.27610762466896283 0 0.063969334051748747 -0.29164412132645429 0 0.068524438314553043 -0.2658240300184303 0 0.051670068616526163 -0.27610762466896283 0 0.047656394770283862 -0.263534575247241 0 0.051670068616526163 -0.27610762466896283 0 0.036663416718409517 -0.27200777087421379 0 0.040198536987253529 -0.29115848790730198 0 0.051670068616526163 -0.27610762466896283 0 0.036663416718409517 -0.27200777087421379 0 0.047656394770283862 -0.263534575247241 0 0.034604876378881912 -0.2563770556103887 0 0.046819173823047497 -0.24735639506421059 0 0.047656394770283862 -0.263534575247241 0 0.036663416718409517 -0.27200777087421379 0 0.034604876378881912 -0.2563770556103887 0 0.034604876378881912 -0.2563770556103887 0 0.046819173823047497 -0.24735639506421059 0 0.034604876378881912 -0.2563770556103887 0 0.020410949067615539 -0.265243394983257 0 0.019088302724299861 -0.24792116984127219 0 0.036663416718409517 -0.27200777087421379 0 0.034604876378881912 -0.2563770556103887 0 0.020410949067615539 -0.265243394983257 0 0.02533841577961847 -0.28175330358097878 0 0.020410949067615539 -0.265243394983257 0 0.0057535085207450288 -0.27864841266387669 0 0.02533841577961847 -0.28175330358097878 0 0.036663416718409517 -0.27200777087421379 0 0.020410949067615539 -0.265243394983257 0 0.020410949067615539 -0.265243394983257 0 0.0057535085207450288 -0.27864841266387669 0 0.0042978062406885866 -0.25604185687832598 0 0.020410949067615539 -0.265243394983257 0 0.0042978062406885866 -0.25604185687832598 0 0.019088302724299861 -0.24792116984127219 0 0.0042978062406885866 -0.25604185687832598 0 0.0091434983530706317 -0.23480583460362181 0 0.019088302724299861 -0.24792116984127219 0 -0.0070889730310455673 -0.2378941384005995 0 0.0042978062406885866 -0.25604185687832598 0 0.0091434983530706317 -0.23480583460362181 0 -0.0092100623105680676 -0.22134742028979409 0 0.0091434983530706317 -0.23480583460362181 0 0.012445844385049851 -0.21811030591977129 0 0.029632509104049271 -0.23273335049199029 0 0.012445844385049851 -0.21811030591977129 0 0.02634605194807858 -0.20877844385235289 0 0.0091434983530706317 -0.23480583460362181 0 0.029632509104049271 -0.23273335049199029 0 0.012445844385049851 -0.21811030591977129 0 0.029632509104049271 -0.23273335049199029 0 0.012445844385049851 -0.21811030591977129 0 0.0091434983530706317 -0.23480583460362181 0 0.029632509104049271 -0.23273335049199029 0 0.019088302724299861 -0.24792116984127219 0 0.034604876378881912 -0.2563770556103887 0 0.029632509104049271 -0.23273335049199029 0 0.019088302724299861 -0.24792116984127219 0 0.0054063217488721296 -0.19947706674011861 0 0.033160612649085569 -0.18850845047428461 0 0.0043213010084911883 -0.18076402780552539 0 -0.0047408203339536197 -0.20348726134755721 0 0.0054063217488721296 -0.19947706674011861 0 0.0054063217488721296 -0.19947706674011861 0 0.012445844385049851 -0.21811030591977129 0 0.02634605194807858 -0.20877844385235289 0 -0.0047408203339536197 -0.20348726134755721 0 0.0054063217488721296 -0.19947706674011861 0 0.012445844385049851 -0.21811030591977129 0 -0.0047408203339536197 -0.20348726134755721 0 0.012445844385049851 -0.21811030591977129 0 0.0054063217488721296 -0.19947706674011861 0 0.02634605194807858 -0.20877844385235289 0 0.0054063217488721296 -0.19947706674011861 0 0.02634605194807858 -0.20877844385235289 0 0.033160612649085569 -0.18850845047428461 0 0.0054063217488721296 -0.19947706674011861 0 0.033160612649085569 -0.18850845047428461 0 0.02634605194807858 -0.20877844385235289 0 0.038838071357844083 -0.20257254299828731 0 0.033160612649085569 -0.18850845047428461 0 0.038838071357844083 -0.20257254299828731 0 0.033160612649085569 -0.18850845047428461 0 0.051835653817413868 -0.19938437210419091 0 0.02634605194807858 -0.20877844385235289 0 0.038838071357844083 -0.20257254299828731 0 0.047285782147280617 -0.21807982096459699 0 0.038838071357844083 -0.20257254299828731 0 0.047285782147280617 -0.21807982096459699 0 0.051835653817413868 -0.19938437210419091 0 0.02634605194807858 -0.20877844385235289 0 0.047285782147280617 -0.21807982096459699 0 0.051835653817413868 -0.19938437210419091 0 0.062566890852665036 -0.21254131730576281 0 0.069100739205208081 -0.1982259633931131 0 0.047285782147280617 -0.21807982096459699 0 0.051835653817413868 -0.19938437210419091 0 0.062566890852665036 -0.21254131730576281 0 0.051835653817413868 -0.19938437210419091 0 0.069100739205208081 -0.1982259633931131 0 0.060914903549296233 -0.17753983420844369 0 0.033160612649085569 -0.18850845047428461 0 0.051835653817413868 -0.19938437210419091 0 0.060914903549296233 -0.17753983420844369 0 0.034604876378881912 -0.2563770556103887 0 0.029632509104049271 -0.23273335049199029 0 0.046819173823047497 -0.24735639506421059 0 0.029632509104049271 -0.23273335049199029 0 0.046819173823047497 -0.24735639506421059 0 0.029632509104049271 -0.23273335049199029 0 0.046819173823047497 -0.24735639506421059 0 0.046555904442735552 -0.23271019365435211 0 0.029632509104049271 -0.23273335049199029 0 0.02634605194807858 -0.20877844385235289 0 0.047285782147280617 -0.21807982096459699 0 0.029632509104049271 -0.23273335049199029 0 0.047285782147280617 -0.21807982096459699 0 0.046555904442735552 -0.23271019365435211 0 0.047285782147280617 -0.21807982096459699 0 0.046555904442735552 -0.23271019365435211 0 0.062139475793011649 -0.22621521781778089 0 0.047285782147280617 -0.21807982096459699 0 0.062139475793011649 -0.22621521781778089 0 0.062566890852665036 -0.21254131730576281 0 0.046555904442735552 -0.23271019365435211 0 0.062139475793011649 -0.22621521781778089 0 0.060476766165882302 -0.237269813747051 0 0.046819173823047497 -0.24735639506421059 0 0.060476766165882302 -0.237269813747051 0 0.072206511680236646 -0.24937510136449451 0 0.046819173823047497 -0.24735639506421059 0 0.046555904442735552 -0.23271019365435211 0 0.060476766165882302 -0.237269813747051 0 0.046819173823047497 -0.24735639506421059 0 0.060476766165882302 -0.237269813747051 0 0.060476766165882302 -0.237269813747051 0 0.072206511680236646 -0.24937510136449451 0 0.074134358508712611 -0.22718323242988539 0 0.089010826828800765 -0.25069415804268758 0 0.074134358508712611 -0.22718323242988539 0 0.095790201297381056 -0.23495535069051449 0 0.089010826828800765 -0.25069415804268758 0 0.074134358508712611 -0.22718323242988539 0 0.089010826828800765 -0.25069415804268758 0 0.072206511680236646 -0.24937510136449451 0 0.074134358508712611 -0.22718323242988539 0 0.074134358508712611 -0.22718323242988539 0 0.089386386330100376 -0.2159191080505351 0 0.095790201297381056 -0.23495535069051449 0 0.074134358508712611 -0.22718323242988539 0 0.089386386330100376 -0.2159191080505351 0 0.074134358508712611 -0.22718323242988539 0 0.068360604533166211 -0.21936794558078659 0 0.075422483294938836 -0.21282920034250169 0 0.062139475793011649 -0.22621521781778089 0 0.060476766165882302 -0.237269813747051 0 0.074134358508712611 -0.22718323242988539 0 0.060476766165882302 -0.237269813747051 0 0.074134358508712611 -0.22718323242988539 0 0.062139475793011649 -0.22621521781778089 0 0.068360604533166211 -0.21936794558078659 0 0.062566890852665036 -0.21254131730576281 0 0.062139475793011649 -0.22621521781778089 0 0.074134358508712611 -0.22718323242988539 0 0.068360604533166211 -0.21936794558078659 0 0.075422483294938836 -0.21282920034250169 0 0.069100739205208081 -0.1982259633931131 0 0.085632039747897848 -0.19978797020265529 0 0.068360604533166211 -0.21936794558078659 0 0.062566890852665036 -0.21254131730576281 0 0.075422483294938836 -0.21282920034250169 0 0.062566890852665036 -0.21254131730576281 0 0.075422483294938836 -0.21282920034250169 0 0.069100739205208081 -0.1982259633931131 0 0.085632039747897848 -0.19978797020265529 0 0.096653804300502591 -0.18561310080689261 0 0.080194136250482329 -0.18554761731074151 0 0.069100739205208081 -0.1982259633931131 0 0.085632039747897848 -0.19978797020265529 0 0.080194136250482329 -0.18554761731074151 0 0.075422483294938836 -0.21282920034250169 0 0.085632039747897848 -0.19978797020265529 0 0.089386386330100376 -0.2159191080505351 0 0.085632039747897848 -0.19978797020265529 0 0.089386386330100376 -0.2159191080505351 0 0.10463841415148931 -0.2046549836711864 0 0.074134358508712611 -0.22718323242988539 0 0.075422483294938836 -0.21282920034250169 0 0.089386386330100376 -0.2159191080505351 0 0.089386386330100376 -0.2159191080505351 0 0.10463841415148931 -0.2046549836711864 0 0.11503278281558919 -0.22944371527409599 0 0.089386386330100376 -0.2159191080505351 0 0.10463841415148931 -0.2046549836711864 0 0.10463841415148931 -0.2046549836711864 0 0.096653804300502591 -0.18561310080689261 0 0.10463841415148931 -0.2046549836711864 0 0.1097988574948934 -0.1855614737946327 0 0.096653804300502591 -0.18561310080689261 0 0.085632039747897848 -0.19978797020265529 0 0.10463841415148931 -0.2046549836711864 0 0.096653804300502591 -0.18561310080689261 0 0.10463841415148931 -0.2046549836711864 0 0.1240650922949041 -0.1903077426716514 0 0.10463841415148931 -0.2046549836711864 0 0.1240650922949041 -0.1903077426716514 0 0.1097988574948934 -0.1855614737946327 0 0.10463841415148931 -0.2046549836711864 0 0.1240650922949041 -0.1903077426716514 0 0.12197074895823359 -0.20618823416424939 0 0.10463841415148931 -0.2046549836711864 0 0.12197074895823359 -0.20618823416424939 0 0.11503278281558919 -0.22944371527409599 0 0.10463841415148931 -0.2046549836711864 0 0.11503278281558919 -0.22944371527409599 0 0.12197074895823359 -0.20618823416424939 0 0.11503278281558919 -0.22944371527409599 0 0.13619576704629541 -0.21506333232652769 0 0.11138665200370231 -0.25153653965536849 0 0.11503278281558919 -0.22944371527409599 0 0.13889870601213769 -0.23544629165886791 0 0.11138665200370231 -0.25153653965536849 0 0.11503278281558919 -0.22944371527409599 0 0.095790201297381056 -0.23495535069051449 0 0.089010826828800765 -0.25069415804268758 0 0.11138665200370231 -0.25153653965536849 0 0.095790201297381056 -0.23495535069051449 0 0.089386386330100376 -0.2159191080505351 0 0.11503278281558919 -0.22944371527409599 0 0.095790201297381056 -0.23495535069051449 0 0.098183075939060491 -0.14730745995853531 0 0.1079788842103509 -0.1336058426007993 0 0.1158926676280749 -0.14758902184862799 0 0.098183075939060491 -0.14730745995853531 0 0.1158926676280749 -0.14758902184862799 0 0.1075763258376761 -0.15909903752803881 0 0.098183075939060491 -0.14730745995853531 0 0.1158926676280749 -0.14758902184862799 0 0.1079788842103509 -0.1336058426007993 0 0.090490049414767862 -0.13371495497220209 0 0.095937370803684544 -0.1188793877721471 0 0.098183075939060491 -0.14730745995853531 0 0.1079788842103509 -0.1336058426007993 0 0.090490049414767862 -0.13371495497220209 0 0.1079788842103509 -0.1336058426007993 0 0.1158926676280749 -0.14758902184862799 0 0.12516154090661261 -0.13918595052185989 0 0.1079788842103509 -0.1336058426007993 0 0.1214077230922139 -0.1272514429328285 0 0.12516154090661261 -0.13918595052185989 0 0.1079788842103509 -0.1336058426007993 0 0.1214077230922139 -0.1272514429328285 0 0.1097477956398958 -0.1200464627554028 0 0.1075763258376761 -0.15909903752803881 0 0.12648345722584539 -0.15162685711347479 0 0.1158926676280749 -0.14758902184862799 0 0.1075763258376761 -0.15909903752803881 0 0.12648345722584539 -0.15162685711347479 0 0.1158926676280749 -0.14758902184862799 0 0.12648345722584539 -0.15162685711347479 0 0.12516154090661261 -0.13918595052185989 0 0.1197432912072455 -0.17219283295505211 0 0.1075763258376761 -0.15909903752803881 0 0.12648345722584539 -0.15162685711347479 0 0.1197432912072455 -0.17219283295505211 0 0.1023907783060289 -0.17246964978831891 0 0.1075763258376761 -0.15909903752803881 0 0.1240650922949041 -0.1903077426716514 0 0.1197432912072455 -0.17219283295505211 0 0.1097988574948934 -0.1855614737946327 0 0.1197432912072455 -0.17219283295505211 0 0.1097988574948934 -0.1855614737946327 0 0.1023907783060289 -0.17246964978831891 0 0.1023907783060289 -0.17246964978831891 0 0.096653804300502591 -0.18561310080689261 0 0.088669194449506814 -0.16657121794260249 0 0.1097988574948934 -0.1855614737946327 0 0.1023907783060289 -0.17246964978831891 0 0.096653804300502591 -0.18561310080689261 0 0.1075763258376761 -0.15909903752803881 0 0.088669194449506814 -0.16657121794260249 0 0.098183075939060491 -0.14730745995853531 0 0.1075763258376761 -0.15909903752803881 0 0.088669194449506814 -0.16657121794260249 0 0.1023907783060289 -0.17246964978831891 0 0.1075763258376761 -0.15909903752803881 0 0.088669194449506814 -0.16657121794260249 0 0.088669194449506814 -0.16657121794260249 0 0.071360519706614833 -0.15944099064822351 0 0.08047348425004619 -0.14702589806843591 0 0.088669194449506814 -0.16657121794260249 0 0.08047348425004619 -0.14702589806843591 0 0.096653804300502591 -0.18561310080689261 0 0.088669194449506814 -0.16657121794260249 0 0.096653804300502591 -0.18561310080689261 0 0.088669194449506814 -0.16657121794260249 0 0.080194136250482329 -0.18554761731074151 0 0.088669194449506814 -0.16657121794260249 0 0.060914903549296233 -0.17753983420844369 0 0.069100739205208081 -0.1982259633931131 0 0.080194136250482329 -0.18554761731074151 0 0.060914903549296233 -0.17753983420844369 0 0.088669194449506814 -0.16657121794260249 0 0.080194136250482329 -0.18554761731074151 0 0.060914903549296233 -0.17753983420844369 0 0.071360519706614833 -0.15944099064822351 0 0.055384496577607557 -0.146627012373413 0 0.060914903549296233 -0.17753983420844369 0 0.088669194449506814 -0.16657121794260249 0 0.071360519706614833 -0.15944099064822351 0 0.060914903549296233 -0.17753983420844369 0 0.071360519706614833 -0.15944099064822351 0 0.08047348425004619 -0.14702589806843591 0 0.055384496577607557 -0.146627012373413 0 0.08047348425004619 -0.14702589806843591 0 0.055384496577607557 -0.146627012373413 0 0.098183075939060491 -0.14730745995853531 0 0.08047348425004619 -0.14702589806843591 0 0.090490049414767862 -0.13371495497220209 0 0.098183075939060491 -0.14730745995853531 0 0.088669194449506814 -0.16657121794260249 0 0.08047348425004619 -0.14702589806843591 0 0.098183075939060491 -0.14730745995853531 0 0.08047348425004619 -0.14702589806843591 0 0.08047348425004619 -0.14702589806843591 0 0.090490049414767862 -0.13371495497220209 0 0.069877431870694728 -0.12175618646109369 0 0.08047348425004619 -0.14702589806843591 0 0.069877431870694728 -0.12175618646109369 0 0.08047348425004619 -0.14702589806843591 0 0.055384496577607557 -0.146627012373413 0 0.069877431870694728 -0.12175618646109369 0 0.055384496577607557 -0.146627012373413 0 0.052775955601674807 -0.1189505803413651 0 0.069877431870694728 -0.12175618646109369 0 0.055384496577607557 -0.146627012373413 0 0.037245906674788803 -0.1256493203747045 0 0.052775955601674807 -0.1189505803413651 0 0.055384496577607557 -0.146627012373413 0 0.030295508905169091 -0.14622812667838331 0 0.055384496577607557 -0.146627012373413 0 0.039701644592328333 -0.16492721894545001 0 0.030295508905169091 -0.14622812667838331 0 0.055384496577607557 -0.146627012373413 0 0.037245906674788803 -0.1256493203747045 0 0.030295508905169091 -0.14622812667838331 0 0.033160612649085569 -0.18850845047428461 0 0.060914903549296233 -0.17753983420844369 0 0.055384496577607557 -0.146627012373413 0 0.060914903549296233 -0.17753983420844369 0 0.039701644592328333 -0.16492721894545001 0 0.033160612649085569 -0.18850845047428461 0 0.060914903549296233 -0.17753983420844369 0 0.039701644592328333 -0.16492721894545001 0 0.033160612649085569 -0.18850845047428461 0 0.01875270128048321 -0.16573267099272529 0 0.0043213010084911883 -0.18076402780552539 0 0.033160612649085569 -0.18850845047428461 0 0.039701644592328333 -0.16492721894545001 0 0.01875270128048321 -0.16573267099272529 0 0.039701644592328333 -0.16492721894545001 0 0.01875270128048321 -0.16573267099272529 0 0.030295508905169091 -0.14622812667838331 0 -0.0034896240684032698 -0.16246351977294571 0 0.01875270128048321 -0.16573267099272529 0 0.0097293230729151442 -0.1488010493196375 0 -0.0034896240684032698 -0.16246351977294571 0 0.01875270128048321 -0.16573267099272529 0 0.0043213010084911883 -0.18076402780552539 0 0.037245906674788803 -0.1256493203747045 0 0.01647747525968847 -0.1292038461347739 0 0.030295508905169091 -0.14622812667838331 0 0.01647747525968847 -0.1292038461347739 0 0.030295508905169091 -0.14622812667838331 0 0.0097293230729151442 -0.1488010493196375 0 0.01875270128048321 -0.16573267099272529 0 0.030295508905169091 -0.14622812667838331 0 0.0097293230729151442 -0.1488010493196375 0 -0.01025876308806551 -0.14096282677464769 0 0.01647747525968847 -0.1292038461347739 0 0.0097293230729151442 -0.1488010493196375 0 -0.01025876308806551 -0.14096282677464769 0 0.01647747525968847 -0.1292038461347739 0 -0.0052067057407001278 -0.116175216957147 0 -0.01025876308806551 -0.14096282677464769 0 0.01647747525968847 -0.1292038461347739 0 -0.0052067057407001278 -0.116175216957147 0 0.01647747525968847 -0.1292038461347739 0 0.011979648396715691 -0.1136902642506871 0 0.037245906674788803 -0.1256493203747045 0 0.01647747525968847 -0.1292038461347739 0 0.024899747296543349 -0.11198134043397071 0 0.01647747525968847 -0.1292038461347739 0 0.011979648396715691 -0.1136902642506871 0 0.024899747296543349 -0.11198134043397071 0 0.024899747296543349 -0.11198134043397071 0 0.02906675421138084 -0.094698876763651602 0 0.01174807677133107 -0.097400653476856863 0 0.011979648396715691 -0.1136902642506871 0 0.024899747296543349 -0.11198134043397071 0 0.01174807677133107 -0.097400653476856863 0 -0.0052067057407001278 -0.116175216957147 0 0.011979648396715691 -0.1136902642506871 0 0.01174807677133107 -0.097400653476856863 0 0.01174807677133107 -0.097400653476856863 0 0.0053928023734826566 -0.085441489173526258 0 0.01964553919815016 -0.078143804470843986 0 -0.0029566945447687429 -0.072831205206993432 0 0.0053928023734826566 -0.085441489173526258 0 0.01964553919815016 -0.078143804470843986 0 -0.0068657119307818596 -0.093390293539410779 0 0.01174807677133107 -0.097400653476856863 0 0.0053928023734826566 -0.085441489173526258 0 -0.0029566945447687429 -0.072831205206993432 0 0.0086689741281675628 -0.056491614867985797 0 0.01922530636022883 -0.06044882001437496 0 -0.0029566945447687429 -0.072831205206993432 0 0.01964553919815016 -0.078143804470843986 0 0.01922530636022883 -0.06044882001437496 0 -0.0029566945447687429 -0.072831205206993432 0 0.01922530636022883 -0.06044882001437496 0 0.01964553919815016 -0.078143804470843986 0 0.035406382281476863 -0.080861310458224686 0 0.033005618881386388 -0.065049120585045084 0 0.01964553919815016 -0.078143804470843986 0 0.02754300162496923 -0.058886955464831171 0 0.01964553919815016 -0.078143804470843986 0 0.01922530636022883 -0.06044882001437496 0 0.02754300162496923 -0.058886955464831171 0 0.01964553919815016 -0.078143804470843986 0 0.033005618881386388 -0.065049120585045084 0 0.02754300162496923 -0.058886955464831171 0 0.02906675421138084 -0.094698876763651602 0 0.01174807677133107 -0.097400653476856863 0 0.01964553919815016 -0.078143804470843986 0 0.02906675421138084 -0.094698876763651602 0 0.01964553919815016 -0.078143804470843986 0 0.035406382281476863 -0.080861310458224686 0 0.01174807677133107 -0.097400653476856863 0 0.01964553919815016 -0.078143804470843986 0 0.02906675421138084 -0.094698876763651602 0 0.035406382281476863 -0.080861310458224686 0 0.044097903343997602 -0.090356231989888791 0 0.035406382281476863 -0.080861310458224686 0 0.044097903343997602 -0.090356231989888791 0 0.050431983019033677 -0.075382228786609551 0 0.050431983019033677 -0.075382228786609551 0 0.041582586546724649 -0.05427798271946728 0 0.033005618881386388 -0.065049120585045084 0 0.050431983019033677 -0.075382228786609551 0 0.041582586546724649 -0.05427798271946728 0 0.035406382281476863 -0.080861310458224686 0 0.033005618881386388 -0.065049120585045084 0 0.050431983019033677 -0.075382228786609551 0 0.050431983019033677 -0.075382228786609551 0 0.058776797242166882 -0.054900765513776213 0 0.070843791095245606 -0.066885292185902001 0 0.050431983019033677 -0.075382228786609551 0 0.066091677198437421 -0.081046572420055141 0 0.070843791095245606 -0.066885292185902001 0 0.050431983019033677 -0.075382228786609551 0 0.059281379491341053 -0.09648647485375253 0 0.044097903343997602 -0.090356231989888791 0 0.050431983019033677 -0.075382228786609551 0 0.059281379491341053 -0.09648647485375253 0 0.050431983019033677 -0.075382228786609551 0 0.059281379491341053 -0.09648647485375253 0 0.066091677198437421 -0.081046572420055141 0 0.059281379491341053 -0.09648647485375253 0 0.052775955601674807 -0.1189505803413651 0 0.042090563393942168 -0.1042339076438616 0 0.059281379491341053 -0.09648647485375253 0 0.042090563393942168 -0.1042339076438616 0 0.044097903343997602 -0.090356231989888791 0 0.059281379491341053 -0.09648647485375253 0 0.042090563393942168 -0.1042339076438616 0 0.059281379491341053 -0.09648647485375253 0 0.052775955601674807 -0.1189505803413651 0 0.069877431870694728 -0.12175618646109369 0 0.037245906674788803 -0.1256493203747045 0 0.052775955601674807 -0.1189505803413651 0 0.042090563393942168 -0.1042339076438616 0 0.037245906674788803 -0.1256493203747045 0 0.024899747296543349 -0.11198134043397071 0 0.042090563393942168 -0.1042339076438616 0 0.024899747296543349 -0.11198134043397071 0 0.02906675421138084 -0.094698876763651602 0 0.042090563393942168 -0.1042339076438616 0 0.024899747296543349 -0.11198134043397071 0 0.042090563393942168 -0.1042339076438616 0 0.02906675421138084 -0.094698876763651602 0 0.044097903343997602 -0.090356231989888791 0 0.042090563393942168 -0.1042339076438616 0 0.02562639929764892 -1.2320488383444491e-05 0 0.01517635202222526 -0.021355241195703711 0 0.02562639929764892 -1.2320488383444491e-05 0 0.0277581247181393 -0.014285835898420991 0 0.01517635202222526 -0.021355241195703711 0 0.0063072361300760427 0.0010464569281274649 0 0.02562639929764892 -1.2320488383444491e-05 0 0.01517635202222526 -0.021355241195703711 0 0.02562639929764892 -1.2320488383444491e-05 0 0.0277581247181393 -0.014285835898420991 0 0.038868686891518761 -0.0050753579726880577 0 0.0063072361300760427 0.0010464569281274649 0 0.01517635202222526 -0.021355241195703711 0 0.0063072361300760427 0.0010464569281274649 0 0.00097603369742981839 -0.011650801599665221 0 0.01517635202222526 -0.021355241195703711 0 0.00097603369742981839 -0.011650801599665221 0 0.01517635202222526 -0.021355241195703711 0 0.004370854148992769 -0.02253930739916116 0 -0.0050316350510105816 -0.027959140738199901 0 0.004370854148992769 -0.02253930739916116 0 0.01002297252293188 -0.031880377315124629 0 0.017908334067425018 -0.028255707690959218 0 0.01002297252293188 -0.031880377315124629 0 0.01517635202222526 -0.021355241195703711 0 0.004370854148992769 -0.02253930739916116 0 0.01002297252293188 -0.031880377315124629 0 0.01517635202222526 -0.021355241195703711 0 0.017908334067425018 -0.028255707690959218 0 0.01002297252293188 -0.031880377315124629 0 0.01517635202222526 -0.021355241195703711 0 0.01002297252293188 -0.031880377315124629 0 0.017908334067425018 -0.028255707690959218 0 0.02859854027304921 -0.023341733171091641 0 0.01517635202222526 -0.021355241195703711 0 0.017908334067425018 -0.028255707690959218 0 0.0277581247181393 -0.014285835898420991 0 0.01517635202222526 -0.021355241195703711 0 0.017908334067425018 -0.028255707690959218 0 0.0277581247181393 -0.014285835898420991 0 0.017908334067425018 -0.028255707690959218 0 0.02859854027304921 -0.023341733171091641 0 0.017908334067425018 -0.028255707690959218 0 0.02859854027304921 -0.023341733171091641 0 0.026574579599734711 -0.033927154362062263 0 0.017908334067425018 -0.028255707690959218 0 0.026574579599734711 -0.033927154362062263 0 0.02421529844011296 -0.044185898892974702 0 0.017908334067425018 -0.028255707690959218 0 0.02421529844011296 -0.044185898892974702 0 0.017908334067425018 -0.028255707690959218 0 0.02421529844011296 -0.044185898892974702 0 0.014895771643967151 -0.039378870463837541 0 0.02859854027304921 -0.023341733171091641 0 0.026574579599734711 -0.033927154362062263 0 0.035440464051787163 -0.039630106458817912 0 0.026574579599734711 -0.033927154362062263 0 0.02421529844011296 -0.044185898892974702 0 0.035440464051787163 -0.039630106458817912 0 0.02421529844011296 -0.044185898892974702 0 0.014895771643967151 -0.039378870463837541 0 0.013938425734584481 -0.048612289878906367 0 -0.0090579422027809251 -0.040651314654816272 0 0.01002297252293188 -0.031880377315124629 0 0.01002297252293188 -0.031880377315124629 0 0.0063373720384529361 -0.03940775751024856 0 0.014895771643967151 -0.039378870463837541 0 0.017908334067425018 -0.028255707690959218 0 0.01002297252293188 -0.031880377315124629 0 0.014895771643967151 -0.039378870463837541 0 -0.0090579422027809251 -0.040651314654816272 0 0.01002297252293188 -0.031880377315124629 0 0.0063373720384529361 -0.03940775751024856 0 0.01002297252293188 -0.031880377315124629 0 0.0063373720384529361 -0.03940775751024856 0 0.0063373720384529361 -0.03940775751024856 0 0.0099581290337267866 -0.043832288655623983 0 0.0046609467179025846 -0.047930236769503483 0 -0.0090579422027809251 -0.040651314654816272 0 0.0063373720384529361 -0.03940775751024856 0 0.0046609467179025846 -0.047930236769503483 0 0.0099581290337267866 -0.043832288655623983 0 0.013938425734584481 -0.048612289878906367 0 0.0046609467179025846 -0.047930236769503483 0 0.014895771643967151 -0.039378870463837541 0 0.0099581290337267866 -0.043832288655623983 0 0.013938425734584481 -0.048612289878906367 0 0.0063373720384529361 -0.03940775751024856 0 0.014895771643967151 -0.039378870463837541 0 0.0099581290337267866 -0.043832288655623983 0 0.013938425734584481 -0.048612289878906367 0 0.0086689741281675628 -0.056491614867985797 0 0.0191587331831897 -0.054040775029057297 0 -0.0020128726821314639 -0.055086362309079352 0 -0.0029566945447687429 -0.072831205206993432 0 0.0086689741281675628 -0.056491614867985797 0 0.013938425734584481 -0.048612289878906367 0 0.0046609467179025846 -0.047930236769503483 0 0.0086689741281675628 -0.056491614867985797 0 -0.0020128726821314639 -0.055086362309079352 0 0.0046609467179025846 -0.047930236769503483 0 0.0086689741281675628 -0.056491614867985797 0 0.02421529844011296 -0.044185898892974702 0 0.02754300162496923 -0.058886955464831171 0 0.035440464051787163 -0.039630106458817912 0 0.0086689741281675628 -0.056491614867985797 0 0.01922530636022883 -0.06044882001437496 0 0.0191587331831897 -0.054040775029057297 0 0.01922530636022883 -0.06044882001437496 0 0.0191587331831897 -0.054040775029057297 0 0.02754300162496923 -0.058886955464831171 0 0.02421529844011296 -0.044185898892974702 0 0.013938425734584481 -0.048612289878906367 0 0.0191587331831897 -0.054040775029057297 0 0.02421529844011296 -0.044185898892974702 0 0.0191587331831897 -0.054040775029057297 0 0.02754300162496923 -0.058886955464831171 0 0.02754300162496923 -0.058886955464831171 0 0.035440464051787163 -0.039630106458817912 0 0.02754300162496923 -0.058886955464831171 0 0.041582586546724649 -0.05427798271946728 0 0.035440464051787163 -0.039630106458817912 0 0.033005618881386388 -0.065049120585045084 0 0.041582586546724649 -0.05427798271946728 0 0.033005618881386388 -0.065049120585045084 0 0.02754300162496923 -0.058886955464831171 0 0.041582586546724649 -0.05427798271946728 0 0.041582586546724649 -0.05427798271946728 0 0.035440464051787163 -0.039630106458817912 0 0.041582586546724649 -0.05427798271946728 0 0.058776797242166882 -0.054900765513776213 0 0.054021341209073398 -0.038657130855267348 0 0.050431983019033677 -0.075382228786609551 0 0.041582586546724649 -0.05427798271946728 0 0.058776797242166882 -0.054900765513776213 0 0.041582586546724649 -0.05427798271946728 0 0.054021341209073398 -0.038657130855267348 0 0.052425200835273252 -0.038303631825328463 0 0.058776797242166882 -0.054900765513776213 0 0.054021341209073398 -0.038657130855267348 0 0.069056758814476524 -0.041987041949231377 0 0.041582586546724649 -0.05427798271946728 0 0.054021341209073398 -0.038657130855267348 0 0.054021341209073398 -0.038657130855267348 0 0.069056758814476524 -0.041987041949231377 0 0.054021341209073398 -0.038657130855267348 0 0.049907197754822719 -0.028862304498782961 0 0.06338832584988971 -0.026893872919862099 0 0.054021341209073398 -0.038657130855267348 0 0.06338832584988971 -0.026893872919862099 0 0.069056758814476524 -0.041987041949231377 0 0.054021341209073398 -0.038657130855267348 0 0.06338832584988971 -0.026893872919862099 0 0.054021341209073398 -0.038657130855267348 0 0.052425200835273252 -0.038303631825328463 0 0.049907197754822719 -0.028862304498782961 0 0.054021341209073398 -0.038657130855267348 0 0.052425200835273252 -0.038303631825328463 0 0.041582586546724649 -0.05427798271946728 0 0.052425200835273252 -0.038303631825328463 0 0.035440464051787163 -0.039630106458817912 0 0.052425200835273252 -0.038303631825328463 0 0.035440464051787163 -0.039630106458817912 0 0.049907197754822719 -0.028862304498782961 0 0.02859854027304921 -0.023341733171091641 0 0.035440464051787163 -0.039630106458817912 0 0.0277581247181393 -0.014285835898420991 0 0.02859854027304921 -0.023341733171091641 0 0.045261821250879228 -0.01568211121736621 0 0.035440464051787163 -0.039630106458817912 0 0.045261821250879228 -0.01568211121736621 0 0.049907197754822719 -0.028862304498782961 0 0.02859854027304921 -0.023341733171091641 0 0.035440464051787163 -0.039630106458817912 0 0.045261821250879228 -0.01568211121736621 0 0.035440464051787163 -0.039630106458817912 0 0.045261821250879228 -0.01568211121736621 0 0.02859854027304921 -0.023341733171091641 0 0.045261821250879228 -0.01568211121736621 0 0.048906033332033118 -0.014006973716055981 0 0.059938503501462487 -0.0089356704819559332 0 0.06338832584988971 -0.026893872919862099 0 0.048906033332033118 -0.014006973716055981 0 0.06338832584988971 -0.026893872919862099 0 0.049907197754822719 -0.028862304498782961 0 0.048906033332033118 -0.014006973716055981 0 0.06338832584988971 -0.026893872919862099 0 0.045261821250879228 -0.01568211121736621 0 0.049907197754822719 -0.028862304498782961 0 0.048906033332033118 -0.014006973716055981 0 0.053854106895414901 0.0052689662719634734 0 0.046739467123305213 -0.01207908002686031 0 0.048906033332033118 -0.014006973716055981 0 0.059938503501462487 -0.0089356704819559332 0 0.05340040121362831 -0.0069186139906779083 0 0.053854106895414901 0.0052689662719634734 0 0.05340040121362831 -0.0069186139906779083 0 0.046739467123305213 -0.01207908002686031 0 0.048906033332033118 -0.014006973716055981 0 0.059938503501462487 -0.0089356704819559332 0 0.045261821250879228 -0.01568211121736621 0 0.048906033332033118 -0.014006973716055981 0 0.045261821250879228 -0.01568211121736621 0 0.048906033332033118 -0.014006973716055981 0 0.046739467123305213 -0.01207908002686031 0 0.048906033332033118 -0.014006973716055981 0 0.046739467123305213 -0.01207908002686031 0 0.048906033332033118 -0.014006973716055981 0 0.05340040121362831 -0.0069186139906779083 0 0.046739467123305213 -0.01207908002686031 0 0.059938503501462487 -0.0089356704819559332 0 0.05340040121362831 -0.0069186139906779083 0 0.062537180315139301 -0.00087497464723947094 0 0.053854106895414901 0.0052689662719634734 0 0.05340040121362831 -0.0069186139906779083 0 0.062537180315139301 -0.00087497464723947094 0 0.0277581247181393 -0.014285835898420991 0 0.045261821250879228 -0.01568211121736621 0 0.038868686891518761 -0.0050753579726880577 0 0.053854106895414901 0.0052689662719634734 0 0.046739467123305213 -0.01207908002686031 0 0.038868686891518761 -0.0050753579726880577 0 0.045261821250879228 -0.01568211121736621 0 0.046739467123305213 -0.01207908002686031 0 0.038868686891518761 -0.0050753579726880577 0 0.046739467123305213 -0.01207908002686031 0 0.038868686891518761 -0.0050753579726880577 0 0.045261821250879228 -0.01568211121736621 0 0.046739467123305213 -0.01207908002686031 0 0.091233984485157626 0.0080752956512665369 0 0.07668904460941621 -0.01019054826479532 0 0.091233984485157626 0.0080752956512665369 0 0.07668904460941621 -0.01019054826479532 0 0.095135399056661851 -0.0127780196836872 0 0.059938503501462487 -0.0089356704819559332 0 0.07668904460941621 -0.01019054826479532 0 0.06338832584988971 -0.026893872919862099 0 0.059938503501462487 -0.0089356704819559332 0 0.07668904460941621 -0.01019054826479532 0 0.062537180315139301 -0.00087497464723947094 0 0.07668904460941621 -0.01019054826479532 0 0.06338832584988971 -0.026893872919862099 0 0.07668904460941621 -0.01019054826479532 0 0.06338832584988971 -0.026893872919862099 0 0.08595666993920581 -0.028986472186173722 0 0.07668904460941621 -0.01019054826479532 0 0.08595666993920581 -0.028986472186173722 0 0.095135399056661851 -0.0127780196836872 0 0.07668904460941621 -0.01019054826479532 0 0.08595666993920581 -0.028986472186173722 0 0.08595666993920581 -0.028986472186173722 0 0.08409217641987965 -0.045316953043195461 0 0.095224295268994327 -0.047782396107552749 0 0.08595666993920581 -0.028986472186173722 0 0.095224295268994327 -0.047782396107552749 0 0.08409217641987965 -0.045316953043195461 0 0.095224295268994327 -0.047782396107552749 0 0.06338832584988971 -0.026893872919862099 0 0.08409217641987965 -0.045316953043195461 0 0.06338832584988971 -0.026893872919862099 0 0.08595666993920581 -0.028986472186173722 0 0.08409217641987965 -0.045316953043195461 0 0.06338832584988971 -0.026893872919862099 0 0.08409217641987965 -0.045316953043195461 0 0.069056758814476524 -0.041987041949231377 0 0.08409217641987965 -0.045316953043195461 0 0.069056758814476524 -0.041987041949231377 0 0.08409217641987965 -0.045316953043195461 0 0.069056758814476524 -0.041987041949231377 0 0.07399762847918126 -0.054691883624321383 0 0.07399762847918126 -0.054691883624321383 0 0.070843791095245606 -0.066885292185902001 0 0.087218618824137589 -0.064369365429502182 0 0.058776797242166882 -0.054900765513776213 0 0.069056758814476524 -0.041987041949231377 0 0.07399762847918126 -0.054691883624321383 0 0.058776797242166882 -0.054900765513776213 0 0.07399762847918126 -0.054691883624321383 0 0.070843791095245606 -0.066885292185902001 0 0.08409217641987965 -0.045316953043195461 0 0.1017607227067117 -0.061039103027072827 0 0.087218618824137589 -0.064369365429502182 0 0.08409217641987965 -0.045316953043195461 0 0.1017607227067117 -0.061039103027072827 0 0.08409217641987965 -0.045316953043195461 0 0.095224295268994327 -0.047782396107552749 0 0.1017607227067117 -0.061039103027072827 0 0.08409217641987965 -0.045316953043195461 0 0.07399762847918126 -0.054691883624321383 0 0.087218618824137589 -0.064369365429502182 0 0.095224295268994327 -0.047782396107552749 0 0.113738591756239 -0.051882778477223862 0 0.095224295268994327 -0.047782396107552749 0 0.1017607227067117 -0.061039103027072827 0 0.113738591756239 -0.051882778477223862 0 0.095224295268994327 -0.047782396107552749 0 0.1017607227067117 -0.061039103027072827 0 0.1017607227067117 -0.061039103027072827 0 0.113738591756239 -0.051882778477223862 0 0.11569042147877311 -0.071064455382657737 0 0.121261631739911 -0.060895536486907278 0 0.113738591756239 -0.051882778477223862 0 0.11569042147877311 -0.071064455382657737 0 0.113738591756239 -0.051882778477223862 0 0.11569042147877311 -0.071064455382657737 0 0.121261631739911 -0.060895536486907278 0 0.113738591756239 -0.051882778477223862 0 0.12725382202701541 -0.054876011947504043 0 0.113738591756239 -0.051882778477223862 0 0.12725382202701541 -0.054876011947504043 0 0.113738591756239 -0.051882778477223862 0 0.1248546967960284 -0.033262193371979831 0 0.12725382202701541 -0.054876011947504043 0 0.113738591756239 -0.051882778477223862 0 0.1110853692911227 -0.025808139129038701 0 0.113738591756239 -0.051882778477223862 0 0.1248546967960284 -0.033262193371979831 0 0.1110853692911227 -0.025808139129038701 0 0.08595666993920581 -0.028986472186173722 0 0.095224295268994327 -0.047782396107552749 0 0.1110853692911227 -0.025808139129038701 0 0.095224295268994327 -0.047782396107552749 0 0.113738591756239 -0.051882778477223862 0 0.1110853692911227 -0.025808139129038701 0 0.08595666993920581 -0.028986472186173722 0 0.1110853692911227 -0.025808139129038701 0 0.095135399056661851 -0.0127780196836872 0 0.1248546967960284 -0.033262193371979831 0 0.1110853692911227 -0.025808139129038701 0 0.1315013502334835 -0.023035835163488401 0 0.1110853692911227 -0.025808139129038701 0 0.1248305403347179 -0.0089408629604058251 0 0.1315013502334835 -0.023035835163488401 0 0.10843214682600651 0.00026650021914649552 0 0.1110853692911227 -0.025808139129038701 0 0.1248305403347179 -0.0089408629604058251 0 0.12290637425548311 0.0038199371557853272 0 0.10843214682600651 0.00026650021914649552 0 0.1248305403347179 -0.0089408629604058251 0 0.10843214682600651 0.00026650021914649552 0 0.1110853692911227 -0.025808139129038701 0 0.10843214682600651 0.00026650021914649552 0 0.1110853692911227 -0.025808139129038701 0 0.095135399056661851 -0.0127780196836872 0 0.091233984485157626 0.0080752956512665369 0 0.10843214682600651 0.00026650021914649552 0 0.095135399056661851 -0.0127780196836872 0 0.081939084562323544 -0.1052574662983066 0 0.099042754477169273 -0.10070674689447739 0 0.095937370803684544 -0.1188793877721471 0 0.081939084562323544 -0.1052574662983066 0 0.083809555188129353 -0.085432293853956481 0 0.099042754477169273 -0.10070674689447739 0 0.081939084562323544 -0.1052574662983066 0 0.069877431870694728 -0.12175618646109369 0 0.095937370803684544 -0.1188793877721471 0 0.090490049414767862 -0.13371495497220209 0 0.069877431870694728 -0.12175618646109369 0 0.095937370803684544 -0.1188793877721471 0 0.059281379491341053 -0.09648647485375253 0 0.081939084562323544 -0.1052574662983066 0 0.069877431870694728 -0.12175618646109369 0 0.059281379491341053 -0.09648647485375253 0 0.069877431870694728 -0.12175618646109369 0 0.059281379491341053 -0.09648647485375253 0 0.081939084562323544 -0.1052574662983066 0 0.083809555188129353 -0.085432293853956481 0 0.059281379491341053 -0.09648647485375253 0 0.066091677198437421 -0.081046572420055141 0 0.083809555188129353 -0.085432293853956481 0 0.059281379491341053 -0.09648647485375253 0 0.083809555188129353 -0.085432293853956481 0 0.066091677198437421 -0.081046572420055141 0 0.070843791095245606 -0.066885292185902001 0 0.083809555188129353 -0.085432293853956481 0 0.070843791095245606 -0.066885292185902001 0 0.087218618824137589 -0.064369365429502182 0 0.083809555188129353 -0.085432293853956481 0 0.087218618824137589 -0.064369365429502182 0 0.083809555188129353 -0.085432293853956481 0 0.10833773088491749 -0.074378112854159906 0 0.083809555188129353 -0.085432293853956481 0 0.1023043216511985 -0.088636709169808078 0 0.10833773088491749 -0.074378112854159906 0 0.083809555188129353 -0.085432293853956481 0 0.1023043216511985 -0.088636709169808078 0 0.099042754477169273 -0.10070674689447739 0 0.083809555188129353 -0.085432293853956481 0 0.10833773088491749 -0.074378112854159906 0 0.1017607227067117 -0.061039103027072827 0 0.087218618824137589 -0.064369365429502182 0 0.10833773088491749 -0.074378112854159906 0 0.1017607227067117 -0.061039103027072827 0 0.10833773088491749 -0.074378112854159906 0 0.1139225676284783 -0.071861178982648793 0 0.1017607227067117 -0.061039103027072827 0 0.1139225676284783 -0.071861178982648793 0 0.1017607227067117 -0.061039103027072827 0 0.10833773088491749 -0.074378112854159906 0 0.1017607227067117 -0.061039103027072827 0 0.11569042147877311 -0.071064455382657737 0 0.1139225676284783 -0.071861178982648793 0 0.11569042147877311 -0.071064455382657737 0 0.1159555711660719 -0.073670223485624325 0 0.1159555711660719 -0.073670223485624325 0 0.1139225676284783 -0.071861178982648793 0 0.11569042147877311 -0.071064455382657737 0 0.1159555711660719 -0.073670223485624325 0 0.1139225676284783 -0.071861178982648793 0 0.11569042147877311 -0.071064455382657737 0 0.1139225676284783 -0.071861178982648793 0 0.10833773088491749 -0.074378112854159906 0 0.1139225676284783 -0.071861178982648793 0 0.10833773088491749 -0.074378112854159906 0 0.1159555711660719 -0.073670223485624325 0 0.1139225676284783 -0.071861178982648793 0 0.11569042147877311 -0.071064455382657737 0 0.1159555711660719 -0.073670223485624325 0 0.1236001652176603 -0.067499749224625163 0 0.11569042147877311 -0.071064455382657737 0 0.1236001652176603 -0.067499749224625163 0 0.121261631739911 -0.060895536486907278 0 0.11569042147877311 -0.071064455382657737 0 0.1236001652176603 -0.067499749224625163 0 0.10833773088491749 -0.074378112854159906 0 0.1159555711660719 -0.073670223485624325 0 0.11802724605457859 -0.094029683076638199 0 0.10833773088491749 -0.074378112854159906 0 0.11802724605457859 -0.094029683076638199 0 0.1023043216511985 -0.088636709169808078 0 0.10833773088491749 -0.074378112854159906 0 0.11802724605457859 -0.094029683076638199 0 0.1159555711660719 -0.073670223485624325 0 0.11802724605457859 -0.094029683076638199 0 0.1355699465584255 -0.091123846820131971 0 0.1159555711660719 -0.073670223485624325 0 0.11802724605457859 -0.094029683076638199 0 0.11802724605457859 -0.094029683076638199 0 0.12539106181481161 -0.1089644388393151 0 0.11802724605457859 -0.094029683076638199 0 0.1084945303097448 -0.1088605687006798 0 0.1197174845733967 -0.11064056300473329 0 0.11802724605457859 -0.094029683076638199 0 0.1197174845733967 -0.11064056300473329 0 0.12539106181481161 -0.1089644388393151 0 0.11802724605457859 -0.094029683076638199 0 0.1197174845733967 -0.11064056300473329 0 0.11802724605457859 -0.094029683076638199 0 0.099042754477169273 -0.10070674689447739 0 0.1084945303097448 -0.1088605687006798 0 0.1023043216511985 -0.088636709169808078 0 0.11802724605457859 -0.094029683076638199 0 0.099042754477169273 -0.10070674689447739 0 0.099042754477169273 -0.10070674689447739 0 0.1084945303097448 -0.1088605687006798 0 0.095937370803684544 -0.1188793877721471 0 0.1084945303097448 -0.1088605687006798 0 0.095937370803684544 -0.1188793877721471 0 0.1097477956398958 -0.1200464627554028 0 0.1079788842103509 -0.1336058426007993 0 0.095937370803684544 -0.1188793877721471 0 0.1097477956398958 -0.1200464627554028 0 0.1214077230922139 -0.1272514429328285 0 0.1097477956398958 -0.1200464627554028 0 0.1197174845733967 -0.11064056300473329 0 0.1214077230922139 -0.1272514429328285 0 0.1197174845733967 -0.11064056300473329 0 0.1214077230922139 -0.1272514429328285 0 0.1197174845733967 -0.11064056300473329 0 0.12785988313841401 -0.11897557019461941 0 0.1084945303097448 -0.1088605687006798 0 0.1097477956398958 -0.1200464627554028 0 0.1197174845733967 -0.11064056300473329 0 0.1197174845733967 -0.11064056300473329 0 0.12785988313841401 -0.11897557019461941 0 0.12539106181481161 -0.1089644388393151 0 0.12785988313841401 -0.11897557019461941 0 0.14048026758621671 -0.1176392617595213 0 0.12539106181481161 -0.1089644388393151 0 0.12785988313841401 -0.11897557019461941 0 0.14048026758621671 -0.1176392617595213 0 0.1322396555001874 -0.1301372558446669 0 0.14048026758621671 -0.1176392617595213 0 0.1559471108463733 -0.1092562289629696 0 0.15744354419514919 -0.12664661675857819 0 0.1559471108463733 -0.1092562289629696 0 0.1355699465584255 -0.091123846820131971 0 0.1559471108463733 -0.1092562289629696 0 0.1355699465584255 -0.091123846820131971 0 0.15704045907944711 -0.089812458243367657 0 0.14048026758621671 -0.1176392617595213 0 0.1559471108463733 -0.1092562289629696 0 0.1355699465584255 -0.091123846820131971 0 0.11802724605457859 -0.094029683076638199 0 0.12539106181481161 -0.1089644388393151 0 0.1355699465584255 -0.091123846820131971 0 0.14048026758621671 -0.1176392617595213 0 0.12539106181481161 -0.1089644388393151 0 0.1355699465584255 -0.091123846820131971 0 0.14048026758621671 -0.1176392617595213 0 0.1355699465584255 -0.091123846820131971 0 0.1159555711660719 -0.073670223485624325 0 0.1355699465584255 -0.091123846820131971 0 0.1159555711660719 -0.073670223485624325 0 0.1236001652176603 -0.067499749224625163 0 0.1355699465584255 -0.091123846820131971 0 0.1355699465584255 -0.091123846820131971 0 0.1426261508958627 -0.071544558015689125 0 0.13021232167722741 -0.062193020096055728 0 0.1236001652176603 -0.067499749224625163 0 0.1355699465584255 -0.091123846820131971 0 0.13021232167722741 -0.062193020096055728 0 0.1355699465584255 -0.091123846820131971 0 0.13021232167722741 -0.062193020096055728 0 0.121261631739911 -0.060895536486907278 0 0.1236001652176603 -0.067499749224625163 0 0.13021232167722741 -0.062193020096055728 0 0.1426261508958627 -0.071544558015689125 0 0.13021232167722741 -0.062193020096055728 0 0.1432623271824908 -0.059760831009447353 0 0.1426261508958627 -0.071544558015689125 0 0.1534946153960966 -0.066528821432598334 0 0.1432623271824908 -0.059760831009447353 0 0.1534946153960966 -0.066528821432598334 0 0.15031234647179209 -0.078806976307988316 0 0.16283056042912891 -0.075025197028153856 0 0.1426261508958627 -0.071544558015689125 0 0.1534946153960966 -0.066528821432598334 0 0.15031234647179209 -0.078806976307988316 0 0.1355699465584255 -0.091123846820131971 0 0.1426261508958627 -0.071544558015689125 0 0.15031234647179209 -0.078806976307988316 0 0.1355699465584255 -0.091123846820131971 0 0.15031234647179209 -0.078806976307988316 0 0.15704045907944711 -0.089812458243367657 0 0.15704045907944711 -0.089812458243367657 0 0.17124770520124741 -0.088214491821741126 0 0.16283056042912891 -0.075025197028153856 0 0.15031234647179209 -0.078806976307988316 0 0.15704045907944711 -0.089812458243367657 0 0.16283056042912891 -0.075025197028153856 0 0.17124770520124741 -0.088214491821741126 0 0.16283056042912891 -0.075025197028153856 0 0.17544794703696209 -0.075412266930142177 0 0.15704045907944711 -0.089812458243367657 0 0.17124770520124741 -0.088214491821741126 0 0.1670084005055725 -0.099579252316742875 0 0.16283056042912891 -0.075025197028153856 0 0.17544794703696209 -0.075412266930142177 0 0.16950511731623361 -0.057402801445685117 0 0.1534946153960966 -0.066528821432598334 0 0.16283056042912891 -0.075025197028153856 0 0.16950511731623361 -0.057402801445685117 0 0.17544794703696209 -0.075412266930142177 0 0.16950511731623361 -0.057402801445685117 0 0.18848701026978321 -0.06895769890222854 0 0.17544794703696209 -0.075412266930142177 0 0.18565706144240079 -0.087952648923368293 0 0.18848701026978321 -0.06895769890222854 0 0.17124770520124741 -0.088214491821741126 0 0.18565706144240079 -0.087952648923368293 0 0.17950180271397281 -0.10150512748867201 0 0.17124770520124741 -0.088214491821741126 0 0.17544794703696209 -0.075412266930142177 0 0.18565706144240079 -0.087952648923368293 0 0.17950180271397281 -0.10150512748867201 0 0.18391556121902389 -0.1142072652289131 0 0.19851626190643731 -0.1060119374136204 0 0.17124770520124741 -0.088214491821741126 0 0.17950180271397281 -0.10150512748867201 0 0.1670084005055725 -0.099579252316742875 0 0.17950180271397281 -0.10150512748867201 0 0.18391556121902389 -0.1142072652289131 0 0.1724750973647628 -0.11069671630401209 0 0.17950180271397281 -0.10150512748867201 0 0.1724750973647628 -0.11069671630401209 0 0.1670084005055725 -0.099579252316742875 0 0.18391556121902389 -0.1142072652289131 0 0.19276036897562501 -0.12543393383245441 0 0.17632427513432161 -0.12738861110580671 0 0.18391556121902389 -0.1142072652289131 0 0.1724750973647628 -0.11069671630401209 0 0.17632427513432161 -0.12738861110580671 0 0.1559471108463733 -0.1092562289629696 0 0.15744354419514919 -0.12664661675857819 0 0.17632427513432161 -0.12738861110580671 0 0.1559471108463733 -0.1092562289629696 0 0.1724750973647628 -0.11069671630401209 0 0.17632427513432161 -0.12738861110580671 0 0.1559471108463733 -0.1092562289629696 0 0.17632427513432161 -0.12738861110580671 0 0.1559471108463733 -0.1092562289629696 0 0.1724750973647628 -0.11069671630401209 0 0.1670084005055725 -0.099579252316742875 0 0.1559471108463733 -0.1092562289629696 0 0.15704045907944711 -0.089812458243367657 0 0.1670084005055725 -0.099579252316742875 0 0.13607434700244139 0.00460352784239182 0 0.1495199560174405 -0.0041019919792444296 0 0.14001873903814241 -0.014108147432290731 0 0.1495199560174405 -0.0041019919792444296 0 0.15304993434193939 -0.01662525616293049 0 0.162912293445549 -0.0053503340765510771 0 0.1495199560174405 -0.0041019919792444296 0 0.14001873903814241 -0.014108147432290731 0 0.15304993434193939 -0.01662525616293049 0 0.13607434700244139 0.00460352784239182 0 0.1248305403347179 -0.0089408629604058251 0 0.14001873903814241 -0.014108147432290731 0 0.12290637425548311 0.0038199371557853272 0 0.13607434700244139 0.00460352784239182 0 0.1248305403347179 -0.0089408629604058251 0 0.1248305403347179 -0.0089408629604058251 0 0.14001873903814241 -0.014108147432290731 0 0.1315013502334835 -0.023035835163488401 0 0.1248546967960284 -0.033262193371979831 0 0.1315013502334835 -0.023035835163488401 0 0.1420841327829869 -0.035576133531423283 0 0.14001873903814241 -0.014108147432290731 0 0.1315013502334835 -0.023035835163488401 0 0.1444971862058084 -0.02510077678505002 0 0.1315013502334835 -0.023035835163488401 0 0.1444971862058084 -0.02510077678505002 0 0.1420841327829869 -0.035576133531423283 0 0.1444971862058084 -0.02510077678505002 0 0.15501669977363569 -0.030496857915395071 0 0.1420841327829869 -0.035576133531423283 0 0.14001873903814241 -0.014108147432290731 0 0.1444971862058084 -0.02510077678505002 0 0.15304993434193939 -0.01662525616293049 0 0.1444971862058084 -0.02510077678505002 0 0.15304993434193939 -0.01662525616293049 0 0.15501669977363569 -0.030496857915395071 0 0.15501669977363569 -0.030496857915395071 0 0.1420841327829869 -0.035576133531423283 0 0.1563262570198736 -0.044230403992380332 0 0.1420841327829869 -0.035576133531423283 0 0.1451332578525607 -0.048495083763535327 0 0.1563262570198736 -0.044230403992380332 0 0.1420841327829869 -0.035576133531423283 0 0.13745148564863621 -0.04352197087504947 0 0.1451332578525607 -0.048495083763535327 0 0.1248546967960284 -0.033262193371979831 0 0.1420841327829869 -0.035576133531423283 0 0.13745148564863621 -0.04352197087504947 0 0.1248546967960284 -0.033262193371979831 0 0.13745148564863621 -0.04352197087504947 0 0.13562537583388429 -0.052023381129786078 0 0.13745148564863621 -0.04352197087504947 0 0.13562537583388429 -0.052023381129786078 0 0.1451332578525607 -0.048495083763535327 0 0.1248546967960284 -0.033262193371979831 0 0.12725382202701541 -0.054876011947504043 0 0.13021232167722741 -0.062193020096055728 0 0.1248546967960284 -0.033262193371979831 0 0.13021232167722741 -0.062193020096055728 0 0.1248546967960284 -0.033262193371979831 0 0.13562537583388429 -0.052023381129786078 0 0.13021232167722741 -0.062193020096055728 0 0.121261631739911 -0.060895536486907278 0 0.12725382202701541 -0.054876011947504043 0 0.13021232167722741 -0.062193020096055728 0 0.13562537583388429 -0.052023381129786078 0 0.13021232167722741 -0.062193020096055728 0 0.1432623271824908 -0.059760831009447353 0 0.1432623271824908 -0.059760831009447353 0 0.1451332578525607 -0.048495083763535327 0 0.1537370575453004 -0.055327757075990538 0 0.13562537583388429 -0.052023381129786078 0 0.1432623271824908 -0.059760831009447353 0 0.1451332578525607 -0.048495083763535327 0 0.1451332578525607 -0.048495083763535327 0 0.1537370575453004 -0.055327757075990538 0 0.1563262570198736 -0.044230403992380332 0 0.1534946153960966 -0.066528821432598334 0 0.1432623271824908 -0.059760831009447353 0 0.1537370575453004 -0.055327757075990538 0 0.1537370575453004 -0.055327757075990538 0 0.16950511731623361 -0.057402801445685117 0 0.1563262570198736 -0.044230403992380332 0 0.1534946153960966 -0.066528821432598334 0 0.1537370575453004 -0.055327757075990538 0 0.16950511731623361 -0.057402801445685117 0 0.16950511731623361 -0.057402801445685117 0 0.1846107904546975 -0.05003036537666148 0 0.17061206618117569 -0.037471937434982873 0 0.16950511731623361 -0.057402801445685117 0 0.1846107904546975 -0.05003036537666148 0 0.18848701026978321 -0.06895769890222854 0 0.1846107904546975 -0.05003036537666148 0 0.18443980590500769 -0.036056748643887249 0 0.17061206618117569 -0.037471937434982873 0 0.18443980590500769 -0.036056748643887249 0 0.17061206618117569 -0.037471937434982873 0 0.17974690634046819 -0.02250353012530457 0 0.16950511731623361 -0.057402801445685117 0 0.17061206618117569 -0.037471937434982873 0 0.1563262570198736 -0.044230403992380332 0 0.15501669977363569 -0.030496857915395071 0 0.17061206618117569 -0.037471937434982873 0 0.1563262570198736 -0.044230403992380332 0 0.15501669977363569 -0.030496857915395071 0 0.17061206618117569 -0.037471937434982873 0 0.16629724564218079 -0.019921994304663938 0 0.15304993434193939 -0.01662525616293049 0 0.15501669977363569 -0.030496857915395071 0 0.16629724564218079 -0.019921994304663938 0 0.17974690634046819 -0.02250353012530457 0 0.1789975143158159 -0.0065475400622667969 0 0.19474294409387069 -0.01917687023716819 0 0.18443980590500769 -0.036056748643887249 0 0.17974690634046819 -0.02250353012530457 0 0.19474294409387069 -0.01917687023716819 0 0.17061206618117569 -0.037471937434982873 0 0.16629724564218079 -0.019921994304663938 0 0.17974690634046819 -0.02250353012530457 0 0.16629724564218079 -0.019921994304663938 0 0.17974690634046819 -0.02250353012530457 0 0.1789975143158159 -0.0065475400622667969 0 0.17224435452985651 0.0066443108239060411 0 0.1789975143158159 -0.0065475400622667969 0 0.162912293445549 -0.0053503340765510771 0 0.16629724564218079 -0.019921994304663938 0 0.1789975143158159 -0.0065475400622667969 0 0.162912293445549 -0.0053503340765510771 0 0.15304993434193939 -0.01662525616293049 0 0.16629724564218079 -0.019921994304663938 0 0.162912293445549 -0.0053503340765510771 0 0.2062918539355883 -0.002159798344136636 0 0.21088620649032619 -0.02794585953911333 0 0.2241294434452733 -0.012490982220571351 0 0.1789975143158159 -0.0065475400622667969 0 0.2062918539355883 -0.002159798344136636 0 0.19474294409387069 -0.01917687023716819 0 0.18443980590500769 -0.036056748643887249 0 0.19474294409387069 -0.01917687023716819 0 0.1994662849832774 -0.038496301351259032 0 0.19474294409387069 -0.01917687023716819 0 0.21088620649032619 -0.02794585953911333 0 0.1994662849832774 -0.038496301351259032 0 0.2062918539355883 -0.002159798344136636 0 0.19474294409387069 -0.01917687023716819 0 0.21088620649032619 -0.02794585953911333 0 0.21088620649032619 -0.02794585953911333 0 0.21099815281716089 -0.048979599169828851 0 0.22593344526404169 -0.037933618602248899 0 0.21088620649032619 -0.02794585953911333 0 0.1994662849832774 -0.038496301351259032 0 0.21099815281716089 -0.048979599169828851 0 0.1846107904546975 -0.05003036537666148 0 0.18443980590500769 -0.036056748643887249 0 0.1994662849832774 -0.038496301351259032 0 0.1994662849832774 -0.038496301351259032 0 0.19804967700360021 -0.056083411606971827 0 0.21099815281716089 -0.048979599169828851 0 0.1846107904546975 -0.05003036537666148 0 0.1994662849832774 -0.038496301351259032 0 0.19804967700360021 -0.056083411606971827 0 0.1846107904546975 -0.05003036537666148 0 0.19804967700360021 -0.056083411606971827 0 0.18848701026978321 -0.06895769890222854 0 0.21099815281716089 -0.048979599169828851 0 0.20625519595088171 -0.069170488180001918 0 0.22451879452942561 -0.063303963241971947 0 0.19804967700360021 -0.056083411606971827 0 0.21099815281716089 -0.048979599169828851 0 0.20625519595088171 -0.069170488180001918 0 0.24338285006687491 -0.050640326903654227 0 0.22593344526404169 -0.037933618602248899 0 0.22451879452942561 -0.063303963241971947 0 0.21099815281716089 -0.048979599169828851 0 0.22593344526404169 -0.037933618602248899 0 0.22451879452942561 -0.063303963241971947 0 0.24338285006687491 -0.050640326903654227 0 0.22593344526404169 -0.037933618602248899 0 0.24168522423518959 -0.024240980538353701 0 0.26218827993346561 -0.036179541460579619 0 0.24338285006687491 -0.050640326903654227 0 0.24168522423518959 -0.024240980538353701 0 0.22593344526404169 -0.037933618602248899 0 0.24168522423518959 -0.024240980538353701 0 0.2241294434452733 -0.012490982220571351 0 0.21088620649032619 -0.02794585953911333 0 0.22593344526404169 -0.037933618602248899 0 0.2241294434452733 -0.012490982220571351 0 0.2328295479746289 0.0066318064645420338 0 0.25868691773078378 -0.0042192312531555004 0 0.24168522423518959 -0.024240980538353701 0 0.2328295479746289 0.0066318064645420338 0 0.2062918539355883 -0.002159798344136636 0 0.2241294434452733 -0.012490982220571351 0 0.2328295479746289 0.0066318064645420338 0 0.24168522423518959 -0.024240980538353701 0 0.2241294434452733 -0.012490982220571351 0 0.2164452591564304 -0.1160735623992262 0 0.19851626190643731 -0.1060119374136204 0 0.21984467819871351 -0.090051293431116813 0 0.19851626190643731 -0.1060119374136204 0 0.2006820731727243 -0.085536218509371709 0 0.21984467819871351 -0.090051293431116813 0 0.2164452591564304 -0.1160735623992262 0 0.19276036897562501 -0.12543393383245441 0 0.18391556121902389 -0.1142072652289131 0 0.19851626190643731 -0.1060119374136204 0 0.19276036897562501 -0.12543393383245441 0 0.2164452591564304 -0.1160735623992262 0 0.19851626190643731 -0.1060119374136204 0 0.19276036897562501 -0.12543393383245441 0 0.18565706144240079 -0.087952648923368293 0 0.17950180271397281 -0.10150512748867201 0 0.19851626190643731 -0.1060119374136204 0 0.18565706144240079 -0.087952648923368293 0 0.2006820731727243 -0.085536218509371709 0 0.18848701026978321 -0.06895769890222854 0 0.18565706144240079 -0.087952648923368293 0 0.19851626190643731 -0.1060119374136204 0 0.2006820731727243 -0.085536218509371709 0 0.2006820731727243 -0.085536218509371709 0 0.18848701026978321 -0.06895769890222854 0 0.20625519595088171 -0.069170488180001918 0 0.19804967700360021 -0.056083411606971827 0 0.18848701026978321 -0.06895769890222854 0 0.20625519595088171 -0.069170488180001918 0 0.20625519595088171 -0.069170488180001918 0 0.21984467819871351 -0.090051293431116813 0 0.22451879452942561 -0.063303963241971947 0 0.2006820731727243 -0.085536218509371709 0 0.20625519595088171 -0.069170488180001918 0 0.21984467819871351 -0.090051293431116813 0 0.21984467819871351 -0.090051293431116813 0 0.22451879452942561 -0.063303963241971947 0 0.24436469559967089 -0.0778227166031734 0 0.24338285006687491 -0.050640326903654227 0 0.22451879452942561 -0.063303963241971947 0 0.24436469559967089 -0.0778227166031734 0 0.26178618614965182 -0.060969966007363492 0 0.24338285006687491 -0.050640326903654227 0 0.24436469559967089 -0.0778227166031734 0 0.21984467819871351 -0.090051293431116813 0 0.24436469559967089 -0.0778227166031734 0 0.24013014933723581 -0.10671319096599791 0 0.2623325697497782 -0.095071195901665934 0 0.24436469559967089 -0.0778227166031734 0 0.24013014933723581 -0.10671319096599791 0 0.2164452591564304 -0.1160735623992262 0 0.21984467819871351 -0.090051293431116813 0 0.24013014933723581 -0.10671319096599791 0 0.2164452591564304 -0.1160735623992262 0 0.24013014933723581 -0.10671319096599791 0 0.2164452591564304 -0.1160735623992262 0 0.24013014933723581 -0.10671319096599791 0 0.2354186550345774 -0.1310112535592218 0 0.25672581006507389 -0.1198520958760038 0 0.24013014933723581 -0.10671319096599791 0 0.2354186550345774 -0.1310112535592218 0 0.25161379454461469 -0.135401718200473 0 0.2354186550345774 -0.1310112535592218 0 0.24555869062980629 -0.15163383778365189 0 0.25672581006507389 -0.1198520958760038 0 0.25161379454461469 -0.135401718200473 0 0.2354186550345774 -0.1310112535592218 0 0.24555869062980629 -0.15163383778365189 0 0.22590312286169981 -0.15194230083160609 0 0.23497051311778011 -0.1647134956370819 0 0.2354186550345774 -0.1310112535592218 0 0.24555869062980629 -0.15163383778365189 0 0.22590312286169981 -0.15194230083160609 0 0.2164452591564304 -0.1160735623992262 0 0.2354186550345774 -0.1310112535592218 0 0.21302441759015789 -0.13686665627220049 0 0.2354186550345774 -0.1310112535592218 0 0.22590312286169981 -0.15194230083160609 0 0.21302441759015789 -0.13686665627220049 0 0.2164452591564304 -0.1160735623992262 0 0.21302441759015789 -0.13686665627220049 0 0.19276036897562501 -0.12543393383245441 0 0.22590312286169981 -0.15194230083160609 0 0.21302441759015789 -0.13686665627220049 0 0.20368897211687589 -0.15481209729984291 0 0.21302441759015789 -0.13686665627220049 0 0.20368897211687589 -0.15481209729984291 0 0.1973330709663845 -0.13948702494494189 0 0.20368897211687589 -0.15481209729984291 0 0.18858872122689721 -0.14866778172827061 0 0.18235044848888349 -0.16169793564504861 0 0.20368897211687589 -0.15481209729984291 0 0.18858872122689721 -0.14866778172827061 0 0.1973330709663845 -0.13948702494494189 0 0.18858872122689721 -0.14866778172827061 0 0.1973330709663845 -0.13948702494494189 0 0.18460454715823349 -0.13861684557202439 0 0.19276036897562501 -0.12543393383245441 0 0.1973330709663845 -0.13948702494494189 0 0.18460454715823349 -0.13861684557202439 0 0.21302441759015789 -0.13686665627220049 0 0.19276036897562501 -0.12543393383245441 0 0.1973330709663845 -0.13948702494494189 0 0.1981379496988171 -0.17324590619065211 0 0.19292731605019209 -0.19983305049252931 0 0.17491180349900939 -0.1756967726641491 0 0.20368897211687589 -0.15481209729984291 0 0.1981379496988171 -0.17324590619065211 0 0.18235044848888349 -0.16169793564504861 0 0.20368897211687589 -0.15481209729984291 0 0.1981379496988171 -0.17324590619065211 0 0.22136409589862491 -0.17079503971715521 0 0.22590312286169981 -0.15194230083160609 0 0.20368897211687589 -0.15481209729984291 0 0.22136409589862491 -0.17079503971715521 0 0.1981379496988171 -0.17324590619065211 0 0.22136409589862491 -0.17079503971715521 0 0.21397576844716579 -0.19162096113286631 0 0.1981379496988171 -0.17324590619065211 0 0.22136409589862491 -0.17079503971715521 0 0.232581611219007 -0.18338784825623131 0 0.22136409589862491 -0.17079503971715521 0 0.23497051311778011 -0.1647134956370819 0 0.232581611219007 -0.18338784825623131 0 0.22136409589862491 -0.17079503971715521 0 0.21397576844716579 -0.19162096113286631 0 0.22590312286169981 -0.15194230083160609 0 0.22136409589862491 -0.17079503971715521 0 0.23497051311778011 -0.1647134956370819 0 0.24555869062980629 -0.15163383778365189 0 0.23497051311778011 -0.1647134956370819 0 0.24759659070107831 -0.17163842505134699 0 0.232581611219007 -0.18338784825623131 0 0.23497051311778011 -0.1647134956370819 0 0.24759659070107831 -0.17163842505134699 0 0.232581611219007 -0.18338784825623131 0 0.24759659070107831 -0.17163842505134699 0 0.24889351788783889 -0.19049339273463589 0 0.232581611219007 -0.18338784825623131 0 0.24889351788783889 -0.19049339273463589 0 0.23212159840992089 -0.2045384328578794 0 0.24889351788783889 -0.19049339273463589 0 0.23212159840992089 -0.2045384328578794 0 0.25354506743999072 -0.21705698090367409 0 0.23212159840992089 -0.2045384328578794 0 0.236770077121742 -0.22010957826131311 0 0.25354506743999072 -0.21705698090367409 0 0.24889351788783889 -0.19049339273463589 0 0.23212159840992089 -0.2045384328578794 0 0.23212159840992089 -0.2045384328578794 0 0.236770077121742 -0.22010957826131311 0 0.21812875356265349 -0.21313436647293249 0 0.232581611219007 -0.18338784825623131 0 0.23212159840992089 -0.2045384328578794 0 0.21397576844716579 -0.19162096113286631 0 0.23212159840992089 -0.2045384328578794 0 0.21397576844716579 -0.19162096113286631 0 0.21812875356265349 -0.21313436647293249 0 0.23902974280713549 -0.25211766649363682 0 0.24635707094536871 -0.23502713197709979 0 0.22922147408209539 -0.2338135522951936 0 0.25455705962084613 -0.2492274359405969 0 0.23902974280713549 -0.25211766649363682 0 0.24635707094536871 -0.23502713197709979 0 0.25354506743999072 -0.21705698090367409 0 0.24635707094536871 -0.23502713197709979 0 0.236770077121742 -0.22010957826131311 0 0.24635707094536871 -0.23502713197709979 0 0.236770077121742 -0.22010957826131311 0 0.22922147408209539 -0.2338135522951936 0 0.236770077121742 -0.22010957826131311 0 0.22922147408209539 -0.2338135522951936 0 0.21812875356265349 -0.21313436647293249 0 0.23902974280713549 -0.25211766649363682 0 0.22922147408209539 -0.2338135522951936 0 0.21459981479714119 -0.24605728887083039 0 0.19556472110513859 -0.25597414667967999 0 0.21459981479714119 -0.24605728887083039 0 0.20151807668046451 -0.23040191039792049 0 0.22922147408209539 -0.2338135522951936 0 0.21459981479714119 -0.24605728887083039 0 0.20151807668046451 -0.23040191039792049 0 0.22922147408209539 -0.2338135522951936 0 0.20151807668046451 -0.23040191039792049 0 0.21812875356265349 -0.21313436647293249 0 0.19556472110513859 -0.25597414667967999 0 0.20151807668046451 -0.23040191039792049 0 0.18111383101942111 -0.23923559038020439 0 0.21397576844716579 -0.19162096113286631 0 0.21812875356265349 -0.21313436647293249 0 0.19292731605019209 -0.19983305049252931 0 0.20151807668046451 -0.23040191039792049 0 0.21812875356265349 -0.21313436647293249 0 0.19292731605019209 -0.19983305049252931 0 0.20151807668046451 -0.23040191039792049 0 0.19292731605019209 -0.19983305049252931 0 0.17787666133484009 -0.21739953571754289 0 0.1981379496988171 -0.17324590619065211 0 0.21397576844716579 -0.19162096113286631 0 0.19292731605019209 -0.19983305049252931 0 0.19292731605019209 -0.19983305049252931 0 0.17160354442895681 -0.19475470033563 0 0.17491180349900939 -0.1756967726641491 0 0.19292731605019209 -0.19983305049252931 0 0.17787666133484009 -0.21739953571754289 0 0.17160354442895681 -0.19475470033563 0 0.17787666133484009 -0.21739953571754289 0 0.1565690229800995 -0.20451749695285601 0 0.17160354442895681 -0.19475470033563 0 0.17787666133484009 -0.21739953571754289 0 0.1565690229800995 -0.20451749695285601 0 0.1614523886610004 -0.23088735476806499 0 0.1565690229800995 -0.20451749695285601 0 0.1614523886610004 -0.23088735476806499 0 0.1565690229800995 -0.20451749695285601 0 0.17160354442895681 -0.19475470033563 0 0.15168565729920169 -0.17814763913764631 0 0.20151807668046451 -0.23040191039792049 0 0.17787666133484009 -0.21739953571754289 0 0.18111383101942111 -0.23923559038020439 0 0.17787666133484009 -0.21739953571754289 0 0.18111383101942111 -0.23923559038020439 0 0.1614523886610004 -0.23088735476806499 0 0.1663357543419014 -0.25725721258327422 0 0.1614523886610004 -0.23088735476806499 0 0.1663357543419014 -0.25725721258327422 0 0.18111383101942111 -0.23923559038020439 0 0.1614523886610004 -0.23088735476806499 0 0.1663357543419014 -0.25725721258327422 0 0.1614523886610004 -0.23088735476806499 0 0.13889870601213769 -0.23544629165886791 0 0.1614523886610004 -0.23088735476806499 0 0.13889870601213769 -0.23544629165886791 0 0.13619576704629541 -0.21506333232652769 0 0.11503278281558919 -0.22944371527409599 0 0.13889870601213769 -0.23544629165886791 0 0.13619576704629541 -0.21506333232652769 0 0.13732355080079039 -0.25885098399408318 0 0.11138665200370231 -0.25153653965536849 0 0.13889870601213769 -0.23544629165886791 0 0.1565690229800995 -0.20451749695285601 0 0.1388790853668096 -0.19587432698697399 0 0.15168565729920169 -0.17814763913764631 0 0.1565690229800995 -0.20451749695285601 0 0.15168565729920169 -0.17814763913764631 0 0.1565690229800995 -0.20451749695285601 0 0.1614523886610004 -0.23088735476806499 0 0.13619576704629541 -0.21506333232652769 0 0.1565690229800995 -0.20451749695285601 0 0.13619576704629541 -0.21506333232652769 0 0.1388790853668096 -0.19587432698697399 0 0.12197074895823359 -0.20618823416424939 0 0.13619576704629541 -0.21506333232652769 0 0.1388790853668096 -0.19587432698697399 0 0.1240650922949041 -0.1903077426716514 0 0.12197074895823359 -0.20618823416424939 0 0.1388790853668096 -0.19587432698697399 0 0.1240650922949041 -0.1903077426716514 0 0.1388790853668096 -0.19587432698697399 0 0.13330763392952921 -0.18008692260457981 0 0.1240650922949041 -0.1903077426716514 0 0.1197432912072455 -0.17219283295505211 0 0.13330763392952921 -0.18008692260457981 0 0.13330763392952921 -0.18008692260457981 0 0.15168565729920169 -0.17814763913764631 0 0.13382943975469361 -0.16491361764463711 0 0.1197432912072455 -0.17219283295505211 0 0.13330763392952921 -0.18008692260457981 0 0.13382943975469361 -0.16491361764463711 0 0.13330763392952921 -0.18008692260457981 0 0.15168565729920169 -0.17814763913764631 0 0.1388790853668096 -0.19587432698697399 0 0.13330763392952921 -0.18008692260457981 0 0.15168565729920169 -0.17814763913764631 0 0.14853812295660279 -0.16115115791827889 0 0.13382943975469361 -0.16491361764463711 0 0.1453905886140141 -0.1441546766989095 0 0.15168565729920169 -0.17814763913764631 0 0.14853812295660279 -0.16115115791827889 0 0.16111454319985369 -0.16761184569825049 0 0.15168565729920169 -0.17814763913764631 0 0.14853812295660279 -0.16115115791827889 0 0.15168565729920169 -0.17814763913764631 0 0.14853812295660279 -0.16115115791827889 0 0.13382943975469361 -0.16491361764463711 0 0.1197432912072455 -0.17219283295505211 0 0.13382943975469361 -0.16491361764463711 0 0.12648345722584539 -0.15162685711347479 0 0.12648345722584539 -0.15162685711347479 0 0.1453905886140141 -0.1441546766989095 0 0.12648345722584539 -0.15162685711347479 0 0.12516154090661261 -0.13918595052185989 0 0.1453905886140141 -0.1441546766989095 0 0.13382943975469361 -0.16491361764463711 0 0.12648345722584539 -0.15162685711347479 0 0.1453905886140141 -0.1441546766989095 0 0.1322396555001874 -0.1301372558446669 0 0.12516154090661261 -0.13918595052185989 0 0.1453905886140141 -0.1441546766989095 0 0.14048026758621671 -0.1176392617595213 0 0.1322396555001874 -0.1301372558446669 0 0.1453905886140141 -0.1441546766989095 0 0.1214077230922139 -0.1272514429328285 0 0.1322396555001874 -0.1301372558446669 0 0.12516154090661261 -0.13918595052185989 0 0.1214077230922139 -0.1272514429328285 0 0.12785988313841401 -0.11897557019461941 0 0.1322396555001874 -0.1301372558446669 0 0.14048026758621671 -0.1176392617595213 0 0.1453905886140141 -0.1441546766989095 0 0.15744354419514919 -0.12664661675857819 0 0.14048026758621671 -0.1176392617595213 0 0.1453905886140141 -0.1441546766989095 0 0.14853812295660279 -0.16115115791827889 0 0.1453905886140141 -0.1441546766989095 0 0.14853812295660279 -0.16115115791827889 0 0.1453905886140141 -0.1441546766989095 0 0.16080668876699231 -0.14732009213279429 0 0.1453905886140141 -0.1441546766989095 0 0.16080668876699231 -0.14732009213279429 0 0.16907547879481991 -0.13479430526568259 0 0.14853812295660279 -0.16115115791827889 0 0.16080668876699231 -0.14732009213279429 0 0.16868962019232769 -0.1556734604940776 0 0.16080668876699231 -0.14732009213279429 0 0.16907547879481991 -0.13479430526568259 0 0.17507259621294449 -0.1453482784457146 0 0.16080668876699231 -0.14732009213279429 0 0.16868962019232769 -0.1556734604940776 0 0.17507259621294449 -0.1453482784457146 0 0.15744354419514919 -0.12664661675857819 0 0.16907547879481991 -0.13479430526568259 0 0.17632427513432161 -0.12738861110580671 0 0.1453905886140141 -0.1441546766989095 0 0.15744354419514919 -0.12664661675857819 0 0.16907547879481991 -0.13479430526568259 0 0.1453905886140141 -0.1441546766989095 0 0.16907547879481991 -0.13479430526568259 0 0.19276036897562501 -0.12543393383245441 0 0.16907547879481991 -0.13479430526568259 0 0.17632427513432161 -0.12738861110580671 0 0.19276036897562501 -0.12543393383245441 0 0.16907547879481991 -0.13479430526568259 0 0.18460454715823349 -0.13861684557202439 0 0.19276036897562501 -0.12543393383245441 0 0.16907547879481991 -0.13479430526568259 0 0.16907547879481991 -0.13479430526568259 0 0.18460454715823349 -0.13861684557202439 0 0.17507259621294449 -0.1453482784457146 0 0.16868962019232769 -0.1556734604940776 0 0.17507259621294449 -0.1453482784457146 0 0.18235044848888349 -0.16169793564504861 0 0.18858872122689721 -0.14866778172827061 0 0.17507259621294449 -0.1453482784457146 0 0.18235044848888349 -0.16169793564504861 0 0.18858872122689721 -0.14866778172827061 0 0.18460454715823349 -0.13861684557202439 0 0.17507259621294449 -0.1453482784457146 0 0.16868962019232769 -0.1556734604940776 0 0.18235044848888349 -0.16169793564504861 0 0.17491180349900939 -0.1756967726641491 0 0.1981379496988171 -0.17324590619065211 0 0.18235044848888349 -0.16169793564504861 0 0.17491180349900939 -0.1756967726641491 0 0.1981379496988171 -0.17324590619065211 0 0.17491180349900939 -0.1756967726641491 0 0.15168565729920169 -0.17814763913764631 0 0.17491180349900939 -0.1756967726641491 0 0.16111454319985369 -0.16761184569825049 0 0.15168565729920169 -0.17814763913764631 0 0.17491180349900939 -0.1756967726641491 0 0.17160354442895681 -0.19475470033563 0 0.15168565729920169 -0.17814763913764631 0 0.17491180349900939 -0.1756967726641491 0 0.14853812295660279 -0.16115115791827889 0 0.16868962019232769 -0.1556734604940776 0 0.16111454319985369 -0.16761184569825049 0 0.16868962019232769 -0.1556734604940776 0 0.17491180349900939 -0.1756967726641491 0 0.16111454319985369 -0.16761184569825049 0 
</DataArray>
</Points>
<Cells>
<DataArray type="UInt32" Name="connectivity" format="ascii">
0 1 2 3 4 5 6 7 8 9 10 11 12 13 14 15 16 17 18 19 20 21 22 23 24 25 26 27 28 29 30 31 32 33 34 35 36 37 38 39 40 41 42 43 44 45 46 47 48 49 50 51 52 53 54 55 56 57 58 59 60 61 62 63 64 65 66 67 68 69 70 71 72 73 74 75 76 77 78 79 80 81 82 83 84 85 86 87 88 89 90 91 92 93 94 95 96 97 98 99 100 101 102 103 104 105 106 107 108 109 110 111 112 113 114 115 116 117 118 119 120 121 122 123 124 125 126 127 128 129 130 131 132 133 134 135 136 137 138 139 140 141 142 143 144 145 146 147 148 149 150 151 152 153 154 155 156 157 158 159 160 161 162 163 164 165 166 167 168 169 170 171 172 173 174 175 176 177 178 179 180 181 182 183 184 185 186 187 188 189 190 191 192 193 194 195 196 197 198 199 200 201 202 203 204 205 206 207 208 209 210 211 212 213 214 215 216 217 218 219 220 221 222 223 224 225 226 227 228 229 230 231 232 233 234 235 236 237 238 239 240 241 242 243 244 245 246 247 248 249 250 251 252 253 254 255 256 257 258 259 260 261 262 263 264 265 266 267 268 269 270 271 272 273 274 275 276 277 278 279 280 281 282 283 284 285 286 287 288 289 290 291 292 293 294 295 296 297 298 299 300 301 302 303 304 305 306 307 308 309 310 311 312 313 314 315 316 317 318 319 320 321 322 323 324 325 326 327 328 329 330 331 332 333 334 335 336 337 338 339 340 341 342 343 344 345 346 347 348 349 350 351 352 353 354 355 356 357 358 359 360 361 362 363 364 365 366 367 368 369 370 371 372 373 374 375 376 377 378 379 380 381 382 383 384 385 386 387 388 389 390 391 392 393 394 395 396 397 398 399 400 401 402 403 404 405 406 407 408 409 410 411 412 413 414 415 416 417 418 419 420 421 422 423 424 425 426 427 428 429 430 431 432 433 434 435 436 437 438 439 440 441 442 443 444 445 446 447 448 449 450 451 452 453 454 455 456 457 458 459 460 461 462 463 464 465 466 467 468 469 470 471 472 473 474 475 476 477 478 479 480 481 482 483 484 485 486 487 488 489 490 491 492 493 494 495 496 497 498 499 500 501 502 503 504 505 506 507 508 509 510 511 512 513 514 515 516 517 518 519 520 521 522 523 524 525 526 527 528 529 530 531 532 533 534 535 536 537 538 539 540 541 542 543 544 545 546 547 548 549 550 551 552 553 554 555 556 557 558 559 560 561 562 563 564 565 566 567 568 569 570 571 572 573 574 575 576 577 578 579 580 581 582 583 584 585 586 587 588 589 590 591 592 593 594 595 596 597 598 599 600 601 602 603 604 605 606 607 608 609 610 611 612 613 614 615 616 617 618 619 620 621 622 623 624 625 626 627 628 629 630 631 632 633 634 635 636 637 638 639 640 641 642 643 644 645 646 647 648 649 650 651 652 653 654 655 656 657 658 659 660 661 662 663 664 665 666 667 668 669 670 671 672 673 674 675 676 677 678 679 680 681 682 683 684 685 686 687 688 689 690 691 692 693 694 695 696 697 698 699 700 701 702 703 704 705 706 707 708 709 710 711 712 713 714 715 716 717 718 719 720 721 722 723 724 725 726 727 728 729 730 731 732 733 734 735 736 737 738 739 740 741 742 743 744 745 746 747 748 749 750 751 752 753 754 755 756 757 758 759 760 761 762 763 764 765 766 767 768 769 770 771 772 773 774 775 776 777 778 779 780 781 782 783 784 785 786 787 788 789 790 791 792 793 794 795 796 797 798 799 800 801 802 803 804 805 806 807 808 809 810 811 812 813 814 815 816 817 818 819 820 821 822 823 824 825 826 827 828 829 830 831 832 833 834 835 836 837 838 839 840 841 842 843 844 845 846 847 848 849 850 851 852 853 854 855 856 857 858 859 860 861 862 863 864 865 866 867 868 869 870 871 872 873 874 875 876 877 878 879 880 881 882 883 884 885 886 887 888 889 890 891 892 893 894 895 896 897 898 899 900 901 902 903 904 905 906 907 908 909 910 911 912 913 914 915 916 917 918 919 920 921 922 923 924 925 926 927 928 929 930 931 932 933 934 935 936 937 938 939 940 941 942 943 944 945 946 947 948 949 950 951 952 953 954 955 956 957 958 959 960 961 962 963 964 965 966 967 968 969 970 971 972 973 974 975 976 977 978 979 980 981 982 983 984 985 986 987 988 989 990 991 992 993 994 995 996 997 998 999 1000 1001 1002 1003 1004 1005 1006 1007 1008 1009 1010 1011 1012 1013 1014 1015 1016 1017 1018 1019 1020 1021 1022 1023 1024 1025 1026 1027 1028 1029 1030 1031 1032 1033 1034 1035 1036 1037 1038 1039 1040 1041 1042 1043 1044 1045 1046 1047 1048 1049 1050 1051 1052 1053 1054 1055 1056 1057 1058 1059 1060 1061 1062 1063 1064 1065 1066 1067 1068 1069 1070 1071 1072 1073 1074 1075 1076 1077 1078 1079 1080 1081 1082 1083 1084 1085 1086 1087 1088 1089 1090 1091 1092 1093 1094 1095 1096 1097 1098 1099 1100 1101 1102 1103 1104 1105 1106 1107 1108 1109 1110 1111 1112 1113 1114 1115 1116 1117 1118 1119 1120 1121 1122 1123 1124 1125 1126 1127 1128 1129 1130 1131 1132 1133 1134 1135 1136 1137 1138 1139 1140 1141 1142 1143 1144 1145 1146 1147 1148 1149 1150 1151 1152 1153 1154 1155 1156 1157 1158 1159 1160 1161 1162 1163 1164 1165 1166 1167 1168 1169 1170 1171 1172 1173 1174 1175 1176 1177 1178 1179 1180 1181 1182 1183 1184 1185 1186 1187 1188 1189 1190 1191 1192 1193 1194 1195 1196 1197 1198 1199 1200 1201 1202 1203 1204 1205 1206 1207 1208 1209 1210 1211 1212 1213 1214 1215 1216 1217 1218 1219 1220 1221 1222 1223 1224 1225 1226 1227 1228 1229 1230 1231 1232 1233 1234 1235 1236 1237 1238 1239 1240 1241 1242 1243 1244 1245 1246 1247 1248 1249 1250 1251 1252 1253 1254 1255 1256 1257 1258 1259 1260 1261 1262 1263 1264 1265 1266 1267 1268 1269 1270 1271 1272 1273 1274 1275 1276 1277 1278 1279 1280 1281 1282 1283 1284 1285 1286 1287 1288 1289 1290 1291 1292 1293 1294 1295 1296 1297 1298 1299 1300 1301 1302 1303 1304 1305 1306 1307 1308 1309 1310 1311 1312 1313 1314 1315 1316 1317 1318 1319 1320 1321 1322 1323 1324 1325 1326 1327 1328 1329 1330 1331 1332 1333 1334 1335 1336 1337 1338 1339 1340 1341 1342 1343 1344 1345 1346 1347 1348 1349 1350 1351 1352 1353 1354 1355 1356 1357 1358 1359 1360 1361 1362 1363 1364 1365 1366 1367 1368 1369 1370 1371 1372 1373 1374 1375 1376 1377 1378 1379 1380 1381 1382 1383 1384 1385 1386 1387 1388 1389 1390 1391 1392 1393 1394 1395 1396 1397 1398 1399 1400 1401 1402 1403 1404 1405 1406 1407 1408 1409 1410 1411 1412 1413 1414 1415 1416 1417 1418 1419 1420 1421 1422 1423 1424 1425 1426 1427 1428 1429 1430 1431 1432 1433 1434 1435 1436 1437 1438 1439 1440 1441 1442 1443 1444 1445 1446 1447 1448 1449 1450 1451 1452 1453 1454 1455 1456 1457 1458 1459 1460 1461 1462 1463 1464 1465 1466 1467 1468 1469 1470 1471 1472 1473 1474 1475 1476 1477 1478 1479 1480 1481 1482 1483 1484 1485 1486 1487 1488 1489 1490 1491 1492 1493 1494 1495 1496 1497 1498 1499 1500 1501 1502 1503 1504 1505 1506 1507 1508 1509 1510 1511 1512 1513 1514 1515 1516 1517 1518 1519 1520 1521 1522 1523 1524 1525 1526 1527 1528 1529 1530 1531 1532 1533 1534 1535 1536 1537 1538 1539 1540 1541 1542 1543 1544 1545 1546 1547 1548 1549 1550 1551 1552 1553 1554 1555 1556 1557 1558 1559 1560 1561 1562 1563 1564 1565 1566 1567 1568 1569 1570 1571 1572 1573 1574 1575 1576 1577 1578 1579 1580 1581 1582 1583 1584 1585 1586 1587 1588 1589 1590 1591 1592 1593 1594 1595 1596 1597 1598 1599 1600 1601 1602 1603 1604 1605 1606 1607 1608 1609 1610 1611 1612 1613 1614 1615 1616 1617 1618 1619 1620 1621 1622 1623 1624 1625 1626 1627 1628 1629 1630 1631 1632 1633 1634 1635 1636 1637 1638 1639 1640 1641 1642 1643 1644 1645 1646 1647 1648 1649 1650 1651 1652 1653 1654 1655 1656 1657 1658 1659 1660 1661 1662 1663 1664 1665 1666 1667 1668 1669 1670 1671 1672 1673 1674 1675 1676 1677 1678 1679 1680 1681 1682 1683 1684 1685 1686 1687 1688 1689 1690 1691 1692 1693 1694 1695 1696 1697 1698 1699 1700 1701 1702 1703 1704 1705 1706 1707 1708 1709 1710 1711 1712 1713 1714 1715 1716 1717 1718 1719 1720 1721 1722 1723 1724 1725 1726 1727 1728 1729 1730 1731 1732 1733 1734 1735 1736 1737 1738 1739 1740 1741 1742 1743 1744 1745 1746 1747 1748 1749 1750 1751 1752 1753 1754 1755 1756 1757 1758 1759 1760 1761 1762 1763 1764 1765 1766 1767 1768 1769 1770 1771 1772 1773 1774 1775 1776 1777 1778 1779 1780 1781 1782 1783 1784 1785 1786 1787 1788 1789 1790 1791 1792 1793 1794 1795 1796 1797 1798 1799 1800 1801 1802 1803 1804 1805 1806 1807 1808 1809 1810 1811 1812 1813 1814 1815 1816 1817 1818 1819 1820 1821 1822 1823 1824 1825 1826 1827 1828 1829 1830 1831 1832 1833 1834 1835 1836 1837 1838 1839 1840 1841 1842 1843 1844 1845 1846 1847 1848 1849 1850 1851 1852 1853 1854 1855 1856 1857 1858 1859 1860 1861 1862 1863 1864 1865 1866 1867 1868 1869 1870 1871 1872 1873 1874 1875 1876 1877 1878 1879 1880 1881 1882 1883 1884 1885 1886 1887 1888 1889 1890 1891 1892 1893 1894 1895 1896 1897 1898 1899 1900 1901 1902 1903 1904 1905 1906 1907 1908 1909 1910 1911 1912 1913 1914 1915 1916 1917 1918 1919 1920 1921 1922 1923 1924 1925 1926 1927 1928 1929 1930 1931 1932 1933 1934 1935 1936 1937 1938 1939 1940 1941 1942 1943 1944 1945 1946 1947 1948 1949 1950 1951 1952 1953 1954 1955 1956 1957 1958 1959 1960 1961 1962 1963 1964 1965 1966 1967 1968 1969 1970 1971 1972 1973 1974 1975 1976 1977 1978 1979 1980 1981 1982 1983 1984 1985 1986 1987 1988 1989 1990 1991 1992 1993 1994 1995 1996 1997 1998 1999 2000 2001 2002 2003 2004 2005 2006 2007 2008 2009 2010 2011 2012 2013 2014 2015 2016 2017 2018 2019 2020 2021 2022 2023 2024 2025 2026 2027 2028 2029 2030 2031 2032 2033 2034 2035 2036 2037 2038 2039 2040 2041 2042 2043 2044 2045 2046 2047 2048 2049 2050 2051 2052 2053 2054 2055 2056 2057 2058 2059 2060 2061 2062 2063 2064 2065 2066 2067 2068 2069 2070 2071 2072 2073 2074 2075 2076 2077 2078 2079 2080 2081 2082 2083 2084 2085 2086 2087 2088 2089 2090 2091 2092 2093 2094 2095 2096 2097 2098 2099 2100 2101 2102 2103 2104 2105 2106 2107 2108 2109 2110 2111 2112 2113 2114 2115 2116 2117 2118 2119 2120 2121 2122 2123 2124 2125 2126 2127 2128 2129 2130 2131 2132 2133 2134 2135 2136 2137 2138 2139 2140 2141 2142 2143 2144 2145 2146 2147 2148 2149 2150 2151 2152 2153 2154 2155 2156 2157 2158 2159 2160 2161 2162 2163 2164 2165 2166 2167 2168 2169 2170 2171 2172 2173 2174 2175 2176 2177 2178 2179 2180 2181 2182 2183 2184 2185 2186 2187 2188 2189 2190 2191 2192 2193 2194 2195 2196 2197 2198 2199 2200 2201 2202 2203 2204 2205 2206 2207 2208 2209 2210 2211 2212 2213 2214 2215 2216 2217 2218 2219 2220 2221 2222 2223 2224 2225 2226 2227 2228 2229 2230 2231 2232 2233 2234 2235 2236 2237 2238 2239 2240 2241 2242 2243 2244 2245 2246 2247 2248 2249 2250 2251 2252 2253 2254 2255 2256 2257 2258 2259 2260 2261 2262 2263 2264 2265 2266 2267 2268 2269 2270 2271 2272 2273 2274 2275 2276 2277 2278 2279 2280 2281 2282 2283 2284 2285 2286 2287 2288 2289 2290 2291 2292 2293 2294 2295 2296 2297 2298 2299 2300 2301 2302 2303 2304 2305 2306 2307 2308 2309 2310 2311 2312 2313 2314 2315 2316 2317 2318 2319 2320 2321 2322 2323 2324 2325 2326 2327 2328 2329 2330 2331 2332 2333 2334 2335 2336 2337 2338 2339 2340 2341 2342 2343 2344 2345 2346 2347 2348 2349 2350 2351 2352 2353 2354 2355 2356 2357 2358 2359 2360 2361 2362 2363 2364 2365 2366 2367 2368 2369 2370 2371 2372 2373 2374 2375 2376 2377 2378 2379 2380 2381 2382 2383 2384 2385 2386 2387 2388 2389 2390 2391 2392 2393 2394 2395 2396 2397 2398 2399 2400 2401 2402 2403 2404 2405 2406 2407 2408 2409 2410 2411 2412 2413 2414 2415 2416 2417 2418 2419 2420 2421 2422 2423 2424 2425 2426 2427 2428 2429 2430 2431 2432 2433 2434 2435 2436 2437 2438 2439 2440 2441 2442 2443 2444 2445 2446 2447 2448 2449 2450 2451 2452 2453 2454 2455 2456 2457 2458 2459 2460 2461 2462 2463 2464 2465 2466 2467 2468 2469 2470 2471 2472 2473 2474 2475 2476 2477 2478 2479 2480 2481 2482 2483 2484 2485 2486 2487 2488 2489 2490 2491 2492 2493 2494 2495 2496 2497 2498 2499 2500 2501 2502 2503 2504 2505 2506 2507 2508 2509 2510 2511 2512 2513 2514 2515 2516 2517 2518 2519 2520 2521 2522 2523 2524 2525 2526 2527 2528 2529 2530 2531 2532 2533 2534 2535 2536 2537 2538 2539 2540 2541 2542 2543 2544 2545 2546 2547 2548 2549 2550 2551 2552 2553 2554 2555 2556 2557 2558 2559 2560 2561 2562 2563 2564 2565 2566 2567 2568 2569 2570 2571 2572 2573 2574 2575 2576 2577 2578 2579 2580 2581 2582 2583 2584 2585 2586 2587 2588 2589 2590 2591 2592 2593 2594 2595 2596 2597 2598 2599 2600 2601 2602 2603 2604 2605 2606 2607 2608 2609 2610 2611 2612 2613 2614 2615 2616 2617 2618 2619 2620 2621 2622 2623 2624 2625 2626 2627 2628 2629 2630 2631 2632 2633 2634 2635 2636 2637 2638 2639 2640 2641 2642 2643 2644 2645 2646 2647 2648 2649 2650 2651 2652 2653 2654 2655 2656 2657 2658 2659 2660 2661 2662 2663 2664 2665 2666 2667 2668 2669 2670 2671 2672 2673 2674 2675 2676 2677 2678 2679 2680 2681 2682 2683 2684 2685 2686 2687 2688 2689 2690 2691 2692 2693 2694 2695 2696 2697 2698 2699 2700 2701 2702 2703 2704 2705 2706 2707 2708 2709 2710 2711 2712 2713 2714 2715 2716 2717 2718 2719 2720 2721 2722 2723 2724 2725 2726 2727 2728 2729 2730 2731 2732 2733 2734 2735 2736 2737 2738 2739 2740 2741 2742 2743 2744 2745 2746 2747 2748 2749 2750 2751 2752 2753 2754 2755 2756 2757 2758 2759 2760 2761 2762 2763 2764 2765 2766 2767 2768 2769 2770 2771 2772 2773 2774 2775 2776 2777 2778 2779 2780 2781 2782 2783 2784 2785 2786 2787 2788 2789 2790 2791 2792 2793 2794 2795 2796 2797 2798 2799 2800 2801 2802 2803 2804 2805 2806 2807 2808 2809 2810 2811 2812 2813 2814 2815 2816 2817 2818 2819 2820 2821 2822 2823 2824 2825 2826 2827 2828 2829 2830 2831 2832 2833 2834 2835 2836 2837 2838 2839 2840 2841 2842 2843 2844 2845 2846 2847 2848 2849 2850 2851 2852 2853 2854 2855 2856 2857 2858 2859 2860 2861 2862 2863 2864 2865 2866 2867 2868 2869 2870 2871 2872 2873 2874 2875 2876 2877 2878 2879 2880 2881 2882 2883 2884 2885 2886 2887 2888 2889 2890 2891 2892 2893 2894 2895 2896 2897 2898 2899 2900 2901 2902 2903 2904 2905 2906 2907 2908 2909 2910 2911 2912 2913 2914 2915 2916 2917 2918 2919 2920 2921 2922 2923 2924 2925 2926 2927 2928 2929 2930 2931 2932 2933 2934 2935 2936 2937 2938 2939 2940 2941 2942 2943 2944 2945 2946 2947 2948 2949 2950 2951 2952 2953 2954 2955 2956 2957 2958 2959 2960 2961 2962 2963 2964 2965 2966 2967 2968 2969 2970 2971 2972 2973 2974 2975 2976 2977 2978 2979 2980 2981 2982 2983 2984 2985 2986 2987 2988 2989 2990 2991 2992 2993 2994 2995 2996 2997 2998 2999 3000 3001 3002 3003 3004 3005 3006 3007 3008 3009 3010 3011 3012 3013 3014 3015 3016 3017 3018 3019 3020 3021 3022 3023 3024 3025 3026 3027 3028 3029 3030 3031 3032 3033 3034 3035 3036 3037 3038 3039 3040 3041 3042 3043 3044 3045 3046 3047 3048 3049 3050 3051 3052 3053 3054 3055 3056 3057 3058 3059 3060 3061 3062 3063 3064 3065 3066 3067 3068 3069 3070 3071 3072 3073 3074 3075 3076 3077 3078 3079 3080 3081 3082 3083 3084 3085 3086 3087 3088 3089 3090 3091 3092 3093 3094 3095 3096 3097 3098 3099 3100 3101 3102 3103 3104 3105 3106 3107 3108 3109 3110 3111 3112 3113 3114 3115 3116 3117 3118 3119 3120 3121 3122 3123 3124 3125 3126 3127 3128 3129 3130 3131 3132 3133 3134 3135 3136 3137 3138 3139 3140 3141 3142 3143 3144 3145 3146 3147 3148 3149 3150 3151 3152 3153 3154 3155 3156 3157 3158 3159 3160 3161 3162 3163 3164 3165 3166 3167 3168 3169 3170 3171 3172 3173 3174 3175 3176 3177 3178 3179 3180 3181 3182 3183 3184 3185 3186 3187 3188 3189 3190 3191 3192 3193 3194 3195 3196 3197 3198 3199 3200 3201 3202 3203 3204 3205 3206 3207 3208 3209 3210 3211 3212 3213 3214 3215 3216 3217 3218 3219 3220 3221 3222 3223 3224 3225 3226 3227 3228 3229 3230 3231 3232 3233 3234 3235 3236 3237 3238 3239 3240 3241 3242 3243 3244 3245 3246 3247 3248 3249 3250 3251 3252 3253 3254 3255 3256 3257 3258 3259 3260 3261 3262 3263 3264 3265 3266 3267 3268 3269 3270 3271 3272 3273 3274 3275 3276 3277 3278 3279 3280 3281 3282 3283 3284 3285 3286 3287 3288 3289 3290 3291 3292 3293 3294 3295 3296 3297 3298 3299 3300 3301 3302 3303 3304 3305 3306 3307 3308 3309 3310 3311 3312 3313 3314 3315 3316 3317 3318 3319 3320 3321 3322 3323 3324 3325 3326 3327 3328 3329 3330 3331 3332 3333 3334 3335 3336 3337 3338 3339 3340 3341 3342 3343 3344 3345 3346 3347 3348 3349 3350 3351 3352 3353 3354 3355 3356 3357 3358 3359 3360 3361 3362 3363 3364 3365 3366 3367 3368 3369 3370 3371 3372 3373 3374 3375 3376 3377 3378 3379 3380 3381 3382 3383 3384 3385 3386 3387 3388 3389 3390 3391 3392 3393 3394 3395 3396 3397 3398 3399 3400 3401 3402 3403 3404 3405 3406 3407 3408 3409 3410 3411 3412 3413 3414 3415 3416 3417 3418 3419 3420 3421 3422 3423 3424 3425 3426 3427 3428 3429 3430 3431 3432 3433 3434 3435 3436 3437 3438 3439 3440 3441 3442 3443 3444 3445 3446 3447 3448 3449 3450 3451 3452 3453 3454 3455 3456 3457 3458 3459 3460 3461 3462 3463 3464 3465 3466 3467 3468 3469 3470 3471 3472 3473 3474 3475 3476 3477 3478 3479 3480 3481 3482 3483 3484 3485 3486 3487 3488 3489 3490 3491 3492 3493 3494 3495 3496 3497 3498 3499 3500 3501 3502 3503 3504 3505 3506 3507 3508 3509 3510 3511 3512 3513 3514 3515 3516 3517 3518 3519 3520 3521 3522 3523 3524 3525 3526 3527 3528 3529 3530 3531 3532 3533 3534 3535 3536 3537 3538 3539 3540 3541 3542 3543 3544 3545 3546 3547 3548 3549 3550 3551 3552 3553 3554 3555 3556 3557 3558 3559 3560 3561 3562 3563 3564 3565 3566 3567 3568 3569 3570 3571 3572 3573 3574 3575 3576 3577 3578 3579 3580 3581 3582 3583 3584 3585 3586 3587 3588 3589 3590 3591 3592 3593 3594 3595 3596 3597 3598 3599 3600 3601 3602 3603 3604 3605 3606 3607 3608 3609 3610 3611 3612 3613 3614 3615 3616 3617 3618 3619 3620 3621 3622 3623 3624 3625 3626 3627 3628 3629 3630 3631 3632 3633 3634 3635 3636 3637 3638 3639 3640 3641 3642 3643 3644 3645 3646 3647 3648 3649 3650 3651 3652 3653 3654 3655 3656 3657 3658 3659 3660 3661 3662 3663 3664 3665 3666 3667 3668 3669 3670 3671 3672 3673 3674 3675 3676 3677 3678 3679 3680 3681 3682 3683 3684 3685 3686 3687 3688 3689 3690 3691 3692 3693 3694 3695 3696 3697 3698 3699 3700 3701 3702 3703 3704 3705 3706 3707 3708 3709 3710 3711 3712 3713 3714 3715 3716 3717 3718 3719 3720 3721 3722 3723 3724 3725 3726 3727 3728 3729 3730 3731 3732 3733 3734 3735 3736 3737 3738 3739 3740 3741 3742 3743 3744 3745 3746 3747 3748 3749 3750 3751 3752 3753 3754 3755 3756 3757 3758 3759 3760 3761 3762 3763 3764 3765 3766 3767 3768 3769 3770 3771 3772 3773 3774 3775 3776 3777 3778 3779 3780 3781 3782 3783 3784 3785 3786 3787 3788 3789 3790 3791 3792 3793 3794 3795 3796 3797 3798 3799 3800 3801 3802 3803 3804 3805 3806 3807 3808 3809 3810 3811 3812 3813 3814 3815 3816 3817 3818 3819 3820 3821 3822 3823 3824 3825 3826 3827 3828 3829 3830 3831 3832 3833 3834 3835 3836 3837 3838 3839 3840 3841 3842 3843 3844 3845 3846 3847 3848 3849 3850 3851 3852 3853 3854 3855 3856 3857 3858 3859 3860 3861 3862 3863 3864 3865 3866 3867 3868 3869 3870 3871 3872 3873 3874 3875 3876 3877 3878 3879 3880 3881 3882 3883 3884 3885 3886 3887 3888 3889 3890 3891 3892 3893 3894 3895 3896 3897 3898 3899 3900 3901 3902 3903 3904 3905 3906 3907 3908 3909 3910 3911 3912 3913 3914 3915 3916 3917 3918 3919 3920 3921 3922 3923 3924 3925 3926 3927 3928 3929 3930 3931 3932 3933 3934 3935 3936 3937 3938 3939 3940 3941 3942 3943 3944 3945 3946 3947 3948 3949 3950 3951 3952 3953 3954 3955 3956 3957 3958 3959 3960 3961 3962 3963 3964 3965 3966 3967 3968 3969 3970 3971 3972 3973 3974 3975 3976 3977 3978 3979 3980 3981 3982 3983 3984 3985 3986 3987 3988 3989 3990 3991 3992 3993 3994 3995 3996 3997 3998 3999 4000 4001 4002 4003 4004 4005 4006 4007 4008 4009 4010 4011 4012 4013 4014 4015 4016 4017 4018 4019 4020 4021 4022 4023 4024 4025 4026 4027 4028 4029 4030 4031 4032 4033 4034 4035 4036 4037 4038 4039 4040 4041 4042 4043 4044 4045 4046 4047 4048 4049 4050 4051 4052 4053 4054 4055 4056 4057 4058 4059 4060 4061 4062 4063 4064 4065 4066 4067 4068 4069 4070 4071 4072 4073 4074 4075 4076 4077 4078 4079 4080 4081 4082 4083 4084 4085 4086 4087 4088 4089 4090 4091 4092 4093 4094 4095 4096 4097 4098 4099 4100 4101 4102 4103 4104 4105 4106 4107 4108 4109 4110 4111 4112 4113 4114 4115 4116 4117 4118 4119 4120 4121 4122 4123 4124 4125 4126 4127 4128 4129 4130 4131 4132 4133 4134 4135 4136 4137 4138 4139 4140 4141 4142 4143 4144 4145 4146 4147 4148 4149 4150 4151 4152 4153 4154 4155 4156 4157 4158 4159 4160 4161 4162 4163 4164 4165 4166 4167 4168 4169 4170 4171 4172 4173 4174 4175 4176 4177 4178 4179 4180 4181 4182 4183 4184 4185 4186 4187 4188 4189 4190 4191 4192 4193 4194 4195 4196 4197 4198 4199 4200 4201 4202 4203 4204 4205 4206 4207 4208 4209 4210 4211 4212 4213 4214 4215 4216 4217 4218 4219 4220 4221 4222 4223 4224 4225 4226 4227 4228 4229 4230 4231 4232 4233 4234 4235 4236 4237 4238 4239 4240 4241 4242 4243 4244 4245 4246 4247 4248 4249 4250 4251 4252 4253 4254 4255 4256 4257 4258 4259 4260 4261 4262 4263 4264 4265 4266 4267 4268 4269 4270 4271 4272 4273 4274 4275 4276 4277 4278 4279 4280 4281 4282 4283 4284 4285 4286 4287 4288 4289 4290 4291 4292 4293 4294 4295 4296 4297 4298 4299 4300 4301 4302 4303 4304 4305 4306 4307 4308 4309 4310 4311 4312 4313 4314 4315 4316 4317 4318 4319 4320 4321 4322 4323 4324 4325 4326 4327 4328 4329 4330 4331 4332 4333 4334 4335 4336 4337 4338 4339 4340 4341 4342 4343 4344 4345 4346 4347 4348 4349 4350 4351 4352 4353 4354 4355 4356 4357 4358 4359 4360 4361 4362 4363 4364 4365 4366 4367 4368 4369 4370 4371 4372 4373 4374 4375 4376 4377 4378 4379 4380 4381 4382 4383 4384 4385 4386 4387 4388 4389 4390 4391 4392 4393 4394 4395 4396 4397 4398 4399 4400 4401 4402 4403 4404 4405 4406 4407 4408 4409 4410 4411 4412 4413 4414 4415 4416 4417 4418 4419 4420 4421 4422 4423 4424 4425 4426 4427 4428 4429 4430 4431 4432 4433 4434 4435 4436 4437 4438 4439 4440 4441 4442 4443 4444 4445 4446 4447 4448 4449 4450 4451 4452 4453 4454 4455 4456 4457 4458 4459 4460 4461 4462 4463 4464 4465 4466 4467 4468 4469 4470 4471 4472 4473 4474 4475 4476 4477 4478 4479 4480 4481 4482 4483 4484 4485 4486 4487 4488 4489 4490 4491 4492 4493 4494 4495 4496 4497 4498 4499 4500 4501 4502 4503 4504 4505 4506 4507 4508 4509 4510 4511 4512 4513 4514 4515 4516 4517 4518 4519 4520 4521 4522 4523 4524 4525 4526 4527 4528 4529 4530 4531 4532 4533 4534 4535 4536 4537 4538 4539 4540 4541 4542 4543 4544 4545 4546 4547 4548 4549 4550 4551 4552 4553 4554 4555 4556 4557 4558 4559 4560 4561 4562 4563 4564 4565 4566 4567 4568 4569 4570 4571 4572 4573 4574 4575 4576 4577 4578 4579 4580 4581 4582 4583 4584 4585 4586 4587 4588 4589 4590 4591 4592 4593 4594 4595 4596 4597 4598 4599 4600 4601 4602 4603 4604 4605 4606 4607 4608 4609 4610 4611 4612 4613 4614 4615 4616 4617 4618 4619 4620 4621 4622 4623 4624 4625 4626 4627 4628 4629 4630 4631 4632 4633 4634 4635 4636 4637 4638 4639 4640 4641 4642 4643 4644 4645 4646 4647 4648 4649 4650 4651 4652 4653 4654 4655 4656 4657 4658 4659 4660 4661 4662 4663 4664 4665 4666 4667 4668 4669 4670 4671 4672 4673 4674 4675 4676 4677 4678 4679 4680 4681 4682 4683 4684 4685 4686 4687 4688 4689 4690 4691 4692 4693 4694 4695 4696 4697 4698 4699 4700 4701 4702 4703 4704 4705 4706 4707 4708 4709 4710 4711 4712 4713 4714 4715 4716 4717 4718 4719 4720 4721 4722 4723 4724 4725 4726 4727 4728 4729 4730 4731 4732 4733 4734 4735 4736 4737 4738 4739 4740 4741 4742 4743 4744 4745 4746 4747 4748 4749 4750 4751 4752 4753 4754 4755 4756 4757 4758 4759 4760 4761 4762 4763 4764 4765 4766 4767 4768 4769 4770 4771 4772 4773 4774 4775 4776 4777 4778 4779 4780 4781 4782 4783 4784 4785 4786 4787 4788 4789 4790 4791 4792 4793 4794 4795 4796 4797 4798 4799 4800 4801 4802 4803 4804 4805 4806 4807 4808 4809 4810 4811 4812 4813 4814 4815 4816 4817 4818 4819 4820 4821 4822 4823 4824 4825 4826 4827 4828 4829 4830 4831 4832 4833 4834 4835 4836 4837 4838 4839 4840 4841 4842 4843 4844 4845 4846 4847 4848 4849 4850 4851 4852 4853 4854 4855 4856 4857 4858 4859 4860 4861 4862 4863 4864 4865 4866 4867 4868 4869 4870 4871 4872 4873 4874 4875 4876 4877 4878 4879 4880 4881 4882 4883 4884 4885 4886 4887 4888 4889 4890 4891 4892 4893 4894 4895 4896 4897 4898 4899 4900 4901 4902 4903 4904 4905 4906 4907 4908 4909 4910 4911 4912 4913 4914 4915 4916 4917 4918 4919 4920 4921 4922 4923 4924 4925 4926 4927 4928 4929 4930 4931 4932 4933 4934 4935 4936 4937 4938 4939 4940 4941 4942 4943 4944 4945 4946 4947 4948 4949 4950 4951 4952 4953 4954 4955 4956 4957 4958 4959 4960 4961 4962 4963 4964 4965 4966 4967 4968 4969 4970 4971 4972 4973 4974 4975 4976 4977 4978 4979 4980 4981 4982 4983 4984 4985 4986 4987 4988 4989 4990 4991 4992 4993 4994 4995 4996 4997 4998 4999 5000 5001 5002 5003 5004 5005 5006 5007 5008 5009 5010 5011 5012 5013 5014 5015 5016 5017 5018 5019 5020 5021 5022 5023 5024 5025 5026 5027 5028 5029 5030 5031 5032 5033 5034 5035 5036 5037 5038 5039 5040 5041 5042 5043 5044 5045 5046 5047 5048 5049 5050 5051 5052 5053 5054 5055 5056 5057 5058 5059 5060 5061 5062 5063 5064 5065 5066 5067 5068 5069 5070 5071 5072 5073 5074 5075 5076 5077 5078 5079 5080 5081 5082 5083 5084 5085 5086 5087 5088 5089 5090 5091 5092 5093 5094 5095 5096 5097 5098 5099 5100 5101 5102 5103 5104 5105 5106 5107 5108 5109 5110 5111 5112 5113 5114 5115 5116 5117 5118 5119 5120 5121 5122 5123 5124 5125 5126 5127 5128 5129 5130 5131 5132 5133 5134 5135 5136 5137 5138 5139 5140 5141 5142 5143 5144 5145 5146 5147 5148 5149 5150 5151 5152 5153 5154 5155 5156 5157 5158 5159 5160 5161 5162 5163 5164 5165 5166 5167 5168 5169 5170 5171 5172 5173 5174 5175 5176 5177 5178 5179 5180 5181 5182 5183 5184 5185 5186 5187 5188 5189 5190 5191 5192 5193 5194 5195 5196 5197 5198 5199 5200 5201 5202 5203 5204 5205 5206 5207 5208 5209 5210 5211 5212 5213 5214 5215 5216 5217 5218 5219 5220 5221 5222 5223 5224 5225 5226 5227 5228 5229 5230 5231 5232 5233 5234 5235 5236 5237 5238 5239 5240 5241 5242 5243 5244 5245 5246 5247 5248 5249 5250 5251 5252 5253 5254 5255 5256 5257 5258 5259 5260 5261 5262 5263 5264 5265 5266 5267 5268 5269 5270 5271 5272 5273 5274 5275 5276 5277 5278 5279 5280 5281 5282 5283 5284 5285 5286 5287 5288 5289 5290 5291 5292 5293 5294 5295 5296 5297 5298 5299 5300 5301 5302 5303 5304 5305 5306 5307 5308 5309 5310 5311 5312 5313 5314 5315 5316 5317 5318 5319 5320 5321 5322 5323 5324 5325 5326 5327 5328 5329 5330 5331 5332 5333 5334 5335 5336 5337 5338 5339 5340 5341 5342 5343 5344 5345 5346 5347 5348 5349 5350 5351 5352 5353 5354 5355 5356 5357 5358 5359 5360 5361 5362 5363 5364 5365 5366 5367 5368 5369 5370 5371 5372 5373 5374 5375 5376 5377 5378 5379 5380 5381 5382 5383 5384 5385 5386 5387 5388 5389 5390 5391 5392 5393 5394 5395 5396 5397 5398 5399 5400 5401 5402 5403 5404 5405 5406 5407 5408 5409 5410 5411 5412 5413 5414 5415 5416 5417 5418 5419 5420 5421 5422 5423 5424 5425 5426 5427 5428 5429 5430 5431 5432 5433 5434 5435 5436 5437 5438 5439 5440 5441 5442 5443 5444 5445 5446 5447 5448 5449 5450 5451 5452 5453 5454 5455 5456 5457 5458 5459 5460 5461 5462 5463 5464 5465 5466 5467 5468 5469 5470 5471 5472 5473 5474 5475 5476 5477 5478 5479 5480 5481 5482 5483 5484 5485 5486 5487 5488 5489 5490 5491 5492 5493 5494 5495 5496 5497 5498 5499 5500 5501 5502 5503 5504 5505 5506 5507 5508 5509 5510 5511 5512 5513 5514 5515 5516 5517 5518 5519 5520 5521 5522 5523 5524 5525 5526 5527 5528 5529 5530 5531 5532 5533 5534 5535 5536 5537 5538 5539 5540 5541 5542 5543 5544 5545 5546 5547 5548 5549 5550 5551 5552 5553 5554 5555 5556 5557 5558 5559 5560 5561 5562 5563 5564 5565 5566 5567 5568 5569 5570 5571 5572 5573 5574 5575 5576 5577 5578 5579 5580 5581 5582 5583 5584 5585 5586 5587 5588 5589 5590 5591 5592 5593 5594 5595 5596 5597 5598 5599 5600 5601 5602 5603 5604 5605 5606 5607 5608 5609 5610 5611 5612 5613 5614 5615 5616 5617 5618 5619 5620 5621 5622 5623 5624 5625 5626 5627 5628 5629 5630 5631 5632 5633 5634 5635 5636 5637 5638 5639 5640 5641 5642 5643 5644 5645 5646 5647 5648 5649 5650 5651 5652 5653 5654 5655 5656 5657 5658 5659 5660 5661 5662 5663 5664 5665 5666 5667 5668 5669 5670 5671 5672 5673 5674 5675 5676 5677 5678 5679 5680 5681 5682 5683 5684 5685 5686 5687 5688 5689 5690 5691 5692 5693 5694 5695 5696 5697 5698 5699 5700 5701 5702 5703 5704 5705 5706 5707 5708 5709 5710 5711 5712 5713 5714 5715 5716 5717 5718 5719 5720 5721 5722 5723 5724 5725 5726 5727 5728 5729 5730 5731 5732 5733 5734 5735 5736 5737 5738 5739 5740 5741 5742 5743 5744 5745 5746 5747 5748 5749 5750 5751 5752 5753 5754 5755 5756 5757 5758 5759 5760 5761 5762 5763 5764 5765 5766 5767 5768 5769 5770 5771 5772 5773 5774 5775 5776 5777 5778 5779 5780 5781 5782 5783 5784 5785 5786 5787 5788 5789 5790 5791 5792 5793 5794 5795 5796 5797 5798 5799 5800 5801 5802 5803 5804 5805 5806 5807 5808 5809 5810 5811 5812 5813 5814 5815 5816 5817 5818 5819 5820 5821 5822 5823 5824 5825 5826 5827 5828 5829 5830 5831 5832 5833 5834 5835 5836 5837 5838 5839 5840 5841 5842 5843 5844 5845 5846 5847 5848 5849 5850 5851 5852 5853 5854 5855 5856 5857 5858 5859 5860 5861 5862 5863 5864 5865 5866 5867 5868 5869 5870 5871 5872 5873 5874 5875 5876 5877 5878 5879 5880 5881 5882 5883 5884 5885 5886 5887 5888 5889 5890 5891 5892 5893 5894 5895 5896 5897 5898 5899 5900 5901 5902 5903 5904 5905 5906 5907 5908 5909 5910 5911 5912 5913 5914 5915 5916 5917 5918 5919 5920 5921 5922 5923 5924 5925 5926 5927 5928 5929 5930 5931 5932 5933 5934 5935 5936 5937 5938 5939 5940 5941 5942 5943 5944 5945 5946 5947 5948 5949 5950 5951 5952 5953 5954 5955 5956 5957 5958 5959 5960 5961 5962 5963 5964 5965 5966 5967 5968 5969 5970 5971 5972 5973 5974 5975 5976 5977 5978 5979 5980 5981 5982 5983 5984 5985 5986 5987 5988 5989 5990 5991 5992 5993 5994 5995 5996 5997 5998 5999 6000 6001 6002 6003 6004 6005 6006 6007 6008 6009 6010 6011 6012 6013 6014 6015 6016 6017 6018 6019 6020 6021 6022 6023 6024 6025 6026 6027 6028 6029 6030 6031 6032 6033 6034 6035 6036 6037 6038 6039 6040 6041 6042 6043 6044 6045 6046 6047 6048 6049 6050 6051 6052 6053 6054 6055 6056 6057 6058 6059 6060 6061 6062 6063 6064 6065 6066 6067 6068 6069 6070 6071 6072 6073 6074 6075 6076 6077 6078 6079 6080 6081 6082 6083 6084 6085 6086 6087 6088 6089 6090 6091 6092 6093 6094 6095 6096 6097 6098 6099 6100 6101 6102 6103 6104 6105 6106 6107 6108 6109 6110 6111 6112 6113 6114 6115 6116 6117 6118 6119 6120 6121 6122 6123 6124 6125 6126 6127 6128 6129 6130 6131 6132 6133 6134 6135 6136 6137 6138 6139 6140 6141 6142 6143 6144 6145 6146 6147 6148 6149 6150 6151 6152 6153 6154 6155 6156 6157 6158 6159 6160 6161 6162 6163 6164 6165 6166 6167 6168 6169 6170 6171 6172 6173 6174 6175 6176 6177 6178 6179 6180 6181 6182 6183 6184 6185 6186 6187 6188 6189 6190 6191 6192 6193 6194 6195 6196 6197 6198 6199 6200 6201 6202 6203 6204 6205 6206 6207 6208 6209 6210 6211 6212 6213 6214 6215 6216 6217 6218 6219 6220 6221 6222 6223 6224 6225 6226 6227 6228 6229 6230 6231 6232 6233 6234 6235 6236 6237 6238 6239 6240 6241 6242 6243 6244 6245 6246 6247 6248 6249 6250 6251 6252 6253 6254 6255 6256 6257 6258 6259 6260 6261 6262 6263 6264 6265 6266 6267 6268 6269 6270 6271 6272 6273 6274 6275 6276 6277 6278 6279 6280 6281 6282 6283 6284 6285 6286 6287 6288 6289 6290 6291 6292 6293 6294 6295 6296 6297 6298 6299 6300 6301 6302 6303 6304 6305 6306 6307 6308 6309 6310 6311 6312 6313 6314 6315 6316 6317 6318 6319 6320 6321 6322 6323 6324 6325 6326 6327 6328 6329 6330 6331 6332 6333 6334 6335 6336 6337 6338 6339 6340 6341 6342 6343 6344 6345 6346 6347 6348 6349 6350 6351 6352 6353 6354 6355 6356 6357 6358 6359 6360 6361 6362 6363 6364 6365 6366 6367 6368 6369 6370 6371 6372 6373 6374 6375 6376 6377 6378 6379 6380 6381 6382 6383 6384 6385 6386 6387 6388 6389 6390 6391 6392 6393 6394 6395 6396 6397 6398 6399 6400 6401 6402 6403 6404 6405 6406 6407 6408 6409 6410 6411 6412 6413 6414 6415 6416 6417 6418 6419 6420 6421 6422 6423 6424 6425 6426 6427 6428 6429 6430 6431 6432 6433 6434 6435 6436 6437 6438 6439 6440 6441 6442 6443 6444 6445 6446 6447 6448 6449 6450 6451 6452 6453 6454 6455 6456 6457 6458 6459 6460 6461 6462 6463 6464 6465 6466 6467 6468 6469 6470 6471 6472 6473 6474 6475 6476 6477 6478 6479 6480 6481 6482 6483 6484 6485 6486 6487 6488 6489 6490 6491 6492 6493 6494 6495 6496 6497 6498 6499 6500 6501 6502 6503 6504 6505 6506 6507 6508 6509 6510 6511 6512 6513 6514 6515 6516 6517 6518 6519 6520 6521 6522 6523 6524 6525 6526 6527 6528 6529 6530 6531 6532 6533 6534 6535 6536 6537 6538 6539 6540 6541 6542 6543 6544 6545 6546 6547 6548 6549 6550 6551 6552 6553 6554 6555 6556 6557 6558 6559 6560 6561 6562 6563 6564 6565 6566 6567 6568 6569 6570 6571 6572 6573 6574 6575 6576 6577 6578 6579 6580 6581 6582 6583 6584 6585 6586 6587 6588 6589 6590 6591 6592 6593 6594 6595 6596 6597 6598 6599 6600 6601 6602 6603 6604 6605 6606 6607 6608 6609 6610 6611 6612 6613 6614 6615 6616 6617 6618 6619 6620 6621 6622 6623 6624 6625 6626 6627 6628 6629 6630 6631 6632 6633 6634 6635 6636 6637 6638 6639 6640 6641 6642 6643 6644 6645 6646 6647 6648 6649 6650 6651 6652 6653 6654 6655 6656 6657 6658 6659 6660 6661 6662 6663 6664 6665 6666 6667 6668 6669 6670 6671 6672 6673 6674 6675 6676 6677 6678 6679 6680 6681 6682 6683 6684 6685 6686 6687 6688 6689 6690 6691 6692 6693 6694 6695 6696 6697 6698 6699 6700 6701 6702 6703 6704 6705 6706 6707 6708 6709 6710 6711 6712 6713 6714 6715 6716 6717 6718 6719 6720 6721 6722 6723 6724 6725 6726 6727 6728 6729 6730 6731 6732 6733 6734 6735 6736 6737 6738 6739 6740 6741 6742 6743 6744 6745 6746 6747 6748 6749 6750 6751 6752 6753 6754 6755 6756 6757 6758 6759 6760 6761 6762 6763 6764 6765 6766 6767 6768 6769 6770 6771 6772 6773 6774 6775 6776 6777 6778 6779 6780 6781 6782 6783 6784 6785 6786 6787 6788 6789 6790 6791 6792 6793 6794 6795 6796 6797 6798 6799 6800 6801 6802 6803 6804 6805 6806 6807 6808 6809 6810 6811 6812 6813 6814 6815 6816 6817 6818 6819 6820 6821 6822 6823 6824 6825 6826 6827 6828 6829 6830 6831 6832 6833 6834 6835 6836 6837 6838 6839 6840 6841 6842 6843 6844 6845 6846 6847 6848 6849 6850 6851 6852 6853 6854 6855 6856 6857 6858 6859 6860 6861 6862 6863 6864 6865 6866 6867 6868 6869 6870 6871 6872 6873 6874 6875 6876 6877 6878 6879 6880 6881 6882 6883 6884 6885 6886 6887 6888 6889 6890 6891 6892 6893 6894 6895 6896 6897 6898 6899 6900 6901 6902 6903 6904 6905 6906 6907 6908 6909 6910 6911 6912 6913 6914 6915 6916 6917 6918 6919 6920 6921 6922 6923 6924 6925 6926 6927 6928 6929 6930 6931 6932 6933 6934 6935 6936 6937 6938 6939 6940 6941 6942 6943 6944 6945 6946 6947 6948 6949 6950 6951 6952 6953 6954 6955 6956 6957 6958 6959 6960 6961 6962 6963 6964 6965 6966 6967 6968 6969 6970 6971 6972 6973 6974 6975 6976 6977 6978 6979 6980 6981 6982 6983 6984 6985 6986 6987 6988 6989 6990 6991 6992 6993 6994 6995 6996 6997 6998 6999 7000 7001 7002 7003 7004 7005 7006 7007 7008 7009 7010 7011 7012 7013 7014 7015 7016 7017 7018 7019 7020 7021 7022 7023 7024 7025 7026 7027 7028 7029 7030 7031 7032 7033 7034 7035 7036 7037 7038 7039 7040 7041 7042 7043 7044 7045 7046 7047 7048 7049 7050 7051 7052 7053 7054 7055 7056 7057 7058 7059 7060 7061 7062 7063 7064 7065 7066 7067 7068 7069 7070 7071 7072 7073 7074 7075 7076 7077 7078 7079 7080 7081 7082 7083 7084 7085 7086 7087 7088 7089 7090 7091 7092 7093 7094 7095 7096 7097 7098 7099 7100 7101 7102 7103 7104 7105 7106 7107 7108 7109 7110 7111 7112 7113 7114 7115 7116 7117 7118 7119 7120 7121 7122 7123 7124 7125 7126 7127 7128 7129 7130 7131 7132 7133 7134 7135 7136 7137 7138 7139 7140 7141 7142 7143 7144 7145 7146 7147 7148 7149 7150 7151 7152 7153 7154 7155 7156 7157 7158 7159 7160 7161 7162 7163 7164 7165 7166 7167 7168 7169 7170 7171 7172 7173 7174 7175 7176 7177 7178 7179 7180 7181 7182 7183 7184 7185 7186 7187 7188 7189 7190 7191 7192 7193 7194 7195 7196 7197 7198 7199 7200 7201 7202 7203 7204 7205 7206 7207 7208 7209 7210 7211 7212 7213 7214 7215 7216 7217 7218 7219 7220 7221 7222 7223 7224 7225 7226 7227 7228 7229 7230 7231 7232 7233 7234 7235 7236 7237 7238 7239 7240 7241 7242 7243 7244 7245 7246 7247 7248 7249 7250 7251 7252 7253 7254 7255 7256 7257 7258 7259 7260 7261 7262 7263 7264 7265 7266 7267 7268 7269 7270 7271 7272 7273 7274 7275 7276 7277 7278 7279 7280 7281 7282 7283 7284 7285 7286 7287 7288 7289 7290 7291 7292 7293 7294 7295 7296 7297 7298 7299 7300 7301 7302 7303 7304 7305 7306 7307 7308 7309 7310 7311 7312 7313 7314 7315 7316 7317 7318 7319 7320 7321 7322 7323 7324 7325 7326 7327 7328 7329 7330 7331 7332 7333 7334 7335 7336 7337 7338 7339 7340 7341 7342 7343 7344 7345 7346 7347 7348 7349 7350 7351 7352 7353 7354 7355 7356 7357 7358 7359 7360 7361 7362 7363 7364 7365 7366 7367 7368 7369 7370 7371 7372 7373 7374 7375 7376 7377 7378 7379 7380 7381 7382 7383 7384 7385 7386 7387 7388 7389 7390 7391 7392 7393 7394 7395 7396 7397 7398 7399 7400 7401 7402 7403 7404 7405 7406 7407 7408 7409 7410 7411 7412 7413 7414 7415 7416 7417 7418 7419 7420 7421 7422 7423 7424 7425 7426 7427 7428 7429 7430 7431 7432 7433 7434 7435 7436 7437 7438 7439 7440 7441 7442 7443 7444 7445 7446 7447 7448 7449 7450 7451 7452 7453 7454 7455 7456 7457 7458 7459 7460 7461 7462 7463 7464 7465 7466 7467 7468 7469 7470 7471 7472 7473 7474 7475 7476 7477 7478 7479 7480 7481 7482 7483 7484 7485 7486 7487 7488 7489 7490 7491 7492 7493 7494 7495 7496 7497 7498 7499 7500 7501 7502 7503 7504 7505 7506 7507 7508 7509 7510 7511 7512 7513 7514 7515 7516 7517 7518 7519 7520 7521 7522 7523 7524 7525 7526 7527 7528 7529 7530 7531 7532 7533 7534 7535 7536 7537 7538 7539 7540 7541 7542 7543 7544 7545 7546 7547 7548 7549 7550 7551 7552 7553 7554 7555 7556 7557 7558 7559 7560 7561 7562 7563 7564 7565 7566 7567 7568 7569 7570 7571 7572 7573 7574 7575 7576 7577 7578 7579 7580 7581 7582 7583 7584 7585 7586 7587 7588 7589 7590 7591 7592 7593 7594 7595 7596 7597 7598 7599 7600 7601 7602 7603 7604 7605 7606 7607 7608 7609 7610 7611 7612 7613 7614 7615 7616 7617 7618 7619 7620 7621 7622 7623 7624 7625 7626 7627 7628 7629 7630 7631 7632 7633 7634 7635 7636 7637 7638 7639 7640 7641 7642 7643 7644 7645 7646 7647 7648 7649 7650 7651 7652 7653 7654 7655 7656 7657 7658 7659 7660 7661 7662 7663 7664 7665 7666 7667 7668 7669 7670 7671 7672 7673 7674 7675 7676 7677 7678 7679 7680 7681 7682 7683 7684 7685 7686 7687 7688 7689 7690 7691 7692 7693 7694 7695 7696 7697 7698 7699 7700 7701 7702 7703 7704 7705 7706 7707 7708 7709 7710 7711 7712 7713 7714 7715 7716 7717 7718 7719 7720 7721 7722 7723 7724 7725 7726 7727 7728 7729 7730 7731 7732 7733 7734 7735 7736 7737 7738 7739 7740 7741 7742 7743 7744 7745 7746 7747 7748 7749 7750 7751 7752 7753 7754 7755 7756 7757 7758 7759 7760 7761 7762 7763 7764 7765 7766 7767 7768 7769 7770 7771 7772 7773 7774 7775 7776 7777 7778 7779 7780 7781 7782 7783 7784 7785 7786 7787 7788 7789 7790 7791 7792 7793 7794 7795 7796 7797 7798 7799 7800 7801 7802 7803 7804 7805 7806 7807 7808 7809 7810 7811 7812 7813 7814 7815 7816 7817 7818 7819 7820 7821 7822 7823 7824 7825 7826 7827 7828 7829 7830 7831 7832 7833 7834 7835 7836 7837 7838 7839 7840 7841 7842 7843 7844 7845 7846 7847 7848 7849 7850 7851 7852 7853 7854 7855 7856 7857 7858 7859 7860 7861 7862 7863 7864 7865 7866 7867 7868 7869 7870 7871 7872 7873 7874 7875 7876 7877 7878 7879 7880 7881 7882 7883 7884 7885 7886 7887 7888 7889 7890 7891 7892 7893 7894 7895 7896 7897 7898 7899 7900 7901 7902 7903 7904 7905 7906 7907 7908 7909 7910 7911 7912 7913 7914 7915 7916 7917 7918 7919 7920 7921 7922 7923 7924 7925 7926 7927 7928 7929 7930 7931 7932 7933 7934 7935 7936 7937 7938 7939 7940 7941 7942 7943 7944 7945 7946 7947 7948 7949 7950 7951 7952 7953 7954 7955 7956 7957 7958 7959 7960 7961 7962 7963 7964 7965 7966 7967 7968 7969 7970 7971 7972 7973 7974 7975 7976 7977 7978 7979 7980 7981 7982 7983 7984 7985 7986 7987 7988 7989 7990 7991 7992 7993 7994 7995 7996 7997 7998 7999 8000 8001 8002 8003 8004 8005 8006 8007 8008 8009 8010 8011 8012 8013 8014 8015 8016 8017 8018 8019 8020 8021 8022 8023 8024 8025 8026 8027 8028 8029 8030 8031 8032 8033 8034 8035 8036 8037 8038 8039 8040 8041 8042 8043 8044 8045 8046 8047 8048 8049 8050 8051 8052 8053 8054 8055 8056 8057 8058 8059 8060 8061 8062 8063 8064 8065 8066 8067 8068 8069 8070 8071 8072 8073 8074 8075 8076 8077 8078 8079 8080 8081 8082 8083 8084 8085 8086 8087 8088 8089 8090 8091 8092 8093 8094 8095 8096 8097 8098 8099 8100 8101 8102 8103 8104 8105 8106 8107 8108 8109 8110 8111 8112 8113 8114 8115 8116 8117 8118 8119 8120 8121 8122 8123 8124 8125 8126 8127 8128 8129 8130 8131 8132 8133 8134 8135 8136 8137 8138 8139 8140 8141 8142 8143 8144 8145 8146 8147 8148 8149 8150 8151 8152 8153 8154 8155 8156 8157 8158 8159 8160 8161 8162 8163 8164 8165 8166 8167 8168 8169 8170 8171 8172 8173 8174 8175 8176 8177 8178 8179 8180 8181 8182 8183 8184 8185 8186 8187 8188 8189 8190 8191 8192 8193 8194 8195 8196 8197 8198 8199 8200 8201 8202 8203 8204 8205 8206 8207 8208 8209 8210 8211 8212 8213 8214 8215 8216 8217 8218 8219 8220 8221 8222 8223 8224 8225 8226 8227 8228 8229 8230 8231 8232 8233 8234 8235 8236 8237 8238 8239 8240 8241 8242 8243 8244 8245 8246 8247 8248 8249 8250 8251 8252 8253 8254 8255 8256 8257 8258 8259 8260 8261 8262 8263 8264 8265 8266 8267 8268 8269 8270 8271 8272 8273 8274 8275 8276 8277 8278 8279 8280 8281 8282 8283 8284 8285 8286 8287 8288 8289 8290 8291 8292 8293 8294 8295 8296 8297 8298 8299 8300 8301 8302 8303 8304 8305 8306 8307 8308 8309 8310 8311 8312 8313 8314 8315 8316 8317 8318 8319 8320 8321 8322 8323 8324 8325 8326 8327 8328 8329 8330 8331 8332 8333 8334 8335 8336 8337 8338 8339 8340 8341 8342 8343 8344 8345 8346 8347 8348 8349 8350 8351 8352 8353 8354 8355 8356 8357 8358 8359 8360 8361 8362 8363 8364 8365 8366 8367 8368 8369 8370 8371 8372 8373 8374 8375 8376 8377 8378 8379 8380 8381 8382 8383 8384 8385 8386 8387 8388 8389 8390 8391 8392 8393 8394 8395 8396 8397 8398 8399 8400 8401 8402 8403 8404 8405 8406 8407 8408 8409 8410 8411 8412 8413 8414 8415 8416 8417 8418 8419 8420 8421 8422 8423 8424 8425 8426 8427 8428 8429 8430 8431 8432 8433 8434 8435 8436 8437 8438 8439 8440 8441 8442 8443 8444 8445 8446 8447 8448 8449 8450 8451 8452 8453 8454 8455 8456 8457 8458 8459 8460 8461 8462 8463 8464 8465 8466 8467 8468 8469 8470 8471 8472 8473 8474 8475 8476 8477 8478 8479 8480 8481 8482 8483 8484 8485 8486 8487 8488 8489 8490 8491 8492 8493 8494 8495 8496 8497 8498 8499 8500 8501 8502 8503 8504 8505 8506 8507 8508 8509 8510 8511 8512 8513 8514 8515 8516 8517 8518 8519 8520 8521 8522 8523 8524 8525 8526 8527 8528 8529 8530 8531 8532 8533 8534 8535 8536 8537 8538 8539 8540 8541 8542 8543 8544 8545 8546 8547 8548 8549 8550 8551 8552 8553 8554 8555 8556 8557 8558 8559 8560 8561 8562 8563 8564 8565 8566 8567 8568 8569 8570 8571 8572 8573 8574 8575 8576 8577 8578 8579 8580 8581 8582 8583 8584 8585 8586 8587 8588 8589 8590 8591 8592 8593 8594 8595 8596 8597 8598 8599 8600 8601 8602 8603 8604 8605 8606 8607 8608 8609 8610 8611 8612 8613 8614 8615 8616 8617 8618 8619 8620 8621 8622 8623 8624 8625 8626 8627 8628 8629 8630 8631 8632 8633 8634 8635 8636 8637 8638 8639 8640 8641 8642 8643 8644 8645 8646 8647 8648 8649 8650 8651 8652 8653 8654 8655 8656 8657 8658 8659 8660 8661 8662 8663 8664 8665 8666 8667 8668 8669 8670 8671 8672 8673 8674 8675 8676 8677 8678 8679 8680 8681 8682 8683 8684 8685 8686 8687 8688 8689 8690 8691 8692 8693 8694 8695 8696 8697 8698 8699 8700 8701 8702 8703 8704 8705 8706 8707 8708 8709 8710 8711 8712 8713 8714 8715 8716 8717 8718 8719 8720 8721 8722 8723 8724 8725 8726 8727 8728 8729 8730 8731 8732 8733 8734 8735 8736 8737 8738 8739 8740 8741 8742 8743 8744 8745 8746 8747 8748 8749 8750 8751 8752 8753 8754 8755 8756 8757 8758 8759 8760 8761 8762 8763 8764 8765 8766 8767 8768 8769 8770 8771 8772 8773 8774 8775 8776 8777 8778 8779 8780 8781 8782 8783 8784 8785 8786 8787 8788 8789 8790 8791 8792 8793 8794 8795 8796 8797 8798 8799 8800 8801 8802 8803 8804 8805 8806 8807 8808 8809 8810 8811 8812 8813 8814 8815 8816 8817 8818 8819 8820 8821 8822 8823 8824 8825 8826 8827 8828 8829 8830 8831 8832 8833 8834 8835 8836 8837 8838 8839 8840 8841 8842 8843 8844 8845 8846 8847 8848 8849 8850 8851 8852 8853 8854 8855 8856 8857 8858 8859 8860 8861 8862 8863 8864 8865 8866 8867 8868 8869 8870 8871 8872 8873 8874 8875 8876 8877 8878 8879 8880 8881 8882 8883 8884 8885 8886 8887 8888 8889 8890 8891 8892 8893 8894 8895 8896 8897 8898 8899 8900 8901 8902 8903 8904 8905 8906 8907 8908 8909 8910 8911 8912 8913 8914 8915 8916 8917 8918 8919 8920 8921 8922 8923 8924 8925 8926 8927 8928 8929 8930 8931 8932 8933 8934 8935 8936 8937 8938 8939 8940 8941 8942 8943 8944 8945 8946 8947 8948 8949 8950 8951 8952 8953 8954 8955 8956 8957 8958 8959 8960 8961 8962 8963 8964 8965 8966 8967 8968 8969 8970 8971 8972 8973 8974 8975 8976 8977 8978 8979 8980 8981 8982 8983 8984 8985 8986 8987 8988 8989 8990 8991 8992 8993 8994 8995 8996 8997 8998 8999 9000 9001 9002 9003 9004 9005 9006 9007 9008 9009 9010 9011 9012 9013 9014 9015 9016 9017 9018 9019 9020 9021 9022 9023 9024 9025 9026 9027 9028 9029 9030 9031 9032 9033 9034 9035 9036 9037 9038 9039 9040 9041 9042 9043 9044 9045 9046 9047 9048 9049 9050 9051 9052 9053 9054 9055 9056 9057 9058 9059 9060 9061 9062 9063 9064 9065 9066 9067 9068 9069 9070 9071 9072 9073 9074 9075 9076 9077 9078 9079 9080 9081 9082 9083 9084 9085 9086 9087 9088 9089 9090 9091 9092 9093 9094 9095 9096 9097 9098 9099 9100 9101 9102 9103 9104 9105 9106 9107 9108 9109 9110 9111 9112 9113 9114 9115 9116 9117 9118 9119 9120 9121 9122 9123 9124 9125 9126 9127 9128 9129 9130 9131 9132 9133 9134 9135 9136 9137 9138 9139 9140 9141 9142 9143 9144 9145 9146 9147 9148 9149 9150 9151 9152 9153 9154 9155 9156 9157 9158 9159 9160 9161 9162 9163 9164 9165 9166 9167 9168 9169 9170 9171 9172 9173 9174 9175 9176 9177 9178 9179 9180 9181 9182 9183 9184 9185 9186 9187 9188 9189 9190 9191 9192 9193 9194 9195 9196 9197 9198 9199 9200 9201 9202 9203 9204 9205 9206 9207 9208 9209 9210 9211 9212 9213 9214 9215 9216 9217 9218 9219 9220 9221 9222 9223 9224 9225 9226 9227 9228 9229 9230 9231 9232 9233 9234 9235 9236 9237 9238 9239 9240 9241 9242 9243 9244 9245 9246 9247 9248 9249 9250 9251 9252 9253 9254 9255 9256 9257 9258 9259 9260 9261 9262 9263 9264 9265 9266 9267 9268 9269 9270 9271 9272 9273 9274 9275 9276 9277 9278 9279 9280 9281 9282 9283 9284 9285 9286 9287 9288 9289 9290 9291 9292 9293 9294 9295 9296 9297 9298 9299 9300 9301 9302 9303 9304 9305 9306 9307 9308 9309 9310 9311 9312 9313 9314 9315 9316 9317 9318 9319 9320 9321 9322 9323 9324 9325 9326 9327 9328 9329 9330 9331 9332 9333 9334 9335 9336 9337 9338 9339 9340 9341 9342 9343 9344 9345 9346 9347 9348 9349 9350 9351 9352 9353 9354 9355 9356 9357 9358 9359 9360 9361 9362 9363 9364 9365 9366 9367 9368 9369 9370 9371 9372 9373 9374 9375 9376 9377 9378 9379 9380 9381 9382 9383 9384 9385 9386 9387 9388 9389 9390 9391 9392 9393 9394 9395 9396 9397 9398 9399 9400 9401 9402 9403 9404 9405 9406 9407 9408 9409 9410 9411 9412 9413 9414 9415 9416 9417 9418 9419 9420 9421 9422 9423 9424 9425 9426 9427 9428 9429 9430 9431 9432 9433 9434 9435 9436 9437 9438 9439 9440 9441 9442 9443 9444 9445 9446 9447 9448 9449 9450 9451 9452 9453 9454 9455 9456 9457 9458 9459 9460 9461 9462 9463 9464 9465 9466 9467 9468 9469 9470 9471 9472 9473 9474 9475 9476 9477 9478 9479 9480 9481 9482 9483 9484 9485 9486 9487 9488 9489 9490 9491 9492 9493 9494 9495 9496 9497 9498 9499 9500 9501 9502 9503 9504 9505 9506 9507 9508 9509 9510 9511 9512 9513 9514 9515 9516 9517 9518 9519 9520 9521 9522 9523 9524 9525 9526 9527 9528 9529 9530 9531 9532 9533 9534 9535 9536 9537 9538 9539 9540 9541 9542 9543 9544 9545 9546 9547 9548 9549 9550 9551 9552 9553 9554 9555 9556 9557 9558 9559 9560 9561 9562 9563 9564 9565 9566 9567 9568 9569 9570 9571 9572 9573 9574 9575 9576 9577 9578 9579 9580 9581 9582 9583 9584 9585 9586 9587 9588 9589 9590 9591 9592 9593 9594 9595 9596 9597 9598 9599 9600 9601 9602 9603 9604 9605 9606 9607 9608 9609 9610 9611 9612 9613 9614 9615 9616 9617 9618 9619 9620 9621 9622 9623 9624 9625 9626 9627 9628 9629 9630 9631 9632 9633 9634 9635 9636 9637 9638 9639 9640 9641 9642 9643 9644 9645 9646 9647 9648 9649 9650 9651 9652 9653 9654 9655 9656 9657 9658 9659 9660 9661 9662 9663 9664 9665 9666 9667 9668 9669 9670 9671 9672 9673 9674 9675 9676 9677 9678 9679 9680 9681 9682 9683 9684 9685 9686 9687 9688 9689 9690 9691 9692 9693 9694 9695 9696 9697 9698 9699 9700 9701 9702 9703 9704 9705 9706 9707 9708 9709 9710 9711 9712 9713 9714 9715 9716 9717 9718 9719 9720 9721 9722 9723 9724 9725 9726 9727 9728 9729 9730 9731 9732 9733 9734 9735 9736 9737 9738 9739 9740 9741 9742 9743 9744 9745 9746 9747 9748 9749 9750 9751 9752 9753 9754 9755 9756 9757 9758 9759 9760 9761 9762 9763 9764 9765 9766 9767 9768 9769 9770 9771 9772 9773 9774 9775 9776 9777 9778 9779 9780 9781 9782 9783 9784 9785 9786 9787 9788 9789 9790 9791 9792 9793 9794 9795 9796 9797 9798 9799 9800 9801 9802 9803 9804 9805 9806 9807 9808 9809 9810 9811 9812 9813 9814 9815 9816 9817 9818 9819 9820 9821 9822 9823 9824 9825 9826 9827 9828 9829 9830 9831 9832 9833 9834 9835 9836 9837 9838 9839 9840 9841 9842 9843 9844 9845 9846 9847 9848 9849 9850 9851 9852 9853 9854 9855 9856 9857 9858 9859 9860 9861 9862 9863 9864 9865 9866 9867 9868 9869 9870 9871 9872 9873 9874 9875 9876 9877 9878 9879 9880 9881 9882 9883 9884 9885 9886 9887 9888 9889 9890 9891 9892 9893 9894 9895 9896 9897 9898 9899 9900 9901 9902 9903 9904 9905 9906 9907 9908 9909 9910 9911 9912 9913 9914 9915 9916 9917 9918 9919 9920 9921 9922 9923 9924 9925 9926 9927 9928 9929 9930 9931 9932 9933 9934 9935 9936 9937 9938 9939 9940 9941 9942 9943 9944 9945 9946 9947 9948 9949 9950 9951 9952 9953 9954 9955 9956 9957 9958 9959 9960 9961 9962 9963 9964 9965 9966 9967 9968 9969 9970 9971 9972 9973 9974 9975 9976 9977 9978 9979 9980 9981 9982 9983 9984 9985 9986 9987 9988 9989 9990 9991 9992 9993 9994 9995 9996 9997 9998 9999 10000 10001 10002 10003 10004 10005 10006 10007 10008 10009 10010 10011 10012 10013 10014 10015 10016 10017 10018 10019 10020 10021 10022 10023 10024 10025 10026 10027 10028 10029 10030 10031 10032 10033 10034 10035 10036 10037 10038 10039 10040 10041 10042 10043 10044 10045 10046 10047 10048 10049 10050 10051 10052 10053 10054 10055 10056 10057 10058 10059 10060 10061 10062 10063 10064 10065 10066 10067 10068 10069 10070 10071 10072 10073 10074 10075 10076 10077 10078 10079 10080 10081 10082 10083 10084 10085 10086 10087 10088 10089 10090 10091 10092 10093 10094 10095 10096 10097 10098 10099 10100 10101 10102 10103 10104 10105 10106 10107 10108 10109 10110 10111 10112 10113 10114 10115 10116 10117 10118 10119 10120 10121 10122 10123 10124 10125 10126 10127 10128 10129 10130 10131 10132 10133 10134 10135 10136 10137 10138 10139 10140 10141 10142 10143 10144 10145 10146 10147 10148 10149 10150 10151 10152 10153 10154 10155 10156 10157 10158 10159 10160 10161 10162 10163 10164 10165 10166 10167 10168 10169 10170 10171 10172 10173 10174 10175 10176 10177 10178 10179 10180 10181 10182 10183 10184 10185 10186 10187 10188 10189 10190 10191 10192 10193 10194 10195 10196 10197 10198 10199 10200 10201 10202 10203 10204 10205 10206 10207 10208 10209 10210 10211 10212 10213 10214 10215 10216 10217 10218 10219 10220 10221 10222 10223 10224 10225 10226 10227 10228 10229 10230 10231 10232 10233 10234 10235 10236 10237 10238 10239 10240 10241 10242 10243 10244 10245 10246 10247 10248 10249 10250 10251 10252 10253 10254 10255 10256 10257 10258 10259 10260 10261 10262 10263 10264 10265 10266 10267 10268 10269 10270 10271 10272 10273 10274 10275 10276 10277 10278 10279 10280 10281 10282 10283 10284 10285 10286 10287 10288 10289 10290 10291 10292 10293 10294 10295 10296 10297 10298 10299 10300 10301 10302 10303 10304 10305 10306 10307 10308 10309 10310 10311 10312 10313 10314 10315 10316 10317 10318 10319 10320 10321 10322 10323 10324 10325 10326 10327 10328 10329 10330 10331 10332 10333 10334 10335 10336 10337 10338 10339 10340 10341 10342 10343 10344 10345 10346 10347 10348 10349 10350 10351 10352 10353 10354 10355 10356 10357 10358 10359 10360 10361 10362 10363 10364 10365 10366 10367 10368 10369 10370 10371 10372 10373 10374 10375 10376 10377 10378 10379 10380 10381 10382 10383 10384 10385 10386 10387 10388 10389 10390 10391 10392 10393 10394 10395 10396 10397 10398 10399 10400 10401 10402 10403 10404 10405 10406 10407 10408 10409 10410 10411 10412 10413 10414 10415 10416 10417 10418 10419 10420 10421 10422 10423 10424 10425 10426 10427 10428 10429 10430 10431 10432 10433 10434 10435 10436 10437 10438 10439 10440 10441 10442 10443 10444 10445 10446 10447 10448 10449 10450 10451 10452 10453 10454 10455 10456 10457 10458 10459 10460 10461 10462 10463 10464 10465 10466 10467 10468 10469 10470 10471 10472 10473 10474 10475 10476 10477 10478 10479 10480 10481 10482 10483 10484 10485 10486 10487 10488 10489 10490 10491 10492 10493 10494 10495 10496 10497 10498 10499 10500 10501 10502 10503 10504 10505 10506 10507 10508 10509 10510 10511 10512 10513 10514 10515 10516 10517 10518 10519 10520 10521 10522 10523 10524 10525 10526 10527 10528 10529 10530 10531 10532 10533 10534 10535 10536 10537 10538 10539 10540 10541 10542 10543 10544 10545 10546 10547 10548 10549 10550 10551 10552 10553 10554 10555 10556 10557 10558 10559 10560 10561 10562 10563 10564 10565 10566 10567 10568 10569 10570 10571 10572 10573 10574 10575 10576 10577 10578 10579 10580 10581 10582 10583 10584 10585 10586 10587 10588 10589 10590 10591 10592 10593 10594 10595 10596 10597 10598 10599 10600 10601 10602 10603 10604 10605 10606 10607 10608 10609 10610 10611 10612 10613 10614 10615 10616 10617 10618 10619 10620 10621 10622 10623 10624 10625 10626 10627 10628 10629 10630 10631 10632 10633 10634 10635 10636 10637 10638 10639 10640 10641 10642 10643 10644 10645 10646 10647 10648 10649 10650 10651 10652 10653 10654 10655 10656 10657 10658 10659 10660 10661 10662 10663 10664 10665 10666 10667 10668 10669 10670 10671 10672 10673 10674 10675 10676 10677 10678 10679 10680 10681 10682 10683 10684 10685 10686 10687 10688 10689 10690 10691 10692 10693 10694 10695 10696 10697 10698 10699 10700 10701 10702 10703 10704 10705 10706 10707 10708 10709 10710 10711 10712 10713 10714 10715 10716 10717 10718 10719 10720 10721 10722 10723 10724 10725 10726 10727 10728 10729 10730 10731 10732 10733 10734 10735 10736 10737 10738 10739 10740 10741 10742 10743 10744 10745 10746 10747 10748 10749 10750 10751 10752 10753 10754 10755 10756 10757 10758 10759 10760 10761 10762 10763 10764 10765 10766 10767 10768 10769 10770 10771 10772 10773 10774 10775 10776 10777 10778 10779 10780 10781 10782 10783 10784 10785 10786 10787 10788 10789 10790 10791 10792 10793 10794 10795 10796 10797 10798 10799 10800 10801 10802 10803 10804 10805 10806 10807 10808 10809 10810 10811 10812 10813 10814 10815 10816 10817 10818 10819 10820 10821 10822 10823 10824 10825 10826 10827 10828 10829 10830 10831 10832 10833 10834 10835 10836 10837 10838 10839 10840 10841 10842 10843 10844 10845 10846 10847 10848 10849 10850 10851 10852 10853 10854 10855 10856 10857 10858 10859 10860 10861 10862 10863 10864 10865 10866 10867 10868 10869 10870 10871 10872 10873 10874 10875 10876 10877 10878 10879 10880 10881 10882 10883 10884 10885 10886 10887 10888 10889 10890 10891 10892 10893 10894 10895 10896 10897 10898 10899 10900 10901 10902 10903 10904 10905 10906 10907 10908 10909 10910 10911 10912 10913 10914 10915 10916 10917 10918 10919 10920 10921 10922 10923 10924 10925 10926 10927 10928 10929 10930 10931 10932 10933 10934 10935 10936 10937 10938 10939 10940 10941 10942 10943 10944 10945 10946 10947 10948 10949 10950 10951 10952 10953 10954 10955 10956 10957 10958 10959 10960 10961 10962 10963 10964 10965 10966 10967 10968 10969 10970 10971 10972 10973 10974 10975 10976 10977 10978 10979 10980 10981 10982 10983 10984 10985 10986 10987 10988 10989 10990 10991 10992 10993 10994 10995 10996 10997 10998 10999 11000 11001 11002 11003 11004 11005 11006 11007 11008 11009 11010 11011 11012 11013 11014 11015 11016 11017 11018 11019 11020 11021 11022 11023 11024 11025 11026 11027 11028 11029 11030 11031 11032 11033 11034 11035 11036 11037 11038 11039 11040 11041 11042 11043 11044 11045 11046 11047 11048 11049 11050 11051 11052 11053 11054 11055 11056 11057 11058 11059 11060 11061 11062 11063 11064 11065 11066 11067 11068 11069 11070 11071 11072 11073 11074 11075 11076 11077 11078 11079 11080 11081 11082 11083 11084 11085 11086 11087 11088 11089 11090 11091 11092 11093 11094 11095 11096 11097 11098 11099 11100 11101 11102 11103 11104 11105 11106 11107 11108 11109 11110 11111 11112 11113 11114 11115 11116 11117 11118 11119 11120 11121 11122 11123 11124 11125 11126 11127 11128 11129 11130 11131 11132 11133 11134 11135 11136 11137 11138 11139 11140 11141 11142 11143 11144 11145 11146 11147 11148 11149 11150 11151 11152 11153 11154 11155 11156 11157 11158 11159 11160 11161 11162 11163 11164 11165 11166 11167 11168 11169 11170 11171 11172 11173 11174 11175 11176 11177 11178 11179 11180 11181 11182 11183 11184 11185 11186 11187 11188 11189 11190 11191 11192 11193 11194 11195 11196 11197 11198 11199 11200 11201 11202 11203 11204 11205 11206 11207 11208 11209 11210 11211 11212 11213 11214 11215 11216 11217 11218 11219 11220 11221 11222 11223 11224 11225 11226 11227 11228 11229 11230 11231 11232 11233 11234 11235 11236 11237 11238 11239 11240 11241 11242 11243 11244 11245 11246 11247 11248 11249 11250 11251 11252 11253 11254 11255 11256 11257 11258 11259 11260 11261 11262 11263 11264 11265 11266 11267 11268 11269 11270 11271 11272 11273 11274 11275 11276 11277 11278 11279 11280 11281 11282 11283 11284 11285 11286 11287 11288 11289 11290 11291 11292 11293 11294 11295 11296 11297 11298 11299 11300 11301 11302 11303 11304 11305 11306 11307 11308 11309 11310 11311 11312 11313 11314 11315 11316 11317 11318 11319 11320 11321 11322 11323 11324 11325 11326 11327 11328 11329 11330 11331 11332 11333 11334 11335 11336 11337 11338 11339 11340 11341 11342 11343 11344 11345 11346 11347 11348 11349 11350 11351 11352 11353 11354 11355 11356 11357 11358 11359 11360 11361 11362 11363 11364 11365 11366 11367 11368 11369 11370 11371 11372 11373 11374 11375 11376 11377 11378 11379 11380 11381 11382 11383 11384 11385 11386 11387 11388 11389 11390 11391 11392 11393 11394 11395 11396 11397 11398 11399 11400 11401 11402 11403 11404 11405 11406 11407 11408 11409 11410 11411 11412 11413 11414 11415 11416 11417 11418 11419 11420 11421 11422 11423 11424 11425 11426 11427 11428 11429 11430 11431 11432 11433 11434 11435 11436 11437 11438 11439 11440 11441 11442 11443 11444 11445 11446 11447 11448 11449 11450 11451 11452 11453 11454 11455 11456 11457 11458 11459 11460 11461 11462 11463 11464 11465 11466 11467 11468 11469 11470 11471 11472 11473 11474 11475 11476 11477 11478 11479 11480 11481 11482 11483 11484 11485 11486 11487 11488 11489 11490 11491 11492 11493 11494 11495 11496 11497 11498 11499 11500 11501 11502 11503 11504 11505 11506 11507 11508 11509 11510 11511 11512 11513 11514 11515 11516 11517 11518 11519 11520 11521 11522 11523 11524 11525 11526 11527 11528 11529 11530 11531 11532 11533 11534 11535 11536 11537 11538 11539 11540 11541 11542 11543 11544 11545 11546 11547 11548 11549 11550 11551 11552 11553 11554 11555 11556 11557 11558 11559 11560 11561 11562 11563 11564 11565 11566 11567 11568 11569 11570 11571 11572 11573 11574 11575 11576 11577 11578 11579 11580 11581 11582 11583 11584 11585 11586 11587 11588 11589 11590 11591 11592 11593 11594 11595 11596 11597 11598 11599 11600 11601 11602 11603 11604 11605 11606 11607 11608 11609 11610 11611 11612 11613 11614 11615 11616 11617 11618 11619 11620 11621 11622 11623 11624 11625 11626 11627 11628 11629 11630 11631 11632 11633 11634 11635 11636 11637 11638 11639 11640 11641 11642 11643 11644 11645 11646 11647 11648 11649 11650 11651 11652 11653 11654 11655 11656 11657 11658 11659 11660 11661 11662 11663 11664 11665 11666 11667 11668 11669 11670 11671 11672 11673 11674 11675 11676 11677 11678 11679 11680 11681 11682 11683 11684 11685 11686 11687 11688 11689 11690 11691 11692 11693 11694 11695 11696 11697 11698 11699 11700 11701 11702 11703 11704 11705 11706 11707 11708 11709 11710 11711 11712 11713 11714 11715 11716 11717 11718 11719 11720 11721 11722 11723 11724 11725 11726 11727 11728 11729 11730 11731 11732 11733 11734 11735 11736 11737 11738 11739 11740 11741 11742 11743 11744 11745 11746 11747 11748 11749 11750 11751 11752 11753 11754 11755 11756 11757 11758 11759 11760 11761 11762 11763 11764 11765 11766 11767 11768 11769 11770 11771 11772 11773 11774 11775 11776 11777 11778 11779 11780 11781 11782 11783 11784 11785 11786 11787 11788 11789 11790 11791 11792 11793 11794 11795 11796 11797 11798 11799 11800 11801 11802 11803 11804 11805 11806 11807 11808 11809 11810 11811 11812 11813 11814 11815 11816 11817 11818 11819 11820 11821 11822 11823 11824 11825 11826 11827 11828 11829 11830 11831 11832 11833 11834 11835 11836 11837 11838 11839 11840 11841 11842 11843 11844 11845 11846 11847 11848 11849 11850 11851 11852 11853 11854 11855 11856 11857 11858 11859 11860 11861 11862 11863 11864 11865 11866 11867 11868 11869 11870 11871 11872 11873 11874 11875 11876 11877 11878 11879 11880 11881 11882 11883 11884 11885 11886 11887 11888 11889 11890 11891 11892 11893 11894 11895 11896 11897 11898 11899 11900 11901 11902 11903 11904 11905 11906 11907 11908 11909 11910 11911 11912 11913 11914 11915 11916 11917 11918 11919 11920 11921 11922 11923 11924 11925 11926 11927 11928 11929 11930 11931 11932 11933 11934 11935 11936 11937 11938 11939 11940 11941 11942 11943 11944 11945 11946 11947 11948 11949 11950 11951 11952 11953 11954 11955 11956 11957 11958 11959 11960 11961 11962 11963 11964 11965 11966 11967 11968 11969 11970 11971 11972 11973 11974 11975 11976 11977 11978 11979 11980 11981 11982 11983 11984 11985 11986 11987 11988 11989 11990 11991 11992 11993 11994 11995 11996 11997 11998 11999 12000 12001 12002 12003 12004 12005 12006 12007 12008 12009 12010 12011 12012 12013 12014 12015 12016 12017 12018 12019 12020 12021 12022 12023 12024 12025 12026 12027 12028 12029 12030 12031 12032 12033 12034 12035 12036 12037 12038 12039 12040 12041 12042 12043 12044 12045 12046 12047 12048 12049 12050 12051 12052 12053 12054 12055 12056 12057 12058 12059 12060 12061 12062 12063 12064 12065 12066 12067 12068 12069 12070 12071 12072 12073 12074 12075 12076 12077 12078 12079 12080 12081 12082 12083 12084 12085 12086 12087 12088 12089 12090 12091 12092 12093 12094 12095 12096 12097 12098 12099 12100 12101 12102 12103 12104 12105 12106 12107 12108 12109 12110 12111 12112 12113 12114 12115 12116 12117 12118 12119 12120 12121 12122 12123 12124 12125 12126 12127 12128 12129 12130 12131 12132 12133 12134 12135 12136 12137 12138 12139 12140 12141 12142 12143 12144 12145 12146 12147 12148 12149 12150 12151 12152 12153 12154 12155 12156 12157 12158 12159 12160 12161 12162 12163 12164 12165 12166 12167 12168 12169 12170 12171 12172 12173 12174 12175 12176 12177 12178 12179 12180 12181 12182 12183 12184 12185 12186 12187 12188 12189 12190 12191 12192 12193 12194 12195 12196 12197 12198 12199 12200 12201 12202 12203 12204 12205 12206 12207 12208 12209 12210 12211 12212 12213 12214 12215 12216 12217 12218 12219 12220 12221 12222 12223 12224 12225 12226 12227 12228 12229 12230 12231 12232 12233 12234 12235 12236 12237 12238 12239 12240 12241 12242 12243 12244 12245 12246 12247 12248 12249 12250 12251 12252 12253 12254 12255 12256 12257 12258 12259 12260 12261 12262 12263 12264 12265 12266 12267 12268 12269 12270 12271 12272 12273 12274 12275 12276 12277 12278 12279 12280 12281 12282 12283 12284 12285 12286 12287 12288 12289 12290 12291 12292 12293 12294 12295 12296 12297 12298 12299 12300 12301 12302 12303 12304 12305 12306 12307 12308 12309 12310 12311 12312 12313 12314 12315 12316 12317 12318 12319 12320 12321 12322 12323 12324 12325 12326 12327 12328 12329 12330 12331 12332 12333 12334 12335 12336 12337 12338 12339 12340 12341 12342 12343 12344 12345 12346 12347 12348 12349 12350 12351 12352 12353 12354 12355 12356 12357 12358 12359 12360 12361 12362 12363 12364 12365 12366 12367 12368 12369 12370 12371 12372 12373 12374 12375 12376 12377 12378 12379 12380 12381 12382 12383 12384 12385 12386 12387 12388 12389 12390 12391 12392 12393 12394 12395 12396 12397 12398 12399 12400 12401 12402 12403 12404 12405 12406 12407 12408 12409 12410 12411 12412 12413 12414 12415 12416 12417 12418 12419 12420 12421 12422 12423 12424 12425 12426 12427 12428 12429 12430 12431 12432 12433 12434 12435 12436 12437 12438 12439 12440 12441 12442 12443 12444 12445 12446 12447 12448 12449 12450 12451 12452 12453 12454 12455 12456 12457 12458 12459 12460 12461 12462 12463 12464 12465 12466 12467 12468 12469 12470 12471 12472 12473 12474 12475 12476 12477 12478 12479 12480 12481 12482 12483 12484 12485 12486 12487 12488 12489 12490 12491 12492 12493 12494 12495 12496 12497 12498 12499 12500 12501 12502 12503 12504 12505 12506 12507 12508 12509 12510 12511 12512 12513 12514 12515 12516 12517 12518 12519 12520 12521 12522 12523 12524 12525 12526 12527 12528 12529 12530 12531 12532 12533 12534 12535 12536 12537 12538 12539 12540 12541 12542 12543 12544 12545 12546 12547 12548 12549 12550 12551 12552 12553 12554 12555 12556 12557 12558 12559 12560 12561 12562 12563 12564 12565 12566 12567 12568 12569 12570 12571 12572 12573 12574 12575 12576 12577 12578 12579 12580 12581 12582 12583 12584 12585 12586 12587 12588 12589 12590 12591 12592 12593 12594 12595 12596 12597 12598 12599 12600 12601 12602 12603 12604 12605 12606 12607 12608 12609 12610 12611 12612 12613 12614 12615 12616 12617 12618 12619 12620 12621 12622 12623 12624 12625 12626 12627 12628 12629 12630 12631 12632 12633 12634 12635 12636 12637 12638 12639 12640 12641 12642 12643 12644 12645 12646 12647 12648 12649 12650 12651 12652 12653 12654 12655 12656 12657 12658 12659 12660 12661 12662 12663 12664 12665 12666 12667 12668 12669 12670 12671 12672 12673 12674 12675 12676 12677 12678 12679 12680 12681 12682 12683 12684 12685 12686 12687 12688 12689 12690 12691 12692 12693 12694 12695 12696 12697 12698 12699 12700 12701 12702 12703 12704 12705 12706 12707 12708 12709 12710 12711 12712 12713 12714 12715 12716 12717 12718 12719 12720 12721 12722 12723 12724 12725 12726 12727 12728 12729 12730 12731 12732 12733 12734 12735 12736 12737 12738 12739 12740 12741 12742 12743 12744 12745 12746 12747 12748 12749 12750 12751 12752 12753 12754 12755 12756 12757 12758 12759 12760 12761 12762 12763 12764 12765 12766 12767 12768 12769 12770 12771 12772 12773 12774 12775 12776 12777 12778 12779 12780 12781 12782 12783 12784 12785 12786 12787 12788 12789 12790 12791 12792 12793 12794 12795 12796 12797 12798 12799 12800 12801 12802 12803 12804 12805 12806 12807 12808 12809 12810 12811 12812 12813 12814 12815 12816 12817 12818 12819 12820 12821 12822 12823 12824 12825 12826 12827 12828 12829 12830 12831 12832 12833 12834 12835 12836 12837 12838 12839 12840 12841 12842 12843 12844 12845 12846 12847 12848 12849 12850 12851 12852 12853 12854 12855 12856 12857 12858 12859 12860 12861 12862 12863 12864 12865 12866 12867 12868 12869 12870 12871 12872 12873 12874 12875 12876 12877 12878 12879 12880 12881 12882 12883 12884 12885 12886 12887 12888 12889 12890 12891 12892 12893 12894 12895 12896 12897 12898 12899 12900 12901 12902 12903 12904 12905 12906 12907 12908 12909 12910 12911 12912 12913 12914 12915 12916 12917 12918 12919 12920 12921 12922 12923 12924 12925 12926 12927 12928 12929 12930 12931 12932 12933 12934 12935 12936 12937 12938 12939 12940 12941 12942 12943 12944 12945 12946 12947 12948 12949 12950 12951 12952 12953 12954 12955 12956 12957 12958 12959 12960 12961 12962 12963 12964 12965 12966 12967 12968 12969 12970 12971 12972 12973 12974 12975 12976 12977 12978 12979 12980 12981 12982 12983 12984 12985 12986 12987 12988 12989 12990 12991 12992 12993 12994 12995 12996 12997 12998 12999 13000 13001 13002 13003 13004 13005 13006 13007 13008 13009 13010 13011 13012 13013 13014 13015 13016 13017 13018 13019 13020 13021 13022 13023 13024 13025 13026 13027 13028 13029 13030 13031 13032 13033 13034 13035 13036 13037 13038 13039 13040 13041 13042 13043 13044 13045 13046 13047 13048 13049 13050 13051 13052 13053 13054 13055 13056 13057 13058 13059 13060 13061 13062 13063 13064 13065 13066 13067 13068 13069 13070 13071 13072 13073 13074 13075 13076 13077 13078 13079 13080 13081 13082 13083 13084 13085 13086 13087 13088 13089 13090 13091 13092 13093 13094 13095 13096 13097 13098 13099 13100 13101 13102 13103 13104 13105 13106 13107 13108 13109 13110 13111 13112 13113 13114 13115 13116 13117 13118 13119 13120 13121 13122 13123 13124 13125 13126 13127 13128 13129 13130 13131 13132 13133 13134 13135 13136 13137 13138 13139 13140 13141 13142 13143 13144 13145 13146 13147 13148 13149 13150 13151 13152 13153 13154 13155 13156 13157 13158 13159 13160 13161 13162 13163 13164 13165 13166 13167 13168 13169 13170 13171 13172 13173 13174 13175 13176 13177 13178 13179 13180 13181 13182 13183 13184 13185 13186 13187 13188 13189 13190 13191 13192 13193 13194 13195 13196 13197 13198 13199 13200 13201 13202 13203 13204 13205 13206 13207 13208 13209 13210 13211 13212 13213 13214 13215 13216 13217 13218 13219 13220 13221 13222 13223 13224 13225 13226 13227 13228 13229 13230 13231 13232 13233 13234 13235 13236 13237 13238 13239 13240 13241 13242 13243 13244 13245 13246 13247 13248 13249 13250 13251 13252 13253 13254 13255 13256 13257 13258 13259 13260 13261 13262 13263 13264 13265 13266 13267 13268 13269 13270 13271 13272 13273 13274 13275 13276 13277 13278 13279 13280 13281 13282 13283 13284 13285 13286 13287 13288 13289 13290 13291 13292 13293 13294 13295 13296 13297 13298 13299 13300 13301 13302 13303 13304 13305 13306 13307 13308 13309 13310 13311 13312 13313 13314 13315 13316 13317 13318 13319 13320 13321 13322 13323 13324 13325 13326 13327 13328 13329 13330 13331 13332 13333 13334 13335 13336 13337 13338 13339 13340 13341 13342 13343 13344 13345 13346 13347 13348 13349 13350 13351 13352 13353 13354 13355 13356 13357 13358 13359 13360 13361 13362 13363 13364 13365 13366 13367 13368 13369 13370 13371 13372 13373 13374 13375 13376 13377 13378 13379 13380 13381 13382 13383 13384 13385 13386 13387 13388 13389 13390 13391 13392 13393 13394 13395 13396 13397 13398 13399 13400 13401 13402 13403 13404 13405 13406 13407 13408 13409 13410 13411 13412 13413 13414 13415 13416 13417 13418 13419 13420 13421 13422 13423 13424 13425 13426 13427 13428 13429 13430 13431 13432 13433 13434 13435 13436 13437 13438 13439 13440 13441 13442 13443 13444 13445 13446 13447 13448 13449 13450 13451 13452 13453 13454 13455 13456 13457 13458 13459 13460 13461 13462 13463 13464 13465 13466 13467 13468 13469 13470 13471 13472 13473 13474 13475 13476 13477 13478 13479 13480 13481 13482 13483 13484 13485 13486 13487 13488 13489 13490 13491 13492 13493 13494 13495 13496 13497 13498 13499 13500 13501 13502 13503 13504 13505 13506 13507 13508 13509 13510 13511 13512 13513 13514 13515 13516 13517 13518 13519 13520 13521 13522 13523 13524 13525 13526 13527 13528 13529 13530 13531 13532 13533 13534 13535 13536 13537 13538 13539 13540 13541 13542 13543 13544 13545 13546 13547 13548 13549 13550 13551 13552 13553 13554 13555 13556 13557 13558 13559 13560 13561 13562 13563 13564 13565 13566 13567 13568 13569 13570 13571 13572 13573 13574 13575 13576 13577 13578 13579 13580 13581 13582 13583 13584 13585 13586 13587 13588 13589 13590 13591 13592 13593 13594 13595 13596 13597 13598 13599 13600 13601 13602 13603 13604 13605 13606 13607 13608 13609 13610 13611 13612 13613 13614 13615 13616 13617 13618 13619 13620 13621 13622 13623 13624 13625 13626 13627 13628 13629 13630 13631 13632 13633 13634 13635 13636 13637 13638 13639 13640 13641 13642 13643 13644 13645 13646 13647 13648 13649 13650 13651 13652 13653 13654 13655 13656 13657 13658 13659 13660 13661 13662 13663 13664 13665 13666 13667 13668 13669 13670 13671 13672 13673 13674 13675 13676 13677 13678 13679 13680 13681 13682 13683 13684 13685 13686 13687 13688 13689 13690 13691 13692 13693 13694 13695 13696 13697 13698 13699 13700 13701 13702 13703 13704 13705 13706 13707 13708 13709 13710 13711 13712 13713 13714 13715 13716 13717 13718 13719 13720 13721 13722 13723 13724 13725 13726 13727 13728 13729 13730 13731 13732 13733 13734 13735 13736 13737 13738 13739 13740 13741 13742 13743 13744 13745 13746 13747 13748 13749 13750 13751 13752 13753 13754 13755 13756 13757 13758 13759 13760 13761 13762 13763 13764 13765 13766 13767 13768 13769 13770 13771 13772 13773 13774 13775 13776 13777 13778 13779 13780 13781 13782 13783 13784 13785 13786 13787 13788 13789 13790 13791 13792 13793 13794 13795 13796 13797 13798 13799 13800 13801 13802 13803 13804 13805 13806 13807 13808 13809 13810 13811 13812 13813 13814 13815 13816 13817 13818 13819 13820 13821 13822 13823 13824 13825 13826 13827 13828 13829 13830 13831 13832 13833 13834 13835 13836 13837 13838 13839 13840 13841 13842 13843 13844 13845 13846 13847 13848 13849 13850 13851 13852 13853 13854 13855 13856 13857 13858 13859 13860 13861 13862 13863 13864 13865 13866 13867 13868 13869 13870 13871 13872 13873 13874 13875 13876 13877 13878 13879 13880 13881 13882 13883 13884 13885 13886 13887 13888 13889 13890 13891 13892 13893 13894 13895 13896 13897 13898 13899 13900 13901 13902 13903 13904 13905 13906 13907 13908 13909 13910 13911 13912 13913 13914 13915 13916 13917 13918 13919 13920 13921 13922 13923 13924 13925 13926 13927 13928 13929 13930 13931 13932 13933 13934 13935 13936 13937 13938 13939 13940 13941 13942 13943 13944 13945 13946 13947 13948 13949 13950 13951 13952 13953 13954 13955 13956 13957 13958 13959 13960 13961 13962 13963 13964 13965 13966 13967 13968 13969 13970 13971 13972 13973 13974 13975 13976 13977 13978 13979 13980 13981 13982 13983 13984 13985 13986 13987 13988 13989 13990 13991 13992 13993 13994 13995 13996 13997 13998 13999 14000 14001 14002 14003 14004 14005 14006 14007 14008 14009 14010 14011 14012 14013 14014 14015 14016 14017 14018 14019 14020 14021 14022 14023 14024 14025 14026 14027 14028 14029 14030 14031 14032 14033 14034 14035 14036 14037 14038 14039 14040 14041 14042 14043 14044 14045 14046 14047 14048 14049 14050 14051 14052 14053 14054 14055 14056 14057 14058 14059 14060 14061 14062 14063 14064 14065 14066 14067 14068 14069 14070 14071 14072 14073 14074 14075 14076 14077 14078 14079 14080 14081 14082 14083 14084 14085 14086 14087 14088 14089 14090 14091 14092 14093 14094 14095 14096 14097 14098 14099 14100 14101 14102 14103 14104 14105 14106 14107 14108 14109 14110 14111 14112 14113 14114 14115 14116 14117 14118 14119 14120 14121 14122 14123 14124 14125 14126 14127 14128 14129 14130 14131 14132 14133 14134 14135 14136 14137 14138 14139 14140 14141 14142 14143 14144 14145 14146 14147 14148 14149 14150 14151 14152 14153 14154 14155 14156 14157 14158 14159 14160 14161 14162 14163 14164 14165 14166 14167 14168 14169 14170 14171 14172 14173 14174 14175 14176 14177 14178 14179 14180 14181 14182 14183 14184 14185 14186 14187 14188 14189 14190 14191 14192 14193 14194 14195 14196 14197 14198 14199 14200 14201 14202 14203 14204 14205 14206 14207 14208 14209 14210 14211 14212 14213 14214 14215 14216 14217 14218 14219 14220 14221 14222 14223 14224 14225 14226 14227 14228 14229 14230 14231 14232 14233 14234 14235 14236 14237 14238 14239 14240 14241 14242 14243 14244 14245 14246 14247 14248 14249 14250 14251 14252 14253 14254 14255 14256 14257 14258 14259 14260 14261 14262 14263 14264 14265 14266 14267 14268 14269 14270 14271 14272 14273 14274 14275 14276 14277 14278 14279 14280 14281 14282 14283 14284 14285 14286 14287 14288 14289 14290 14291 14292 14293 14294 14295 14296 14297 14298 14299 14300 14301 14302 14303 14304 14305 14306 14307 14308 14309 14310 14311 14312 14313 14314 14315 14316 14317 14318 14319 14320 14321 14322 14323 14324 14325 14326 14327 14328 14329 14330 14331 14332 14333 14334 14335 14336 14337 14338 14339 14340 14341 14342 14343 14344 14345 14346 14347 14348 14349 14350 14351 14352 14353 14354 14355 14356 14357 14358 14359 14360 14361 14362 14363 14364 14365 14366 14367 14368 14369 14370 14371 14372 14373 14374 14375 14376 14377 14378 14379 14380 14381 14382 14383 14384 14385 14386 14387 14388 14389 14390 14391 14392 14393 14394 14395 14396 14397 14398 14399 14400 14401 14402 14403 14404 14405 14406 14407 14408 14409 14410 14411 14412 14413 14414 14415 14416 14417 14418 14419 14420 14421 14422 14423 14424 14425 14426 14427 14428 14429 14430 14431 14432 14433 14434 14435 14436 14437 14438 14439 14440 14441 14442 14443 14444 14445 14446 14447 14448 14449 14450 14451 14452 14453 14454 14455 14456 14457 14458 14459 14460 14461 14462 14463 14464 14465 14466 14467 14468 14469 14470 14471 14472 14473 14474 14475 14476 14477 14478 14479 14480 14481 14482 14483 14484 14485 14486 14487 14488 14489 14490 14491 14492 14493 14494 14495 14496 14497 14498 14499 14500 14501 14502 14503 14504 14505 14506 14507 14508 14509 14510 14511 14512 14513 14514 14515 14516 14517 14518 14519 14520 14521 14522 14523 14524 14525 14526 14527 14528 14529 14530 14531 14532 14533 14534 14535 14536 14537 14538 14539 14540 14541 14542 14543 14544 14545 14546 14547 14548 14549 14550 14551 14552 14553 14554 14555 14556 14557 14558 14559 14560 14561 14562 14563 14564 14565 14566 14567 14568 14569 14570 14571 14572 14573 14574 14575 14576 14577 14578 14579 14580 14581 14582 14583 14584 14585 14586 14587 14588 14589 14590 14591 14592 14593 14594 14595 14596 14597 14598 14599 14600 14601 14602 14603 14604 14605 14606 14607 14608 14609 14610 14611 14612 14613 14614 14615 14616 14617 14618 14619 14620 14621 14622 14623 14624 14625 14626 14627 14628 14629 14630 14631 14632 14633 14634 14635 14636 14637 14638 14639 14640 14641 14642 14643 14644 14645 14646 14647 14648 14649 14650 14651 14652 14653 14654 14655 14656 14657 14658 14659 14660 14661 14662 14663 14664 14665 14666 14667 14668 14669 14670 14671 14672 14673 14674 14675 14676 14677 14678 14679 14680 14681 14682 14683 14684 14685 14686 14687 14688 14689 14690 14691 14692 14693 14694 14695 14696 14697 14698 14699 14700 14701 14702 14703 14704 14705 14706 14707 14708 14709 14710 14711 14712 14713 14714 14715 14716 14717 14718 14719 14720 14721 14722 14723 14724 14725 14726 14727 14728 14729 14730 14731 14732 14733 14734 14735 14736 14737 14738 14739 14740 14741 14742 14743 14744 14745 14746 14747 14748 14749 14750 14751 14752 14753 14754 14755 14756 14757 14758 14759 14760 14761 14762 14763 14764 14765 14766 14767 14768 14769 14770 14771 14772 14773 14774 14775 14776 14777 14778 14779 14780 14781 14782 14783 14784 14785 14786 14787 14788 14789 14790 14791 14792 14793 14794 14795 14796 14797 14798 14799 14800 14801 14802 14803 14804 14805 14806 14807 14808 14809 14810 14811 14812 14813 14814 14815 14816 14817 14818 14819 14820 14821 14822 14823 14824 14825 14826 14827 14828 14829 14830 14831 14832 14833 14834 14835 14836 14837 14838 14839 14840 14841 14842 14843 14844 14845 14846 14847 14848 14849 14850 14851 14852 14853 14854 14855 14856 14857 14858 14859 14860 14861 14862 14863 14864 14865 14866 14867 14868 14869 14870 14871 14872 14873 14874 14875 14876 14877 14878 14879 14880 14881 14882 14883 14884 14885 14886 14887 14888 14889 14890 14891 14892 14893 14894 14895 14896 14897 14898 14899 14900 14901 14902 14903 14904 14905 14906 14907 14908 14909 14910 14911 14912 14913 14914 14915 14916 14917 14918 14919 14920 14921 14922 14923 14924 14925 14926 14927 14928 14929 14930 14931 14932 14933 14934 14935 14936 14937 14938 14939 14940 14941 14942 14943 14944 14945 14946 14947 14948 14949 14950 14951 14952 14953 14954 14955 14956 14957 14958 14959 14960 14961 14962 14963 14964 14965 14966 14967 14968 14969 14970 14971 14972 14973 14974 14975 14976 14977 14978 14979 14980 14981 14982 14983 14984 14985 14986 14987 14988 14989 14990 14991 14992 14993 14994 14995 14996 14997 14998 14999 15000 15001 15002 15003 15004 15005 15006 15007 15008 15009 15010 15011 15012 15013 15014 15015 15016 15017 15018 15019 15020 15021 15022 15023 15024 15025 15026 15027 15028 15029 15030 15031 15032 15033 15034 15035 15036 15037 15038 15039 15040 15041 15042 15043 15044 15045 15046 15047 15048 15049 15050 15051 15052 15053 15054 15055 15056 15057 15058 15059 15060 15061 15062 15063 15064 15065 15066 15067 15068 15069 15070 15071 15072 15073 15074 15075 15076 15077 15078 15079 15080 15081 15082 15083 15084 15085 15086 15087 15088 15089 15090 15091 15092 15093 15094 15095 15096 15097 15098 15099 15100 15101 15102 15103 15104 15105 15106 15107 15108 15109 15110 15111 15112 15113 15114 15115 15116 15117 15118 15119 15120 15121 15122 15123 15124 15125 15126 15127 15128 15129 15130 15131 15132 15133 15134 15135 15136 15137 15138 15139 15140 15141 15142 15143 15144 15145 15146 15147 15148 15149 15150 15151 15152 15153 15154 15155 15156 15157 15158 15159 15160 15161 15162 15163 15164 15165 15166 15167 15168 15169 15170 15171 15172 15173 15174 15175 15176 15177 15178 15179 15180 15181 15182 15183 15184 15185 15186 15187 15188 15189 15190 15191 15192 15193 15194 15195 15196 15197 15198 15199 15200 15201 15202 15203 15204 15205 15206 15207 15208 15209 15210 15211 15212 15213 15214 15215 15216 15217 15218 15219 15220 15221 15222 15223 15224 15225 15226 15227 15228 15229 15230 15231 15232 15233 15234 15235 15236 15237 15238 15239 15240 15241 15242 15243 15244 15245 15246 15247 15248 15249 15250 15251 15252 15253 15254 15255 15256 15257 15258 15259 15260 15261 15262 15263 15264 15265 15266 15267 15268 15269 15270 15271 15272 15273 15274 15275 15276 15277 15278 15279 15280 15281 15282 15283 15284 15285 15286 15287 15288 15289 15290 15291 15292 15293 15294 15295 15296 15297 15298 15299 15300 15301 15302 15303 15304 15305 15306 15307 15308 15309 15310 15311 15312 15313 15314 15315 15316 15317 15318 15319 15320 15321 15322 15323 15324 15325 15326 15327 15328 15329 15330 15331 15332 15333 15334 15335 15336 15337 15338 15339 15340 15341 15342 15343 15344 15345 15346 15347 15348 15349 15350 15351 15352 15353 15354 15355 15356 15357 15358 15359 15360 15361 15362 15363 15364 15365 15366 15367 15368 15369 15370 15371 15372 15373 15374 15375 15376 15377 15378 15379 15380 15381 15382 15383 15384 15385 15386 15387 15388 15389 15390 15391 15392 15393 15394 15395 15396 15397 15398 15399 15400 15401 15402 15403 15404 15405 15406 15407 15408 15409 15410 15411 15412 15413 15414 15415 15416 15417 15418 15419 15420 15421 15422 15423 15424 15425 15426 15427 15428 15429 15430 15431 15432 15433 15434 15435 15436 15437 15438 15439 15440 15441 15442 15443 15444 15445 15446 15447 15448 15449 15450 15451 15452 15453 15454 15455 15456 15457 15458 15459 15460 15461 15462 15463 15464 15465 15466 15467 15468 15469 15470 15471 15472 15473 15474 15475 15476 15477 15478 15479 15480 15481 15482 15483 15484 15485 15486 15487 15488 15489 15490 15491 15492 15493 15494 15495 15496 15497 15498 15499 15500 15501 15502 15503 15504 15505 15506 15507 15508 15509 15510 15511 15512 15513 15514 15515 15516 15517 15518 15519 15520 15521 15522 15523 15524 15525 15526 15527 15528 15529 15530 15531 15532 15533 15534 15535 15536 15537 15538 15539 15540 15541 15542 15543 15544 15545 15546 15547 15548 15549 15550 15551 15552 15553 15554 15555 15556 15557 15558 15559 15560 15561 15562 15563 15564 15565 15566 15567 15568 15569 15570 15571 15572 15573 15574 15575 15576 15577 15578 15579 15580 15581 15582 15583 15584 15585 15586 15587 15588 15589 15590 15591 15592 15593 15594 15595 15596 15597 15598 15599 15600 15601 15602 15603 15604 15605 15606 15607 15608 15609 15610 15611 15612 15613 15614 15615 15616 15617 15618 15619 15620 15621 15622 15623 15624 15625 15626 15627 15628 15629 15630 15631 15632 15633 15634 15635 15636 15637 15638 15639 15640 15641 15642 15643 15644 15645 15646 15647 15648 15649 15650 15651 15652 15653 15654 15655 15656 15657 15658 15659 15660 15661 15662 15663 15664 15665 15666 15667 15668 15669 15670 15671 15672 15673 15674 15675 15676 15677 15678 15679 15680 15681 15682 15683 15684 15685 15686 15687 15688 15689 15690 15691 15692 15693 15694 15695 15696 15697 15698 15699 15700 15701 15702 15703 15704 15705 15706 15707 15708 15709 15710 15711 15712 15713 15714 15715 15716 15717 15718 15719 15720 15721 15722 15723 15724 15725 15726 15727 15728 15729 15730 15731 15732 15733 15734 15735 15736 15737 15738 15739 15740 15741 15742 15743 15744 15745 15746 15747 15748 15749 15750 15751 15752 15753 15754 15755 15756 15757 15758 15759 15760 15761 15762 15763 15764 15765 15766 15767 15768 15769 15770 15771 15772 15773 15774 15775 15776 15777 15778 15779 15780 15781 15782 15783 15784 15785 15786 15787 15788 15789 15790 15791 15792 15793 15794 15795 15796 15797 15798 15799 15800 15801 15802 15803 15804 15805 15806 15807 15808 15809 15810 15811 15812 15813 15814 15815 15816 15817 15818 15819 15820 15821 15822 15823 15824 15825 15826 15827 15828 15829 15830 15831 15832 15833 15834 15835 15836 15837 15838 15839 15840 15841 15842 15843 15844 15845 15846 15847 15848 15849 15850 15851 15852 15853 15854 15855 15856 15857 15858 15859 15860 15861 15862 15863 15864 15865 15866 15867 15868 15869 15870 15871 15872 15873 15874 15875 15876 15877 15878 15879 15880 15881 15882 15883 15884 15885 15886 15887 15888 15889 15890 15891 15892 15893 15894 15895 15896 15897 15898 15899 15900 15901 15902 15903 15904 15905 15906 15907 15908 15909 15910 15911 15912 15913 15914 15915 15916 15917 15918 15919 15920 15921 15922 15923 15924 15925 15926 15927 15928 15929 15930 15931 15932 15933 15934 15935 15936 15937 15938 15939 15940 15941 15942 15943 15944 15945 15946 15947 15948 15949 15950 15951 15952 15953 15954 15955 15956 15957 15958 15959 15960 15961 15962 15963 15964 15965 15966 15967 15968 15969 15970 15971 15972 15973 15974 15975 15976 15977 15978 15979 15980 15981 15982 15983 15984 15985 15986 15987 15988 15989 15990 15991 15992 15993 15994 15995 15996 15997 15998 15999 16000 16001 16002 16003 16004 16005 16006 16007 16008 16009 16010 16011 16012 16013 16014 16015 16016 16017 16018 16019 16020 16021 16022 16023 16024 16025 16026 16027 16028 16029 16030 16031 16032 16033 16034 16035 16036 16037 16038 16039 16040 16041 16042 16043 16044 16045 16046 16047 16048 16049 16050 16051 16052 16053 16054 16055 16056 16057 16058 16059 16060 16061 16062 16063 16064 16065 16066 16067 16068 16069 16070 16071 16072 16073 16074 16075 16076 16077 16078 16079 16080 16081 16082 16083 16084 16085 16086 16087 16088 16089 16090 16091 16092 16093 16094 16095 16096 16097 16098 16099 16100 16101 16102 16103 16104 16105 16106 16107 16108 16109 16110 16111 16112 16113 16114 16115 16116 16117 16118 16119 16120 16121 16122 16123 16124 16125 16126 16127 16128 16129 16130 16131 16132 16133 16134 16135 16136 16137 16138 16139 16140 16141 16142 16143 16144 16145 16146 16147 16148 16149 16150 16151 16152 16153 16154 16155 16156 16157 16158 16159 16160 16161 16162 16163 16164 16165 16166 16167 16168 16169 16170 16171 16172 16173 16174 16175 16176 16177 16178 16179 16180 16181 16182 16183 16184 16185 16186 16187 16188 16189 16190 16191 16192 16193 16194 16195 16196 16197 16198 16199 16200 16201 16202 16203 16204 16205 16206 16207 16208 16209 16210 16211 16212 16213 16214 16215 16216 16217 16218 16219 16220 16221 16222 16223 16224 16225 16226 16227 16228 16229 16230 16231 16232 16233 16234 16235 16236 16237 16238 16239 16240 16241 16242 16243 16244 16245 16246 16247 16248 16249 16250 16251 16252 16253 16254 16255 16256 16257 16258 16259 16260 16261 16262 16263 16264 16265 16266 16267 16268 16269 16270 16271 16272 16273 16274 16275 16276 16277 16278 16279 16280 16281 16282 16283 16284 16285 16286 16287 16288 16289 16290 16291 16292 16293 16294 16295 16296 16297 16298 16299 16300 16301 16302 16303 16304 16305 16306 16307 16308 16309 16310 16311 16312 16313 16314 16315 16316 16317 16318 16319 16320 16321 16322 16323 16324 16325 16326 16327 16328 16329 16330 16331 16332 16333 16334 16335 16336 16337 16338 16339 16340 16341 16342 16343 16344 16345 16346 16347 16348 16349 16350 16351 16352 16353 16354 16355 16356 16357 16358 16359 16360 16361 16362 16363 16364 16365 16366 16367 16368 16369 16370 16371 16372 16373 16374 16375 16376 16377 16378 16379 16380 16381 16382 16383 16384 16385 16386 16387 16388 16389 16390 16391 16392 16393 16394 16395 16396 16397 16398 16399 16400 16401 16402 16403 16404 16405 16406 16407 16408 16409 16410 16411 16412 16413 16414 16415 16416 16417 16418 16419 16420 16421 16422 16423 16424 16425 16426 16427 16428 16429 16430 16431 16432 16433 16434 16435 16436 16437 16438 16439 16440 16441 16442 16443 16444 16445 16446 16447 16448 16449 16450 16451 16452 16453 16454 16455 16456 16457 16458 16459 16460 16461 16462 16463 16464 16465 16466 16467 16468 16469 16470 16471 16472 16473 16474 16475 16476 16477 16478 16479 16480 16481 16482 16483 16484 16485 16486 16487 16488 16489 16490 16491 16492 16493 16494 16495 16496 16497 16498 16499 16500 16501 16502 16503 16504 16505 16506 16507 16508 16509 16510 16511 16512 16513 16514 16515 16516 16517 16518 16519 16520 16521 16522 16523 16524 16525 16526 16527 16528 16529 16530 16531 16532 16533 16534 16535 16536 16537 16538 16539 16540 16541 16542 16543 16544 16545 16546 16547 16548 16549 16550 16551 16552 16553 16554 16555 16556 16557 16558 16559 16560 16561 16562 16563 16564 16565 16566 16567 16568 16569 16570 16571 16572 16573 16574 16575 16576 16577 16578 16579 16580 16581 16582 16583 16584 16585 16586 16587 16588 16589 16590 16591 16592 16593 16594 16595 16596 16597 16598 16599 16600 16601 16602 16603 16604 16605 16606 16607 16608 16609 16610 16611 16612 16613 16614 16615 16616 16617 16618 16619 16620 16621 16622 16623 16624 16625 16626 16627 16628 16629 16630 16631 16632 16633 16634 16635 16636 16637 16638 16639 16640 16641 16642 16643 16644 16645 16646 16647 16648 16649 16650 16651 16652 16653 16654 16655 16656 16657 16658 16659 16660 16661 16662 16663 16664 16665 16666 16667 16668 16669 16670 16671 16672 16673 16674 16675 16676 16677 16678 16679 16680 16681 16682 16683 16684 16685 16686 16687 16688 16689 16690 16691 16692 16693 16694 16695 16696 16697 16698 16699 16700 16701 16702 16703 16704 16705 16706 16707 16708 16709 16710 16711 16712 16713 16714 16715 16716 16717 16718 16719 16720 16721 16722 16723 16724 16725 16726 16727 16728 16729 16730 16731 16732 16733 16734 16735 16736 16737 16738 16739 16740 16741 16742 16743 16744 16745 16746 16747 16748 16749 16750 16751 16752 16753 16754 16755 16756 16757 16758 16759 16760 16761 16762 16763 16764 16765 16766 16767 16768 16769 16770 16771 16772 16773 16774 16775 16776 16777 16778 16779 16780 16781 16782 16783 16784 16785 16786 16787 16788 16789 16790 16791 16792 16793 16794 16795 16796 16797 16798 16799 16800 16801 16802 16803 16804 16805 16806 16807 16808 16809 16810 16811 16812 16813 16814 16815 16816 16817 16818 16819 16820 16821 16822 16823 16824 16825 16826 16827 16828 16829 16830 16831 16832 16833 16834 16835 16836 16837 16838 16839 16840 16841 16842 16843 16844 16845 16846 16847 16848 16849 16850 16851 16852 16853 16854 16855 16856 16857 16858 16859 16860 16861 16862 16863 16864 16865 16866 16867 16868 16869 16870 16871 16872 16873 16874 16875 16876 16877 16878 16879 16880 16881 16882 16883 16884 16885 16886 16887 16888 16889 16890 16891 16892 16893 16894 16895 16896 16897 16898 16899 16900 16901 16902 16903 16904 16905 16906 16907 16908 16909 16910 16911 16912 16913 16914 16915 16916 16917 16918 16919 16920 16921 16922 16923 16924 16925 16926 16927 16928 16929 16930 16931 16932 16933 16934 16935 16936 16937 16938 16939 16940 16941 16942 16943 16944 16945 16946 16947 16948 16949 16950 16951 16952 16953 16954 16955 16956 16957 16958 16959 16960 16961 16962 16963 16964 16965 16966 16967 16968 16969 16970 16971 16972 16973 16974 16975 16976 16977 16978 16979 16980 16981 16982 16983 16984 16985 16986 16987 16988 16989 16990 16991 16992 16993 16994 16995 16996 16997 16998 16999 17000 17001 17002 17003 17004 17005 17006 17007 17008 17009 17010 17011 17012 17013 17014 17015 17016 17017 17018 17019 17020 17021 17022 17023 17024 17025 17026 17027 17028 17029 17030 17031 17032 17033 17034 17035 17036 17037 17038 17039 17040 17041 17042 17043 17044 17045 17046 17047 17048 17049 17050 17051 17052 17053 17054 17055 17056 17057 17058 17059 17060 17061 17062 17063 17064 17065 17066 17067 17068 17069 17070 17071 17072 17073 17074 17075 17076 17077 17078 17079 17080 17081 17082 17083 17084 17085 17086 17087 17088 17089 17090 17091 17092 17093 17094 17095 17096 17097 17098 17099 17100 17101 17102 17103 17104 17105 17106 17107 17108 17109 17110 17111 17112 17113 17114 17115 17116 17117 17118 17119 17120 17121 17122 17123 17124 17125 17126 17127 17128 17129 17130 17131 17132 17133 17134 17135 17136 17137 17138 17139 17140 17141 17142 17143 17144 17145 17146 17147 17148 17149 17150 17151 17152 17153 17154 17155 17156 17157 17158 17159 17160 17161 17162 17163 17164 17165 17166 17167 17168 17169 17170 17171 17172 17173 17174 17175 17176 17177 17178 17179 17180 17181 17182 17183 17184 17185 17186 17187 17188 17189 17190 17191 17192 17193 17194 17195 17196 17197 17198 17199 17200 17201 17202 17203 17204 17205 17206 17207 17208 17209 17210 17211 17212 17213 17214 17215 17216 17217 17218 17219 17220 17221 17222 17223 17224 17225 17226 17227 17228 17229 17230 17231 17232 17233 17234 17235 17236 17237 17238 17239 17240 17241 17242 17243 17244 17245 17246 17247 17248 17249 17250 17251 17252 17253 17254 17255 17256 17257 17258 17259 17260 17261 17262 17263 17264 17265 17266 17267 17268 17269 17270 17271 17272 17273 17274 17275 17276 17277 17278 17279 17280 17281 17282 17283 17284 17285 17286 17287 17288 17289 17290 17291 17292 17293 17294 17295 17296 17297 17298 17299 17300 17301 17302 17303 17304 17305 17306 17307 17308 17309 17310 17311 17312 17313 17314 17315 17316 17317 17318 17319 17320 17321 17322 17323 17324 17325 17326 17327 17328 17329 17330 17331 17332 17333 17334 17335 17336 17337 17338 17339 17340 17341 17342 17343 17344 17345 17346 17347 17348 17349 17350 17351 17352 17353 17354 17355 17356 17357 17358 17359 17360 17361 17362 17363 17364 17365 17366 17367 17368 17369 17370 17371 17372 17373 17374 17375 17376 17377 17378 17379 17380 17381 17382 17383 17384 17385 17386 17387 17388 17389 17390 17391 17392 17393 17394 17395 17396 17397 17398 17399 17400 17401 17402 17403 17404 17405 17406 17407 17408 17409 17410 17411 17412 17413 17414 17415 17416 17417 17418 17419 17420 17421 17422 17423 17424 17425 17426 17427 17428 17429 17430 17431 17432 17433 17434 17435 17436 17437 17438 17439 17440 17441 17442 17443 17444 17445 17446 17447 17448 17449 17450 17451 17452 17453 17454 17455 17456 17457 17458 17459 17460 17461 17462 17463 17464 17465 17466 17467 17468 17469 17470 17471 17472 17473 17474 17475 17476 17477 17478 17479 17480 17481 17482 17483 17484 17485 17486 17487 17488 17489 17490 17491 17492 17493 17494 17495 17496 17497 17498 17499 17500 17501 17502 17503 17504 17505 17506 17507 17508 17509 17510 17511 17512 17513 17514 17515 17516 17517 17518 17519 17520 17521 17522 17523 17524 17525 17526 17527 17528 17529 17530 17531 17532 17533 17534 17535 17536 17537 17538 17539 17540 17541 17542 17543 17544 17545 17546 17547 17548 17549 17550 17551 17552 17553 17554 17555 17556 17557 17558 17559 17560 17561 17562 17563 17564 17565 17566 17567 17568 17569 17570 17571 17572 17573 17574 17575 17576 17577 17578 17579 17580 17581 17582 17583 17584 17585 17586 17587 17588 17589 17590 17591 17592 17593 17594 17595 17596 17597 17598 17599 17600 17601 17602 17603 17604 17605 17606 17607 17608 17609 17610 17611 17612 17613 17614 17615 17616 17617 17618 17619 17620 17621 17622 17623 17624 17625 17626 17627 17628 17629 17630 17631 17632 17633 17634 17635 17636 17637 17638 17639 17640 17641 17642 17643 17644 17645 17646 17647 17648 17649 17650 17651 17652 17653 17654 17655 17656 17657 17658 17659 17660 17661 17662 17663 17664 17665 17666 17667 17668 17669 17670 17671 17672 17673 17674 17675 17676 17677 17678 17679 17680 17681 17682 17683 17684 17685 17686 17687 17688 17689 17690 17691 17692 17693 17694 17695 17696 17697 17698 17699 17700 17701 17702 17703 17704 17705 17706 17707 17708 17709 17710 17711 17712 17713 17714 17715 17716 17717 17718 17719 17720 17721 17722 17723 17724 17725 17726 17727 17728 17729 17730 17731 17732 17733 17734 17735 17736 17737 17738 17739 17740 17741 17742 17743 17744 17745 17746 17747 17748 17749 17750 17751 17752 17753 17754 17755 17756 17757 17758 17759 17760 17761 17762 17763 17764 17765 17766 17767 17768 17769 17770 17771 17772 17773 17774 17775 17776 17777 17778 17779 17780 17781 17782 17783 17784 17785 17786 17787 17788 17789 17790 17791 17792 17793 17794 17795 17796 17797 17798 17799 17800 17801 17802 17803 17804 17805 17806 17807 17808 17809 17810 17811 17812 17813 17814 17815 17816 17817 17818 17819 17820 17821 17822 17823 17824 17825 17826 17827 17828 17829 17830 17831 17832 17833 17834 17835 17836 17837 17838 17839 17840 17841 17842 17843 17844 17845 17846 17847 17848 17849 17850 17851 17852 17853 17854 17855 17856 17857 17858 17859 17860 17861 17862 17863 17864 17865 17866 17867 17868 17869 17870 17871 17872 17873 17874 17875 17876 17877 17878 17879 17880 17881 17882 17883 17884 17885 17886 17887 17888 17889 17890 17891 17892 17893 17894 17895 17896 17897 17898 17899 17900 17901 17902 17903 17904 17905 17906 17907 17908 17909 17910 17911 17912 17913 17914 17915 17916 17917 17918 17919 17920 17921 17922 17923 17924 17925 17926 17927 17928 17929 17930 17931 17932 17933 17934 17935 17936 17937 17938 17939 17940 17941 17942 17943 17944 17945 17946 17947 17948 17949 17950 17951 17952 17953 17954 17955 17956 17957 17958 17959 17960 17961 17962 17963 17964 17965 17966 17967 17968 17969 17970 17971 17972 17973 17974 17975 17976 17977 17978 17979 17980 17981 17982 17983 17984 17985 17986 17987 17988 17989 17990 17991 17992 17993 17994 17995 17996 17997 17998 17999 18000 18001 18002 18003 18004 18005 18006 18007 18008 18009 18010 18011 18012 18013 18014 18015 18016 18017 18018 18019 18020 18021 18022 18023 18024 18025 18026 18027 18028 18029 18030 18031 18032 18033 18034 18035 18036 18037 18038 18039 18040 18041 18042 18043 18044 18045 18046 18047 18048 18049 18050 18051 18052 18053 18054 18055 18056 18057 18058 18059 18060 18061 18062 18063 18064 18065 18066 18067 18068 18069 18070 18071 18072 18073 18074 18075 18076 18077 18078 18079 18080 18081 18082 18083 18084 18085 18086 18087 18088 18089 18090 18091 18092 18093 18094 18095 18096 18097 18098 18099 18100 18101 18102 18103 18104 18105 18106 18107 18108 18109 18110 18111 18112 18113 18114 18115 18116 18117 18118 18119 18120 18121 18122 18123 18124 18125 18126 18127 18128 18129 18130 18131 18132 18133 18134 18135 18136 18137 18138 18139 18140 18141 18142 18143 18144 18145 18146 18147 18148 18149 18150 18151 18152 18153 18154 18155 18156 18157 18158 18159 18160 18161 18162 18163 18164 18165 18166 18167 18168 18169 18170 18171 18172 18173 18174 18175 18176 18177 18178 18179 18180 18181 18182 18183 18184 18185 18186 18187 18188 18189 18190 18191 18192 18193 18194 18195 18196 18197 18198 18199 18200 18201 18202 18203 18204 18205 18206 18207 18208 18209 18210 18211 18212 18213 18214 18215 18216 18217 18218 18219 18220 18221 18222 18223 18224 18225 18226 18227 18228 18229 18230 18231 18232 18233 18234 18235 18236 18237 18238 18239 18240 18241 18242 18243 18244 18245 18246 18247 18248 18249 18250 18251 18252 18253 18254 18255 18256 18257 18258 18259 18260 18261 18262 18263 18264 18265 18266 18267 18268 18269 18270 18271 18272 18273 18274 18275 18276 18277 18278 18279 18280 18281 18282 18283 18284 18285 18286 18287 18288 18289 18290 18291 18292 18293 18294 18295 18296 18297 18298 18299 18300 18301 18302 18303 18304 18305 18306 18307 18308 18309 18310 18311 18312 18313 18314 18315 18316 18317 18318 18319 18320 18321 18322 18323 18324 18325 18326 18327 18328 18329 18330 18331 18332 18333 18334 18335 18336 18337 18338 18339 18340 18341 18342 18343 18344 18345 18346 18347 18348 18349 18350 18351 18352 18353 18354 18355 18356 18357 18358 18359 18360 18361 18362 18363 18364 18365 18366 18367 18368 18369 18370 18371 18372 18373 18374 18375 18376 18377 18378 18379 18380 18381 18382 18383 18384 18385 18386 18387 18388 18389 18390 18391 18392 18393 18394 18395 18396 18397 18398 18399 18400 18401 18402 18403 18404 18405 18406 18407 18408 18409 18410 18411 18412 18413 18414 18415 18416 18417 18418 18419 18420 18421 18422 18423 18424 18425 18426 18427 18428 18429 18430 18431 18432 18433 18434 18435 18436 18437 18438 18439 18440 18441 18442 18443 18444 18445 18446 18447 18448 18449 18450 18451 18452 18453 18454 18455 18456 18457 18458 18459 18460 18461 18462 18463 18464 18465 18466 18467 18468 18469 18470 18471 18472 18473 18474 18475 18476 18477 18478 18479 18480 18481 18482 18483 18484 18485 18486 18487 18488 18489 18490 18491 18492 18493 18494 18495 18496 18497 18498 18499 18500 18501 18502 18503 18504 18505 18506 18507 18508 18509 18510 18511 18512 18513 18514 18515 18516 18517 18518 18519 18520 18521 18522 18523 18524 18525 18526 18527 18528 18529 18530 18531 18532 18533 18534 18535 18536 18537 18538 18539 18540 18541 18542 18543 18544 18545 18546 18547 18548 18549 18550 18551 18552 18553 18554 18555 18556 18557 18558 18559 18560 18561 18562 18563 18564 18565 18566 18567 18568 18569 18570 18571 18572 18573 18574 18575 18576 18577 18578 18579 18580 18581 18582 18583 18584 18585 18586 18587 18588 18589 18590 18591 18592 18593 18594 18595 18596 18597 18598 18599 18600 18601 18602 18603 18604 18605 18606 18607 18608 18609 18610 18611 18612 18613 18614 18615 18616 18617 18618 18619 18620 18621 18622 18623 18624 18625 18626 18627 18628 18629 18630 18631 18632 18633 18634 18635 18636 18637 18638 18639 18640 18641 18642 18643 18644 18645 18646 18647 18648 18649 18650 18651 18652 18653 18654 18655 18656 18657 18658 18659 18660 18661 18662 18663 18664 18665 18666 18667 18668 18669 18670 18671 18672 18673 18674 18675 18676 18677 18678 18679 18680 18681 18682 18683 18684 18685 18686 18687 18688 18689 18690 18691 18692 18693 18694 18695 18696 18697 18698 18699 18700 18701 18702 18703 18704 18705 18706 18707 18708 18709 18710 18711 18712 18713 18714 18715 18716 18717 18718 18719 18720 18721 18722 18723 18724 18725 18726 18727 18728 18729 18730 18731 18732 18733 18734 18735 18736 18737 18738 18739 18740 18741 18742 18743 18744 18745 18746 18747 18748 18749 18750 18751 18752 18753 18754 18755 18756 18757 18758 18759 18760 18761 18762 18763 18764 18765 18766 18767 18768 18769 18770 18771 18772 18773 18774 18775 18776 18777 18778 18779 18780 18781 18782 18783 18784 18785 18786 18787 18788 18789 18790 18791 18792 18793 18794 18795 18796 18797 18798 18799 18800 18801 18802 18803 18804 18805 18806 18807 18808 18809 18810 18811 18812 18813 18814 18815 18816 18817 18818 18819 18820 18821 18822 18823 18824 18825 18826 18827 18828 18829 18830 18831 18832 18833 18834 18835 18836 18837 18838 18839 18840 18841 18842 18843 18844 18845 18846 18847 18848 18849 18850 18851 18852 18853 18854 18855 18856 18857 18858 18859 18860 18861 18862 18863 18864 18865 18866 18867 18868 18869 18870 18871 18872 18873 18874 18875 18876 18877 18878 18879 18880 18881 18882 18883 18884 18885 18886 18887 18888 18889 18890 18891 18892 18893 18894 18895 18896 18897 18898 18899 18900 18901 18902 18903 18904 18905 18906 18907 18908 18909 18910 18911 18912 18913 18914 18915 18916 18917 18918 18919 18920 18921 18922 18923 18924 18925 18926 18927 18928 18929 18930 18931 18932 18933 18934 18935 18936 18937 18938 18939 18940 18941 18942 18943 18944 18945 18946 18947 18948 18949 18950 18951 18952 18953 18954 18955 18956 18957 18958 18959 18960 18961 18962 18963 18964 18965 18966 18967 18968 18969 18970 18971 18972 18973 18974 18975 18976 18977 18978 18979 18980 18981 18982 18983 18984 18985 18986 18987 18988 18989 18990 18991 18992 18993 18994 18995 18996 18997 18998 18999 19000 19001 19002 19003 19004 19005 19006 19007 19008 19009 19010 19011 19012 19013 19014 19015 19016 19017 19018 19019 19020 19021 19022 19023 19024 19025 19026 19027 19028 19029 19030 19031 19032 19033 19034 19035 19036 19037 19038 19039 19040 19041 19042 19043 19044 19045 19046 19047 19048 19049 19050 19051 19052 19053 19054 19055 19056 19057 19058 19059 19060 19061 19062 19063 19064 19065 19066 19067 19068 19069 19070 19071 19072 19073 19074 19075 19076 19077 19078 19079 19080 19081 19082 19083 19084 19085 19086 19087 19088 19089 19090 19091 19092 19093 19094 19095 19096 19097 19098 19099 19100 19101 19102 19103 19104 19105 19106 19107 19108 19109 19110 19111 19112 19113 19114 19115 19116 19117 19118 19119 19120 19121 19122 19123 19124 19125 19126 19127 19128 19129 19130 19131 19132 19133 19134 19135 19136 19137 19138 19139 19140 19141 19142 19143 19144 19145 19146 19147 19148 19149 19150 19151 19152 19153 19154 19155 19156 19157 19158 19159 19160 19161 19162 19163 19164 19165 19166 19167 19168 19169 19170 19171 19172 19173 19174 19175 19176 19177 19178 19179 19180 19181 19182 19183 19184 19185 19186 19187 19188 19189 19190 19191 19192 19193 19194 19195 19196 19197 19198 19199 19200 19201 19202 19203 19204 19205 19206 19207 19208 19209 19210 19211 19212 19213 19214 19215 19216 19217 19218 19219 19220 19221 19222 19223 19224 19225 19226 19227 19228 19229 19230 19231 19232 19233 19234 19235 19236 19237 19238 19239 19240 19241 19242 19243 19244 19245 19246 19247 19248 19249 19250 19251 19252 19253 19254 19255 19256 19257 19258 19259 19260 19261 19262 19263 19264 19265 19266 19267 19268 19269 19270 19271 19272 19273 19274 19275 19276 19277 19278 19279 19280 19281 19282 19283 19284 19285 19286 19287 19288 19289 19290 19291 19292 19293 19294 19295 19296 19297 19298 19299 19300 19301 19302 19303 19304 19305 19306 19307 19308 19309 19310 19311 19312 19313 19314 19315 19316 19317 19318 19319 19320 19321 19322 19323 19324 19325 19326 19327 19328 19329 19330 19331 19332 19333 19334 19335 19336 19337 19338 19339 19340 19341 19342 19343 19344 19345 19346 19347 19348 19349 19350 19351 19352 19353 19354 19355 19356 19357 19358 19359 19360 19361 19362 19363 19364 19365 19366 19367 19368 19369 19370 19371 19372 19373 19374 19375 19376 19377 19378 19379 19380 19381 19382 19383 19384 19385 19386 19387 19388 19389 19390 19391 19392 19393 19394 19395 19396 19397 19398 19399 19400 19401 19402 19403 19404 19405 19406 19407 19408 19409 19410 19411 19412 19413 19414 19415 19416 19417 19418 19419 19420 19421 19422 19423 19424 19425 19426 19427 19428 19429 19430 19431 19432 19433 19434 19435 19436 19437 19438 19439 19440 19441 19442 19443 19444 19445 19446 19447 19448 19449 19450 19451 19452 19453 19454 19455 19456 19457 19458 19459 19460 19461 19462 19463 19464 19465 19466 19467 19468 19469 19470 19471 19472 19473 19474 19475 19476 19477 19478 19479 19480 19481 19482 19483 19484 19485 19486 19487 19488 19489 19490 19491 19492 19493 19494 19495 19496 19497 19498 19499 19500 19501 19502 19503 19504 19505 19506 19507 19508 19509 19510 19511 19512 19513 19514 19515 19516 19517 19518 19519 19520 19521 19522 19523 19524 19525 19526 19527 19528 19529 19530 19531 19532 19533 19534 19535 19536 19537 19538 19539 19540 19541 19542 19543 19544 19545 19546 19547 19548 19549 19550 19551 19552 19553 19554 19555 19556 19557 19558 19559 19560 19561 19562 19563 19564 19565 19566 19567 19568 19569 19570 19571 19572 19573 19574 19575 19576 19577 19578 19579 19580 19581 19582 19583 19584 19585 19586 19587 19588 19589 19590 19591 19592 19593 19594 19595 19596 19597 19598 19599 19600 19601 19602 19603 19604 19605 19606 19607 19608 19609 19610 19611 19612 19613 19614 19615 19616 19617 19618 19619 19620 19621 19622 19623 19624 19625 19626 19627 19628 19629 19630 19631 19632 19633 19634 19635 19636 19637 19638 19639 19640 19641 19642 19643 19644 19645 19646 19647 19648 19649 19650 19651 19652 19653 19654 19655 19656 19657 19658 19659 19660 19661 19662 19663 19664 19665 19666 19667 19668 19669 19670 19671 19672 19673 19674 19675 19676 19677 19678 19679 19680 19681 19682 19683 19684 19685 19686 19687 19688 19689 19690 19691 19692 19693 19694 19695 19696 19697 19698 19699 19700 19701 19702 19703 19704 19705 19706 19707 19708 19709 19710 19711 19712 19713 19714 19715 19716 19717 19718 19719 19720 19721 19722 19723 19724 19725 19726 19727 19728 19729 19730 19731 19732 19733 19734 19735 19736 19737 19738 19739 19740 19741 19742 19743 19744 19745 19746 19747 19748 19749 19750 19751 19752 19753 19754 19755 19756 19757 19758 19759 19760 19761 19762 19763 19764 19765 19766 19767 19768 19769 19770 19771 19772 19773 19774 19775 19776 19777 19778 19779 19780 19781 19782 19783 19784 19785 19786 19787 19788 19789 19790 19791 19792 19793 19794 19795 19796 19797 19798 19799 19800 19801 19802 19803 19804 19805 19806 19807 19808 19809 19810 19811 19812 19813 19814 19815 19816 19817 19818 19819 19820 19821 19822 19823 19824 19825 19826 19827 19828 19829 19830 19831 19832 19833 19834 19835 19836 19837 19838 19839 19840 19841 19842 19843 19844 19845 19846 19847 19848 19849 19850 19851 19852 19853 19854 19855 19856 19857 19858 19859 19860 19861 19862 19863 19864 19865 19866 19867 19868 19869 19870 19871 19872 19873 19874 19875 19876 19877 19878 19879 19880 19881 19882 19883 19884 19885 19886 19887 19888 19889 19890 19891 19892 19893 19894 19895 19896 19897 19898 19899 19900 19901 19902 19903 19904 19905 19906 19907 19908 19909 19910 19911 19912 19913 19914 19915 19916 19917 19918 19919 19920 19921 19922 19923 19924 19925 19926 19927 19928 19929 19930 19931 19932 19933 19934 19935 19936 19937 19938 19939 19940 19941 19942 19943 19944 19945 19946 19947 19948 19949 19950 19951 19952 19953 19954 19955 19956 19957 19958 19959 19960 19961 19962 19963 19964 19965 19966 19967 19968 19969 19970 19971 19972 19973 19974 19975 19976 19977 19978 19979 19980 19981 19982 19983 19984 19985 19986 19987 19988 19989 19990 19991 19992 19993 19994 19995 19996 19997 19998 19999 20000 20001 20002 20003 20004 20005 20006 20007 20008 20009 20010 20011 20012 20013 20014 20015 20016 20017 20018 20019 20020 20021 20022 20023 20024 20025 20026 20027 20028 20029 20030 20031 20032 20033 20034 20035 20036 20037 20038 20039 20040 20041 20042 20043 20044 20045 20046 20047 20048 20049 20050 20051 20052 20053 20054 20055 20056 20057 20058 20059 20060 20061 20062 20063 20064 20065 20066 20067 20068 20069 20070 20071 20072 20073 20074 20075 20076 20077 20078 20079 20080 20081 20082 20083 20084 20085 20086 20087 20088 20089 20090 20091 20092 20093 20094 20095 20096 20097 20098 20099 20100 20101 20102 20103 20104 20105 20106 20107 20108 20109 20110 20111 20112 20113 20114 20115 20116 20117 20118 20119 20120 20121 20122 20123 20124 20125 20126 20127 20128 20129 20130 20131 20132 20133 20134 20135 20136 20137 20138 20139 20140 20141 20142 20143 20144 20145 20146 20147 20148 20149 20150 20151 20152 20153 20154 20155 20156 20157 20158 20159 20160 20161 20162 20163 20164 20165 20166 20167 20168 20169 20170 20171 20172 20173 20174 20175 20176 20177 20178 20179 20180 20181 20182 20183 20184 20185 20186 20187 20188 20189 20190 20191 20192 20193 20194 20195 20196 20197 20198 20199 20200 20201 20202 20203 20204 20205 20206 20207 20208 20209 20210 20211 20212 20213 20214 20215 20216 20217 20218 20219 20220 20221 20222 20223 20224 20225 20226 20227 20228 20229 20230 20231 20232 20233 20234 20235 20236 20237 20238 20239 20240 20241 20242 20243 20244 20245 20246 20247 20248 20249 20250 20251 20252 20253 20254 20255 20256 20257 20258 20259 20260 20261 20262 20263 20264 20265 20266 20267 20268 20269 20270 20271 20272 20273 20274 20275 20276 20277 20278 20279 20280 20281 20282 20283 20284 20285 20286 20287 20288 20289 20290 20291 20292 20293 20294 20295 20296 20297 20298 20299 20300 20301 20302 20303 20304 20305 20306 20307 20308 20309 20310 20311 20312 20313 20314 20315 20316 20317 20318 20319 20320 20321 20322 20323 20324 20325 20326 20327 20328 20329 20330 20331 20332 20333 20334 20335 20336 20337 20338 20339 20340 20341 20342 20343 20344 20345 20346 20347 20348 20349 20350 20351 20352 20353 20354 20355 20356 20357 20358 20359 20360 20361 20362 20363 20364 20365 20366 20367 20368 20369 20370 20371 20372 20373 20374 20375 20376 20377 20378 20379 20380 20381 20382 20383 20384 20385 20386 20387 20388 20389 20390 20391 20392 20393 20394 20395 20396 20397 20398 20399 20400 20401 20402 20403 20404 20405 20406 20407 20408 20409 20410 20411 20412 20413 20414 20415 20416 20417 20418 20419 20420 20421 20422 20423 20424 20425 20426 20427 20428 20429 20430 20431 20432 20433 20434 20435 20436 20437 20438 20439 20440 20441 20442 20443 20444 20445 20446 20447 20448 20449 20450 20451 20452 20453 20454 20455 20456 20457 20458 20459 20460 20461 20462 20463 20464 20465 20466 20467 20468 20469 20470 20471 20472 20473 20474 20475 20476 20477 20478 20479 20480 20481 20482 20483 20484 20485 20486 20487 20488 20489 20490 20491 20492 20493 20494 20495 20496 20497 20498 20499 20500 20501 20502 20503 20504 20505 20506 20507 20508 20509 20510 20511 20512 20513 20514 20515 20516 20517 20518 20519 20520 20521 20522 20523 20524 20525 20526 20527 20528 20529 20530 20531 20532 20533 20534 20535 20536 20537 20538 20539 20540 20541 20542 20543 20544 20545 20546 20547 20548 20549 20550 20551 20552 20553 20554 20555 20556 20557 20558 20559 20560 20561 20562 20563 20564 20565 20566 20567 20568 20569 20570 20571 20572 20573 20574 20575 20576 20577 20578 20579 20580 20581 20582 20583 20584 20585 20586 20587 20588 20589 20590 20591 20592 20593 20594 20595 20596 20597 20598 20599 20600 20601 20602 20603 20604 20605 20606 20607 20608 20609 20610 20611 20612 20613 20614 20615 20616 20617 20618 20619 20620 20621 20622 20623 20624 20625 20626 20627 20628 20629 20630 20631 20632 20633 20634 20635 20636 20637 20638 20639 20640 20641 20642 20643 20644 20645 20646 20647 20648 20649 20650 20651 20652 20653 20654 20655 20656 20657 20658 20659 20660 20661 20662 20663 20664 20665 20666 20667 20668 20669 20670 20671 20672 20673 20674 20675 20676 20677 20678 20679 20680 20681 20682 20683 20684 20685 20686 20687 20688 20689 20690 20691 20692 20693 20694 20695 20696 20697 20698 20699 20700 20701 20702 20703 20704 20705 20706 20707 20708 20709 20710 20711 20712 20713 20714 20715 20716 20717 20718 20719 20720 20721 20722 20723 20724 20725 20726 20727 20728 20729 20730 20731 20732 20733 20734 20735 20736 20737 20738 20739 20740 20741 20742 20743 20744 20745 20746 20747 20748 20749 20750 20751 20752 20753 20754 20755 20756 20757 20758 20759 20760 20761 20762 20763 20764 20765 20766 20767 20768 20769 20770 20771 20772 20773 20774 20775 20776 20777 20778 20779 20780 20781 20782 20783 20784 20785 20786 20787 20788 20789 20790 20791 20792 20793 20794 20795 20796 20797 20798 20799 20800 20801 20802 20803 20804 20805 20806 20807 20808 20809 20810 20811 20812 20813 20814 20815 20816 20817 20818 20819 20820 20821 20822 20823 20824 20825 20826 20827 20828 20829 20830 20831 20832 20833 20834 20835 20836 20837 20838 20839 20840 20841 20842 20843 20844 20845 20846 20847 20848 20849 20850 20851 20852 20853 20854 20855 20856 20857 20858 20859 20860 20861 20862 20863 20864 20865 20866 20867 20868 20869 20870 20871 20872 20873 20874 20875 20876 20877 20878 20879 20880 20881 20882 20883 20884 20885 20886 20887 20888 20889 20890 20891 20892 20893 20894 20895 20896 20897 20898 20899 20900 20901 20902 20903 20904 20905 20906 20907 20908 20909 20910 20911 20912 20913 20914 20915 20916 20917 20918 20919 20920 20921 20922 20923 20924 20925 20926 20927 20928 20929 20930 20931 20932 20933 20934 20935 20936 20937 20938 20939 20940 20941 20942 20943 20944 20945 20946 20947 20948 20949 20950 20951 20952 20953 20954 20955 20956 20957 20958 20959 20960 20961 20962 20963 20964 20965 20966 20967 20968 20969 20970 20971 20972 20973 20974 20975 20976 20977 20978 20979 20980 20981 20982 20983 20984 20985 20986 20987 20988 20989 20990 20991 20992 20993 20994 20995 20996 20997 20998 20999 21000 21001 21002 21003 21004 21005 21006 21007 21008 21009 21010 21011 21012 21013 21014 21015 21016 21017 21018 21019 21020 21021 21022 21023 21024 21025 21026 21027 21028 21029 21030 21031 21032 21033 21034 21035 21036 21037 21038 21039 21040 21041 21042 21043 21044 21045 21046 21047 21048 21049 21050 21051 21052 21053 21054 21055 21056 21057 21058 21059 21060 21061 21062 21063 21064 21065 21066 21067 21068 21069 21070 21071 21072 21073 21074 21075 21076 21077 21078 21079 21080 21081 21082 21083 21084 21085 21086 21087 21088 21089 21090 21091 21092 21093 21094 21095 21096 21097 21098 21099 21100 21101 21102 21103 21104 21105 21106 21107 21108 21109 21110 21111 21112 21113 21114 21115 21116 21117 21118 21119 21120 21121 21122 21123 21124 21125 21126 21127 21128 21129 21130 21131 21132 21133 21134 21135 21136 21137 21138 21139 21140 21141 21142 21143 21144 21145 21146 21147 21148 21149 21150 21151 21152 21153 21154 21155 21156 21157 21158 21159 21160 21161 21162 21163 21164 21165 21166 21167 21168 21169 21170 21171 21172 21173 21174 21175 21176 21177 21178 21179 21180 21181 21182 21183 21184 21185 21186 21187 21188 21189 21190 21191 21192 21193 21194 21195 21196 21197 21198 21199 21200 21201 21202 21203 21204 21205 21206 21207 21208 21209 21210 21211 21212 21213 21214 21215 21216 21217 21218 21219 21220 21221 21222 21223 21224 21225 21226 21227 21228 21229 21230 21231 21232 21233 21234 21235 21236 21237 21238 21239 21240 21241 21242 21243 21244 21245 21246 21247 21248 21249 21250 21251 21252 21253 21254 21255 21256 21257 21258 21259 21260 21261 21262 21263 21264 21265 21266 21267 21268 21269 21270 21271 21272 21273 21274 21275 21276 21277 21278 21279 21280 21281 21282 21283 21284 21285 21286 21287 21288 21289 21290 21291 21292 21293 21294 21295 21296 21297 21298 21299 21300 21301 21302 21303 21304 21305 21306 21307 21308 21309 21310 21311 21312 21313 21314 21315 21316 21317 21318 21319 21320 21321 21322 21323 21324 21325 21326 21327 21328 21329 21330 21331 21332 21333 21334 21335 21336 21337 21338 21339 21340 21341 21342 21343 21344 21345 21346 21347 21348 21349 21350 21351 21352 21353 21354 21355 21356 21357 21358 21359 21360 21361 21362 21363 21364 21365 21366 21367 21368 21369 21370 21371 21372 21373 21374 21375 21376 21377 21378 21379 21380 21381 21382 21383 21384 21385 21386 21387 21388 21389 21390 21391 21392 21393 21394 21395 21396 21397 21398 21399 21400 21401 21402 21403 21404 21405 21406 21407 21408 21409 21410 21411 21412 21413 21414 21415 21416 21417 21418 21419 21420 21421 21422 21423 21424 21425 21426 21427 21428 21429 21430 21431 21432 21433 21434 21435 21436 21437 21438 21439 21440 21441 21442 21443 21444 21445 21446 21447 21448 21449 21450 21451 21452 21453 21454 21455 21456 21457 21458 21459 21460 21461 21462 21463 21464 21465 21466 21467 21468 21469 21470 21471 21472 21473 21474 21475 21476 21477 21478 21479 21480 21481 21482 21483 21484 21485 21486 21487 21488 21489 21490 21491 21492 21493 21494 21495 21496 21497 21498 21499 21500 21501 21502 21503 21504 21505 21506 21507 21508 21509 21510 21511 21512 21513 21514 21515 21516 21517 21518 21519 21520 21521 21522 21523 21524 21525 21526 21527 21528 21529 21530 21531 21532 21533 21534 21535 21536 21537 21538 21539 21540 21541 21542 21543 21544 21545 21546 21547 21548 21549 21550 21551 21552 21553 21554 21555 21556 21557 21558 21559 21560 21561 21562 21563 21564 21565 21566 21567 21568 21569 21570 21571 21572 21573 21574 21575 21576 21577 21578 21579 21580 21581 21582 21583 21584 21585 21586 21587 21588 21589 21590 21591 21592 21593 21594 21595 21596 21597 21598 21599 21600 21601 21602 21603 21604 21605 21606 21607 21608 21609 21610 21611 21612 21613 21614 21615 21616 21617 21618 21619 21620 21621 21622 21623 21624 21625 21626 21627 21628 21629 21630 21631 21632 21633 21634 21635 21636 21637 21638 21639 21640 21641 21642 21643 21644 21645 21646 21647 21648 21649 21650 21651 21652 21653 21654 21655 21656 21657 21658 21659 21660 21661 21662 21663 21664 21665 21666 21667 21668 21669 21670 21671 21672 21673 21674 21675 21676 21677 21678 21679 21680 21681 21682 21683 21684 21685 21686 21687 21688 21689 21690 21691 21692 21693 21694 21695 21696 21697 21698 21699 21700 21701 21702 21703 21704 21705 21706 21707 21708 21709 21710 21711 21712 21713 21714 21715 21716 21717 21718 21719 21720 21721 21722 21723 21724 21725 21726 21727 21728 21729 21730 21731 21732 21733 21734 21735 21736 21737 21738 21739 21740 21741 21742 21743 21744 21745 21746 21747 21748 21749 21750 21751 21752 21753 21754 21755 21756 21757 21758 21759 21760 21761 21762 21763 21764 21765 21766 21767 21768 21769 21770 21771 21772 21773 21774 21775 21776 21777 21778 21779 21780 21781 21782 21783 21784 21785 21786 21787 21788 21789 21790 21791 21792 21793 21794 21795 21796 21797 21798 21799 21800 21801 21802 21803 21804 21805 21806 21807 21808 21809 21810 21811 21812 21813 21814 21815 21816 21817 21818 21819 21820 21821 21822 21823 21824 21825 21826 21827 21828 21829 21830 21831 21832 21833 21834 21835 21836 21837 21838 21839 21840 21841 21842 21843 21844 21845 21846 21847 21848 21849 21850 21851 21852 21853 21854 21855 21856 21857 21858 21859 21860 21861 21862 21863 21864 21865 21866 21867 21868 21869 21870 21871 21872 21873 21874 21875 21876 21877 21878 21879 21880 21881 21882 21883 21884 21885 21886 21887 21888 21889 21890 21891 21892 21893 21894 21895 21896 21897 21898 21899 21900 21901 21902 21903 21904 21905 21906 21907 21908 21909 21910 21911 21912 21913 21914 21915 21916 21917 21918 21919 21920 21921 21922 21923 21924 21925 21926 21927 21928 21929 21930 21931 21932 21933 21934 21935 21936 21937 21938 21939 21940 21941 21942 21943 21944 21945 21946 21947 21948 21949 21950 21951 21952 21953 21954 21955 21956 21957 21958 21959 21960 21961 21962 21963 21964 21965 21966 21967 21968 21969 21970 21971 21972 21973 21974 21975 21976 21977 21978 21979 21980 21981 21982 21983 21984 21985 21986 21987 21988 21989 21990 21991 21992 21993 21994 21995 21996 21997 21998 21999 22000 22001 22002 22003 22004 22005 22006 22007 22008 22009 22010 22011 22012 22013 22014 22015 22016 22017 22018 22019 22020 22021 22022 22023 22024 22025 22026 22027 22028 22029 22030 22031 22032 22033 22034 22035 22036 22037 22038 22039 22040 22041 22042 22043 22044 22045 22046 22047 22048 22049 22050 22051 22052 22053 22054 22055 22056 22057 22058 22059 22060 22061 22062 22063 22064 22065 22066 22067 22068 22069 22070 22071 22072 22073 22074 22075 22076 22077 22078 22079 22080 22081 22082 22083 22084 22085 22086 22087 22088 22089 22090 22091 22092 22093 22094 22095 22096 22097 22098 22099 22100 22101 22102 22103 22104 22105 22106 22107 22108 22109 22110 22111 22112 22113 22114 22115 22116 22117 22118 22119 22120 22121 22122 22123 22124 22125 22126 22127 22128 22129 22130 22131 22132 22133 22134 22135 22136 22137 22138 22139 22140 22141 22142 22143 22144 22145 22146 22147 22148 22149 22150 22151 22152 22153 22154 22155 22156 22157 22158 22159 22160 22161 22162 22163 22164 22165 22166 22167 22168 22169 22170 22171 22172 22173 22174 22175 22176 22177 22178 22179 22180 22181 22182 22183 22184 22185 22186 22187 22188 22189 22190 22191 22192 22193 22194 22195 22196 22197 22198 22199 22200 22201 22202 22203 22204 22205 22206 22207 22208 22209 22210 22211 22212 22213 22214 22215 22216 22217 22218 22219 22220 22221 22222 22223 22224 22225 22226 22227 22228 22229 22230 22231 22232 22233 22234 22235 22236 22237 22238 22239 22240 22241 22242 22243 22244 22245 22246 22247 22248 22249 22250 22251 22252 22253 22254 22255 22256 22257 22258 22259 22260 22261 22262 22263 22264 22265 22266 22267 22268 22269 22270 22271 22272 22273 22274 22275 22276 22277 22278 22279 22280 22281 22282 22283 22284 22285 22286 22287 22288 22289 22290 22291 22292 22293 22294 22295 22296 22297 22298 22299 22300 22301 22302 22303 22304 22305 22306 22307 22308 22309 22310 22311 22312 22313 22314 22315 22316 22317 22318 22319 22320 22321 22322 22323 22324 22325 22326 22327 22328 22329 22330 22331 22332 22333 22334 22335 22336 22337 22338 22339 22340 22341 22342 22343 22344 22345 22346 22347 22348 22349 22350 22351 22352 22353 22354 22355 22356 22357 22358 22359 22360 22361 22362 22363 22364 22365 22366 22367 22368 22369 22370 22371 22372 22373 22374 22375 22376 22377 22378 22379 22380 22381 22382 22383 22384 22385 22386 22387 22388 22389 22390 22391 22392 22393 22394 22395 22396 22397 22398 22399 22400 22401 22402 22403 22404 22405 22406 22407 22408 22409 22410 22411 22412 22413 22414 22415 22416 22417 22418 22419 22420 22421 22422 22423 22424 22425 22426 22427 22428 22429 22430 22431 22432 22433 22434 22435 22436 22437 22438 22439 22440 22441 22442 22443 22444 22445 22446 22447 22448 22449 22450 22451 22452 22453 22454 22455 22456 22457 22458 22459 22460 22461 22462 22463 22464 22465 22466 22467 22468 22469 22470 22471 22472 22473 22474 22475 22476 22477 22478 22479 22480 22481 22482 22483 22484 22485 22486 22487 22488 22489 22490 22491 22492 22493 22494 22495 22496 22497 22498 22499 22500 22501 22502 22503 22504 22505 22506 22507 22508 22509 22510 22511 22512 22513 22514 22515 22516 22517 22518 22519 22520 22521 22522 22523 22524 22525 22526 22527 22528 22529 22530 22531 22532 22533 22534 22535 22536 22537 22538 22539 22540 22541 22542 22543 22544 22545 22546 22547 22548 22549 22550 22551 22552 22553 22554 22555 22556 22557 22558 22559 22560 22561 22562 22563 22564 22565 22566 22567 22568 22569 22570 22571 22572 22573 22574 22575 22576 22577 22578 22579 22580 22581 22582 22583 22584 22585 22586 22587 22588 22589 22590 22591 22592 22593 22594 22595 22596 22597 22598 22599 22600 22601 22602 22603 22604 22605 22606 22607 22608 22609 22610 22611 22612 22613 22614 22615 22616 22617 22618 22619 22620 22621 22622 22623 22624 22625 22626 22627 22628 22629 22630 22631 22632 22633 22634 22635 22636 22637 22638 22639 22640 22641 22642 22643 22644 22645 22646 22647 22648 22649 22650 22651 22652 22653 22654 22655 22656 22657 22658 22659 22660 22661 22662 22663 22664 22665 22666 22667 22668 22669 22670 22671 22672 22673 22674 22675 22676 22677 22678 22679 22680 22681 22682 22683 22684 22685 22686 22687 22688 22689 22690 22691 22692 22693 22694 22695 22696 22697 22698 22699 22700 22701 22702 22703 22704 22705 22706 22707 22708 22709 22710 22711 22712 22713 22714 22715 22716 22717 22718 22719 22720 22721 22722 22723 22724 22725 22726 22727 22728 22729 22730 22731 22732 22733 22734 22735 22736 22737 22738 22739 22740 22741 22742 22743 22744 22745 22746 22747 22748 22749 22750 22751 22752 22753 22754 22755 22756 22757 22758 22759 22760 22761 22762 22763 22764 22765 22766 22767 22768 22769 22770 22771 22772 22773 22774 22775 22776 22777 22778 22779 22780 22781 22782 22783 22784 22785 22786 22787 22788 22789 22790 22791 22792 22793 22794 22795 22796 22797 22798 22799 22800 22801 22802 22803 22804 22805 22806 22807 22808 22809 22810 22811 22812 22813 22814 22815 22816 22817 22818 22819 22820 22821 22822 22823 22824 22825 22826 22827 22828 22829 22830 22831 22832 22833 22834 22835 22836 22837 22838 22839 22840 22841 22842 22843 22844 22845 22846 22847 22848 22849 22850 22851 22852 22853 22854 22855 22856 22857 22858 22859 22860 22861 22862 22863 22864 22865 22866 22867 22868 22869 22870 22871 22872 22873 22874 22875 22876 22877 22878 22879 22880 22881 22882 22883 22884 22885 22886 22887 22888 22889 22890 22891 22892 22893 22894 22895 22896 22897 22898 22899 22900 22901 22902 22903 22904 22905 22906 22907 22908 22909 22910 22911 22912 22913 22914 22915 22916 22917 22918 22919 22920 22921 22922 22923 22924 22925 22926 22927 22928 22929 22930 22931 22932 22933 22934 22935 22936 22937 22938 22939 22940 22941 22942 22943 22944 22945 22946 22947 22948 22949 22950 22951 22952 22953 22954 22955 22956 22957 22958 22959 22960 22961 22962 22963 22964 22965 22966 22967 22968 22969 22970 22971 22972 22973 22974 22975 22976 22977 22978 22979 22980 22981 22982 22983 22984 22985 22986 22987 22988 22989 22990 22991 22992 22993 22994 22995 22996 22997 22998 22999 23000 23001 23002 23003 23004 23005 23006 23007 23008 23009 23010 23011 23012 23013 23014 23015 23016 23017 23018 23019 23020 23021 23022 23023 23024 23025 23026 23027 23028 23029 23030 23031 23032 23033 23034 23035 23036 23037 23038 23039 23040 23041 23042 23043 23044 23045 23046 23047 23048 23049 23050 23051 23052 23053 23054 23055 23056 23057 23058 23059 23060 23061 23062 23063 23064 23065 23066 23067 23068 23069 23070 23071 23072 23073 23074 23075 23076 23077 23078 23079 23080 23081 23082 23083 23084 23085 23086 23087 23088 23089 23090 23091 23092 23093 23094 23095 23096 23097 23098 23099 23100 23101 23102 23103 23104 23105 23106 23107 23108 23109 23110 23111 23112 23113 23114 23115 23116 23117 23118 23119 23120 23121 23122 23123 23124 23125 23126 23127 23128 23129 23130 23131 23132 23133 23134 23135 23136 23137 23138 23139 23140 23141 23142 23143 23144 23145 23146 23147 23148 23149 23150 23151 23152 23153 23154 23155 23156 23157 23158 23159 23160 23161 23162 23163 23164 23165 23166 23167 23168 23169 23170 23171 23172 23173 23174 23175 23176 23177 23178 23179 23180 23181 23182 23183 23184 23185 23186 23187 23188 23189 23190 23191 23192 23193 23194 23195 23196 23197 23198 23199 23200 23201 23202 23203 23204 23205 23206 23207 23208 23209 23210 23211 23212 23213 23214 23215 23216 23217 23218 23219 23220 23221 23222 23223 23224 23225 23226 23227 23228 23229 23230 23231 23232 23233 23234 23235 23236 23237 23238 23239 23240 23241 23242 23243 23244 23245 23246 23247 23248 23249 23250 23251 23252 23253 23254 23255 23256 23257 23258 23259 23260 23261 23262 23263 23264 23265 23266 23267 23268 23269 23270 23271 23272 23273 23274 23275 23276 23277 23278 23279 23280 23281 23282 23283 23284 23285 23286 23287 23288 23289 23290 23291 23292 23293 23294 23295 23296 23297 23298 23299 23300 23301 23302 23303 23304 23305 23306 23307 23308 23309 23310 23311 23312 23313 23314 23315 23316 23317 23318 23319 23320 23321 23322 23323 23324 23325 23326 23327 23328 23329 23330 23331 23332 23333 23334 23335 23336 23337 23338 23339 23340 23341 23342 23343 23344 23345 23346 23347 23348 23349 23350 23351 23352 23353 23354 23355 23356 23357 23358 23359 23360 23361 23362 23363 23364 23365 23366 23367 23368 23369 23370 23371 23372 23373 23374 23375 23376 23377 23378 23379 23380 23381 23382 23383 23384 23385 23386 23387 23388 23389 23390 23391 23392 23393 23394 23395 23396 23397 23398 23399 23400 23401 23402 23403 23404 23405 23406 23407 23408 23409 23410 23411 23412 23413 23414 23415 23416 23417 23418 23419 23420 23421 23422 23423 23424 23425 23426 23427 23428 23429 23430 23431 23432 23433 23434 23435 23436 23437 23438 23439 23440 23441 23442 23443 23444 23445 23446 23447 23448 23449 23450 23451 23452 23453 23454 23455 23456 23457 23458 23459 23460 23461 23462 23463 23464 23465 23466 23467 23468 23469 23470 23471 23472 23473 23474 23475 23476 23477 23478 23479 23480 23481 23482 23483 23484 23485 23486 23487 23488 23489 23490 23491 23492 23493 23494 23495 23496 23497 23498 23499 23500 23501 23502 23503 23504 23505 23506 23507 23508 23509 23510 23511 23512 23513 23514 23515 23516 23517 23518 23519 23520 23521 23522 23523 23524 23525 23526 23527 23528 23529 23530 23531 23532 23533 23534 23535 23536 23537 23538 23539 23540 23541 23542 23543 23544 23545 23546 23547 23548 23549 23550 23551 23552 23553 23554 23555 23556 23557 23558 23559 23560 23561 23562 23563 23564 23565 23566 23567 23568 23569 23570 23571 23572 23573 23574 23575 23576 23577 23578 23579 23580 23581 23582 23583 23584 23585 23586 23587 23588 23589 23590 23591 23592 23593 23594 23595 23596 23597 23598 23599 23600 23601 23602 23603 23604 23605 23606 23607 23608 23609 23610 23611 23612 23613 23614 23615 23616 23617 23618 23619 23620 23621 23622 23623 23624 23625 23626 23627 23628 23629 23630 23631 23632 23633 23634 23635 23636 23637 23638 23639 23640 23641 23642 23643 23644 23645 23646 23647 23648 23649 23650 23651 23652 23653 23654 23655 23656 23657 23658 23659 23660 23661 23662 23663 23664 23665 23666 23667 23668 23669 23670 23671 23672 23673 23674 23675 23676 23677 23678 23679 23680 23681 23682 23683 23684 23685 23686 23687 23688 23689 23690 23691 23692 23693 23694 23695 23696 23697 23698 23699 23700 23701 23702 23703 23704 23705 23706 23707 23708 23709 23710 23711 23712 23713 23714 23715 23716 23717 23718 23719 23720 23721 23722 23723 23724 23725 23726 23727 23728 23729 23730 23731 23732 23733 23734 23735 23736 23737 23738 23739 23740 23741 23742 23743 23744 23745 23746 23747 23748 23749 23750 23751 23752 23753 23754 23755 23756 23757 23758 23759 23760 23761 23762 23763 23764 23765 23766 23767 23768 23769 23770 23771 23772 23773 23774 23775 23776 23777 23778 23779 23780 23781 23782 23783 23784 23785 23786 23787 23788 23789 23790 23791 23792 23793 23794 23795 23796 23797 23798 23799 23800 23801 23802 23803 23804 23805 23806 23807 23808 23809 23810 23811 23812 23813 23814 23815 23816 23817 23818 23819 23820 23821 23822 23823 23824 23825 23826 23827 23828 23829 23830 23831 23832 23833 23834 23835 23836 23837 23838 23839 23840 23841 23842 23843 23844 23845 23846 23847 23848 23849 23850 23851 23852 23853 23854 23855 23856 23857 23858 23859 23860 23861 23862 23863 23864 23865 23866 23867 23868 23869 23870 23871 23872 23873 23874 23875 23876 23877 23878 23879 23880 23881 23882 23883 23884 23885 23886 23887 23888 23889 23890 23891 23892 23893 23894 23895 23896 23897 23898 23899 23900 23901 23902 23903 23904 23905 23906 23907 23908 23909 23910 23911 23912 23913 23914 23915 23916 23917 23918 23919 23920 23921 23922 23923 23924 23925 23926 23927 23928 23929 23930 23931 23932 23933 23934 23935 23936 23937 23938 23939 23940 23941 23942 23943 23944 23945 23946 23947 23948 23949 23950 23951 23952 23953 23954 23955 23956 23957 23958 23959 23960 23961 23962 23963 23964 23965 23966 23967 23968 23969 23970 23971 23972 23973 23974 23975 23976 23977 23978 23979 23980 23981 23982 23983 23984 23985 23986 23987 23988 23989 23990 23991 23992 23993 23994 23995 23996 23997 23998 23999 24000 24001 24002 24003 24004 24005 24006 24007 24008 24009 24010 24011 24012 24013 24014 24015 24016 24017 24018 24019 24020 24021 24022 24023 24024 24025 24026 24027 24028 24029 24030 24031 24032 24033 24034 24035 24036 24037 24038 24039 24040 24041 24042 24043 24044 24045 24046 24047 24048 24049 24050 24051 24052 24053 24054 24055 24056 24057 24058 24059 24060 24061 24062 24063 24064 24065 24066 24067 24068 24069 24070 24071 24072 24073 24074 24075 24076 24077 24078 24079 24080 24081 24082 24083 24084 24085 24086 24087 24088 24089 24090 24091 24092 24093 24094 24095 24096 24097 24098 24099 24100 24101 24102 24103 24104 24105 24106 24107 24108 24109 24110 24111 24112 24113 24114 24115 24116 24117 24118 24119 24120 24121 24122 24123 24124 24125 24126 24127 24128 24129 24130 24131 24132 24133 24134 24135 24136 24137 24138 24139 24140 24141 24142 24143 24144 24145 24146 24147 24148 24149 24150 24151 24152 24153 24154 24155 24156 24157 24158 24159 24160 24161 24162 24163 24164 24165 24166 24167 24168 24169 24170 24171 24172 24173 24174 24175 24176 24177 24178 24179 24180 24181 24182 24183 24184 24185 24186 24187 24188 24189 24190 24191 24192 24193 24194 24195 24196 24197 24198 24199 24200 24201 24202 24203 24204 24205 24206 24207 24208 24209 24210 24211 24212 24213 24214 24215 24216 24217 24218 24219 24220 24221 24222 24223 24224 24225 24226 24227 24228 24229 24230 24231 24232 24233 24234 24235 24236 24237 24238 24239 24240 24241 24242 24243 24244 24245 24246 24247 24248 24249 24250 24251 24252 24253 24254 24255 24256 24257 24258 24259 24260 24261 24262 24263 24264 24265 24266 24267 24268 24269 24270 24271 24272 24273 24274 24275 24276 24277 24278 24279 24280 24281 24282 24283 24284 24285 24286 24287 24288 24289 24290 24291 24292 24293 24294 24295 24296 24297 24298 24299 24300 24301 24302 24303 24304 24305 24306 24307 24308 24309 24310 24311 24312 24313 24314 24315 24316 24317 24318 24319 24320 24321 24322 24323 24324 24325 24326 24327 24328 24329 24330 24331 24332 24333 24334 24335 24336 24337 24338 24339 24340 24341 24342 24343 24344 24345 24346 24347 24348 24349 24350 24351 24352 24353 24354 24355 24356 24357 24358 24359 24360 24361 24362 24363 24364 24365 24366 24367 24368 24369 24370 24371 24372 24373 24374 24375 24376 24377 24378 24379 24380 24381 24382 24383 24384 24385 24386 24387 24388 24389 24390 24391 24392 24393 24394 24395 24396 24397 24398 24399 24400 24401 24402 24403 24404 24405 24406 24407 24408 24409 24410 24411 24412 24413 24414 24415 24416 24417 24418 24419 24420 24421 24422 24423 24424 24425 24426 24427 24428 24429 24430 24431 24432 24433 24434 24435 24436 24437 24438 24439 24440 24441 24442 24443 24444 24445 24446 24447 24448 24449 24450 24451 24452 24453 24454 24455 24456 24457 24458 24459 24460 24461 24462 24463 24464 24465 24466 24467 24468 24469 24470 24471 24472 24473 24474 24475 24476 24477 24478 24479 24480 24481 24482 24483 24484 24485 24486 24487 24488 24489 24490 24491 24492 24493 24494 24495 24496 24497 24498 24499 24500 24501 24502 24503 24504 24505 24506 24507 24508 24509 24510 24511 24512 24513 24514 24515 24516 24517 24518 24519 24520 24521 24522 24523 24524 24525 24526 24527 24528 24529 24530 24531 24532 24533 24534 24535 24536 24537 24538 24539 24540 24541 24542 24543 24544 24545 24546 24547 24548 24549 24550 24551 24552 24553 24554 24555 24556 24557 24558 24559 24560 24561 24562 24563 24564 24565 24566 24567 24568 24569 24570 24571 24572 24573 24574 24575 24576 24577 24578 24579 24580 24581 24582 24583 24584 24585 24586 24587 24588 24589 24590 24591 24592 24593 24594 24595 24596 24597 24598 24599 24600 24601 24602 24603 24604 24605 24606 24607 24608 24609 24610 24611 24612 24613 24614 24615 24616 24617 24618 24619 24620 24621 24622 24623 24624 24625 24626 24627 24628 24629 24630 24631 24632 24633 24634 24635 24636 24637 24638 24639 24640 24641 24642 24643 24644 24645 24646 24647 24648 24649 24650 24651 24652 24653 24654 24655 24656 24657 24658 24659 24660 24661 24662 24663 24664 24665 24666 24667 24668 24669 24670 24671 24672 24673 24674 24675 24676 24677 24678 24679 24680 24681 24682 24683 24684 24685 24686 24687 24688 24689 24690 24691 24692 24693 24694 24695 24696 24697 24698 24699 24700 24701 24702 24703 24704 24705 24706 24707 24708 24709 24710 24711 24712 24713 24714 24715 24716 24717 24718 24719 24720 24721 24722 24723 24724 24725 24726 24727 24728 24729 24730 24731 24732 24733 24734 24735 24736 24737 24738 24739 24740 24741 24742 24743 24744 24745 24746 24747 24748 24749 24750 24751 24752 24753 24754 24755 24756 24757 24758 24759 24760 24761 24762 24763 24764 24765 24766 24767 24768 24769 24770 24771 24772 24773 24774 24775 24776 24777 24778 24779 24780 24781 24782 24783 24784 24785 24786 24787 24788 24789 24790 24791 24792 24793 24794 24795 24796 24797 24798 24799 24800 24801 24802 24803 24804 24805 24806 24807 24808 24809 24810 24811 24812 24813 24814 24815 24816 24817 24818 24819 24820 24821 24822 24823 24824 24825 24826 24827 24828 24829 24830 24831 24832 24833 24834 24835 24836 24837 24838 24839 24840 24841 24842 24843 24844 24845 24846 24847 24848 24849 24850 24851 24852 24853 24854 24855 24856 24857 24858 24859 24860 24861 24862 24863 24864 24865 24866 24867 24868 24869 24870 24871 24872 24873 24874 24875 24876 24877 24878 24879 24880 24881 24882 24883 24884 24885 24886 24887 24888 24889 24890 24891 24892 24893 24894 24895 24896 24897 24898 24899 24900 24901 24902 24903 24904 24905 24906 24907 24908 24909 24910 24911 24912 24913 24914 24915 24916 24917 24918 24919 24920 24921 24922 24923 24924 24925 24926 24927 24928 24929 24930 24931 24932 24933 24934 24935 24936 24937 24938 24939 24940 24941 24942 24943 24944 24945 24946 24947 24948 24949 24950 24951 24952 24953 24954 24955 24956 24957 24958 24959 24960 24961 24962 24963 24964 24965 24966 24967 24968 24969 24970 24971 24972 24973 24974 24975 24976 24977 24978 24979 24980 24981 24982 24983 24984 24985 24986 24987 24988 24989 24990 24991 24992 24993 24994 24995 24996 24997 24998 24999 25000 25001 25002 25003 25004 25005 25006 25007 25008 25009 25010 25011 25012 25013 25014 25015 25016 25017 25018 25019 25020 25021 25022 25023 25024 25025 25026 25027 25028 25029 25030 25031 25032 25033 25034 25035 25036 25037 25038 25039 25040 25041 25042 25043 25044 25045 25046 25047 25048 25049 25050 25051 25052 25053 25054 25055 25056 25057 25058 25059 25060 25061 25062 25063 25064 25065 25066 25067 25068 25069 25070 25071 25072 25073 25074 25075 25076 25077 25078 25079 25080 25081 25082 25083 25084 25085 25086 25087 25088 25089 25090 25091 25092 25093 25094 25095 25096 25097 25098 25099 25100 25101 25102 25103 25104 25105 25106 25107 25108 25109 25110 25111 25112 25113 25114 25115 25116 25117 25118 25119 25120 25121 25122 25123 25124 25125 25126 25127 25128 25129 25130 25131 25132 25133 25134 25135 25136 25137 25138 25139 25140 25141 25142 25143 25144 25145 25146 25147 25148 25149 25150 25151 25152 25153 25154 25155 25156 25157 25158 25159 25160 25161 25162 25163 25164 25165 25166 25167 25168 25169 25170 25171 25172 25173 25174 25175 25176 25177 25178 25179 25180 25181 25182 25183 25184 25185 25186 25187 25188 25189 25190 25191 25192 25193 25194 25195 25196 25197 25198 25199 25200 25201 25202 25203 25204 25205 25206 25207 25208 25209 25210 25211 25212 25213 25214 25215 25216 25217 25218 25219 25220 25221 25222 25223 25224 25225 25226 25227 25228 25229 25230 25231 25232 25233 25234 25235 25236 25237 25238 25239 25240 25241 25242 25243 25244 25245 25246 25247 25248 25249 25250 25251 25252 25253 25254 25255 25256 25257 25258 25259 25260 25261 25262 25263 25264 25265 25266 25267 25268 25269 25270 25271 25272 25273 25274 25275 25276 25277 25278 25279 25280 25281 25282 25283 25284 25285 25286 25287 25288 25289 25290 25291 25292 25293 25294 25295 25296 25297 25298 25299 25300 25301 25302 25303 25304 25305 25306 25307 25308 25309 25310 25311 25312 25313 25314 25315 25316 25317 25318 25319 25320 25321 25322 25323 25324 25325 25326 25327 25328 25329 25330 25331 25332 25333 25334 25335 25336 25337 25338 25339 25340 25341 25342 25343 25344 25345 25346 25347 25348 25349 25350 25351 25352 25353 25354 25355 25356 25357 25358 25359 25360 25361 25362 25363 25364 25365 25366 25367 25368 25369 25370 25371 25372 25373 25374 25375 25376 25377 25378 25379 25380 25381 25382 25383 25384 25385 25386 25387 25388 25389 25390 25391 25392 25393 25394 25395 25396 25397 25398 25399 25400 25401 25402 25403 25404 25405 25406 25407 25408 25409 25410 25411 25412 25413 25414 25415 25416 25417 25418 25419 25420 25421 25422 25423 25424 25425 25426 25427 25428 25429 25430 25431 25432 25433 25434 25435 25436 25437 25438 25439 25440 25441 25442 25443 25444 25445 25446 25447 25448 25449 25450 25451 25452 25453 25454 25455 25456 25457 25458 25459 25460 25461 25462 25463 25464 25465 25466 25467 25468 25469 25470 25471 25472 25473 25474 25475 25476 25477 25478 25479 25480 25481 25482 25483 25484 25485 25486 25487 25488 25489 25490 25491 25492 25493 25494 25495 25496 25497 25498 25499 25500 25501 25502 25503 25504 25505 25506 25507 25508 25509 25510 25511 25512 25513 25514 25515 25516 25517 25518 25519 25520 25521 25522 25523 25524 25525 25526 25527 25528 25529 25530 25531 25532 25533 25534 25535 25536 25537 25538 25539 25540 25541 25542 25543 25544 25545 25546 25547 25548 25549 25550 25551 25552 25553 25554 25555 25556 25557 25558 25559 25560 25561 25562 25563 25564 25565 25566 25567 25568 25569 25570 25571 25572 25573 25574 25575 25576 25577 25578 25579 25580 25581 25582 25583 25584 25585 25586 25587 25588 25589 25590 25591 25592 25593 25594 25595 25596 25597 25598 25599 25600 25601 25602 25603 25604 25605 25606 25607 25608 25609 25610 25611 25612 25613 25614 25615 25616 25617 25618 25619 25620 25621 25622 25623 25624 25625 25626 25627 25628 25629 25630 25631 25632 25633 25634 25635 25636 25637 25638 25639 25640 25641 25642 25643 25644 25645 25646 25647 25648 25649 25650 25651 25652 25653 25654 25655 25656 25657 25658 25659 25660 25661 25662 25663 25664 25665 25666 25667 25668 25669 25670 25671 25672 25673 25674 25675 25676 25677 25678 25679 25680 25681 25682 25683 25684 25685 25686 25687 25688 25689 25690 25691 25692 25693 25694 25695 25696 25697 25698 25699 25700 25701 25702 25703 25704 25705 25706 25707 25708 25709 25710 25711 25712 25713 25714 25715 25716 25717 25718 25719 25720 25721 25722 25723 25724 25725 25726 25727 25728 25729 25730 25731 25732 25733 25734 25735 25736 25737 25738 25739 25740 25741 25742 25743 25744 25745 25746 25747 25748 25749 25750 25751 25752 25753 25754 25755 25756 25757 25758 25759 25760 25761 25762 25763 25764 25765 25766 25767 25768 25769 25770 25771 25772 25773 25774 25775 25776 25777 25778 25779 25780 25781 25782 25783 25784 25785 25786 25787 25788 25789 25790 25791 25792 25793 25794 25795 25796 25797 25798 25799 25800 25801 25802 25803 25804 25805 25806 25807 25808 25809 25810 25811 25812 25813 25814 25815 25816 25817 25818 25819 25820 25821 25822 25823 25824 25825 25826 25827 25828 25829 25830 25831 25832 25833 25834 25835 25836 25837 25838 25839 25840 25841 25842 25843 25844 25845 25846 25847 25848 25849 25850 25851 25852 25853 25854 25855 25856 25857 25858 25859 25860 25861 25862 25863 25864 25865 25866 25867 25868 25869 25870 25871 25872 25873 25874 25875 25876 25877 25878 25879 25880 25881 25882 25883 25884 25885 25886 25887 25888 25889 25890 25891 25892 25893 25894 25895 25896 25897 25898 25899 25900 25901 25902 25903 25904 25905 25906 25907 25908 25909 25910 25911 25912 25913 25914 25915 25916 25917 25918 25919 25920 25921 25922 25923 25924 25925 25926 25927 25928 25929 25930 25931 25932 25933 25934 25935 25936 25937 25938 25939 25940 25941 25942 25943 25944 25945 25946 25947 25948 25949 25950 25951 25952 25953 25954 25955 25956 25957 25958 25959 25960 25961 25962 25963 25964 25965 25966 25967 25968 25969 25970 25971 25972 25973 25974 25975 25976 25977 25978 25979 25980 25981 25982 25983 25984 25985 25986 25987 25988 25989 25990 25991 25992 25993 25994 25995 25996 25997 25998 25999 26000 26001 26002 26003 26004 26005 26006 26007 26008 26009 26010 26011 26012 26013 26014 26015 26016 26017 26018 26019 26020 26021 26022 26023 26024 26025 26026 26027 26028 26029 26030 26031 26032 26033 26034 26035 26036 26037 26038 26039 26040 26041 26042 26043 26044 26045 26046 26047 26048 26049 26050 26051 26052 26053 26054 26055 26056 26057 26058 26059 26060 26061 26062 26063 26064 26065 26066 26067 26068 26069 26070 26071 26072 26073 26074 26075 26076 26077 26078 26079 26080 26081 26082 26083 26084 26085 26086 26087 26088 26089 26090 26091 26092 26093 26094 26095 26096 26097 26098 26099 26100 26101 26102 26103 26104 26105 26106 26107 26108 26109 26110 26111 26112 26113 26114 26115 26116 26117 26118 26119 26120 26121 26122 26123 26124 26125 26126 26127 26128 26129 26130 26131 26132 26133 26134 26135 26136 26137 26138 26139 26140 26141 26142 26143 26144 26145 26146 26147 26148 26149 26150 26151 26152 26153 26154 26155 26156 26157 26158 26159 26160 26161 26162 26163 26164 26165 26166 26167 26168 26169 26170 26171 26172 26173 26174 26175 26176 26177 26178 26179 26180 26181 26182 26183 26184 26185 26186 26187 26188 26189 26190 26191 26192 26193 26194 26195 26196 26197 26198 26199 26200 26201 26202 26203 26204 26205 26206 26207 26208 26209 26210 26211 26212 26213 26214 26215 26216 26217 26218 26219 26220 26221 26222 26223 26224 26225 26226 26227 26228 26229 26230 26231 26232 26233 26234 26235 26236 26237 26238 26239 26240 26241 26242 26243 26244 26245 26246 26247 26248 26249 26250 26251 26252 26253 26254 26255 26256 26257 26258 26259 26260 26261 26262 26263 26264 26265 26266 26267 26268 26269 26270 26271 26272 26273 26274 26275 26276 26277 26278 26279 26280 26281 26282 26283 26284 26285 26286 26287 26288 26289 26290 26291 26292 26293 26294 26295 26296 26297 26298 26299 26300 26301 26302 26303 26304 26305 26306 26307 26308 26309 26310 26311 26312 26313 26314 26315 26316 26317 26318 26319 26320 26321 26322 26323 26324 26325 26326 26327 26328 26329 26330 26331 26332 26333 26334 26335 26336 26337 26338 26339 26340 26341 26342 26343 26344 26345 26346 26347 26348 26349 26350 26351 26352 26353 26354 26355 26356 26357 26358 26359 26360 26361 26362 26363 26364 26365 26366 26367 26368 26369 26370 26371 26372 26373 26374 26375 26376 26377 26378 26379 26380 26381 26382 26383 26384 26385 26386 26387 26388 26389 26390 26391 26392 26393 26394 26395 26396 26397 26398 26399 26400 26401 26402 26403 26404 26405 26406 26407 26408 26409 26410 26411 26412 26413 26414 26415 26416 26417 26418 26419 26420 26421 26422 26423 26424 26425 26426 26427 26428 26429 26430 26431 26432 26433 26434 26435 26436 26437 26438 26439 26440 26441 26442 26443 26444 26445 26446 26447 26448 26449 26450 26451 26452 26453 26454 26455 26456 26457 26458 26459 26460 26461 26462 26463 26464 26465 26466 26467 26468 26469 26470 26471 26472 26473 26474 26475 26476 26477 26478 26479 26480 26481 26482 26483 26484 26485 26486 26487 26488 26489 26490 26491 26492 26493 26494 26495 26496 26497 26498 26499 26500 26501 26502 26503 26504 26505 26506 26507 26508 26509 26510 26511 26512 26513 26514 26515 26516 26517 26518 26519 26520 26521 26522 26523 26524 26525 26526 26527 26528 26529 26530 26531 26532 26533 26534 26535 26536 26537 26538 26539 26540 26541 26542 26543 26544 26545 26546 26547 26548 26549 26550 26551 26552 26553 26554 26555 26556 26557 26558 26559 26560 26561 26562 26563 26564 26565 26566 26567 26568 26569 26570 26571 26572 26573 26574 26575 26576 26577 26578 26579 26580 26581 26582 26583 26584 26585 26586 26587 26588 26589 26590 26591 26592 26593 26594 26595 26596 26597 26598 26599 26600 26601 26602 26603 26604 26605 26606 26607 26608 26609 26610 26611 26612 26613 26614 26615 26616 26617 26618 26619 26620 26621 26622 26623 26624 26625 26626 26627 26628 26629 26630 26631 26632 26633 26634 26635 26636 26637 26638 26639 26640 26641 26642 26643 26644 26645 26646 26647 26648 26649 26650 26651 26652 26653 26654 26655 26656 26657 26658 26659 26660 26661 26662 26663 26664 26665 26666 26667 26668 26669 26670 26671 26672 26673 26674 26675 26676 26677 26678 26679 26680 26681 26682 26683 26684 26685 26686 26687 26688 26689 26690 26691 26692 26693 26694 26695 26696 26697 26698 26699 26700 26701 26702 26703 26704 26705 26706 26707 26708 26709 26710 26711 26712 26713 26714 26715 26716 26717 26718 26719 26720 26721 26722 26723 26724 26725 26726 26727 26728 26729 26730 26731 26732 26733 26734 26735 26736 26737 26738 26739 26740 26741 26742 26743 26744 26745 26746 26747 26748 26749 26750 26751 26752 26753 26754 26755 26756 26757 26758 26759 26760 26761 26762 26763 26764 26765 26766 26767 26768 26769 26770 26771 26772 26773 26774 26775 26776 26777 26778 26779 26780 26781 26782 26783 26784 26785 26786 26787 26788 26789 26790 26791 26792 26793 26794 26795 26796 26797 26798 26799 26800 26801 26802 26803 26804 26805 26806 26807 26808 26809 26810 26811 26812 26813 26814 26815 26816 26817 26818 26819 26820 26821 26822 26823 26824 26825 26826 26827 26828 26829 26830 26831 26832 26833 26834 26835 26836 26837 26838 26839 26840 26841 26842 26843 26844 26845 26846 26847 26848 26849 26850 26851 26852 26853 26854 26855 26856 26857 26858 26859 26860 26861 26862 26863 26864 26865 26866 26867 26868 26869 26870 26871 26872 26873 26874 26875 26876 26877 26878 26879 26880 26881 26882 26883 26884 26885 26886 26887 26888 26889 26890 26891 26892 26893 26894 26895 26896 26897 26898 26899 26900 26901 26902 26903 26904 26905 26906 26907 26908 26909 26910 26911 26912 26913 26914 26915 26916 26917 26918 26919 26920 26921 26922 26923 26924 26925 26926 26927 26928 26929 26930 26931 26932 26933 26934 26935 26936 26937 26938 26939 26940 26941 26942 26943 26944 26945 26946 26947 26948 26949 26950 26951 26952 26953 26954 26955 26956 26957 26958 26959 26960 26961 26962 26963 26964 26965 26966 26967 26968 26969 26970 26971 26972 26973 26974 26975 26976 26977 26978 26979 26980 26981 26982 26983 26984 26985 26986 26987 26988 26989 26990 26991 26992 26993 26994 26995 26996 26997 26998 26999 27000 27001 27002 27003 27004 27005 27006 27007 27008 27009 27010 27011 27012 27013 27014 27015 27016 27017 27018 27019 27020 27021 27022 27023 27024 27025 27026 27027 27028 27029 27030 27031 27032 27033 27034 27035 27036 27037 27038 27039 27040 27041 27042 27043 27044 27045 27046 27047 27048 27049 27050 27051 27052 27053 27054 27055 27056 27057 27058 27059 27060 27061 27062 27063 27064 27065 27066 27067 27068 27069 27070 27071 27072 27073 27074 27075 27076 27077 27078 27079 27080 27081 27082 27083 27084 27085 27086 27087 27088 27089 27090 27091 27092 27093 27094 27095 27096 27097 27098 27099 27100 27101 27102 27103 27104 27105 27106 27107 27108 27109 27110 27111 27112 27113 27114 27115 27116 27117 27118 27119 27120 27121 27122 27123 27124 27125 27126 27127 27128 27129 27130 27131 27132 27133 27134 27135 27136 27137 27138 27139 27140 27141 27142 27143 27144 27145 27146 27147 27148 27149 27150 27151 27152 27153 27154 27155 27156 27157 27158 27159 27160 27161 27162 27163 27164 27165 27166 27167 27168 27169 27170 27171 27172 27173 27174 27175 27176 27177 27178 27179 27180 27181 27182 27183 27184 27185 27186 27187 27188 27189 27190 27191 27192 27193 27194 27195 27196 27197 27198 27199 27200 27201 27202 27203 27204 27205 27206 27207 27208 27209 27210 27211 27212 27213 27214 27215 27216 27217 27218 27219 27220 27221 27222 27223 27224 27225 27226 27227 27228 27229 27230 27231 27232 27233 27234 27235 27236 27237 27238 27239 27240 27241 27242 27243 27244 27245 27246 27247 27248 27249 27250 27251 27252 27253 27254 27255 27256 27257 27258 27259 27260 27261 27262 27263 27264 27265 27266 27267 27268 27269 27270 27271 27272 27273 27274 27275 27276 27277 27278 27279 27280 27281 27282 27283 27284 27285 27286 27287 27288 27289 27290 27291 27292 27293 27294 27295 27296 27297 27298 27299 27300 27301 27302 27303 27304 27305 27306 27307 27308 27309 27310 27311 27312 27313 27314 27315 27316 27317 27318 27319 27320 27321 27322 27323 27324 27325 27326 27327 27328 27329 27330 27331 27332 27333 27334 27335 27336 27337 27338 27339 27340 27341 27342 27343 27344 27345 27346 27347 27348 27349 27350 27351 27352 27353 27354 27355 27356 27357 27358 27359 27360 27361 27362 27363 27364 27365 27366 27367 27368 27369 27370 27371 27372 27373 27374 27375 27376 27377 27378 27379 27380 27381 27382 27383 27384 27385 27386 27387 27388 27389 27390 27391 27392 27393 27394 27395 27396 27397 27398 27399 27400 27401 27402 27403 27404 27405 27406 27407 27408 27409 27410 27411 27412 27413 27414 27415 27416 27417 27418 27419 27420 27421 27422 27423 27424 27425 27426 27427 27428 27429 27430 27431 27432 27433 27434 27435 27436 27437 27438 27439 27440 27441 27442 27443 27444 27445 27446 27447 27448 27449 27450 27451 27452 27453 27454 27455 27456 27457 27458 27459 27460 27461 27462 27463 27464 27465 27466 27467 27468 27469 27470 27471 27472 27473 27474 27475 27476 27477 27478 27479 27480 27481 27482 27483 27484 27485 27486 27487 27488 27489 27490 27491 27492 27493 27494 27495 27496 27497 27498 27499 27500 27501 27502 27503 27504 27505 27506 27507 27508 27509 27510 27511 27512 27513 27514 27515 27516 27517 27518 27519 27520 27521 27522 27523 27524 27525 27526 27527 27528 27529 27530 27531 27532 27533 27534 27535 27536 27537 27538 27539 27540 27541 27542 27543 27544 27545 27546 27547 27548 27549 27550 27551 27552 27553 27554 27555 27556 27557 27558 27559 27560 27561 27562 27563 27564 27565 27566 27567 27568 27569 27570 27571 27572 27573 27574 27575 27576 27577 27578 27579 27580 27581 27582 27583 27584 27585 27586 27587 27588 27589 27590 27591 27592 27593 27594 27595 27596 27597 27598 27599 27600 27601 27602 27603 27604 27605 27606 27607 27608 27609 27610 27611 27612 27613 27614 27615 27616 27617 27618 27619 27620 27621 27622 27623 27624 27625 27626 27627 27628 27629 27630 27631 27632 27633 27634 27635 27636 27637 27638 27639 27640 27641 27642 27643 27644 27645 27646 27647 27648 27649 27650 27651 27652 27653 27654 27655 27656 27657 27658 27659 27660 27661 27662 27663 27664 27665 27666 27667 27668 27669 27670 27671 27672 27673 27674 27675 27676 27677 27678 27679 27680 27681 27682 27683 27684 27685 27686 27687 27688 27689 27690 27691 27692 27693 27694 27695 27696 27697 27698 27699 27700 27701 27702 27703 27704 27705 27706 27707 27708 27709 27710 27711 27712 27713 27714 27715 27716 27717 27718 27719 27720 27721 27722 27723 27724 27725 27726 27727 27728 27729 27730 27731 27732 27733 27734 27735 27736 27737 27738 27739 27740 27741 27742 27743 27744 27745 27746 27747 27748 27749 27750 27751 27752 27753 27754 27755 27756 27757 27758 27759 27760 27761 27762 27763 27764 27765 27766 27767 27768 27769 27770 27771 27772 27773 27774 27775 27776 27777 27778 27779 27780 27781 27782 27783 27784 27785 27786 27787 27788 27789 27790 27791 27792 27793 27794 27795 27796 27797 27798 27799 27800 27801 27802 27803 27804 27805 27806 27807 27808 27809 27810 27811 27812 27813 27814 27815 27816 27817 27818 27819 27820 27821 27822 27823 27824 27825 27826 27827 27828 27829 27830 27831 27832 27833 27834 27835 27836 27837 27838 27839 27840 27841 27842 27843 27844 27845 27846 27847 27848 27849 27850 27851 27852 27853 27854 27855 27856 27857 27858 27859 27860 27861 27862 27863 27864 27865 27866 27867 27868 27869 27870 27871 27872 27873 27874 27875 27876 27877 27878 27879 27880 27881 27882 27883 27884 27885 27886 27887 27888 27889 27890 27891 27892 27893 27894 27895 27896 27897 27898 27899 27900 27901 27902 27903 27904 27905 27906 27907 27908 27909 27910 27911 27912 27913 27914 27915 27916 27917 27918 27919 27920 27921 27922 27923 27924 27925 27926 27927 27928 27929 27930 27931 27932 27933 27934 27935 27936 27937 27938 27939 27940 27941 27942 27943 27944 27945 27946 27947 27948 27949 27950 27951 27952 27953 27954 27955 27956 27957 27958 27959 27960 27961 27962 27963 27964 27965 27966 27967 27968 27969 27970 27971 27972 27973 27974 27975 27976 27977 27978 27979 27980 27981 27982 27983 27984 27985 27986 27987 27988 27989 27990 27991 27992 27993 27994 27995 27996 27997 27998 27999 28000 28001 28002 28003 28004 28005 28006 28007 28008 28009 28010 28011 28012 28013 28014 28015 28016 28017 28018 28019 28020 28021 28022 28023 28024 28025 28026 28027 28028 28029 28030 28031 28032 28033 28034 28035 28036 28037 28038 28039 28040 28041 28042 28043 28044 28045 28046 28047 28048 28049 28050 28051 28052 28053 28054 28055 28056 28057 28058 28059 28060 28061 28062 28063 28064 28065 28066 28067 28068 28069 28070 28071 28072 28073 28074 28075 28076 28077 28078 28079 28080 28081 28082 28083 28084 28085 28086 28087 28088 28089 28090 28091 28092 28093 28094 28095 28096 28097 28098 28099 28100 28101 28102 28103 28104 28105 28106 28107 28108 28109 28110 28111 28112 28113 28114 28115 28116 28117 28118 28119 28120 28121 28122 28123 28124 28125 28126 28127 28128 28129 28130 28131 28132 28133 28134 28135 28136 28137 28138 28139 28140 28141 28142 28143 28144 28145 28146 28147 28148 28149 28150 28151 28152 28153 28154 28155 28156 28157 28158 28159 28160 28161 28162 28163 28164 28165 28166 28167 28168 28169 28170 28171 28172 28173 28174 28175 28176 28177 28178 28179 28180 28181 28182 28183 28184 28185 28186 28187 28188 28189 28190 28191 28192 28193 28194 28195 28196 28197 28198 28199 28200 28201 28202 28203 28204 28205 28206 28207 28208 28209 28210 28211 28212 28213 28214 28215 28216 28217 28218 28219 28220 28221 28222 28223 28224 28225 28226 28227 28228 28229 28230 28231 28232 28233 28234 28235 28236 28237 28238 28239 28240 28241 28242 28243 28244 28245 28246 28247 28248 28249 28250 28251 28252 28253 28254 28255 28256 28257 28258 28259 28260 28261 28262 28263 28264 28265 28266 28267 28268 28269 28270 28271 28272 28273 28274 28275 28276 28277 28278 28279 28280 28281 28282 28283 28284 28285 28286 28287 28288 28289 28290 28291 28292 28293 28294 28295 28296 28297 28298 28299 28300 28301 28302 28303 28304 28305 28306 28307 28308 28309 28310 28311 28312 28313 28314 28315 28316 28317 28318 28319 28320 28321 28322 28323 28324 28325 28326 28327 28328 28329 28330 28331 28332 28333 28334 28335 28336 28337 28338 28339 28340 28341 28342 28343 28344 28345 28346 28347 28348 28349 28350 28351 28352 28353 28354 28355 28356 28357 28358 28359 28360 28361 28362 28363 28364 28365 28366 28367 28368 28369 28370 28371 28372 28373 28374 28375 28376 28377 28378 28379 28380 28381 28382 28383 28384 28385 28386 28387 28388 28389 28390 28391 28392 28393 28394 28395 28396 28397 28398 28399 28400 28401 28402 28403 28404 28405 28406 28407 28408 28409 28410 28411 28412 28413 28414 28415 28416 28417 28418 28419 28420 28421 28422 28423 28424 28425 28426 28427 28428 28429 28430 28431 28432 28433 28434 28435 28436 28437 28438 28439 28440 28441 28442 28443 28444 28445 28446 28447 28448 28449 28450 28451 28452 28453 28454 28455 28456 28457 28458 28459 28460 28461 28462 28463 28464 28465 28466 28467 28468 28469 28470 28471 28472 28473 28474 28475 28476 28477 28478 28479 28480 28481 28482 28483 28484 28485 28486 28487 28488 28489 28490 28491 28492 28493 28494 28495 28496 28497 28498 28499 28500 28501 28502 28503 28504 28505 28506 28507 28508 28509 28510 28511 28512 28513 28514 28515 28516 28517 28518 28519 28520 28521 28522 28523 28524 28525 28526 28527 28528 28529 28530 28531 28532 28533 28534 28535 28536 28537 28538 28539 28540 28541 28542 28543 28544 28545 28546 28547 28548 28549 28550 28551 28552 28553 28554 28555 28556 28557 28558 28559 28560 28561 28562 28563 28564 28565 28566 28567 28568 28569 28570 28571 28572 28573 28574 28575 28576 28577 28578 28579 28580 28581 28582 28583 28584 28585 28586 28587 28588 28589 28590 28591 28592 28593 28594 28595 28596 28597 28598 28599 28600 28601 28602 28603 28604 28605 28606 28607 28608 28609 28610 28611 28612 28613 28614 28615 28616 28617 28618 28619 28620 28621 28622 28623 28624 28625 28626 28627 28628 28629 28630 28631 28632 28633 28634 28635 28636 28637 28638 28639 28640 28641 28642 28643 28644 28645 28646 28647 28648 28649 28650 28651 28652 28653 28654 28655 28656 28657 28658 28659 28660 28661 28662 28663 28664 28665 28666 28667 28668 28669 28670 28671 28672 28673 28674 28675 28676 28677 28678 28679 28680 28681 28682 28683 28684 28685 28686 28687 28688 28689 28690 28691 28692 28693 28694 28695 28696 28697 28698 28699 28700 28701 28702 28703 28704 28705 28706 28707 28708 28709 28710 28711 28712 28713 28714 28715 28716 28717 28718 28719 28720 28721 28722 28723 28724 28725 28726 28727 28728 28729 28730 28731 28732 28733 28734 28735 28736 28737 28738 28739 28740 28741 28742 28743 28744 28745 28746 28747 28748 28749 28750 28751 28752 28753 28754 28755 28756 28757 28758 28759 28760 28761 28762 28763 28764 28765 28766 28767 28768 28769 28770 28771 28772 28773 28774 28775 28776 28777 28778 28779 28780 28781 28782 28783 28784 28785 28786 28787 28788 28789 28790 28791 28792 28793 28794 28795 28796 28797 28798 28799 28800 28801 28802 28803 28804 28805 28806 28807 28808 28809 28810 28811 28812 28813 28814 28815 28816 28817 28818 28819 28820 28821 28822 28823 28824 28825 28826 28827 28828 28829 28830 28831 28832 28833 28834 28835 28836 28837 28838 28839 28840 28841 28842 28843 28844 28845 28846 28847 28848 28849 28850 28851 28852 28853 28854 28855 28856 28857 28858 28859 28860 28861 28862 28863 28864 28865 28866 28867 28868 28869 28870 28871 28872 28873 28874 28875 28876 28877 28878 28879 28880 28881 28882 28883 28884 28885 28886 28887 28888 28889 28890 28891 28892 28893 28894 28895 28896 28897 28898 28899 28900 28901 28902 28903 28904 28905 28906 28907 28908 28909 28910 28911 28912 28913 28914 28915 28916 28917 28918 28919 28920 28921 28922 28923 28924 28925 28926 28927 28928 28929 28930 28931 28932 28933 28934 28935 28936 28937 28938 28939 28940 28941 28942 28943 28944 28945 28946 28947 28948 28949 28950 28951 28952 28953 28954 28955 28956 28957 28958 28959 28960 28961 28962 28963 28964 28965 28966 28967 28968 28969 28970 28971 28972 28973 28974 28975 28976 28977 28978 28979 28980 28981 28982 28983 28984 28985 28986 28987 28988 28989 28990 28991 28992 28993 28994 28995 28996 28997 28998 28999 29000 29001 29002 29003 29004 29005 29006 29007 29008 29009 29010 29011 29012 29013 29014 29015 29016 29017 29018 29019 29020 29021 29022 29023 29024 29025 29026 29027 29028 29029 29030 29031 29032 29033 29034 29035 29036 29037 29038 29039 29040 29041 29042 29043 29044 29045 29046 29047 29048 29049 29050 29051 29052 29053 29054 29055 29056 29057 29058 29059 29060 29061 29062 29063 29064 29065 29066 29067 29068 29069 29070 29071 29072 29073 29074 29075 29076 29077 29078 29079 29080 29081 29082 29083 29084 29085 29086 29087 29088 29089 29090 29091 29092 29093 29094 29095 29096 29097 29098 29099 29100 29101 29102 29103 29104 29105 29106 29107 29108 29109 29110 29111 29112 29113 29114 29115 29116 29117 29118 29119 29120 29121 29122 29123 29124 29125 29126 29127 29128 29129 29130 29131 29132 29133 29134 29135 29136 29137 29138 29139 29140 29141 29142 29143 29144 29145 29146 29147 29148 29149 29150 29151 29152 29153 29154 29155 29156 29157 29158 29159 29160 29161 29162 29163 29164 29165 29166 29167 29168 29169 29170 29171 29172 29173 29174 29175 29176 29177 29178 29179 29180 29181 29182 29183 29184 29185 29186 29187 29188 29189 29190 29191 29192 29193 29194 29195 29196 29197 29198 29199 29200 29201 29202 29203 29204 29205 29206 29207 29208 29209 29210 29211 29212 29213 29214 29215 29216 29217 29218 29219 29220 29221 29222 29223 29224 29225 29226 29227 29228 29229 29230 29231 29232 29233 29234 29235 29236 29237 29238 29239 29240 29241 29242 29243 29244 29245 29246 29247 29248 29249 29250 29251 29252 29253 29254 29255 29256 29257 29258 29259 29260 29261 29262 29263 29264 29265 29266 29267 29268 29269 29270 29271 29272 29273 29274 29275 29276 29277 29278 29279 29280 29281 29282 29283 29284 29285 29286 29287 29288 29289 29290 29291 29292 29293 29294 29295 29296 29297 29298 29299 29300 29301 29302 29303 29304 29305 29306 29307 29308 29309 29310 29311 29312 29313 29314 29315 29316 29317 29318 29319 29320 29321 29322 29323 29324 29325 29326 29327 29328 29329 29330 29331 29332 29333 29334 29335 29336 29337 29338 29339 29340 29341 29342 29343 29344 29345 29346 29347 29348 29349 29350 29351 29352 29353 29354 29355 29356 29357 29358 29359 29360 29361 29362 29363 29364 29365 29366 29367 29368 29369 29370 29371 29372 29373 29374 29375 29376 29377 29378 29379 29380 29381 29382 29383 29384 29385 29386 29387 29388 29389 29390 29391 29392 29393 29394 29395 29396 29397 29398 29399 29400 29401 29402 29403 29404 29405 29406 29407 29408 29409 29410 29411 29412 29413 29414 29415 29416 29417 29418 29419 29420 29421 29422 29423 29424 29425 29426 29427 29428 29429 29430 29431 29432 29433 29434 29435 29436 29437 29438 29439 29440 29441 29442 29443 29444 29445 29446 29447 29448 29449 29450 29451 29452 29453 29454 29455 29456 29457 29458 29459 29460 29461 29462 29463 29464 29465 29466 29467 29468 29469 29470 29471 29472 29473 29474 29475 29476 29477 29478 29479 29480 29481 29482 29483 29484 29485 29486 29487 29488 29489 29490 29491 29492 29493 29494 29495 29496 29497 29498 29499 29500 29501 29502 29503 29504 29505 29506 29507 29508 29509 29510 29511 29512 29513 29514 29515 29516 29517 29518 29519 29520 29521 29522 29523 29524 29525 29526 29527 29528 29529 29530 29531 29532 29533 29534 29535 29536 29537 29538 29539 29540 29541 29542 29543 29544 29545 29546 29547 29548 29549 29550 29551 29552 29553 29554 29555 29556 29557 29558 29559 29560 29561 29562 29563 29564 29565 29566 29567 29568 29569 29570 29571 29572 29573 29574 29575 29576 29577 29578 29579 29580 29581 29582 29583 29584 29585 29586 29587 29588 29589 29590 29591 29592 29593 29594 29595 29596 29597 29598 29599 29600 29601 29602 29603 29604 29605 29606 29607 29608 29609 29610 29611 29612 29613 29614 29615 29616 29617 29618 29619 29620 29621 29622 29623 29624 29625 29626 29627 29628 29629 29630 29631 29632 29633 29634 29635 29636 29637 29638 29639 29640 29641 29642 29643 29644 29645 29646 29647 29648 29649 29650 29651 29652 29653 29654 29655 29656 29657 29658 29659 29660 29661 29662 29663 29664 29665 29666 29667 29668 29669 29670 29671 29672 29673 29674 29675 29676 29677 29678 29679 29680 29681 29682 29683 29684 29685 29686 29687 29688 29689 29690 29691 29692 29693 29694 29695 29696 29697 29698 29699 29700 29701 29702 29703 29704 29705 29706 29707 29708 29709 29710 29711 29712 29713 29714 29715 29716 29717 29718 29719 29720 29721 29722 29723 29724 29725 29726 29727 29728 29729 29730 29731 29732 29733 29734 29735 29736 29737 29738 29739 29740 29741 29742 29743 29744 29745 29746 29747 29748 29749 29750 29751 29752 29753 29754 29755 29756 29757 29758 29759 29760 29761 29762 29763 29764 29765 29766 29767 29768 29769 29770 29771 29772 29773 29774 29775 29776 29777 29778 29779 29780 29781 29782 29783 29784 29785 29786 29787 29788 29789 29790 29791 29792 29793 29794 29795 29796 29797 29798 29799 29800 29801 29802 29803 29804 29805 29806 29807 29808 29809 29810 29811 29812 29813 29814 29815 29816 29817 29818 29819 29820 29821 29822 29823 29824 29825 29826 29827 29828 29829 29830 29831 29832 29833 29834 29835 29836 29837 29838 29839 29840 29841 29842 29843 29844 29845 29846 29847 29848 29849 29850 29851 29852 29853 29854 29855 29856 29857 29858 29859 29860 29861 29862 29863 29864 29865 29866 29867 29868 29869 29870 29871 29872 29873 29874 29875 29876 29877 29878 29879 29880 29881 29882 29883 29884 29885 29886 29887 29888 29889 29890 29891 29892 29893 29894 29895 29896 29897 29898 29899 29900 29901 29902 29903 29904 29905 29906 29907 29908 29909 29910 29911 29912 29913 29914 29915 29916 29917 29918 29919 29920 29921 29922 29923 29924 29925 29926 29927 29928 29929 29930 29931 29932 29933 29934 29935 29936 29937 29938 29939 29940 29941 29942 29943 29944 29945 29946 29947 29948 29949 29950 29951 29952 29953 29954 29955 29956 29957 29958 29959 29960 29961 29962 29963 29964 29965 29966 29967 29968 29969 29970 29971 29972 29973 29974 29975 29976 29977 29978 29979 29980 29981 29982 29983 29984 29985 29986 29987 29988 29989 29990 29991 29992 29993 29994 29995 29996 29997 29998 29999 30000 30001 30002 30003 30004 30005 30006 30007 30008 30009 30010 30011 30012 30013 30014 30015 30016 30017 30018 30019 30020 30021 30022 30023 30024 30025 30026 30027 30028 30029 30030 30031 30032 30033 30034 30035 30036 30037 30038 30039 30040 30041 30042 30043 30044 30045 30046 30047 30048 30049 30050 30051 30052 30053 30054 30055 30056 30057 30058 30059 30060 30061 30062 30063 30064 30065 30066 30067 30068 30069 30070 30071 30072 30073 30074 30075 30076 30077 30078 30079 30080 30081 30082 30083 30084 30085 30086 30087 30088 30089 30090 30091 30092 30093 30094 30095 30096 30097 30098 30099 30100 30101 30102 30103 30104 30105 30106 30107 30108 30109 30110 30111 30112 30113 30114 30115 30116 30117 30118 30119 30120 30121 30122 30123 30124 30125 30126 30127 30128 30129 30130 30131 30132 30133 30134 30135 30136 30137 30138 30139 30140 30141 30142 30143 30144 30145 30146 30147 30148 30149 30150 30151 30152 30153 30154 30155 30156 30157 30158 30159 30160 30161 30162 30163 30164 30165 30166 30167 30168 30169 30170 30171 30172 30173 30174 30175 30176 30177 30178 30179 30180 30181 30182 30183 30184 30185 30186 30187 30188 30189 30190 30191 30192 30193 30194 30195 30196 30197 30198 30199 30200 30201 30202 30203 30204 30205 30206 30207 30208 30209 30210 30211 30212 30213 30214 30215 30216 30217 30218 30219 30220 30221 30222 30223 30224 30225 30226 30227 30228 30229 30230 30231 30232 30233 30234 30235 30236 30237 30238 30239 30240 30241 30242 30243 30244 30245 30246 30247 30248 30249 30250 30251 30252 30253 30254 30255 30256 30257 30258 30259 30260 30261 30262 30263 30264 30265 30266 30267 30268 30269 30270 30271 30272 30273 30274 30275 30276 30277 30278 30279 30280 30281 30282 30283 30284 30285 30286 30287 30288 30289 30290 30291 30292 30293 30294 30295 30296 30297 30298 30299 30300 30301 30302 30303 30304 30305 30306 30307 30308 30309 30310 30311 30312 30313 30314 30315 30316 30317 30318 30319 30320 30321 30322 30323 30324 30325 30326 30327 30328 30329 30330 30331 30332 30333 30334 30335 30336 30337 30338 30339 30340 30341 30342 30343 30344 30345 30346 30347 30348 30349 30350 30351 30352 30353 30354 30355 30356 30357 30358 30359 30360 30361 30362 30363 30364 30365 30366 30367 30368 30369 30370 30371 30372 30373 30374 30375 30376 30377 30378 30379 30380 30381 30382 30383 30384 30385 30386 30387 30388 30389 30390 30391 30392 30393 30394 30395 30396 30397 30398 30399 30400 30401 30402 30403 30404 30405 30406 30407 30408 30409 30410 30411 30412 30413 30414 30415 30416 30417 30418 30419 30420 30421 30422 30423 30424 30425 30426 30427 30428 30429 30430 30431 30432 30433 30434 30435 30436 30437 30438 30439 30440 30441 30442 30443 30444 30445 30446 30447 30448 30449 30450 30451 30452 30453 30454 30455 30456 30457 30458 30459 30460 30461 30462 30463 30464 30465 30466 30467 30468 30469 30470 30471 30472 30473 30474 30475 30476 30477 30478 30479 30480 30481 30482 30483 30484 30485 30486 30487 30488 30489 30490 30491 30492 30493 30494 30495 30496 30497 30498 30499 30500 30501 30502 30503 30504 30505 30506 30507 30508 30509 30510 30511 30512 30513 30514 30515 30516 30517 30518 30519 30520 30521 30522 30523 30524 30525 30526 30527 30528 30529 30530 30531 30532 30533 30534 30535 30536 30537 30538 30539 30540 30541 30542 30543 30544 30545 30546 30547 30548 30549 30550 30551 30552 30553 30554 30555 30556 30557 30558 30559 30560 30561 30562 30563 30564 30565 30566 30567 30568 30569 30570 30571 30572 30573 30574 30575 30576 30577 30578 30579 30580 30581 30582 30583 30584 30585 30586 30587 30588 30589 30590 30591 30592 30593 30594 30595 30596 30597 30598 30599 30600 30601 30602 30603 30604 30605 30606 30607 30608 30609 30610 30611 30612 30613 30614 30615 30616 30617 30618 30619 30620 30621 30622 30623 30624 30625 30626 30627 30628 30629 30630 30631 30632 30633 30634 30635 30636 30637 30638 30639 30640 30641 30642 30643 30644 30645 30646 30647 30648 30649 30650 30651 30652 30653 30654 30655 30656 30657 30658 30659 30660 30661 30662 30663 30664 30665 30666 30667 30668 30669 30670 30671 30672 30673 30674 30675 30676 30677 30678 30679 30680 30681 30682 30683 30684 30685 30686 30687 30688 30689 30690 30691 30692 30693 30694 30695 30696 30697 30698 30699 30700 30701 30702 30703 30704 30705 30706 30707 30708 30709 30710 30711 30712 30713 30714 30715 30716 30717 30718 30719 30720 30721 30722 30723 30724 30725 30726 30727 30728 30729 30730 30731 30732 30733 30734 30735 30736 30737 30738 30739 30740 30741 30742 30743 30744 30745 30746 30747 30748 30749 30750 30751 30752 30753 30754 30755 30756 30757 30758 30759 30760 30761 30762 30763 30764 30765 30766 30767 30768 30769 30770 30771 30772 30773 30774 30775 30776 30777 30778 30779 30780 30781 30782 30783 30784 30785 30786 30787 30788 30789 30790 30791 30792 30793 30794 30795 30796 30797 30798 30799 30800 30801 30802 30803 30804 30805 30806 30807 30808 30809 30810 30811 30812 30813 30814 30815 30816 30817 30818 30819 30820 30821 30822 30823 30824 30825 30826 30827 30828 30829 30830 30831 30832 30833 30834 30835 30836 30837 30838 30839 30840 30841 30842 30843 30844 30845 30846 30847 30848 30849 30850 30851 30852 30853 30854 30855 30856 30857 30858 30859 30860 30861 30862 30863 30864 30865 30866 30867 30868 30869 30870 30871 30872 30873 30874 30875 30876 30877 30878 30879 30880 30881 30882 30883 30884 30885 30886 30887 30888 30889 30890 30891 30892 30893 30894 30895 30896 30897 30898 30899 30900 30901 30902 30903 30904 30905 30906 30907 30908 30909 30910 30911 30912 30913 30914 30915 30916 30917 30918 30919 30920 30921 30922 30923 30924 30925 30926 30927 30928 30929 30930 30931 30932 30933 30934 30935 30936 30937 30938 30939 30940 30941 30942 30943 30944 30945 30946 30947 30948 30949 30950 30951 30952 30953 30954 30955 30956 30957 30958 30959 30960 30961 30962 30963 30964 30965 30966 30967 30968 30969 30970 30971 30972 30973 30974 30975 30976 30977 30978 30979 30980 30981 30982 30983 30984 30985 30986 30987 30988 30989 30990 30991 30992 30993 30994 30995 30996 30997 30998 30999 31000 31001 31002 31003 31004 31005 31006 31007 31008 31009 31010 31011 31012 31013 31014 31015 31016 31017 31018 31019 31020 31021 31022 31023 31024 31025 31026 31027 31028 31029 31030 31031 31032 31033 31034 31035 31036 31037 31038 31039 31040 31041 31042 31043 31044 31045 31046 31047 31048 31049 31050 31051 31052 31053 31054 31055 31056 31057 31058 31059 31060 31061 31062 31063 31064 31065 31066 31067 31068 31069 31070 31071 31072 31073 31074 31075 31076 31077 31078 31079 31080 31081 31082 31083 31084 31085 31086 31087 31088 31089 31090 31091 31092 31093 31094 31095 31096 31097 31098 31099 31100 31101 31102 31103 31104 31105 31106 31107 31108 31109 31110 31111 31112 31113 31114 31115 31116 31117 31118 31119 31120 31121 31122 31123 31124 31125 31126 31127 31128 31129 31130 31131 31132 31133 31134 31135 31136 31137 31138 31139 31140 31141 31142 31143 31144 31145 31146 31147 31148 31149 31150 31151 31152 31153 31154 31155 31156 31157 31158 31159 31160 31161 31162 31163 31164 31165 31166 31167 31168 31169 31170 31171 31172 31173 31174 31175 31176 31177 31178 31179 31180 31181 31182 31183 31184 31185 31186 31187 31188 31189 31190 31191 31192 31193 31194 31195 31196 31197 31198 31199 31200 31201 31202 31203 31204 31205 31206 31207 31208 31209 31210 31211 31212 31213 31214 31215 31216 31217 31218 31219 31220 31221 31222 31223 31224 31225 31226 31227 31228 31229 31230 31231 31232 31233 31234 31235 31236 31237 31238 31239 31240 31241 31242 31243 31244 31245 31246 31247 31248 31249 31250 31251 31252 31253 31254 31255 31256 31257 31258 31259 31260 31261 31262 31263 31264 31265 31266 31267 31268 31269 31270 31271 31272 31273 31274 31275 31276 31277 31278 31279 31280 31281 31282 31283 31284 31285 31286 31287 31288 
</DataArray>
<DataArray type="UInt32" Name="offsets" format="ascii">
3 6 9 12 15 18 21 24 27 29 32 35 38 41 44 46 48 51 54 57 59 62 65 68 71 73 76 79 82 84 86 89 92 95 98 101 104 107 110 112 115 117 120 122 125 128 130 133 136 138 141 144 146 149 152 155 158 160 163 165 168 170 172 175 178 181 183 185 188 191 194 197 200 202 204 207 210 213 215 217 220 223 225 227 230 233 235 238 241 243 245 248 251 254 257 260 263 266 269 272 275 278 281 284 287 289 292 295 298 301 304 307 310 313 316 319 322 325 328 331 334 337 340 343 346 349 352 355 358 361 363 366 369 372 375 378 381 384 387 390 393 396 399 402 404 406 409 411 414 416 419 421 424 426 429 432 434 437 440 443 446 448 451 454 457 459 462 465 467 470 473 476 479 482 485 488 490 493 496 499 502 505 508 510 513 516 519 522 525 528 531 534 537 539 542 545 548 551 553 555 558 561 564 567 570 573 576 579 582 585 588 591 594 597 600 602 605 608 611 614 616 619 622 624 627 630 633 635 638 641 643 646 649 651 654 657 660 662 665 668 671 674 677 680 683 686 689 692 695 697 700 703 706 709 712 715 718 721 724 727 730 733 736 739 742 745 747 750 753 756 759 762 765 768 771 774 777 780 783 786 789 792 794 797 800 803 806 809 812 814 817 820 823 826 829 832 835 838 840 843 846 849 851 854 857 860 863 865 868 871 874 877 880 883 885 888 891 893 896 899 902 905 908 911 914 917 920 922 925 928 930 933 936 938 940 943 945 948 951 954 957 960 963 966 969 972 975 978 981 984 987 990 993 995 998 1000 1003 1006 1008 1011 1013 1016 1019 1022 1024 1027 1030 1033 1036 1039 1042 1045 1048 1051 1054 1057 1060 1062 1065 1068 1071 1074 1077 1080 1083 1086 1089 1092 1095 1098 1101 1104 1107 1110 1113 1116 1119 1122 1125 1128 1131 1134 1137 1140 1143 1145 1148 1151 1154 1156 1159 1161 1164 1166 1169 1171 1174 1177 1180 1182 1185 1187 1190 1193 1196 1199 1202 1205 1208 1211 1214 1216 1219 1221 1224 1227 1230 1233 1236 1239 1242 1245 1248 1250 1252 1255 1258 1261 1264 1267 1270 1273 1275 1278 1281 1284 1287 1290 1293 1295 1298 1301 1303 1305 1308 1311 1314 1317 1320 1323 1325 1328 1331 1334 1337 1340 1343 1346 1348 1351 1354 1356 1358 1361 1364 1366 1369 1372 1374 1377 1380 1382 1385 1388 1390 1392 1395 1398 1401 1403 1406 1409 1412 1415 1417 1420 1423 1426 1429 1432 1435 1437 1440 1443 1446 1449 1452 1455 1458 1461 1463 1466 1469 1472 1475 1478 1481 1483 1486 1489 1492 1495 1498 1501 1504 1507 1510 1513 1516 1518 1521 1524 1527 1529 1532 1535 1538 1541 1543 1546 1549 1552 1555 1558 1560 1563 1566 1569 1572 1575 1578 1581 1584 1586 1589 1591 1594 1596 1599 1602 1605 1608 1611 1614 1617 1620 1623 1626 1628 1631 1634 1637 1640 1643 1645 1648 1651 1654 1657 1660 1663 1666 1669 1671 1674 1677 1680 1683 1685 1688 1691 1694 1697 1700 1703 1706 1708 1711 1714 1717 1720 1723 1726 1729 1732 1735 1738 1741 1744 1747 1750 1752 1755 1758 1760 1763 1766 1769 1772 1775 1778 1781 1784 1787 1790 1793 1796 1799 1802 1805 1808 1811 1814 1817 1820 1822 1825 1828 1831 1833 1836 1839 1842 1845 1848 1851 1854 1857 1860 1863 1866 1869 1872 1875 1878 1881 1884 1887 1890 1893 1896 1899 1902 1905 1908 1911 1914 1917 1920 1923 1926 1929 1932 1935 1938 1941 1944 1947 1950 1953 1956 1959 1962 1965 1968 1971 1974 1977 1980 1983 1986 1989 1992 1995 1998 2001 2004 2007 2010 2013 2016 2019 2022 2025 2028 2031 2034 2037 2040 2043 2046 2049 2052 2055 2058 2061 2064 2067 2070 2073 2076 2079 2082 2085 2088 2091 2094 2097 2100 2103 2106 2108 2111 2114 2116 2119 2122 2125 2128 2131 2133 2135 2138 2141 2144 2147 2150 2152 2155 2158 2160 2162 2165 2168 2171 2174 2177 2180 2183 2186 2189 2192 2194 2197 2200 2203 2206 2208 2211 2214 2217 2220 2223 2226 2229 2232 2235 2238 2241 2244 2247 2250 2253 2256 2259 2262 2265 2268 2271 2274 2277 2280 2283 2286 2289 2292 2295 2298 2301 2304 2307 2310 2313 2316 2319 2322 2325 2328 2331 2334 2337 2340 2343 2346 2349 2351 2354 2357 2360 2363 2366 2369 2372 2375 2378 2381 2384 2387 2390 2393 2396 2399 2402 2405 2408 2411 2414 2417 2420 2423 2426 2429 2432 2435 2438 2441 2444 2447 2450 2453 2456 2459 2462 2465 2468 2471 2474 2477 2480 2483 2486 2489 2492 2495 2498 2501 2504 2507 2510 2513 2516 2519 2522 2525 2528 2531 2534 2537 2540 2543 2546 2549 2552 2555 2558 2561 2564 2567 2570 2573 2576 2579 2582 2585 2588 2591 2594 2597 2600 2603 2606 2608 2611 2614 2617 2620 2623 2626 2629 2632 2635 2638 2641 2643 2646 2648 2651 2654 2657 2660 2663 2666 2669 2672 2675 2678 2681 2684 2687 2690 2693 2696 2699 2702 2705 2708 2711 2714 2717 2720 2723 2726 2729 2731 2734 2737 2740 2743 2746 2749 2752 2755 2758 2761 2763 2766 2769 2772 2775 2778 2781 2784 2787 2789 2792 2795 2798 2801 2804 2807 2809 2812 2814 2817 2819 2822 2825 2827 2830 2833 2836 2839 2842 2845 2848 2850 2853 2856 2858 2860 2863 2866 2869 2872 2875 2878 2880 2883 2886 2889 2892 2895 2898 2901 2904 2907 2909 2912 2915 2918 2921 2924 2927 2930 2933 2936 2939 2942 2945 2948 2951 2954 2957 2960 2963 2966 2969 2971 2974 2977 2979 2982 2985 2988 2991 2994 2997 3000 3003 3006 3009 3012 3015 3018 3021 3024 3027 3030 3033 3036 3039 3041 3044 3046 3049 3052 3055 3058 3061 3064 3067 3070 3073 3076 3078 3081 3084 3086 3089 3092 3095 3098 3101 3103 3106 3109 3112 3115 3118 3120 3123 3126 3129 3132 3134 3137 3140 3143 3146 3149 3152 3154 3157 3160 3163 3165 3168 3171 3174 3176 3179 3182 3185 3188 3190 3193 3196 3199 3202 3205 3207 3210 3213 3215 3218 3221 3223 3226 3229 3232 3235 3238 3241 3244 3247 3250 3253 3256 3259 3262 3265 3268 3270 3273 3276 3279 3282 3284 3287 3290 3293 3296 3299 3302 3305 3308 3311 3314 3317 3320 3323 3326 3328 3331 3334 3337 3340 3343 3346 3349 3352 3355 3358 3361 3364 3366 3369 3372 3375 3378 3381 3384 3387 3389 3392 3395 3398 3401 3404 3407 3410 3413 3416 3418 3421 3424 3427 3430 3433 3436 3439 3442 3445 3448 3450 3453 3455 3458 3461 3463 3466 3469 3472 3475 3478 3480 3483 3485 3488 3491 3494 3497 3499 3502 3505 3508 3510 3512 3515 3518 3520 3523 3526 3529 3532 3535 3538 3541 3544 3547 3550 3553 3556 3559 3562 3564 3567 3570 3573 3576 3579 3582 3585 3587 3589 3592 3594 3596 3599 3601 3604 3607 3610 3613 3616 3619 3622 3625 3628 3630 3633 3636 3639 3642 3645 3648 3651 3654 3657 3660 3663 3666 3669 3672 3675 3678 3680 3683 3686 3688 3691 3693 3696 3699 3702 3705 3708 3711 3714 3717 3720 3723 3726 3729 3731 3734 3737 3740 3743 3746 3749 3752 3754 3757 3759 3762 3765 3768 3770 3773 3776 3779 3782 3785 3788 3791 3794 3797 3800 3803 3806 3809 3812 3815 3818 3821 3823 3826 3829 3832 3835 3838 3841 3844 3846 3849 3852 3855 3858 3861 3864 3866 3869 3872 3875 3877 3880 3882 3885 3888 3891 3893 3896 3899 3901 3904 3907 3910 3912 3915 3918 3921 3923 3926 3928 3931 3934 3937 3939 3942 3945 3948 3951 3953 3956 3959 3962 3965 3968 3971 3974 3977 3980 3983 3986 3989 3992 3995 3998 4001 4004 4007 4010 4013 4016 4019 4022 4025 4028 4031 4034 4036 4039 4042 4045 4048 4051 4054 4057 4059 4062 4065 4068 4071 4074 4077 4080 4083 4086 4089 4092 4095 4098 4100 4103 4106 4109 4112 4115 4118 4120 4123 4126 4129 4132 4135 4138 4141 4144 4146 4149 4152 4155 4158 4161 4163 4166 4169 4172 4175 4178 4180 4183 4186 4189 4192 4194 4197 4200 4203 4206 4209 4212 4215 4218 4221 4224 4227 4230 4233 4236 4239 4242 4245 4248 4251 4254 4257 4260 4263 4266 4269 4272 4275 4278 4281 4284 4287 4290 4293 4296 4299 4301 4303 4306 4309 4312 4315 4318 4321 4324 4327 4329 4332 4335 4338 4341 4344 4347 4350 4353 4356 4359 4362 4364 4367 4370 4373 4375 4378 4381 4384 4386 4389 4392 4395 4398 4401 4403 4406 4409 4412 4415 4418 4421 4424 4427 4430 4432 4435 4438 4441 4444 4447 4450 4453 4456 4459 4462 4465 4468 4471 4474 4476 4479 4482 4484 4487 4490 4493 4496 4499 4502 4505 4508 4511 4514 4517 4520 4523 4526 4529 4532 4535 4538 4541 4544 4547 4550 4553 4556 4559 4562 4565 4568 4571 4574 4577 4580 4583 4586 4589 4592 4595 4597 4600 4603 4605 4608 4611 4614 4617 4620 4623 4626 4629 4632 4634 4637 4640 4642 4645 4648 4651 4653 4655 4657 4660 4663 4666 4669 4672 4675 4678 4681 4684 4687 4689 4692 4695 4698 4701 4704 4707 4710 4713 4716 4719 4722 4725 4728 4731 4734 4737 4740 4743 4745 4748 4751 4754 4757 4760 4763 4766 4769 4771 4774 4777 4780 4783 4785 4788 4791 4794 4797 4800 4803 4805 4808 4811 4814 4817 4820 4823 4826 4829 4832 4834 4837 4840 4843 4846 4849 4852 4855 4858 4861 4864 4867 4870 4873 4875 4878 4881 4883 4886 4888 4890 4893 4896 4899 4902 4905 4908 4911 4913 4916 4919 4922 4925 4928 4931 4934 4936 4939 4942 4945 4948 4951 4954 4956 4958 4961 4964 4966 4969 4971 4974 4977 4980 4983 4985 4988 4991 4993 4996 4998 5001 5004 5007 5009 5012 5015 5017 5019 5022 5025 5028 5030 5033 5036 5039 5042 5045 5048 5051 5054 5056 5059 5062 5065 5068 5071 5074 5077 5080 5083 5086 5089 5092 5094 5097 5099 5102 5105 5108 5111 5113 5116 5119 5121 5124 5127 5130 5133 5136 5139 5142 5144 5147 5150 5153 5156 5158 5161 5164 5166 5169 5172 5174 5177 5180 5183 5185 5188 5191 5194 5196 5199 5202 5205 5208 5211 5214 5217 5219 5222 5225 5228 5231 5234 5236 5239 5242 5245 5248 5251 5253 5256 5259 5261 5264 5266 5269 5272 5275 5278 5281 5284 5287 5290 5293 5296 5298 5301 5304 5306 5309 5312 5315 5318 5321 5324 5327 5330 5333 5336 5339 5341 5343 5346 5349 5352 5355 5358 5361 5363 5366 5369 5372 5374 5377 5380 5382 5385 5388 5390 5393 5396 5399 5402 5405 5408 5411 5414 5417 5420 5423 5425 5428 5431 5434 5437 5440 5443 5446 5449 5451 5454 5457 5460 5463 5466 5468 5471 5473 5476 5479 5482 5484 5487 5489 5492 5495 5497 5500 5503 5506 5509 5512 5515 5517 5520 5523 5526 5529 5532 5535 5538 5540 5542 5545 5548 5551 5554 5557 5560 5563 5566 5569 5572 5575 5578 5581 5584 5587 5589 5592 5595 5598 5600 5603 5606 5609 5612 5615 5618 5621 5624 5627 5630 5633 5636 5639 5642 5645 5647 5650 5653 5655 5658 5661 5664 5667 5670 5673 5676 5679 5682 5685 5687 5690 5693 5696 5698 5701 5704 5707 5710 5713 5716 5719 5722 5725 5728 5731 5734 5737 5740 5742 5745 5748 5751 5753 5756 5759 5762 5765 5768 5771 5774 5777 5779 5782 5785 5788 5791 5794 5797 5800 5803 5806 5809 5812 5815 5818 5821 5824 5827 5830 5833 5835 5838 5841 5844 5847 5850 5853 5855 5858 5861 5864 5867 5870 5873 5876 5879 5882 5885 5887 5889 5892 5895 5898 5900 5903 5905 5908 5911 5914 5917 5920 5923 5926 5929 5932 5935 5938 5941 5944 5947 5950 5953 5956 5959 5961 5964 5967 5970 5973 5976 5979 5981 5984 5987 5990 5993 5996 5999 6001 6004 6007 6010 6013 6016 6019 6022 6025 6028 6031 6034 6037 6040 6043 6046 6049 6052 6055 6058 6061 6063 6066 6069 6072 6075 6078 6081 6084 6087 6090 6093 6096 6099 6102 6105 6108 6111 6114 6117 6120 6123 6126 6129 6132 6135 6138 6141 6144 6147 6150 6153 6156 6159 6162 6165 6168 6171 6174 6177 6180 6183 6186 6189 6192 6195 6198 6201 6204 6207 6210 6212 6215 6217 6220 6223 6226 6229 6232 6235 6238 6241 6244 6246 6249 6252 6255 6258 6260 6262 6265 6268 6271 6274 6277 6280 6282 6285 6288 6291 6294 6297 6300 6302 6305 6308 6311 6314 6317 6320 6322 6325 6328 6331 6334 6337 6340 6342 6345 6348 6351 6354 6357 6359 6361 6364 6366 6369 6371 6373 6376 6379 6382 6385 6388 6391 6393 6396 6399 6402 6405 6407 6410 6413 6415 6418 6421 6423 6426 6429 6432 6435 6438 6441 6444 6447 6450 6453 6456 6459 6462 6465 6467 6469 6472 6474 6477 6480 6483 6486 6489 6492 6495 6497 6500 6503 6506 6509 6512 6515 6518 6521 6524 6527 6530 6533 6536 6539 6542 6545 6548 6551 6554 6557 6560 6563 6566 6569 6572 6575 6578 6581 6584 6587 6590 6592 6595 6598 6601 6603 6606 6609 6612 6614 6617 6620 6623 6626 6629 6632 6635 6638 6641 6644 6647 6650 6653 6656 6659 6662 6665 6668 6671 6674 6677 6680 6683 6686 6689 6692 6695 6698 6701 6704 6707 6709 6712 6715 6718 6721 6724 6727 6730 6733 6736 6738 6741 6744 6747 6749 6752 6755 6758 6761 6764 6767 6770 6773 6776 6778 6780 6783 6786 6789 6792 6795 6798 6801 6804 6807 6810 6813 6816 6819 6822 6825 6827 6830 6833 6836 6839 6842 6845 6848 6851 6854 6857 6860 6863 6866 6869 6872 6875 6878 6881 6884 6887 6890 6893 6896 6899 6902 6905 6908 6911 6914 6917 6920 6923 6926 6929 6932 6935 6938 6941 6943 6946 6949 6951 6954 6957 6959 6962 6965 6968 6971 6973 6976 6979 6982 6985 6988 6991 6994 6997 7000 7003 7006 7009 7011 7014 7017 7020 7023 7026 7029 7032 7035 7038 7041 7044 7047 7050 7053 7056 7059 7061 7064 7067 7070 7073 7076 7079 7082 7085 7088 7091 7094 7097 7099 7102 7105 7108 7111 7114 7116 7119 7122 7124 7127 7130 7133 7136 7139 7141 7144 7146 7148 7151 7154 7157 7160 7163 7165 7168 7171 7174 7177 7180 7183 7186 7189 7191 7194 7197 7200 7203 7206 7209 7212 7215 7218 7221 7224 7227 7230 7233 7236 7239 7242 7245 7248 7251 7254 7256 7258 7261 7264 7267 7270 7273 7276 7279 7282 7285 7287 7290 7293 7296 7299 7302 7305 7308 7311 7314 7316 7319 7322 7325 7328 7331 7334 7337 7340 7343 7346 7349 7351 7354 7357 7360 7363 7366 7369 7372 7375 7378 7380 7382 7385 7388 7391 7394 7397 7400 7402 7405 7408 7411 7414 7416 7419 7422 7425 7428 7430 7433 7435 7438 7441 7444 7447 7450 7452 7454 7457 7459 7462 7465 7468 7471 7473 7476 7479 7482 7485 7488 7491 7494 7497 7500 7503 7506 7509 7512 7515 7518 7520 7523 7526 7529 7532 7535 7538 7540 7543 7546 7549 7551 7554 7557 7560 7563 7566 7569 7572 7575 7578 7581 7584 7587 7589 7592 7595 7598 7601 7604 7607 7609 7612 7615 7618 7620 7623 7625 7628 7630 7633 7636 7639 7642 7645 7648 7651 7653 7656 7659 7662 7665 7668 7670 7673 7676 7679 7682 7685 7688 7691 7694 7696 7699 7702 7704 7707 7710 7713 7715 7717 7719 7722 7725 7727 7730 7733 7736 7739 7742 7744 7747 7750 7752 7755 7757 7760 7763 7766 7768 7770 7773 7776 7779 7782 7785 7788 7791 7794 7797 7800 7803 7806 7809 7812 7815 7817 7820 7823 7825 7828 7831 7834 7837 7840 7843 7846 7849 7852 7855 7858 7861 7863 7866 7869 7872 7875 7878 7880 7883 7886 7889 7892 7895 7898 7901 7904 7906 7909 7912 7915 7918 7921 7924 7927 7930 7933 7936 7939 7942 7944 7947 7950 7952 7955 7958 7961 7964 7967 7970 7973 7976 7979 7982 7985 7988 7991 7994 7997 8000 8003 8006 8009 8012 8015 8017 8020 8022 8025 8028 8030 8032 8035 8038 8041 8044 8047 8049 8052 8054 8057 8060 8062 8064 8066 8068 8071 8074 8077 8080 8083 8086 8089 8092 8094 8097 8100 8103 8105 8107 8110 8113 8116 8119 8121 8124 8127 8130 8133 8136 8139 8142 8145 8148 8151 8154 8157 8160 8163 8165 8168 8171 8174 8176 8179 8182 8185 8187 8190 8192 8195 8198 8201 8203 8206 8209 8211 8214 8217 8220 8223 8226 8229 8232 8235 8238 8241 8244 8247 8250 8253 8255 8258 8260 8263 8266 8269 8272 8275 8278 8281 8284 8287 8289 8291 8294 8296 8299 8302 8304 8307 8310 8313 8315 8318 8321 8323 8325 8328 8331 8333 8336 8339 8342 8345 8348 8350 8353 8356 8359 8362 8365 8368 8371 8374 8377 8380 8383 8386 8389 8392 8395 8398 8401 8404 8407 8410 8413 8416 8419 8422 8425 8428 8431 8434 8437 8440 8443 8446 8449 8451 8454 8457 8459 8462 8465 8468 8471 8474 8477 8480 8483 8486 8489 8492 8494 8497 8500 8503 8506 8509 8511 8514 8517 8519 8522 8525 8528 8530 8533 8536 8539 8542 8544 8547 8550 8553 8556 8559 8562 8565 8567 8570 8573 8576 8579 8582 8585 8588 8591 8594 8597 8599 8602 8604 8607 8610 8612 8615 8618 8620 8623 8626 8629 8632 8634 8637 8639 8642 8645 8648 8651 8654 8657 8659 8662 8665 8668 8671 8674 8676 8679 8682 8684 8687 8689 8692 8695 8698 8700 8702 8704 8707 8710 8713 8715 8718 8721 8724 8726 8729 8732 8735 8738 8740 8743 8746 8749 8752 8755 8758 8761 8764 8766 8769 8772 8775 8778 8781 8783 8786 8789 8792 8795 8798 8801 8804 8807 8809 8812 8815 8817 8819 8822 8825 8828 8831 8834 8837 8839 8842 8844 8846 8849 8852 8855 8858 8861 8864 8866 8869 8872 8875 8878 8881 8884 8887 8890 8893 8896 8898 8901 8904 8907 8910 8913 8916 8918 8921 8924 8926 8929 8932 8935 8938 8941 8944 8947 8950 8953 8956 8959 8962 8965 8968 8971 8974 8976 8979 8982 8985 8988 8991 8994 8997 9000 9003 9006 9009 9012 9014 9017 9020 9023 9026 9029 9032 9035 9038 9041 9044 9047 9050 9053 9056 9059 9062 9065 9068 9071 9074 9077 9080 9083 9086 9089 9092 9095 9098 9101 9104 9107 9110 9112 9114 9117 9120 9123 9126 9129 9132 9134 9137 9140 9143 9146 9149 9152 9154 9157 9160 9163 9166 9169 9172 9175 9178 9181 9183 9186 9189 9192 9194 9197 9199 9202 9205 9208 9210 9213 9216 9219 9222 9225 9228 9230 9233 9236 9239 9242 9245 9248 9251 9254 9257 9260 9263 9266 9268 9271 9274 9277 9280 9283 9286 9288 9291 9294 9297 9299 9302 9304 9307 9310 9313 9316 9319 9322 9325 9328 9331 9334 9337 9340 9343 9346 9349 9351 9354 9357 9360 9363 9366 9368 9371 9374 9377 9380 9383 9386 9389 9392 9395 9398 9401 9403 9405 9408 9410 9413 9416 9419 9421 9424 9427 9430 9433 9436 9439 9442 9445 9448 9450 9452 9454 9457 9460 9463 9466 9469 9472 9475 9477 9480 9483 9485 9488 9491 9493 9496 9499 9502 9504 9507 9510 9513 9515 9518 9521 9524 9527 9530 9533 9536 9539 9542 9545 9548 9551 9554 9557 9560 9563 9566 9569 9572 9575 9578 9581 9584 9586 9589 9592 9595 9598 9601 9604 9606 9609 9612 9615 9618 9621 9624 9627 9629 9632 9635 9638 9641 9644 9647 9650 9653 9656 9659 9662 9665 9668 9670 9673 9676 9679 9682 9685 9688 9691 9693 9696 9699 9702 9705 9708 9711 9714 9717 9720 9722 9725 9728 9731 9734 9736 9739 9742 9745 9748 9751 9754 9757 9760 9763 9766 9769 9771 9773 9776 9779 9782 9785 9788 9790 9793 9795 9798 9801 9804 9806 9809 9812 9815 9817 9820 9823 9826 9829 9831 9834 9837 9839 9842 9844 9847 9849 9852 9855 9858 9860 9863 9866 9868 9871 9874 9877 9880 9883 9885 9888 9891 9893 9895 9898 9901 9904 9906 9909 9912 9914 9917 9919 9922 9925 9928 9930 9933 9936 9939 9941 9944 9947 9949 9951 9954 9957 9960 9963 9966 9969 9972 9975 9978 9981 9983 9986 9989 9992 9995 9998 10001 10004 10006 10009 10012 10015 10018 10021 10024 10027 10029 10032 10035 10038 10041 10044 10047 10050 10053 10056 10059 10062 10065 10068 10071 10074 10077 10079 10082 10085 10088 10091 10094 10097 10099 10102 10105 10107 10110 10113 10116 10119 10122 10125 10128 10131 10134 10137 10140 10143 10146 10149 10152 10155 10157 10160 10163 10165 10168 10171 10174 10177 10180 10183 10185 10188 10191 10193 10196 10199 10202 10205 10208 10211 10214 10217 10220 10223 10226 10228 10231 10234 10237 10240 10242 10245 10248 10250 10253 10255 10258 10261 10264 10267 10270 10273 10276 10279 10281 10284 10287 10290 10293 10296 10299 10302 10305 10307 10310 10313 10316 10319 10322 10324 10327 10330 10333 10336 10339 10342 10345 10348 10351 10354 10357 10360 10363 10366 10369 10372 10375 10378 10380 10383 10386 10389 10392 10395 10398 10401 10404 10407 10409 10412 10415 10418 10421 10424 10427 10430 10433 10436 10439 10442 10445 10448 10451 10454 10457 10460 10463 10466 10469 10472 10474 10477 10480 10483 10486 10489 10492 10495 10498 10501 10504 10507 10509 10512 10515 10518 10521 10523 10525 10528 10531 10534 10537 10539 10541 10544 10546 10548 10551 10553 10556 10559 10562 10564 10566 10568 10571 10573 10576 10579 10582 10585 10588 10590 10593 10596 10598 10601 10603 10606 10609 10611 10614 10617 10620 10623 10626 10629 10632 10635 10638 10641 10644 10647 10650 10653 10655 10658 10661 10664 10667 10670 10673 10676 10679 10682 10685 10688 10691 10694 10697 10700 10703 10706 10709 10712 10715 10718 10720 10723 10726 10729 10732 10735 10737 10740 10743 10745 10748 10751 10754 10757 10760 10763 10766 10769 10772 10775 10777 10780 10783 10785 10788 10790 10793 10796 10799 10801 10804 10806 10809 10812 10815 10817 10820 10823 10825 10828 10831 10834 10837 10840 10843 10846 10849 10852 10855 10858 10861 10864 10867 10869 10872 10874 10877 10880 10882 10885 10888 10891 10894 10897 10900 10903 10906 10909 10912 10915 10918 10921 10924 10927 10930 10933 10935 10937 10940 10943 10946 10949 10952 10955 10958 10961 10964 10967 10970 10973 10976 10979 10982 10985 10987 10990 10993 10996 10999 11002 11005 11008 11011 11014 11017 11020 11023 11026 11029 11032 11035 11037 11039 11042 11045 11048 11051 11054 11057 11060 11063 11066 11069 11072 11075 11078 11080 11083 11086 11089 11092 11095 11098 11101 11104 11107 11110 11113 11116 11119 11122 11125 11127 11129 11132 11135 11138 11141 11144 11147 11150 11153 11156 11159 11162 11165 11168 11171 11174 11177 11180 11183 11186 11189 11192 11195 11198 11201 11204 11207 11210 11213 11215 11217 11220 11223 11226 11229 11232 11234 11237 11240 11243 11246 11249 11252 11255 11257 11260 11263 11266 11269 11272 11274 11276 11279 11282 11285 11288 11291 11293 11296 11299 11302 11305 11308 11311 11314 11316 11319 11322 11324 11327 11330 11333 11336 11339 11342 11345 11348 11351 11354 11357 11360 11363 11366 11369 11371 11374 11377 11380 11383 11386 11389 11392 11395 11398 11401 11404 11407 11410 11413 11416 11419 11422 11425 11428 11430 11433 11436 11439 11442 11444 11447 11449 11452 11455 11458 11461 11464 11467 11470 11473 11476 11479 11482 11485 11488 11491 11494 11497 11500 11503 11506 11509 11512 11514 11517 11520 11523 11526 11529 11532 11535 11538 11540 11543 11545 11547 11550 11553 11556 11559 11562 11565 11568 11570 11573 11576 11579 11581 11584 11587 11589 11592 11595 11598 11601 11604 11606 11609 11612 11615 11617 11620 11623 11625 11628 11631 11634 11636 11639 11642 11645 11648 11651 11654 11657 11659 11662 11665 11668 11671 11674 11677 11680 11683 11686 11689 11692 11695 11698 11700 11703 11705 11708 11711 11714 11717 11720 11722 11725 11728 11730 11733 11736 11739 11742 11744 11747 11750 11753 11756 11759 11762 11765 11768 11771 11774 11777 11780 11783 11786 11789 11792 11795 11798 11801 11804 11807 11810 11813 11816 11819 11822 11825 11827 11830 11833 11836 11838 11841 11844 11847 11850 11853 11856 11859 11862 11865 11868 11871 11874 11877 11880 11883 11886 11889 11892 11895 11898 11901 11904 11907 11910 11913 11916 11919 11922 11925 11928 11931 11934 11936 11939 11942 11945 11948 11951 11954 11957 11960 11963 11966 11969 11972 11975 11978 11981 11984 11987 11990 11993 11996 11998 12001 12004 12007 12009 12012 12015 12018 12020 12022 12025 12028 12031 12033 12036 12039 12042 12045 12047 12050 12053 12056 12059 12062 12065 12068 12071 12074 12077 12080 12083 12086 12089 12092 12095 12098 12101 12104 12107 12110 12113 12116 12119 12122 12125 12128 12131 12134 12137 12140 12143 12146 12149 12152 12155 12158 12161 12164 12167 12170 12173 12176 12179 12182 12185 12188 12191 12194 12197 12200 12203 12206 12209 12212 12215 12218 12221 12223 12226 12229 12232 12235 12237 12240 12243 12246 12249 12252 12255 12258 12261 12264 12267 12270 12273 12276 12279 12282 12285 12288 12291 12294 12297 12299 12302 12304 12307 12310 12313 12315 12318 12321 12323 12326 12329 12332 12334 12336 12339 12342 12345 12348 12351 12354 12357 12360 12363 12366 12369 12372 12375 12377 12380 12382 12385 12388 12391 12394 12397 12400 12403 12405 12408 12411 12414 12417 12419 12421 12424 12427 12430 12432 12435 12438 12440 12442 12445 12448 12450 12453 12455 12458 12461 12464 12467 12470 12473 12475 12478 12481 12483 12486 12489 12491 12494 12497 12500 12502 12505 12508 12511 12514 12517 12520 12523 12526 12529 12532 12535 12537 12540 12543 12546 12549 12551 12554 12557 12560 12563 12565 12568 12571 12574 12577 12579 12582 12585 12588 12591 12594 12597 12599 12602 12605 12608 12611 12614 12617 12619 12621 12624 12627 12630 12633 12636 12638 12641 12644 12647 12650 12652 12655 12658 12661 12663 12666 12668 12670 12672 12675 12678 12681 12683 12686 12689 12692 12695 12698 12701 12704 12707 12709 12712 12715 12718 12721 12724 12727 12730 12733 12736 12739 12742 12744 12747 12750 12753 12755 12758 12761 12764 12767 12770 12772 12774 12776 12779 12781 12784 12786 12789 12792 12795 12798 12801 12803 12806 12809 12812 12815 12818 12821 12824 12827 12830 12833 12836 12839 12842 12845 12848 12851 12854 12857 12860 12863 12865 12868 12871 12874 12877 12880 12883 12886 12888 12891 12893 12896 12899 12902 12904 12907 12910 12913 12916 12919 12922 12925 12928 12931 12933 12935 12938 12941 12944 12947 12950 12952 12955 12958 12961 12964 12966 12969 12972 12975 12978 12981 12984 12987 12989 12992 12995 12998 13001 13003 13006 13009 13012 13015 13018 13021 13024 13027 13030 13033 13036 13039 13042 13045 13048 13051 13054 13057 13060 13063 13065 13068 13071 13073 13076 13079 13082 13085 13088 13091 13093 13096 13099 13102 13105 13108 13111 13114 13116 13119 13122 13125 13128 13131 13133 13136 13139 13142 13145 13147 13150 13153 13156 13159 13162 13164 13167 13170 13173 13176 13179 13182 13184 13187 13189 13191 13194 13197 13199 13202 13204 13206 13209 13211 13214 13217 13219 13222 13225 13228 13231 13234 13237 13239 13241 13244 13246 13249 13252 13254 13257 13260 13263 13266 13268 13271 13274 13277 13280 13283 13286 13289 13291 13294 13296 13299 13301 13304 13307 13310 13313 13315 13318 13321 13323 13326 13329 13332 13335 13338 13341 13344 13347 13350 13352 13355 13358 13361 13364 13367 13370 13373 13375 13378 13380 13383 13386 13389 13392 13395 13398 13401 13404 13407 13410 13412 13415 13418 13420 13423 13426 13429 13432 13434 13436 13439 13441 13443 13446 13449 13451 13453 13456 13459 13462 13464 13467 13470 13473 13476 13479 13482 13485 13488 13490 13493 13496 13499 13502 13505 13508 13511 13513 13516 13519 13521 13524 13527 13530 13532 13535 13537 13540 13543 13546 13549 13551 13553 13555 13558 13561 13564 13567 13570 13573 13576 13579 13582 13585 13588 13591 13594 13597 13600 13603 13606 13609 13612 13615 13618 13621 13624 13627 13630 13633 13636 13639 13642 13644 13647 13650 13652 13655 13657 13659 13662 13665 13667 13670 13672 13675 13678 13680 13683 13686 13689 13692 13695 13698 13701 13704 13706 13709 13712 13715 13718 13720 13723 13726 13729 13732 13735 13738 13741 13744 13746 13749 13752 13755 13758 13761 13764 13767 13770 13773 13776 13779 13781 13783 13786 13789 13792 13795 13798 13800 13803 13806 13809 13812 13814 13816 13819 13822 13825 13828 13831 13834 13837 13840 13843 13846 13849 13851 13854 13857 13860 13863 13866 13869 13872 13875 13877 13880 13882 13884 13887 13890 13892 13895 13898 13900 13903 13906 13908 13911 13914 13917 13920 13923 13926 13929 13932 13935 13938 13941 13943 13946 13949 13951 13954 13957 13960 13963 13966 13969 13972 13975 13978 13981 13984 13987 13990 13993 13996 13999 14002 14005 14007 14010 14013 14015 14018 14021 14024 14026 14029 14032 14034 14037 14040 14043 14046 14049 14051 14053 14056 14059 14061 14064 14066 14069 14072 14075 14078 14081 14084 14087 14090 14093 14096 14099 14102 14105 14108 14111 14114 14117 14120 14123 14126 14129 14132 14135 14138 14141 14144 14147 14150 14153 14156 14158 14161 14164 14167 14170 14172 14175 14178 14181 14184 14187 14190 14193 14196 14199 14202 14205 14208 14211 14214 14217 14219 14222 14224 14227 14230 14233 14236 14239 14242 14245 14248 14250 14253 14256 14259 14262 14264 14267 14269 14272 14275 14278 14281 14284 14287 14290 14293 14296 14299 14302 14305 14308 14311 14314 14317 14320 14323 14326 14329 14332 14335 14338 14340 14343 14346 14349 14352 14355 14358 14361 14364 14366 14369 14372 14375 14377 14380 14383 14385 14387 14390 14393 14396 14399 14402 14405 14407 14410 14413 14416 14418 14420 14423 14425 14427 14430 14432 14435 14438 14441 14443 14446 14449 14452 14455 14458 14461 14463 14466 14468 14471 14474 14477 14479 14482 14484 14486 14489 14491 14494 14497 14500 14503 14506 14509 14512 14515 14518 14521 14524 14527 14530 14533 14535 14538 14541 14544 14547 14550 14553 14555 14558 14561 14564 14567 14570 14573 14576 14578 14581 14584 14587 14589 14592 14595 14598 14601 14604 14607 14610 14613 14616 14619 14622 14625 14628 14631 14634 14637 14640 14643 14646 14649 14652 14655 14658 14661 14664 14667 14670 14673 14675 14678 14681 14684 14687 14690 14693 14696 14699 14701 14704 14707 14710 14713 14715 14718 14721 14723 14726 14729 14731 14734 14737 14740 14742 14744 14747 14749 14752 14755 14758 14760 14763 14766 14769 14772 14775 14778 14781 14784 14786 14789 14791 14794 14797 14800 14803 14806 14809 14812 14815 14818 14821 14824 14826 14829 14832 14835 14837 14840 14843 14845 14848 14851 14854 14857 14860 14862 14865 14868 14871 14874 14877 14880 14883 14886 14889 14892 14895 14898 14901 14904 14907 14910 14913 14916 14919 14922 14924 14927 14930 14932 14935 14937 14940 14942 14945 14948 14951 14954 14956 14958 14961 14964 14966 14968 14971 14974 14976 14979 14982 14985 14987 14990 14992 14995 14998 15001 15003 15006 15009 15012 15015 15018 15021 15024 15027 15029 15032 15035 15038 15041 15043 15046 15049 15052 15055 15058 15061 15064 15067 15069 15072 15075 15078 15081 15084 15087 15090 15092 15095 15097 15100 15103 15106 15108 15111 15114 15117 15120 15123 15125 15128 15130 15133 15135 15138 15141 15143 15146 15149 15152 15155 15158 15161 15164 15167 15169 15172 15175 15178 15181 15184 15187 15190 15193 15196 15199 15202 15204 15207 15209 15212 15215 15218 15221 15224 15227 15230 15233 15236 15239 15242 15245 15247 15250 15253 15256 15259 15262 15265 15268 15271 15274 15277 15280 15283 15285 15288 15291 15294 15297 15300 15302 15304 15307 15309 15311 15313 15316 15319 15322 15325 15328 15331 15334 15336 15339 15342 15345 15348 15350 15353 15356 15359 15362 15365 15368 15371 15374 15377 15380 15383 15386 15389 15392 15395 15398 15401 15404 15407 15410 15413 15416 15419 15422 15425 15428 15430 15433 15436 15439 15442 15445 15448 15451 15454 15457 15460 15463 15466 15469 15472 15475 15478 15481 15484 15487 15490 15493 15496 15498 15501 15504 15507 15510 15513 15515 15518 15520 15523 15526 15529 15532 15535 15538 15540 15543 15546 15549 15552 15555 15558 15561 15564 15567 15570 15573 15576 15579 15582 15585 15588 15591 15594 15597 15600 15603 15606 15608 15611 15614 15617 15619 15622 15625 15628 15631 15634 15637 15640 15643 15646 15649 15652 15655 15658 15661 15664 15667 15670 15673 15675 15677 15680 15683 15686 15689 15691 15694 15697 15700 15703 15705 15708 15711 15713 15716 15719 15722 15725 15728 15731 15734 15736 15739 15742 15745 15748 15750 15753 15756 15759 15762 15765 15767 15770 15773 15776 15779 15782 15785 15788 15791 15794 15797 15800 15803 15806 15809 15812 15815 15818 15821 15824 15827 15830 15833 15835 15838 15841 15843 15846 15849 15852 15855 15858 15861 15863 15865 15867 15870 15873 15876 15879 15882 15885 15888 15891 15894 15897 15900 15902 15905 15908 15911 15913 15916 15919 15922 15925 15928 15931 15933 15936 15939 15942 15945 15947 15949 15952 15955 15957 15960 15963 15965 15968 15971 15974 15977 15980 15983 15986 15989 15992 15994 15997 16000 16003 16006 16009 16012 16015 16018 16021 16024 16026 16029 16032 16034 16037 16039 16041 16044 16046 16049 16052 16055 16058 16061 16064 16066 16069 16072 16075 16078 16081 16084 16087 16090 16092 16095 16098 16101 16104 16107 16110 16113 16116 16119 16122 16124 16127 16130 16132 16135 16138 16141 16143 16146 16149 16152 16155 16158 16161 16164 16167 16170 16173 16176 16179 16182 16184 16187 16189 16192 16194 16197 16200 16203 16206 16209 16212 16215 16218 16221 16223 16226 16229 16232 16234 16237 16240 16242 16245 16248 16251 16254 16257 16260 16263 16266 16269 16272 16275 16278 16281 16284 16287 16290 16293 16296 16299 16302 16305 16308 16311 16314 16317 16319 16322 16325 16328 16330 16332 16335 16337 16340 16343 16346 16349 16352 16355 16358 16361 16364 16367 16369 16372 16375 16377 16379 16382 16384 16387 16390 16392 16395 16397 16400 16403 16406 16409 16412 16415 16417 16420 16423 16426 16428 16431 16434 16436 16439 16442 16444 16447 16450 16453 16455 16458 16461 16464 16467 16470 16473 16475 16478 16481 16484 16486 16489 16492 16494 16497 16500 16503 16506 16509 16512 16515 16517 16520 16523 16526 16529 16531 16533 16536 16539 16542 16545 16547 16549 16551 16553 16556 16559 16562 16565 16568 16571 16574 16577 16580 16583 16586 16588 16591 16594 16597 16599 16602 16604 16606 16608 16611 16614 16617 16620 16623 16625 16628 16631 16634 16636 16639 16642 16645 16648 16651 16654 16656 16659 16662 16664 16667 16670 16673 16675 16678 16681 16683 16686 16689 16691 16694 16696 16699 16701 16704 16707 16709 16712 16715 16717 16720 16723 16725 16728 16731 16734 16736 16739 16742 16745 16748 16751 16754 16757 16760 16762 16764 16767 16769 16772 16775 16778 16781 16783 16786 16789 16791 16794 16797 16800 16802 16805 16808 16811 16814 16816 16818 16821 16824 16827 16830 16833 16836 16839 16842 16845 16848 16851 16854 16857 16859 16862 16865 16868 16871 16874 16877 16880 16882 16885 16888 16891 16893 16895 16898 16901 16904 16907 16910 16912 16915 16918 16921 16924 16927 16930 16933 16936 16939 16941 16944 16947 16950 16952 16955 16958 16960 16963 16966 16969 16972 16974 16977 16980 16982 16985 16988 16991 16994 16997 17000 17003 17006 17009 17012 17015 17018 17021 17024 17027 17030 17033 17036 17039 17042 17044 17047 17050 17053 17056 17059 17062 17065 17067 17070 17073 17076 17078 17080 17082 17085 17088 17090 17093 17096 17099 17102 17104 17107 17110 17113 17115 17118 17120 17123 17126 17129 17131 17134 17137 17140 17143 17146 17148 17151 17154 17157 17160 17162 17165 17167 17170 17173 17176 17179 17181 17184 17187 17190 17193 17196 17199 17202 17205 17208 17211 17214 17216 17219 17222 17225 17228 17231 17234 17237 17240 17243 17246 17249 17251 17254 17257 17260 17262 17265 17268 17271 17274 17277 17280 17283 17286 17289 17292 17295 17298 17301 17304 17307 17310 17313 17316 17319 17322 17325 17328 17331 17333 17335 17338 17341 17344 17347 17349 17352 17354 17357 17360 17363 17366 17369 17371 17374 17377 17380 17383 17386 17388 17391 17393 17396 17398 17401 17403 17406 17408 17411 17414 17417 17420 17423 17426 17428 17431 17434 17437 17440 17443 17446 17448 17451 17454 17457 17460 17463 17466 17469 17472 17475 17477 17480 17483 17486 17489 17491 17494 17497 17500 17503 17506 17509 17512 17514 17517 17520 17523 17526 17528 17531 17534 17537 17539 17542 17545 17548 17550 17553 17556 17559 17562 17565 17568 17571 17574 17577 17580 17582 17584 17587 17590 17592 17595 17598 17601 17603 17605 17608 17611 17614 17617 17619 17622 17625 17627 17630 17633 17636 17639 17642 17645 17648 17651 17654 17657 17660 17663 17666 17669 17672 17675 17678 17681 17684 17687 17690 17693 17696 17699 17702 17705 17708 17711 17714 17717 17720 17723 17726 17729 17732 17735 17738 17741 17744 17747 17749 17752 17755 17757 17760 17763 17766 17769 17772 17775 17778 17781 17784 17787 17790 17793 17796 17799 17802 17805 17808 17810 17813 17816 17819 17821 17824 17827 17830 17833 17836 17839 17842 17845 17848 17851 17854 17857 17859 17862 17865 17868 17871 17874 17877 17880 17883 17885 17888 17891 17894 17897 17900 17903 17906 17909 17912 17915 17918 17921 17924 17927 17930 17933 17936 17939 17942 17944 17946 17949 17952 17955 17958 17961 17964 17967 17970 17973 17976 17979 17982 17985 17988 17991 17994 17997 18000 18003 18006 18009 18011 18014 18017 18020 18023 18026 18029 18032 18035 18038 18041 18044 18047 18050 18053 18056 18059 18062 18065 18068 18071 18074 18077 18080 18083 18086 18089 18092 18095 18098 18101 18104 18107 18110 18113 18116 18119 18122 18125 18128 18131 18134 18137 18140 18143 18146 18149 18152 18155 18158 18161 18164 18167 18170 18173 18176 18179 18182 18185 18188 18190 18193 18196 18199 18202 18205 18208 18210 18212 18215 18218 18221 18224 18227 18230 18233 18236 18239 18242 18245 18248 18251 18254 18257 18260 18263 18266 18269 18272 18275 18278 18281 18284 18287 18290 18293 18296 18299 18302 18305 18308 18311 18314 18317 18320 18323 18326 18329 18332 18335 18338 18341 18344 18347 18350 18353 18356 18359 18362 18365 18368 18371 18374 18377 18379 18382 18385 18388 18391 18394 18397 18400 18402 18405 18408 18411 18414 18417 18420 18422 18425 18428 18431 18434 18437 18440 18443 18446 18448 18451 18454 18457 18459 18462 18465 18468 18471 18473 18476 18479 18482 18484 18487 18490 18493 18495 18498 18501 18504 18507 18509 18511 18514 18517 18520 18523 18526 18529 18532 18535 18538 18541 18544 18547 18550 18553 18556 18559 18562 18565 18567 18570 18573 18576 18579 18582 18585 18588 18591 18594 18597 18599 18601 18604 18607 18609 18611 18614 18617 18620 18623 18625 18628 18631 18634 18637 18639 18642 18645 18647 18650 18653 18656 18659 18662 18665 18668 18671 18674 18677 18680 18683 18686 18689 18692 18695 18698 18701 18704 18707 18710 18713 18716 18719 18722 18725 18727 18730 18733 18735 18738 18740 18742 18745 18748 18751 18754 18757 18760 18763 18766 18769 18771 18773 18776 18779 18782 18785 18788 18791 18794 18797 18800 18802 18805 18808 18811 18814 18817 18820 18822 18824 18827 18830 18833 18836 18839 18842 18845 18847 18850 18853 18856 18859 18862 18865 18868 18871 18874 18876 18879 18882 18885 18888 18891 18894 18896 18898 18901 18904 18907 18910 18913 18916 18919 18922 18925 18928 18930 18933 18936 18939 18941 18944 18947 18950 18952 18955 18958 18961 18964 18967 18970 18973 18976 18979 18982 18985 18988 18990 18993 18996 18999 19002 19005 19008 19010 19013 19016 19019 19022 19024 19027 19030 19032 19035 19037 19040 19043 19046 19049 19052 19055 19058 19061 19064 19067 19070 19073 19075 19078 19081 19084 19087 19090 19093 19096 19099 19102 19105 19108 19111 19113 19116 19118 19121 19124 19126 19129 19132 19135 19138 19141 19144 19147 19150 19153 19156 19159 19161 19163 19166 19169 19172 19175 19177 19180 19183 19186 19189 19192 19195 19198 19201 19204 19207 19210 19213 19216 19219 19222 19225 19227 19230 19233 19236 19239 19242 19244 19247 19250 19253 19256 19259 19262 19265 19268 19271 19273 19276 19279 19282 19285 19288 19291 19294 19297 19300 19303 19306 19309 19312 19315 19318 19321 19324 19326 19329 19331 19334 19337 19340 19342 19345 19348 19351 19354 19357 19360 19363 19366 19369 19372 19375 19377 19380 19382 19385 19388 19391 19394 19397 19400 19402 19405 19407 19410 19413 19416 19419 19422 19425 19428 19431 19433 19436 19439 19442 19445 19448 19451 19454 19457 19460 19463 19466 19469 19472 19474 19477 19480 19483 19485 19488 19490 19493 19496 19499 19502 19504 19507 19509 19512 19514 19517 19520 19523 19526 19529 19532 19535 19538 19541 19544 19547 19550 19553 19556 19559 19562 19565 19568 19571 19574 19577 19580 19583 19585 19588 19591 19594 19597 19600 19603 19605 19608 19611 19613 19616 19619 19622 19625 19627 19630 19633 19636 19639 19642 19645 19648 19651 19654 19657 19660 19663 19666 19669 19672 19674 19677 19680 19683 19686 19689 19692 19695 19697 19700 19703 19706 19709 19711 19714 19717 19720 19723 19725 19727 19729 19732 19734 19737 19740 19743 19745 19748 19751 19754 19757 19760 19762 19765 19768 19770 19773 19776 19779 19782 19785 19788 19790 19793 19796 19799 19802 19805 19808 19811 19814 19817 19819 19822 19825 19828 19831 19834 19837 19840 19843 19846 19849 19852 19855 19857 19860 19863 19866 19869 19872 19875 19878 19881 19884 19887 19890 19892 19895 19898 19901 19904 19907 19910 19913 19916 19919 19922 19924 19927 19930 19933 19936 19939 19942 19945 19948 19951 19954 19957 19960 19963 19966 19969 19972 19975 19978 19981 19984 19987 19990 19993 19995 19998 20001 20003 20006 20009 20011 20014 20017 20020 20023 20026 20028 20031 20034 20037 20040 20043 20046 20049 20052 20055 20058 20061 20064 20067 20070 20073 20076 20079 20082 20085 20088 20091 20094 20097 20100 20103 20106 20109 20112 20115 20118 20121 20124 20127 20130 20133 20136 20138 20141 20143 20146 20149 20152 20154 20157 20160 20163 20166 20169 20172 20175 20177 20180 20182 20185 20188 20191 20194 20196 20199 20202 20205 20208 20210 20213 20216 20219 20222 20225 20227 20229 20231 20234 20237 20240 20243 20246 20249 20252 20254 20257 20260 20263 20266 20269 20272 20275 20278 20281 20284 20286 20289 20292 20294 20297 20300 20303 20306 20309 20312 20315 20318 20321 20324 20327 20329 20332 20335 20338 20341 20344 20347 20350 20353 20356 20359 20362 20365 20368 20371 20374 20377 20380 20383 20386 20388 20391 20394 20397 20400 20402 20405 20408 20411 20414 20417 20420 20423 20425 20428 20431 20434 20437 20439 20442 20445 20448 20451 20454 20457 20459 20462 20465 20468 20471 20474 20477 20479 20482 20485 20488 20491 20494 20496 20499 20502 20505 20508 20511 20513 20516 20519 20522 20525 20528 20531 20533 20536 20539 20542 20545 20548 20551 20554 20557 20560 20563 20565 20568 20571 20573 20576 20579 20581 20583 20586 20589 20592 20595 20597 20600 20603 20606 20609 20612 20615 20618 20621 20624 20626 20629 20632 20635 20638 20641 20644 20647 20650 20653 20656 20659 20662 20665 20668 20671 20674 20677 20679 20682 20685 20688 20690 20693 20696 20699 20702 20705 20708 20711 20714 20717 20720 20723 20725 20728 20731 20734 20737 20739 20742 20745 20748 20751 20754 20757 20760 20763 20765 20768 20771 20774 20777 20779 20782 20785 20788 20791 20794 20797 20800 20803 20806 20809 20812 20814 20817 20820 20823 20826 20828 20831 20833 20835 20838 20841 20844 20847 20849 20851 20854 20857 20859 20861 20864 20867 20869 20872 20875 20878 20881 20884 20887 20890 20893 20896 20899 20902 20905 20908 20911 20914 20917 20920 20923 20926 20928 20931 20934 20937 20940 20943 20946 20949 20952 20955 20958 20961 20964 20967 20970 20973 20976 20979 20982 20984 20987 20990 20993 20995 20998 21001 21004 21007 21010 21013 21016 21018 21021 21024 21027 21030 21033 21036 21039 21042 21044 21047 21050 21053 21056 21059 21062 21064 21067 21070 21073 21076 21079 21082 21085 21088 21091 21093 21095 21098 21101 21104 21107 21110 21113 21116 21119 21122 21124 21127 21130 21133 21136 21139 21142 21144 21147 21150 21153 21156 21159 21162 21165 21168 21171 21174 21177 21180 21183 21186 21189 21192 21195 21198 21201 21204 21207 21210 21213 21216 21219 21222 21225 21228 21231 21234 21237 21239 21242 21245 21248 21251 21254 21256 21259 21261 21264 21266 21269 21272 21274 21277 21280 21282 21284 21287 21289 21291 21293 21295 21298 21301 21304 21307 21310 21313 21316 21318 21321 21324 21326 21329 21332 21335 21338 21341 21344 21347 21350 21353 21356 21359 21362 21365 21368 21371 21374 21377 21380 21382 21385 21388 21391 21393 21396 21399 21402 21405 21407 21410 21413 21415 21418 21420 21423 21426 21428 21431 21434 21436 21439 21442 21445 21448 21451 21454 21457 21459 21462 21465 21468 21471 21474 21477 21480 21483 21486 21489 21492 21495 21498 21501 21504 21507 21510 21513 21516 21519 21522 21524 21527 21530 21533 21536 21539 21542 21544 21547 21550 21552 21555 21558 21561 21563 21566 21568 21571 21574 21576 21579 21582 21585 21588 21591 21594 21597 21599 21602 21604 21607 21610 21613 21615 21618 21620 21623 21626 21629 21632 21635 21638 21641 21644 21647 21650 21652 21655 21658 21661 21664 21666 21669 21672 21675 21678 21680 21683 21686 21689 21691 21694 21697 21699 21702 21705 21708 21711 21714 21717 21720 21723 21726 21729 21732 21735 21737 21740 21743 21746 21749 21752 21755 21758 21761 21764 21767 21770 21773 21776 21779 21782 21785 21788 21791 21794 21797 21799 21802 21805 21808 21810 21813 21815 21817 21820 21822 21825 21828 21831 21833 21836 21839 21842 21845 21848 21851 21854 21856 21859 21862 21865 21868 21871 21874 21877 21880 21883 21886 21889 21891 21894 21897 21900 21902 21905 21908 21910 21913 21916 21919 21922 21925 21928 21931 21934 21937 21940 21943 21946 21949 21952 21955 21958 21961 21964 21967 21970 21973 21976 21979 21982 21985 21988 21991 21994 21997 22000 22003 22006 22009 22012 22015 22018 22021 22024 22027 22030 22032 22035 22038 22041 22044 22047 22050 22053 22056 22059 22062 22065 22067 22069 22072 22075 22078 22081 22083 22086 22089 22091 22094 22097 22100 22103 22106 22109 22112 22115 22118 22121 22124 22127 22130 22133 22136 22139 22142 22145 22148 22151 22154 22157 22160 22163 22166 22169 22172 22175 22178 22181 22184 22187 22190 22193 22196 22199 22202 22205 22208 22211 22214 22217 22220 22223 22226 22229 22232 22235 22238 22241 22244 22247 22250 22253 22256 22259 22262 22265 22268 22271 22274 22277 22280 22283 22286 22289 22292 22295 22298 22300 22303 22306 22308 22311 22313 22316 22319 22322 22325 22328 22331 22333 22336 22339 22342 22345 22348 22350 22353 22355 22358 22361 22364 22367 22370 22373 22376 22379 22382 22384 22386 22389 22392 22395 22398 22401 22404 22407 22409 22412 22415 22418 22420 22422 22425 22428 22431 22433 22436 22439 22441 22443 22446 22449 22452 22454 22456 22459 22461 22464 22467 22470 22473 22476 22479 22482 22485 22488 22491 22494 22497 22500 22503 22506 22509 22512 22515 22518 22521 22523 22526 22529 22532 22535 22538 22541 22544 22547 22550 22553 22556 22558 22561 22564 22567 22570 22573 22575 22578 22581 22583 22586 22589 22592 22595 22598 22601 22604 22607 22610 22613 22616 22619 22621 22624 22627 22630 22633 22636 22639 22642 22645 22648 22651 22654 22656 22659 22662 22665 22668 22671 22674 22677 22680 22683 22686 22689 22692 22695 22698 22701 22703 22706 22709 22712 22715 22718 22721 22723 22726 22729 22732 22734 22737 22740 22743 22746 22749 22752 22755 22757 22760 22763 22766 22769 22772 22774 22776 22779 22782 22785 22787 22790 22793 22796 22798 22801 22804 22807 22810 22813 22816 22819 22822 22825 22828 22831 22834 22837 22840 22842 22845 22848 22851 22854 22857 22860 22862 22865 22868 22871 22874 22876 22879 22882 22885 22887 22890 22893 22896 22899 22901 22903 22905 22908 22911 22914 22917 22919 22922 22925 22928 22931 22933 22936 22939 22942 22945 22948 22951 22954 22956 22959 22962 22965 22968 22971 22974 22977 22980 22983 22986 22989 22992 22995 22998 23001 23004 23007 23010 23013 23016 23019 23022 23025 23028 23031 23034 23037 23040 23042 23045 23048 23051 23053 23056 23059 23061 23064 23066 23069 23072 23075 23078 23081 23084 23087 23090 23093 23095 23098 23101 23104 23107 23109 23111 23114 23117 23120 23123 23126 23129 23132 23135 23138 23141 23144 23147 23150 23153 23156 23159 23162 23165 23168 23170 23172 23175 23178 23181 23183 23186 23189 23192 23195 23197 23199 23202 23205 23208 23211 23214 23217 23220 23223 23226 23229 23232 23235 23237 23239 23242 23245 23248 23251 23253 23256 23259 23262 23265 23268 23271 23274 23277 23280 23283 23286 23288 23291 23294 23297 23300 23303 23306 23309 23312 23314 23317 23320 23323 23326 23329 23332 23335 23338 23341 23344 23347 23350 23353 23356 23359 23362 23365 23368 23371 23374 23377 23380 23383 23386 23389 23392 23395 23398 23401 23404 23407 23410 23413 23415 23418 23420 23423 23426 23429 23432 23435 23438 23441 23444 23447 23449 23452 23455 23458 23461 23464 23467 23470 23473 23475 23478 23481 23484 23487 23490 23492 23495 23498 23501 23504 23507 23510 23513 23516 23519 23521 23524 23527 23530 23532 23535 23538 23541 23544 23547 23550 23553 23556 23559 23562 23565 23568 23571 23574 23577 23580 23583 23586 23589 23592 23595 23598 23601 23604 23607 23610 23613 23616 23619 23622 23625 23628 23630 23633 23636 23639 23642 23645 23648 23651 23653 23656 23659 23662 23665 23668 23671 23673 23676 23679 23682 23685 23688 23691 23693 23696 23699 23702 23705 23708 23711 23714 23717 23720 23723 23726 23729 23732 23735 23738 23740 23743 23746 23749 23751 23754 23757 23760 23763 23766 23769 23772 23775 23778 23781 23783 23785 23788 23791 23794 23797 23800 23803 23806 23809 23812 23815 23818 23821 23823 23826 23829 23832 23835 23838 23841 23844 23847 23850 23853 23856 23859 23862 23865 23868 23871 23874 23877 23879 23882 23885 23888 23890 23892 23895 23897 23900 23903 23906 23909 23912 23915 23918 23920 23922 23925 23927 23930 23933 23936 23939 23942 23945 23947 23950 23952 23955 23958 23961 23964 23967 23970 23973 23976 23978 23981 23984 23987 23990 23993 23996 23998 24001 24004 24007 24010 24013 24016 24019 24022 24025 24028 24031 24034 24037 24040 24043 24045 24048 24051 24054 24056 24059 24062 24065 24068 24071 24073 24076 24079 24082 24085 24088 24091 24093 24096 24099 24102 24104 24107 24110 24112 24115 24118 24121 24123 24126 24129 24132 24135 24138 24141 24144 24147 24150 24153 24156 24159 24162 24165 24168 24171 24174 24177 24180 24183 24186 24189 24192 24194 24197 24200 24202 24205 24207 24209 24212 24215 24217 24219 24222 24225 24227 24230 24233 24236 24239 24242 24245 24247 24250 24253 24256 24259 24261 24264 24267 24269 24272 24275 24277 24280 24282 24284 24287 24290 24293 24295 24297 24300 24303 24306 24309 24311 24313 24316 24319 24322 24325 24328 24330 24333 24336 24339 24342 24345 24348 24351 24354 24357 24360 24363 24366 24369 24372 24375 24378 24381 24384 24387 24390 24393 24396 24399 24402 24405 24408 24411 24414 24417 24420 24423 24426 24429 24432 24435 24438 24441 24444 24447 24450 24453 24456 24459 24462 24465 24468 24471 24474 24477 24480 24483 24486 24489 24491 24494 24497 24500 24503 24506 24508 24511 24514 24517 24520 24523 24526 24529 24532 24535 24538 24541 24544 24547 24550 24553 24555 24558 24561 24563 24565 24568 24571 24574 24576 24579 24582 24584 24587 24590 24593 24596 24599 24602 24605 24608 24610 24613 24616 24619 24622 24625 24628 24631 24634 24637 24640 24643 24646 24649 24651 24654 24657 24660 24663 24666 24669 24672 24675 24678 24680 24683 24686 24689 24691 24694 24697 24700 24703 24706 24709 24712 24715 24717 24720 24723 24726 24729 24732 24735 24738 24741 24744 24747 24750 24753 24756 24759 24762 24765 24768 24771 24774 24777 24780 24783 24786 24789 24792 24795 24798 24801 24804 24807 24810 24813 24816 24819 24821 24824 24827 24830 24833 24836 24838 24841 24844 24847 24850 24853 24856 24859 24862 24865 24868 24871 24874 24877 24880 24883 24886 24889 24892 24895 24898 24901 24904 24907 24910 24913 24916 24919 24922 24925 24928 24931 24934 24937 24940 24943 24946 24949 24952 24955 24958 24961 24963 24966 24969 24972 24974 24977 24980 24983 24986 24989 24992 24995 24998 25001 25004 25007 25010 25013 25016 25019 25022 25025 25028 25031 25034 25037 25040 25043 25046 25049 25052 25055 25058 25061 25064 25067 25070 25072 25075 25078 25081 25084 25087 25090 25093 25095 25098 25101 25104 25107 25110 25113 25116 25119 25122 25125 25128 25131 25133 25136 25138 25141 25144 25147 25150 25153 25156 25159 25162 25165 25168 25171 25174 25177 25180 25183 25186 25189 25192 25195 25198 25200 25203 25206 25209 25211 25214 25217 25220 25222 25224 25227 25230 25232 25235 25238 25241 25244 25246 25249 25252 25255 25258 25261 25264 25267 25270 25273 25276 25279 25282 25285 25288 25291 25294 25297 25300 25303 25306 25309 25312 25315 25318 25321 25324 25327 25330 25333 25336 25339 25342 25345 25348 25351 25353 25356 25359 25362 25365 25368 25371 25374 25377 25380 25383 25386 25389 25392 25395 25397 25400 25403 25406 25409 25412 25415 25418 25421 25424 25427 25430 25433 25436 25439 25442 25445 25448 25451 25454 25457 25460 25463 25466 25469 25472 25475 25478 25481 25484 25487 25490 25493 25496 25499 25502 25504 25507 25510 25513 25516 25519 25522 25525 25528 25531 25534 25537 25540 25543 25546 25548 25551 25554 25557 25560 25563 25566 25569 25571 25574 25577 25580 25582 25585 25588 25591 25594 25597 25600 25603 25605 25608 25611 25614 25617 25620 25622 25625 25628 25631 25634 25637 25640 25643 25646 25649 25652 25655 25658 25661 25664 25667 25670 25673 25676 25679 25682 25685 25688 25690 25693 25696 25699 25702 25705 25708 25711 25714 25717 25720 25723 25726 25729 25732 25735 25738 25741 25744 25746 25749 25752 25754 25757 25760 25763 25766 25769 25772 25774 25777 25780 25783 25785 25788 25791 25794 25797 25800 25803 25806 25809 25812 25815 25818 25821 25824 25826 25829 25832 25835 25837 25840 25843 25845 25848 25851 25853 25856 25859 25861 25864 25866 25869 25872 25875 25878 25881 25884 25887 25890 25893 25896 25899 25901 25903 25906 25909 25912 25915 25918 25921 25923 25926 25928 25931 25934 25937 25939 25942 25944 25947 25950 25953 25956 25959 25962 25965 25967 25970 25973 25976 25978 25981 25984 25987 25990 25992 25995 25998 26001 26004 26007 26009 26012 26015 26017 26020 26023 26026 26029 26032 26035 26038 26041 26044 26047 26050 26053 26056 26059 26062 26064 26067 26070 26073 26076 26079 26082 26085 26087 26090 26093 26096 26099 26102 26105 26108 26111 26114 26117 26120 26123 26126 26129 26131 26134 26137 26140 26143 26146 26149 26152 26155 26157 26160 26162 26165 26168 26171 26174 26177 26180 26183 26186 26189 26192 26195 26198 26201 26204 26207 26209 26212 26215 26218 26221 26224 26227 26230 26233 26236 26239 26242 26245 26248 26251 26254 26257 26260 26263 26266 26269 26272 26275 26278 26281 26284 26287 26290 26293 26295 26298 26301 26304 26307 26310 26313 26316 26319 26322 26325 26328 26331 26334 26337 26340 26343 26346 26349 26352 26355 26358 26361 26364 26367 26370 26373 26376 26379 26382 26384 26387 26390 26393 26396 26399 26402 26405 26408 26411 26414 26417 26420 26423 26426 26429 26432 26435 26438 26441 26444 26447 26450 26453 26456 26459 26462 26465 26468 26471 26474 26477 26480 26483 26485 26488 26491 26494 26497 26500 26503 26506 26509 26512 26515 26518 26521 26524 26527 26530 26533 26536 26539 26541 26544 26547 26550 26553 26556 26559 26562 26565 26568 26571 26574 26577 26580 26582 26585 26588 26591 26594 26596 26599 26602 26605 26607 26610 26613 26616 26619 26622 26625 26628 26631 26634 26637 26640 26643 26646 26649 26651 26654 26657 26660 26663 26666 26669 26672 26675 26677 26680 26683 26686 26689 26691 26694 26697 26700 26702 26705 26708 26711 26714 26717 26720 26723 26726 26729 26732 26734 26737 26740 26743 26746 26749 26752 26755 26758 26761 26764 26767 26770 26773 26776 26778 26781 26784 26787 26790 26793 26796 26799 26801 26803 26806 26809 26812 26814 26817 26820 26823 26826 26829 26831 26834 26837 26840 26843 26846 26848 26851 26854 26857 26860 26863 26866 26869 26872 26875 26878 26881 26884 26887 26890 26893 26896 26899 26902 26905 26908 26911 26914 26917 26920 26923 26926 26929 26932 26935 26937 26940 26943 26946 26948 26951 26954 26957 26960 26963 26966 26968 26971 26974 26977 26980 26983 26986 26989 26992 26995 26998 27001 27004 27007 27010 27013 27016 27019 27022 27025 27028 27031 27034 27037 27040 27043 27046 27049 27052 27055 27058 27061 27064 27067 27070 27073 27076 27079 27081 27084 27087 27090 27093 27095 27098 27101 27104 27107 27110 27113 27116 27119 27122 27125 27128 27131 27134 27137 27140 27143 27146 27149 27152 27155 27158 27161 27164 27167 27170 27173 27176 27179 27182 27185 27188 27191 27194 27197 27200 27203 27206 27209 27212 27215 27218 27220 27223 27226 27229 27231 27234 27237 27240 27243 27246 27249 27252 27254 27257 27260 27263 27266 27269 27272 27274 27277 27280 27283 27286 27289 27291 27294 27297 27300 27302 27305 27308 27311 27314 27317 27320 27323 27326 27329 27332 27335 27338 27341 27344 27346 27349 27352 27355 27358 27360 27363 27366 27369 27372 27375 27377 27380 27383 27386 27389 27392 27395 27398 27401 27404 27407 27410 27413 27416 27419 27422 27425 27428 27431 27434 27437 27440 27442 27445 27448 27451 27454 27457 27460 27463 27466 27469 27472 27475 27478 27481 27483 27486 27489 27491 27494 27496 27499 27502 27505 27508 27511 27513 27516 27519 27522 27525 27528 27531 27534 27537 27540 27543 27546 27549 27552 27555 27558 27561 27564 27567 27570 27573 27576 27579 27582 27585 27588 27591 27594 27597 27600 27603 27605 27608 27611 27614 27617 27620 27623 27626 27629 27632 27635 27638 27640 27643 27646 27649 27652 27655 27658 27661 27664 27667 27670 27673 27676 27679 27682 27685 27688 27691 27694 27697 27700 27703 27705 27708 27711 27714 27717 27720 27723 27726 27729 27732 27735 27738 27741 27744 27746 27749 27752 27755 27758 27761 27764 27767 27770 27772 27775 27778 27781 27784 27787 27789 27792 27794 27797 27800 27803 27806 27809 27812 27814 27816 27819 27822 27825 27828 27831 27834 27837 27840 27843 27846 27849 27851 27854 27856 27859 27862 27864 27867 27870 27873 27876 27879 27882 27885 27888 27891 27894 27897 27899 27902 27905 27907 27910 27913 27916 27918 27921 27924 27927 27930 27933 27936 27939 27942 27945 27948 27951 27954 27957 27960 27963 27966 27969 27972 27975 27978 27981 27984 27987 27990 27993 27996 27999 28002 28005 28008 28010 28013 28016 28019 28022 28025 28028 28031 28034 28037 28040 28043 28046 28049 28052 28055 28058 28061 28064 28067 28070 28073 28075 28078 28081 28084 28087 28090 28093 28096 28099 28102 28104 28107 28110 28113 28116 28119 28121 28124 28127 28130 28133 28136 28139 28142 28145 28148 28151 28154 28157 28160 28162 28165 28168 28171 28174 28177 28180 28183 28186 28189 28192 28195 28198 28201 28203 28205 28208 28211 28214 28217 28220 28223 28226 28229 28232 28235 28238 28241 28244 28247 28249 28252 28255 28258 28261 28264 28267 28269 28272 28275 28277 28280 28283 28286 28289 28291 28294 28297 28300 28303 28306 28309 28312 28315 28317 28320 28323 28326 28329 28332 28335 28338 28341 28343 28346 28348 28351 28354 28356 28359 28362 28365 28368 28371 28374 28377 28380 28383 28386 28389 28391 28394 28397 28400 28403 28406 28409 28412 28415 28417 28420 28423 28425 28428 28430 28433 28436 28439 28442 28445 28448 28451 28454 28457 28459 28461 28464 28467 28469 28472 28475 28478 28481 28484 28487 28490 28493 28496 28499 28502 28504 28507 28510 28513 28516 28519 28522 28524 28527 28530 28533 28536 28539 28542 28545 28548 28551 28554 28557 28559 28562 28564 28567 28569 28572 28575 28578 28581 28584 28587 28590 28593 28596 28599 28602 28605 28608 28611 28614 28617 28620 28623 28626 28629 28632 28634 28637 28640 28642 28645 28648 28651 28653 28656 28659 28662 28665 28668 28671 28673 28676 28679 28682 28685 28688 28691 28694 28696 28699 28701 28704 28707 28710 28713 28716 28719 28722 28725 28728 28731 28734 28736 28739 28742 28745 28748 28751 28754 28757 28759 28762 28765 28768 28771 28774 28777 28780 28783 28786 28789 28792 28795 28798 28800 28803 28806 28809 28812 28814 28817 28820 28823 28826 28829 28832 28835 28837 28840 28843 28845 28848 28851 28853 28856 28858 28861 28864 28867 28870 28873 28876 28879 28882 28885 28888 28891 28894 28897 28900 28903 28906 28908 28911 28914 28917 28920 28923 28926 28929 28931 28934 28936 28938 28940 28943 28946 28949 28951 28954 28957 28959 28961 28963 28966 28969 28972 28975 28978 28981 28984 28987 28990 28993 28996 28999 29002 29005 29008 29011 29014 29017 29020 29023 29026 29029 29032 29035 29038 29041 29044 29047 29050 29053 29056 29058 29061 29064 29067 29070 29073 29076 29079 29082 29085 29088 29091 29094 29097 29100 29103 29106 29109 29112 29115 29118 29121 29124 29126 29129 29132 29135 29138 29141 29143 29146 29149 29152 29155 29157 29160 29163 29166 29169 29172 29175 29177 29180 29183 29185 29188 29191 29194 29197 29200 29202 29205 29208 29211 29214 29217 29220 29223 29226 29229 29232 29235 29238 29240 29243 29246 29249 29252 29254 29257 29260 29263 29265 29267 29270 29273 29276 29278 29281 29284 29287 29290 29293 29296 29299 29302 29305 29308 29311 29314 29317 29320 29323 29326 29329 29332 29335 29338 29340 29343 29345 29348 29351 29354 29357 29360 29363 29365 29368 29371 29373 29375 29378 29381 29384 29387 29389 29392 29395 29398 29401 29404 29406 29409 29411 29414 29417 29420 29423 29426 29429 29432 29435 29437 29440 29443 29446 29449 29452 29455 29458 29461 29464 29467 29470 29473 29476 29479 29482 29485 29488 29491 29494 29497 29500 29503 29506 29509 29512 29514 29517 29520 29523 29525 29528 29531 29534 29537 29540 29543 29546 29549 29552 29554 29556 29558 29561 29564 29566 29569 29572 29574 29577 29580 29583 29586 29588 29591 29593 29596 29599 29602 29605 29608 29611 29614 29617 29619 29622 29625 29628 29631 29634 29637 29639 29642 29645 29648 29651 29654 29657 29660 29663 29666 29669 29672 29674 29677 29680 29683 29685 29688 29691 29693 29695 29698 29700 29703 29706 29709 29712 29714 29717 29720 29723 29726 29729 29731 29734 29737 29740 29743 29746 29749 29752 29755 29757 29760 29763 29765 29768 29771 29773 29776 29779 29781 29784 29787 29790 29793 29796 29799 29802 29805 29808 29811 29814 29816 29818 29821 29824 29826 29829 29832 29835 29837 29840 29843 29846 29849 29852 29855 29858 29860 29863 29866 29869 29872 29875 29877 29880 29883 29886 29889 29892 29895 29898 29901 29903 29906 29909 29912 29914 29916 29919 29921 29924 29927 29930 29933 29936 29938 29941 29944 29946 29949 29951 29954 29957 29960 29962 29965 29968 29970 29973 29976 29979 29982 29985 29988 29991 29994 29997 30000 30003 30005 30008 30011 30014 30017 30020 30023 30026 30029 30032 30035 30038 30041 30043 30046 30048 30051 30054 30057 30060 30062 30065 30068 30070 30073 30076 30079 30082 30084 30087 30090 30093 30095 30098 30101 30104 30107 30110 30112 30115 30117 30120 30123 30126 30128 30131 30134 30137 30139 30142 30145 30147 30149 30151 30154 30157 30160 30163 30165 30168 30171 30174 30177 30179 30182 30185 30188 30190 30193 30196 30199 30202 30205 30208 30211 30214 30217 30220 30223 30226 30229 30232 30234 30237 30239 30242 30244 30247 30250 30253 30256 30258 30260 30263 30266 30268 30271 30273 30276 30279 30281 30284 30287 30290 30292 30294 30297 30299 30302 30305 30307 30310 30313 30315 30317 30320 30322 30325 30328 30331 30334 30337 30340 30342 30344 30346 30349 30352 30355 30357 30360 30363 30365 30368 30370 30372 30374 30377 30380 30382 30385 30388 30391 30394 30397 30399 30402 30405 30407 30410 30412 30415 30418 30420 30423 30425 30428 30430 30433 30436 30439 30442 30445 30448 30451 30454 30456 30459 30462 30465 30468 30471 30474 30477 30479 30482 30485 30487 30490 30493 30496 30499 30502 30504 30507 30510 30512 30514 30517 30519 30521 30524 30526 30528 30531 30534 30536 30539 30542 30544 30547 30550 30552 30554 30557 30560 30562 30565 30568 30571 30574 30577 30580 30582 30585 30588 30591 30594 30597 30600 30602 30605 30608 30611 30614 30616 30618 30621 30624 30627 30629 30632 30635 30638 30641 30644 30647 30650 30653 30656 30659 30662 30665 30668 30671 30674 30677 30680 30683 30686 30689 30692 30695 30698 30701 30704 30706 30709 30712 30715 30718 30721 30724 30727 30730 30733 30736 30739 30742 30745 30748 30751 30754 30757 30760 30763 30766 30769 30771 30774 30777 30780 30783 30786 30789 30792 30795 30798 30801 30804 30807 30810 30813 30816 30819 30822 30825 30828 30831 30834 30837 30840 30843 30846 30849 30852 30855 30858 30861 30864 30867 30870 30873 30876 30879 30882 30885 30888 30891 30894 30897 30900 30903 30906 30909 30912 30915 30917 30920 30923 30926 30929 30932 30935 30938 30941 30944 30947 30950 30953 30956 30959 30962 30964 30967 30970 30973 30976 30979 30982 30985 30988 30991 30994 30997 31000 31003 31006 31009 31012 31015 31018 31021 31024 31027 31029 31032 31035 31038 31041 31044 31047 31050 31052 31055 31058 31061 31064 31067 31070 31073 31076 31079 31082 31085 31088 31091 31094 31097 31100 31103 31106 31109 31112 31115 31118 31121 31123 31126 31129 31132 31134 31137 31140 31143 31146 31149 31152 31154 31157 31160 31163 31166 31169 31172 31175 31178 31180 31183 31186 31189 31191 31194 31197 31199 31202 31205 31208 31211 31214 31217 31220 31222 31224 31227 31230 31233 31236 31239 31242 31245 31247 31250 31253 31255 31258 31261 31264 31267 31270 31273 31275 31278 31280 31283 31286 31289 
</DataArray>
<DataArray type="UInt32" Name="types" format="ascii">
5 5 5 5 5 5 5 5 5 3 5 5 5 5 5 3 3 5 5 5 3 5 5 5 5 3 5 5 5 3 3 5 5 5 5 5 5 5 5 3 5 3 5 3 5 5 3 5 5 3 5 5 3 5 5 5 5 3 5 3 5 3 3 5 5 5 3 3 5 5 5 5 5 3 3 5 5 5 3 3 5 5 3 3 5 5 3 5 5 3 3 5 5 5 5 5 5 5 5 5 5 5 5 5 5 3 5 5 5 5 5 5 5 5 5 5 5 5 5 5 5 5 5 5 5 5 5 5 5 5 3 5 5 5 5 5 5 5 5 5 5 5 5 5 3 3 5 3 5 3 5 3 5 3 5 5 3 5 5 5 5 3 5 5 5 3 5 5 3 5 5 5 5 5 5 5 3 5 5 5 5 5 5 3 5 5 5 5 5 5 5 5 5 3 5 5 5 5 3 3 5 5 5 5 5 5 5 5 5 5 5 5 5 5 5 3 5 5 5 5 3 5 5 3 5 5 5 3 5 5 3 5 5 3 5 5 5 3 5 5 5 5 5 5 5 5 5 5 5 3 5 5 5 5 5 5 5 5 5 5 5 5 5 5 5 5 3 5 5 5 5 5 5 5 5 5 5 5 5 5 5 5 3 5 5 5 5 5 5 3 5 5 5 5 5 5 5 5 3 5 5 5 3 5 5 5 5 3 5 5 5 5 5 5 3 5 5 3 5 5 5 5 5 5 5 5 5 3 5 5 3 5 5 3 3 5 3 5 5 5 5 5 5 5 5 5 5 5 5 5 5 5 5 3 5 3 5 5 3 5 3 5 5 5 3 5 5 5 5 5 5 5 5 5 5 5 5 3 5 5 5 5 5 5 5 5 5 5 5 5 5 5 5 5 5 5 5 5 5 5 5 5 5 5 5 3 5 5 5 3 5 3 5 3 5 3 5 5 5 3 5 3 5 5 5 5 5 5 5 5 5 3 5 3 5 5 5 5 5 5 5 5 5 3 3 5 5 5 5 5 5 5 3 5 5 5 5 5 5 3 5 5 3 3 5 5 5 5 5 5 3 5 5 5 5 5 5 5 3 5 5 3 3 5 5 3 5 5 3 5 5 3 5 5 3 3 5 5 5 3 5 5 5 5 3 5 5 5 5 5 5 3 5 5 5 5 5 5 5 5 3 5 5 5 5 5 5 3 5 5 5 5 5 5 5 5 5 5 5 3 5 5 5 3 5 5 5 5 3 5 5 5 5 5 3 5 5 5 5 5 5 5 5 3 5 3 5 3 5 5 5 5 5 5 5 5 5 5 3 5 5 5 5 5 3 5 5 5 5 5 5 5 5 3 5 5 5 5 3 5 5 5 5 5 5 5 3 5 5 5 5 5 5 5 5 5 5 5 5 5 5 3 5 5 3 5 5 5 5 5 5 5 5 5 5 5 5 5 5 5 5 5 5 5 5 3 5 5 5 3 5 5 5 5 5 5 5 5 5 5 5 5 5 5 5 5 5 5 5 5 5 5 5 5 5 5 5 5 5 5 5 5 5 5 5 5 5 5 5 5 5 5 5 5 5 5 5 5 5 5 5 5 5 5 5 5 5 5 5 5 5 5 5 5 5 5 5 5 5 5 5 5 5 5 5 5 5 5 5 5 5 5 5 5 5 5 5 5 5 5 5 3 5 5 3 5 5 5 5 5 3 3 5 5 5 5 5 3 5 5 3 3 5 5 5 5 5 5 5 5 5 5 3 5 5 5 5 3 5 5 5 5 5 5 5 5 5 5 5 5 5 5 5 5 5 5 5 5 5 5 5 5 5 5 5 5 5 5 5 5 5 5 5 5 5 5 5 5 5 5 5 5 5 5 5 3 5 5 5 5 5 5 5 5 5 5 5 5 5 5 5 5 5 5 5 5 5 5 5 5 5 5 5 5 5 5 5 5 5 5 5 5 5 5 5 5 5 5 5 5 5 5 5 5 5 5 5 5 5 5 5 5 5 5 5 5 5 5 5 5 5 5 5 5 5 5 5 5 5 5 5 5 5 5 5 5 5 5 5 5 5 3 5 5 5 5 5 5 5 5 5 5 5 3 5 3 5 5 5 5 5 5 5 5 5 5 5 5 5 5 5 5 5 5 5 5 5 5 5 5 5 5 5 3 5 5 5 5 5 5 5 5 5 5 3 5 5 5 5 5 5 5 5 3 5 5 5 5 5 5 3 5 3 5 3 5 5 3 5 5 5 5 5 5 5 3 5 5 3 3 5 5 5 5 5 5 3 5 5 5 5 5 5 5 5 5 3 5 5 5 5 5 5 5 5 5 5 5 5 5 5 5 5 5 5 5 5 3 5 5 3 5 5 5 5 5 5 5 5 5 5 5 5 5 5 5 5 5 5 5 5 3 5 3 5 5 5 5 5 5 5 5 5 5 3 5 5 3 5 5 5 5 5 3 5 5 5 5 5 3 5 5 5 5 3 5 5 5 5 5 5 3 5 5 5 3 5 5 5 3 5 5 5 5 3 5 5 5 5 5 3 5 5 3 5 5 3 5 5 5 5 5 5 5 5 5 5 5 5 5 5 5 3 5 5 5 5 3 5 5 5 5 5 5 5 5 5 5 5 5 5 5 3 5 5 5 5 5 5 5 5 5 5 5 5 3 5 5 5 5 5 5 5 3 5 5 5 5 5 5 5 5 5 3 5 5 5 5 5 5 5 5 5 5 3 5 3 5 5 3 5 5 5 5 5 3 5 3 5 5 5 5 3 5 5 5 3 3 5 5 3 5 5 5 5 5 5 5 5 5 5 5 5 5 5 3 5 5 5 5 5 5 5 3 3 5 3 3 5 3 5 5 5 5 5 5 5 5 5 3 5 5 5 5 5 5 5 5 5 5 5 5 5 5 5 5 3 5 5 3 5 3 5 5 5 5 5 5 5 5 5 5 5 5 3 5 5 5 5 5 5 5 3 5 3 5 5 5 3 5 5 5 5 5 5 5 5 5 5 5 5 5 5 5 5 5 3 5 5 5 5 5 5 5 3 5 5 5 5 5 5 3 5 5 5 3 5 3 5 5 5 3 5 5 3 5 5 5 3 5 5 5 3 5 3 5 5 5 3 5 5 5 5 3 5 5 5 5 5 5 5 5 5 5 5 5 5 5 5 5 5 5 5 5 5 5 5 5 5 5 5 3 5 5 5 5 5 5 5 3 5 5 5 5 5 5 5 5 5 5 5 5 5 3 5 5 5 5 5 5 3 5 5 5 5 5 5 5 5 3 5 5 5 5 5 3 5 5 5 5 5 3 5 5 5 5 3 5 5 5 5 5 5 5 5 5 5 5 5 5 5 5 5 5 5 5 5 5 5 5 5 5 5 5 5 5 5 5 5 5 5 5 3 3 5 5 5 5 5 5 5 5 3 5 5 5 5 5 5 5 5 5 5 5 3 5 5 5 3 5 5 5 3 5 5 5 5 5 3 5 5 5 5 5 5 5 5 5 3 5 5 5 5 5 5 5 5 5 5 5 5 5 5 3 5 5 3 5 5 5 5 5 5 5 5 5 5 5 5 5 5 5 5 5 5 5 5 5 5 5 5 5 5 5 5 5 5 5 5 5 5 5 5 5 3 5 5 3 5 5 5 5 5 5 5 5 5 3 5 5 3 5 5 5 3 3 3 5 5 5 5 5 5 5 5 5 5 3 5 5 5 5 5 5 5 5 5 5 5 5 5 5 5 5 5 5 3 5 5 5 5 5 5 5 5 3 5 5 5 5 3 5 5 5 5 5 5 3 5 5 5 5 5 5 5 5 5 3 5 5 5 5 5 5 5 5 5 5 5 5 5 3 5 5 3 5 3 3 5 5 5 5 5 5 5 3 5 5 5 5 5 5 5 3 5 5 5 5 5 5 3 3 5 5 3 5 3 5 5 5 5 3 5 5 3 5 3 5 5 5 3 5 5 3 3 5 5 5 3 5 5 5 5 5 5 5 5 3 5 5 5 5 5 5 5 5 5 5 5 5 3 5 3 5 5 5 5 3 5 5 3 5 5 5 5 5 5 5 3 5 5 5 5 3 5 5 3 5 5 3 5 5 5 3 5 5 5 3 5 5 5 5 5 5 5 3 5 5 5 5 5 3 5 5 5 5 5 3 5 5 3 5 3 5 5 5 5 5 5 5 5 5 5 3 5 5 3 5 5 5 5 5 5 5 5 5 5 5 3 3 5 5 5 5 5 5 3 5 5 5 3 5 5 3 5 5 3 5 5 5 5 5 5 5 5 5 5 5 3 5 5 5 5 5 5 5 5 3 5 5 5 5 5 3 5 3 5 5 5 3 5 3 5 5 3 5 5 5 5 5 5 3 5 5 5 5 5 5 5 3 3 5 5 5 5 5 5 5 5 5 5 5 5 5 5 5 3 5 5 5 3 5 5 5 5 5 5 5 5 5 5 5 5 5 5 5 3 5 5 3 5 5 5 5 5 5 5 5 5 5 3 5 5 5 3 5 5 5 5 5 5 5 5 5 5 5 5 5 5 3 5 5 5 3 5 5 5 5 5 5 5 5 3 5 5 5 5 5 5 5 5 5 5 5 5 5 5 5 5 5 5 3 5 5 5 5 5 5 3 5 5 5 5 5 5 5 5 5 5 3 3 5 5 5 3 5 3 5 5 5 5 5 5 5 5 5 5 5 5 5 5 5 5 5 5 3 5 5 5 5 5 5 3 5 5 5 5 5 5 3 5 5 5 5 5 5 5 5 5 5 5 5 5 5 5 5 5 5 5 5 3 5 5 5 5 5 5 5 5 5 5 5 5 5 5 5 5 5 5 5 5 5 5 5 5 5 5 5 5 5 5 5 5 5 5 5 5 5 5 5 5 5 5 5 5 5 5 5 5 5 3 5 3 5 5 5 5 5 5 5 5 5 3 5 5 5 5 3 3 5 5 5 5 5 5 3 5 5 5 5 5 5 3 5 5 5 5 5 5 3 5 5 5 5 5 5 3 5 5 5 5 5 3 3 5 3 5 3 3 5 5 5 5 5 5 3 5 5 5 5 3 5 5 3 5 5 3 5 5 5 5 5 5 5 5 5 5 5 5 5 5 3 3 5 3 5 5 5 5 5 5 5 3 5 5 5 5 5 5 5 5 5 5 5 5 5 5 5 5 5 5 5 5 5 5 5 5 5 5 5 5 5 5 5 3 5 5 5 3 5 5 5 3 5 5 5 5 5 5 5 5 5 5 5 5 5 5 5 5 5 5 5 5 5 5 5 5 5 5 5 5 5 5 5 3 5 5 5 5 5 5 5 5 5 3 5 5 5 3 5 5 5 5 5 5 5 5 5 3 3 5 5 5 5 5 5 5 5 5 5 5 5 5 5 5 3 5 5 5 5 5 5 5 5 5 5 5 5 5 5 5 5 5 5 5 5 5 5 5 5 5 5 5 5 5 5 5 5 5 5 5 5 5 5 3 5 5 3 5 5 3 5 5 5 5 3 5 5 5 5 5 5 5 5 5 5 5 5 3 5 5 5 5 5 5 5 5 5 5 5 5 5 5 5 5 3 5 5 5 5 5 5 5 5 5 5 5 5 3 5 5 5 5 5 3 5 5 3 5 5 5 5 5 3 5 3 3 5 5 5 5 5 3 5 5 5 5 5 5 5 5 3 5 5 5 5 5 5 5 5 5 5 5 5 5 5 5 5 5 5 5 5 5 3 3 5 5 5 5 5 5 5 5 5 3 5 5 5 5 5 5 5 5 5 3 5 5 5 5 5 5 5 5 5 5 5 3 5 5 5 5 5 5 5 5 5 3 3 5 5 5 5 5 5 3 5 5 5 5 3 5 5 5 5 3 5 3 5 5 5 5 5 3 3 5 3 5 5 5 5 3 5 5 5 5 5 5 5 5 5 5 5 5 5 5 5 3 5 5 5 5 5 5 3 5 5 5 3 5 5 5 5 5 5 5 5 5 5 5 5 3 5 5 5 5 5 5 3 5 5 5 3 5 3 5 3 5 5 5 5 5 5 5 3 5 5 5 5 5 3 5 5 5 5 5 5 5 5 3 5 5 3 5 5 5 3 3 3 5 5 3 5 5 5 5 5 3 5 5 3 5 3 5 5 5 3 3 5 5 5 5 5 5 5 5 5 5 5 5 5 5 5 3 5 5 3 5 5 5 5 5 5 5 5 5 5 5 5 3 5 5 5 5 5 3 5 5 5 5 5 5 5 5 3 5 5 5 5 5 5 5 5 5 5 5 5 3 5 5 3 5 5 5 5 5 5 5 5 5 5 5 5 5 5 5 5 5 5 5 5 5 3 5 3 5 5 3 3 5 5 5 5 5 3 5 3 5 5 3 3 3 3 5 5 5 5 5 5 5 5 3 5 5 5 3 3 5 5 5 5 3 5 5 5 5 5 5 5 5 5 5 5 5 5 5 3 5 5 5 3 5 5 5 3 5 3 5 5 5 3 5 5 3 5 5 5 5 5 5 5 5 5 5 5 5 5 5 3 5 3 5 5 5 5 5 5 5 5 5 3 3 5 3 5 5 3 5 5 5 3 5 5 3 3 5 5 3 5 5 5 5 5 3 5 5 5 5 5 5 5 5 5 5 5 5 5 5 5 5 5 5 5 5 5 5 5 5 5 5 5 5 5 5 5 5 5 3 5 5 3 5 5 5 5 5 5 5 5 5 5 5 3 5 5 5 5 5 3 5 5 3 5 5 5 3 5 5 5 5 3 5 5 5 5 5 5 5 3 5 5 5 5 5 5 5 5 5 5 3 5 3 5 5 3 5 5 3 5 5 5 5 3 5 3 5 5 5 5 5 5 3 5 5 5 5 5 3 5 5 3 5 3 5 5 5 3 3 3 5 5 5 3 5 5 5 3 5 5 5 5 3 5 5 5 5 5 5 5 5 3 5 5 5 5 5 3 5 5 5 5 5 5 5 5 3 5 5 3 3 5 5 5 5 5 5 3 5 3 3 5 5 5 5 5 5 3 5 5 5 5 5 5 5 5 5 5 3 5 5 5 5 5 5 3 5 5 3 5 5 5 5 5 5 5 5 5 5 5 5 5 5 5 5 3 5 5 5 5 5 5 5 5 5 5 5 5 3 5 5 5 5 5 5 5 5 5 5 5 5 5 5 5 5 5 5 5 5 5 5 5 5 5 5 5 5 5 5 5 5 3 3 5 5 5 5 5 5 3 5 5 5 5 5 5 3 5 5 5 5 5 5 5 5 5 3 5 5 5 3 5 3 5 5 5 3 5 5 5 5 5 5 3 5 5 5 5 5 5 5 5 5 5 5 5 3 5 5 5 5 5 5 3 5 5 5 3 5 3 5 5 5 5 5 5 5 5 5 5 5 5 5 5 5 3 5 5 5 5 5 3 5 5 5 5 5 5 5 5 5 5 5 3 3 5 3 5 5 5 3 5 5 5 5 5 5 5 5 5 3 3 3 5 5 5 5 5 5 5 3 5 5 3 5 5 3 5 5 5 3 5 5 5 3 5 5 5 5 5 5 5 5 5 5 5 5 5 5 5 5 5 5 5 5 5 5 5 3 5 5 5 5 5 5 3 5 5 5 5 5 5 5 3 5 5 5 5 5 5 5 5 5 5 5 5 5 3 5 5 5 5 5 5 5 3 5 5 5 5 5 5 5 5 5 3 5 5 5 5 3 5 5 5 5 5 5 5 5 5 5 5 3 3 5 5 5 5 5 3 5 3 5 5 5 3 5 5 5 3 5 5 5 5 3 5 5 3 5 3 5 3 5 5 5 3 5 5 3 5 5 5 5 5 3 5 5 3 3 5 5 5 3 5 5 3 5 3 5 5 5 3 5 5 5 3 5 5 3 3 5 5 5 5 5 5 5 5 5 5 3 5 5 5 5 5 5 5 3 5 5 5 5 5 5 5 3 5 5 5 5 5 5 5 5 5 5 5 5 5 5 5 5 3 5 5 5 5 5 5 3 5 5 3 5 5 5 5 5 5 5 5 5 5 5 5 5 5 5 5 3 5 5 3 5 5 5 5 5 5 3 5 5 3 5 5 5 5 5 5 5 5 5 5 5 3 5 5 5 5 3 5 5 3 5 3 5 5 5 5 5 5 5 5 3 5 5 5 5 5 5 5 5 3 5 5 5 5 5 3 5 5 5 5 5 5 5 5 5 5 5 5 5 5 5 5 5 5 3 5 5 5 5 5 5 5 5 5 3 5 5 5 5 5 5 5 5 5 5 5 5 5 5 5 5 5 5 5 5 5 3 5 5 5 5 5 5 5 5 5 5 5 3 5 5 5 5 3 3 5 5 5 5 3 3 5 3 3 5 3 5 5 5 3 3 3 5 3 5 5 5 5 5 3 5 5 3 5 3 5 5 3 5 5 5 5 5 5 5 5 5 5 5 5 5 5 3 5 5 5 5 5 5 5 5 5 5 5 5 5 5 5 5 5 5 5 5 5 3 5 5 5 5 5 3 5 5 3 5 5 5 5 5 5 5 5 5 5 3 5 5 3 5 3 5 5 5 3 5 3 5 5 5 3 5 5 3 5 5 5 5 5 5 5 5 5 5 5 5 5 5 3 5 3 5 5 3 5 5 5 5 5 5 5 5 5 5 5 5 5 5 5 5 5 3 3 5 5 5 5 5 5 5 5 5 5 5 5 5 5 5 5 3 5 5 5 5 5 5 5 5 5 5 5 5 5 5 5 5 3 3 5 5 5 5 5 5 5 5 5 5 5 5 5 3 5 5 5 5 5 5 5 5 5 5 5 5 5 5 5 3 3 5 5 5 5 5 5 5 5 5 5 5 5 5 5 5 5 5 5 5 5 5 5 5 5 5 5 5 5 3 3 5 5 5 5 5 3 5 5 5 5 5 5 5 3 5 5 5 5 5 3 3 5 5 5 5 5 3 5 5 5 5 5 5 5 3 5 5 3 5 5 5 5 5 5 5 5 5 5 5 5 5 5 5 3 5 5 5 5 5 5 5 5 5 5 5 5 5 5 5 5 5 5 5 3 5 5 5 5 3 5 3 5 5 5 5 5 5 5 5 5 5 5 5 5 5 5 5 5 5 5 5 5 3 5 5 5 5 5 5 5 5 3 5 3 3 5 5 5 5 5 5 5 3 5 5 5 3 5 5 3 5 5 5 5 5 3 5 5 5 3 5 5 3 5 5 5 3 5 5 5 5 5 5 5 3 5 5 5 5 5 5 5 5 5 5 5 5 5 3 5 3 5 5 5 5 5 3 5 5 3 5 5 5 5 3 5 5 5 5 5 5 5 5 5 5 5 5 5 5 5 5 5 5 5 5 5 5 5 5 5 5 5 3 5 5 5 3 5 5 5 5 5 5 5 5 5 5 5 5 5 5 5 5 5 5 5 5 5 5 5 5 5 5 5 5 5 5 5 5 3 5 5 5 5 5 5 5 5 5 5 5 5 5 5 5 5 5 5 5 5 3 5 5 5 3 5 5 5 3 3 5 5 5 3 5 5 5 5 3 5 5 5 5 5 5 5 5 5 5 5 5 5 5 5 5 5 5 5 5 5 5 5 5 5 5 5 5 5 5 5 5 5 5 5 5 5 5 5 5 5 5 5 5 5 5 5 5 5 5 5 5 5 5 5 5 5 5 3 5 5 5 5 3 5 5 5 5 5 5 5 5 5 5 5 5 5 5 5 5 5 5 5 5 3 5 3 5 5 5 3 5 5 3 5 5 5 3 3 5 5 5 5 5 5 5 5 5 5 5 5 5 3 5 3 5 5 5 5 5 5 5 3 5 5 5 5 3 3 5 5 5 3 5 5 3 3 5 5 3 5 3 5 5 5 5 5 5 3 5 5 3 5 5 3 5 5 5 3 5 5 5 5 5 5 5 5 5 5 5 3 5 5 5 5 3 5 5 5 5 3 5 5 5 5 3 5 5 5 5 5 5 3 5 5 5 5 5 5 3 3 5 5 5 5 5 3 5 5 5 5 3 5 5 5 3 5 3 3 3 5 5 5 3 5 5 5 5 5 5 5 5 3 5 5 5 5 5 5 5 5 5 5 5 3 5 5 5 3 5 5 5 5 5 3 3 3 5 3 5 3 5 5 5 5 5 3 5 5 5 5 5 5 5 5 5 5 5 5 5 5 5 5 5 5 5 5 3 5 5 5 5 5 5 5 3 5 3 5 5 5 3 5 5 5 5 5 5 5 5 5 3 3 5 5 5 5 5 3 5 5 5 5 3 5 5 5 5 5 5 5 3 5 5 5 5 3 5 5 5 5 5 5 5 5 5 5 5 5 5 5 5 5 5 5 5 5 3 5 5 3 5 5 5 5 5 5 3 5 5 5 5 5 5 5 3 5 5 5 5 5 3 5 5 5 5 3 5 5 5 5 5 3 5 5 5 5 5 5 3 5 3 3 5 5 3 5 3 3 5 3 5 5 3 5 5 5 5 5 5 3 3 5 3 5 5 3 5 5 5 5 3 5 5 5 5 5 5 5 3 5 3 5 3 5 5 5 5 3 5 5 3 5 5 5 5 5 5 5 5 5 3 5 5 5 5 5 5 5 3 5 3 5 5 5 5 5 5 5 5 5 5 3 5 5 3 5 5 5 5 3 3 5 3 3 5 5 3 3 5 5 5 3 5 5 5 5 5 5 5 5 3 5 5 5 5 5 5 5 3 5 5 3 5 5 5 3 5 3 5 5 5 5 3 3 3 5 5 5 5 5 5 5 5 5 5 5 5 5 5 5 5 5 5 5 5 5 5 5 5 5 5 5 5 5 3 5 5 3 5 3 3 5 5 3 5 3 5 5 3 5 5 5 5 5 5 5 5 3 5 5 5 5 3 5 5 5 5 5 5 5 5 3 5 5 5 5 5 5 5 5 5 5 5 3 3 5 5 5 5 5 3 5 5 5 5 3 3 5 5 5 5 5 5 5 5 5 5 5 3 5 5 5 5 5 5 5 5 3 5 3 3 5 5 3 5 5 3 5 5 3 5 5 5 5 5 5 5 5 5 5 5 3 5 5 3 5 5 5 5 5 5 5 5 5 5 5 5 5 5 5 5 5 5 3 5 5 3 5 5 5 3 5 5 3 5 5 5 5 5 3 3 5 5 3 5 3 5 5 5 5 5 5 5 5 5 5 5 5 5 5 5 5 5 5 5 5 5 5 5 5 5 5 5 5 5 5 3 5 5 5 5 3 5 5 5 5 5 5 5 5 5 5 5 5 5 5 5 3 5 3 5 5 5 5 5 5 5 5 3 5 5 5 5 3 5 3 5 5 5 5 5 5 5 5 5 5 5 5 5 5 5 5 5 5 5 5 5 5 5 3 5 5 5 5 5 5 5 5 3 5 5 5 3 5 5 3 3 5 5 5 5 5 5 3 5 5 5 3 3 5 3 3 5 3 5 5 5 3 5 5 5 5 5 5 3 5 3 5 5 5 3 5 3 3 5 3 5 5 5 5 5 5 5 5 5 5 5 5 5 5 3 5 5 5 5 5 5 3 5 5 5 5 5 5 5 3 5 5 5 3 5 5 5 5 5 5 5 5 5 5 5 5 5 5 5 5 5 5 5 5 5 5 5 5 5 5 5 5 3 5 5 5 5 5 5 5 5 3 5 5 5 5 3 5 5 3 5 5 3 5 5 5 3 3 5 3 5 5 5 3 5 5 5 5 5 5 5 5 3 5 3 5 5 5 5 5 5 5 5 5 5 5 3 5 5 5 3 5 5 3 5 5 5 5 5 3 5 5 5 5 5 5 5 5 5 5 5 5 5 5 5 5 5 5 5 5 3 5 5 3 5 3 5 3 5 5 5 5 3 3 5 5 3 3 5 5 3 5 5 5 3 5 3 5 5 5 3 5 5 5 5 5 5 5 5 3 5 5 5 5 3 5 5 5 5 5 5 5 5 3 5 5 5 5 5 5 5 3 5 3 5 5 5 3 5 5 5 5 5 3 5 3 5 3 5 5 3 5 5 5 5 5 5 5 5 3 5 5 5 5 5 5 5 5 5 5 5 3 5 3 5 5 5 5 5 5 5 5 5 5 5 5 3 5 5 5 5 5 5 5 5 5 5 5 5 3 5 5 5 5 5 3 3 5 3 3 3 5 5 5 5 5 5 5 3 5 5 5 5 3 5 5 5 5 5 5 5 5 5 5 5 5 5 5 5 5 5 5 5 5 5 5 5 5 5 5 3 5 5 5 5 5 5 5 5 5 5 5 5 5 5 5 5 5 5 5 5 5 5 3 5 5 5 5 5 3 5 3 5 5 5 5 5 5 3 5 5 5 5 5 5 5 5 5 5 5 5 5 5 5 5 5 5 5 5 5 5 3 5 5 5 3 5 5 5 5 5 5 5 5 5 5 5 5 5 5 5 5 5 5 3 3 5 5 5 5 3 5 5 5 5 3 5 5 3 5 5 5 5 5 5 5 3 5 5 5 5 3 5 5 5 5 5 3 5 5 5 5 5 5 5 5 5 5 5 5 5 5 5 5 5 5 5 5 5 5 3 5 5 3 5 5 5 5 5 5 3 3 3 5 5 5 5 5 5 5 5 5 5 5 3 5 5 5 3 5 5 5 5 5 5 3 5 5 5 5 3 3 5 5 3 5 5 3 5 5 5 5 5 5 5 5 5 3 5 5 5 5 5 5 5 5 5 5 3 5 5 3 5 3 3 5 3 5 5 5 5 5 5 3 5 5 5 5 5 5 5 5 3 5 5 5 5 5 5 5 5 5 5 3 5 5 3 5 5 5 3 5 5 5 5 5 5 5 5 5 5 5 5 5 3 5 3 5 3 5 5 5 5 5 5 5 5 5 3 5 5 5 3 5 5 3 5 5 5 5 5 5 5 5 5 5 5 5 5 5 5 5 5 5 5 5 5 5 5 5 5 3 5 5 5 3 3 5 3 5 5 5 5 5 5 5 5 5 5 3 5 5 3 3 5 3 5 5 3 5 3 5 5 5 5 5 5 3 5 5 5 3 5 5 3 5 5 3 5 5 5 3 5 5 5 5 5 5 3 5 5 5 3 5 5 3 5 5 5 5 5 5 5 3 5 5 5 5 3 3 5 5 5 5 3 3 3 3 5 5 5 5 5 5 5 5 5 5 5 3 5 5 5 3 5 3 3 3 5 5 5 5 5 3 5 5 5 3 5 5 5 5 5 5 3 5 5 3 5 5 5 3 5 5 3 5 5 3 5 3 5 3 5 5 3 5 5 3 5 5 3 5 5 5 3 5 5 5 5 5 5 5 5 3 3 5 3 5 5 5 5 3 5 5 3 5 5 5 3 5 5 5 5 3 3 5 5 5 5 5 5 5 5 5 5 5 5 5 3 5 5 5 5 5 5 5 3 5 5 5 3 3 5 5 5 5 5 3 5 5 5 5 5 5 5 5 5 3 5 5 5 3 5 5 3 5 5 5 5 3 5 5 3 5 5 5 5 5 5 5 5 5 5 5 5 5 5 5 5 5 5 5 5 3 5 5 5 5 5 5 5 3 5 5 5 3 3 3 5 5 3 5 5 5 5 3 5 5 5 3 5 3 5 5 5 3 5 5 5 5 5 3 5 5 5 5 3 5 3 5 5 5 5 3 5 5 5 5 5 5 5 5 5 5 5 3 5 5 5 5 5 5 5 5 5 5 5 3 5 5 5 3 5 5 5 5 5 5 5 5 5 5 5 5 5 5 5 5 5 5 5 5 5 5 5 3 3 5 5 5 5 3 5 3 5 5 5 5 5 3 5 5 5 5 5 3 5 3 5 3 5 3 5 3 5 5 5 5 5 5 3 5 5 5 5 5 5 3 5 5 5 5 5 5 5 5 5 3 5 5 5 5 3 5 5 5 5 5 5 5 3 5 5 5 5 3 5 5 5 3 5 5 5 3 5 5 5 5 5 5 5 5 5 5 3 3 5 5 3 5 5 5 3 3 5 5 5 5 3 5 5 3 5 5 5 5 5 5 5 5 5 5 5 5 5 5 5 5 5 5 5 5 5 5 5 5 5 5 5 5 5 5 5 5 5 5 5 5 5 5 5 5 3 5 5 3 5 5 5 5 5 5 5 5 5 5 5 5 5 5 5 5 5 3 5 5 5 3 5 5 5 5 5 5 5 5 5 5 5 5 3 5 5 5 5 5 5 5 5 3 5 5 5 5 5 5 5 5 5 5 5 5 5 5 5 5 5 5 5 3 3 5 5 5 5 5 5 5 5 5 5 5 5 5 5 5 5 5 5 5 5 5 3 5 5 5 5 5 5 5 5 5 5 5 5 5 5 5 5 5 5 5 5 5 5 5 5 5 5 5 5 5 5 5 5 5 5 5 5 5 5 5 5 5 5 5 5 5 5 5 5 5 5 5 5 5 5 5 5 5 5 5 3 5 5 5 5 5 5 3 3 5 5 5 5 5 5 5 5 5 5 5 5 5 5 5 5 5 5 5 5 5 5 5 5 5 5 5 5 5 5 5 5 5 5 5 5 5 5 5 5 5 5 5 5 5 5 5 5 5 5 5 5 5 5 5 3 5 5 5 5 5 5 5 3 5 5 5 5 5 5 3 5 5 5 5 5 5 5 5 3 5 5 5 3 5 5 5 5 3 5 5 5 3 5 5 5 3 5 5 5 5 3 3 5 5 5 5 5 5 5 5 5 5 5 5 5 5 5 5 5 5 3 5 5 5 5 5 5 5 5 5 5 3 3 5 5 3 3 5 5 5 5 3 5 5 5 5 3 5 5 3 5 5 5 5 5 5 5 5 5 5 5 5 5 5 5 5 5 5 5 5 5 5 5 5 5 5 3 5 5 3 5 3 3 5 5 5 5 5 5 5 5 5 3 3 5 5 5 5 5 5 5 5 5 3 5 5 5 5 5 5 3 3 5 5 5 5 5 5 5 3 5 5 5 5 5 5 5 5 5 3 5 5 5 5 5 5 3 3 5 5 5 5 5 5 5 5 5 5 3 5 5 5 3 5 5 5 3 5 5 5 5 5 5 5 5 5 5 5 5 3 5 5 5 5 5 5 3 5 5 5 5 3 5 5 3 5 3 5 5 5 5 5 5 5 5 5 5 5 5 3 5 5 5 5 5 5 5 5 5 5 5 5 3 5 3 5 5 3 5 5 5 5 5 5 5 5 5 5 5 3 3 5 5 5 5 3 5 5 5 5 5 5 5 5 5 5 5 5 5 5 5 5 3 5 5 5 5 5 3 5 5 5 5 5 5 5 5 5 3 5 5 5 5 5 5 5 5 5 5 5 5 5 5 5 5 5 3 5 3 5 5 5 3 5 5 5 5 5 5 5 5 5 5 5 3 5 3 5 5 5 5 5 5 3 5 3 5 5 5 5 5 5 5 5 3 5 5 5 5 5 5 5 5 5 5 5 5 5 3 5 5 5 3 5 3 5 5 5 5 3 5 3 5 3 5 5 5 5 5 5 5 5 5 5 5 5 5 5 5 5 5 5 5 5 5 5 5 3 5 5 5 5 5 5 3 5 5 3 5 5 5 5 3 5 5 5 5 5 5 5 5 5 5 5 5 5 5 5 3 5 5 5 5 5 5 5 3 5 5 5 5 3 5 5 5 5 3 3 3 5 3 5 5 5 3 5 5 5 5 5 3 5 5 3 5 5 5 5 5 5 3 5 5 5 5 5 5 5 5 5 3 5 5 5 5 5 5 5 5 5 5 5 5 3 5 5 5 5 5 5 5 5 5 5 5 3 5 5 5 5 5 5 5 5 5 5 3 5 5 5 5 5 5 5 5 5 5 5 5 5 5 5 5 5 5 5 5 5 5 5 3 5 5 3 5 5 3 5 5 5 5 5 3 5 5 5 5 5 5 5 5 5 5 5 5 5 5 5 5 5 5 5 5 5 5 5 5 5 5 5 5 5 5 5 5 5 5 5 5 3 5 3 5 5 5 3 5 5 5 5 5 5 5 3 5 3 5 5 5 5 3 5 5 5 5 3 5 5 5 5 5 3 3 3 5 5 5 5 5 5 5 3 5 5 5 5 5 5 5 5 5 5 3 5 5 3 5 5 5 5 5 5 5 5 5 5 5 3 5 5 5 5 5 5 5 5 5 5 5 5 5 5 5 5 5 5 5 3 5 5 5 5 3 5 5 5 5 5 5 5 3 5 5 5 5 3 5 5 5 5 5 5 3 5 5 5 5 5 5 3 5 5 5 5 5 3 5 5 5 5 5 3 5 5 5 5 5 5 3 5 5 5 5 5 5 5 5 5 5 3 5 5 3 5 5 3 3 5 5 5 5 3 5 5 5 5 5 5 5 5 5 3 5 5 5 5 5 5 5 5 5 5 5 5 5 5 5 5 5 3 5 5 5 3 5 5 5 5 5 5 5 5 5 5 5 3 5 5 5 5 3 5 5 5 5 5 5 5 5 3 5 5 5 5 3 5 5 5 5 5 5 5 5 5 5 5 3 5 5 5 5 3 5 3 3 5 5 5 5 3 3 5 5 3 3 5 5 3 5 5 5 5 5 5 5 5 5 5 5 5 5 5 5 5 5 5 5 3 5 5 5 5 5 5 5 5 5 5 5 5 5 5 5 5 5 5 3 5 5 5 3 5 5 5 5 5 5 5 3 5 5 5 5 5 5 5 5 3 5 5 5 5 5 5 3 5 5 5 5 5 5 5 5 5 3 3 5 5 5 5 5 5 5 5 5 3 5 5 5 5 5 5 3 5 5 5 5 5 5 5 5 5 5 5 5 5 5 5 5 5 5 5 5 5 5 5 5 5 5 5 5 5 5 5 3 5 5 5 5 5 3 5 3 5 3 5 5 3 5 5 3 3 5 3 3 3 3 5 5 5 5 5 5 5 3 5 5 3 5 5 5 5 5 5 5 5 5 5 5 5 5 5 5 5 5 5 3 5 5 5 3 5 5 5 5 3 5 5 3 5 3 5 5 3 5 5 3 5 5 5 5 5 5 5 3 5 5 5 5 5 5 5 5 5 5 5 5 5 5 5 5 5 5 5 5 5 3 5 5 5 5 5 5 3 5 5 3 5 5 5 3 5 3 5 5 3 5 5 5 5 5 5 5 3 5 3 5 5 5 3 5 3 5 5 5 5 5 5 5 5 5 5 3 5 5 5 5 3 5 5 5 5 3 5 5 5 3 5 5 3 5 5 5 5 5 5 5 5 5 5 5 5 3 5 5 5 5 5 5 5 5 5 5 5 5 5 5 5 5 5 5 5 5 3 5 5 5 3 5 3 3 5 3 5 5 5 3 5 5 5 5 5 5 5 3 5 5 5 5 5 5 5 5 5 5 5 3 5 5 5 3 5 5 3 5 5 5 5 5 5 5 5 5 5 5 5 5 5 5 5 5 5 5 5 5 5 5 5 5 5 5 5 5 5 5 5 5 5 5 5 5 5 5 5 3 5 5 5 5 5 5 5 5 5 5 5 3 3 5 5 5 5 3 5 5 3 5 5 5 5 5 5 5 5 5 5 5 5 5 5 5 5 5 5 5 5 5 5 5 5 5 5 5 5 5 5 5 5 5 5 5 5 5 5 5 5 5 5 5 5 5 5 5 5 5 5 5 5 5 5 5 5 5 5 5 5 5 5 5 5 5 5 5 5 5 3 5 5 3 5 3 5 5 5 5 5 5 3 5 5 5 5 5 3 5 3 5 5 5 5 5 5 5 5 5 3 3 5 5 5 5 5 5 5 3 5 5 5 3 3 5 5 5 3 5 5 3 3 5 5 5 3 3 5 3 5 5 5 5 5 5 5 5 5 5 5 5 5 5 5 5 5 5 5 5 3 5 5 5 5 5 5 5 5 5 5 5 3 5 5 5 5 5 3 5 5 3 5 5 5 5 5 5 5 5 5 5 5 5 3 5 5 5 5 5 5 5 5 5 5 5 3 5 5 5 5 5 5 5 5 5 5 5 5 5 5 5 3 5 5 5 5 5 5 3 5 5 5 3 5 5 5 5 5 5 5 3 5 5 5 5 5 3 3 5 5 5 3 5 5 5 3 5 5 5 5 5 5 5 5 5 5 5 5 5 5 3 5 5 5 5 5 5 3 5 5 5 5 3 5 5 5 3 5 5 5 5 3 3 3 5 5 5 5 3 5 5 5 5 3 5 5 5 5 5 5 5 3 5 5 5 5 5 5 5 5 5 5 5 5 5 5 5 5 5 5 5 5 5 5 5 5 5 5 5 5 3 5 5 5 3 5 5 3 5 3 5 5 5 5 5 5 5 5 5 3 5 5 5 5 3 3 5 5 5 5 5 5 5 5 5 5 5 5 5 5 5 5 5 5 5 3 3 5 5 5 3 5 5 5 5 3 3 5 5 5 5 5 5 5 5 5 5 5 5 3 3 5 5 5 5 3 5 5 5 5 5 5 5 5 5 5 5 3 5 5 5 5 5 5 5 5 3 5 5 5 5 5 5 5 5 5 5 5 5 5 5 5 5 5 5 5 5 5 5 5 5 5 5 5 5 5 5 5 5 5 3 5 3 5 5 5 5 5 5 5 5 5 3 5 5 5 5 5 5 5 5 3 5 5 5 5 5 3 5 5 5 5 5 5 5 5 5 3 5 5 5 3 5 5 5 5 5 5 5 5 5 5 5 5 5 5 5 5 5 5 5 5 5 5 5 5 5 5 5 5 5 5 5 5 3 5 5 5 5 5 5 5 3 5 5 5 5 5 5 3 5 5 5 5 5 5 3 5 5 5 5 5 5 5 5 5 5 5 5 5 5 5 3 5 5 5 3 5 5 5 5 5 5 5 5 5 5 3 3 5 5 5 5 5 5 5 5 5 5 5 5 3 5 5 5 5 5 5 5 5 5 5 5 5 5 5 5 5 5 5 3 5 5 5 3 3 5 3 5 5 5 5 5 5 5 3 3 5 3 5 5 5 5 5 5 3 5 3 5 5 5 5 5 5 5 5 3 5 5 5 5 5 5 3 5 5 5 5 5 5 5 5 5 5 5 5 5 5 5 3 5 5 5 3 5 5 5 5 5 3 5 5 5 5 5 5 3 5 5 5 3 5 5 3 5 5 5 3 5 5 5 5 5 5 5 5 5 5 5 5 5 5 5 5 5 5 5 5 5 5 5 3 5 5 3 5 3 3 5 5 3 3 5 5 3 5 5 5 5 5 5 3 5 5 5 5 3 5 5 3 5 5 3 5 3 3 5 5 5 3 3 5 5 5 5 3 3 5 5 5 5 5 3 5 5 5 5 5 5 5 5 5 5 5 5 5 5 5 5 5 5 5 5 5 5 5 5 5 5 5 5 5 5 5 5 5 5 5 5 5 5 5 5 5 5 5 5 5 5 5 5 5 5 5 5 5 3 5 5 5 5 5 3 5 5 5 5 5 5 5 5 5 5 5 5 5 5 5 3 5 5 3 3 5 5 5 3 5 5 3 5 5 5 5 5 5 5 5 3 5 5 5 5 5 5 5 5 5 5 5 5 5 3 5 5 5 5 5 5 5 5 5 3 5 5 5 3 5 5 5 5 5 5 5 5 3 5 5 5 5 5 5 5 5 5 5 5 5 5 5 5 5 5 5 5 5 5 5 5 5 5 5 5 5 5 5 5 5 5 5 3 5 5 5 5 5 3 5 5 5 5 5 5 5 5 5 5 5 5 5 5 5 5 5 5 5 5 5 5 5 5 5 5 5 5 5 5 5 5 5 5 5 5 5 5 5 5 5 3 5 5 5 3 5 5 5 5 5 5 5 5 5 5 5 5 5 5 5 5 5 5 5 5 5 5 5 5 5 5 5 5 5 5 5 5 3 5 5 5 5 5 5 5 3 5 5 5 5 5 5 5 5 5 5 5 5 3 5 3 5 5 5 5 5 5 5 5 5 5 5 5 5 5 5 5 5 5 5 5 3 5 5 5 3 5 5 5 3 3 5 5 3 5 5 5 5 3 5 5 5 5 5 5 5 5 5 5 5 5 5 5 5 5 5 5 5 5 5 5 5 5 5 5 5 5 5 5 5 5 5 5 5 3 5 5 5 5 5 5 5 5 5 5 5 5 5 5 3 5 5 5 5 5 5 5 5 5 5 5 5 5 5 5 5 5 5 5 5 5 5 5 5 5 5 5 5 5 5 5 5 5 5 5 3 5 5 5 5 5 5 5 5 5 5 5 5 5 5 3 5 5 5 5 5 5 5 3 5 5 5 3 5 5 5 5 5 5 5 3 5 5 5 5 5 3 5 5 5 5 5 5 5 5 5 5 5 5 5 5 5 5 5 5 5 5 5 5 3 5 5 5 5 5 5 5 5 5 5 5 5 5 5 5 5 5 5 3 5 5 3 5 5 5 5 5 5 3 5 5 5 3 5 5 5 5 5 5 5 5 5 5 5 5 5 3 5 5 5 3 5 5 3 5 5 3 5 5 3 5 3 5 5 5 5 5 5 5 5 5 5 5 3 3 5 5 5 5 5 5 3 5 3 5 5 5 3 5 3 5 5 5 5 5 5 5 3 5 5 5 3 5 5 5 5 3 5 5 5 5 5 3 5 5 3 5 5 5 5 5 5 5 5 5 5 5 5 5 5 5 3 5 5 5 5 5 5 5 3 5 5 5 5 5 5 5 5 5 5 5 5 5 5 3 5 5 5 5 5 5 5 5 3 5 3 5 5 5 5 5 5 5 5 5 5 5 5 5 5 5 3 5 5 5 5 5 5 5 5 5 5 5 5 5 5 5 5 5 5 5 5 5 5 5 5 5 5 5 5 3 5 5 5 5 5 5 5 5 5 5 5 5 5 5 5 5 5 5 5 5 5 5 5 5 5 5 5 5 5 3 5 5 5 5 5 5 5 5 5 5 5 5 5 5 5 5 5 5 5 5 5 5 5 5 5 5 5 5 5 5 5 5 5 3 5 5 5 5 5 5 5 5 5 5 5 5 5 5 5 5 5 5 3 5 5 5 5 5 5 5 5 5 5 5 5 5 3 5 5 5 5 3 5 5 5 3 5 5 5 5 5 5 5 5 5 5 5 5 5 5 3 5 5 5 5 5 5 5 5 3 5 5 5 5 3 5 5 5 3 5 5 5 5 5 5 5 5 5 5 3 5 5 5 5 5 5 5 5 5 5 5 5 5 5 3 5 5 5 5 5 5 5 3 3 5 5 5 3 5 5 5 5 5 3 5 5 5 5 5 3 5 5 5 5 5 5 5 5 5 5 5 5 5 5 5 5 5 5 5 5 5 5 5 5 5 5 5 5 5 3 5 5 5 3 5 5 5 5 5 5 3 5 5 5 5 5 5 5 5 5 5 5 5 5 5 5 5 5 5 5 5 5 5 5 5 5 5 5 5 5 5 5 5 5 5 5 5 5 3 5 5 5 5 3 5 5 5 5 5 5 5 5 5 5 5 5 5 5 5 5 5 5 5 5 5 5 5 5 5 5 5 5 5 5 5 5 5 5 5 5 5 5 5 5 5 3 5 5 5 3 5 5 5 5 5 5 5 3 5 5 5 5 5 5 3 5 5 5 5 5 3 5 5 5 3 5 5 5 5 5 5 5 5 5 5 5 5 5 5 3 5 5 5 5 3 5 5 5 5 5 3 5 5 5 5 5 5 5 5 5 5 5 5 5 5 5 5 5 5 5 5 5 3 5 5 5 5 5 5 5 5 5 5 5 5 5 3 5 5 3 5 3 5 5 5 5 5 3 5 5 5 5 5 5 5 5 5 5 5 5 5 5 5 5 5 5 5 5 5 5 5 5 5 5 5 5 5 5 3 5 5 5 5 5 5 5 5 5 5 5 3 5 5 5 5 5 5 5 5 5 5 5 5 5 5 5 5 5 5 5 5 5 3 5 5 5 5 5 5 5 5 5 5 5 5 5 3 5 5 5 5 5 5 5 5 3 5 5 5 5 5 3 5 3 5 5 5 5 5 5 3 3 5 5 5 5 5 5 5 5 5 5 5 3 5 3 5 5 3 5 5 5 5 5 5 5 5 5 5 5 3 5 5 3 5 5 5 3 5 5 5 5 5 5 5 5 5 5 5 5 5 5 5 5 5 5 5 5 5 5 5 5 5 5 5 5 5 5 3 5 5 5 5 5 5 5 5 5 5 5 5 5 5 5 5 5 5 5 5 5 3 5 5 5 5 5 5 5 5 5 3 5 5 5 5 5 3 5 5 5 5 5 5 5 5 5 5 5 5 5 3 5 5 5 5 5 5 5 5 5 5 5 5 5 3 3 5 5 5 5 5 5 5 5 5 5 5 5 5 5 3 5 5 5 5 5 5 3 5 5 3 5 5 5 5 3 5 5 5 5 5 5 5 5 3 5 5 5 5 5 5 5 5 3 5 3 5 5 3 5 5 5 5 5 5 5 5 5 5 5 3 5 5 5 5 5 5 5 5 3 5 5 3 5 3 5 5 5 5 5 5 5 5 5 3 3 5 5 3 5 5 5 5 5 5 5 5 5 5 5 3 5 5 5 5 5 5 3 5 5 5 5 5 5 5 5 5 5 5 3 5 3 5 3 5 5 5 5 5 5 5 5 5 5 5 5 5 5 5 5 5 5 5 5 5 3 5 5 3 5 5 5 3 5 5 5 5 5 5 3 5 5 5 5 5 5 5 3 5 3 5 5 5 5 5 5 5 5 5 5 5 3 5 5 5 5 5 5 5 3 5 5 5 5 5 5 5 5 5 5 5 5 5 3 5 5 5 5 3 5 5 5 5 5 5 5 3 5 5 3 5 5 3 5 3 5 5 5 5 5 5 5 5 5 5 5 5 5 5 5 5 3 5 5 5 5 5 5 5 3 5 3 3 3 5 5 5 3 5 5 3 3 3 5 5 5 5 5 5 5 5 5 5 5 5 5 5 5 5 5 5 5 5 5 5 5 5 5 5 5 5 5 5 5 3 5 5 5 5 5 5 5 5 5 5 5 5 5 5 5 5 5 5 5 5 5 5 3 5 5 5 5 5 3 5 5 5 5 3 5 5 5 5 5 5 3 5 5 3 5 5 5 5 5 3 5 5 5 5 5 5 5 5 5 5 5 5 3 5 5 5 5 3 5 5 5 3 3 5 5 5 3 5 5 5 5 5 5 5 5 5 5 5 5 5 5 5 5 5 5 5 5 3 5 3 5 5 5 5 5 5 3 5 5 3 3 5 5 5 5 3 5 5 5 5 5 3 5 3 5 5 5 5 5 5 5 5 3 5 5 5 5 5 5 5 5 5 5 5 5 5 5 5 5 5 5 5 5 5 5 5 5 5 3 5 5 5 3 5 5 5 5 5 5 5 5 5 3 3 3 5 5 3 5 5 3 5 5 5 5 3 5 3 5 5 5 5 5 5 5 5 3 5 5 5 5 5 5 3 5 5 5 5 5 5 5 5 5 5 5 3 5 5 5 3 5 5 3 3 5 3 5 5 5 5 3 5 5 5 5 5 3 5 5 5 5 5 5 5 5 3 5 5 3 5 5 3 5 5 3 5 5 5 5 5 5 5 5 5 5 5 3 3 5 5 3 5 5 5 3 5 5 5 5 5 5 5 3 5 5 5 5 5 3 5 5 5 5 5 5 5 5 3 5 5 5 3 3 5 3 5 5 5 5 5 3 5 5 3 5 3 5 5 5 3 5 5 3 5 5 5 5 5 5 5 5 5 5 5 3 5 5 5 5 5 5 5 5 5 5 5 5 3 5 3 5 5 5 5 3 5 5 3 5 5 5 5 3 5 5 5 3 5 5 5 5 5 3 5 3 5 5 5 3 5 5 5 3 5 5 3 3 3 5 5 5 5 3 5 5 5 5 3 5 5 5 3 5 5 5 5 5 5 5 5 5 5 5 5 5 5 3 5 3 5 3 5 5 5 5 3 3 5 5 3 5 3 5 5 3 5 5 5 3 3 5 3 5 5 3 5 5 3 3 5 3 5 5 5 5 5 5 3 3 3 5 5 5 3 5 5 3 5 3 3 3 5 5 3 5 5 5 5 5 3 5 5 3 5 3 5 5 3 5 3 5 3 5 5 5 5 5 5 5 5 3 5 5 5 5 5 5 5 3 5 5 3 5 5 5 5 5 3 5 5 3 3 5 3 3 5 3 3 5 5 3 5 5 3 5 5 3 3 5 5 3 5 5 5 5 5 5 3 5 5 5 5 5 5 3 5 5 5 5 3 3 5 5 5 3 5 5 5 5 5 5 5 5 5 5 5 5 5 5 5 5 5 5 5 5 5 5 5 5 5 3 5 5 5 5 5 5 5 5 5 5 5 5 5 5 5 5 5 5 5 5 5 3 5 5 5 5 5 5 5 5 5 5 5 5 5 5 5 5 5 5 5 5 5 5 5 5 5 5 5 5 5 5 5 5 5 5 5 5 5 5 5 5 5 5 5 5 5 5 5 5 3 5 5 5 5 5 5 5 5 5 5 5 5 5 5 5 3 5 5 5 5 5 5 5 5 5 5 5 5 5 5 5 5 5 5 5 5 5 3 5 5 5 5 5 5 5 3 5 5 5 5 5 5 5 5 5 5 5 5 5 5 5 5 5 5 5 5 5 5 5 3 5 5 5 3 5 5 5 5 5 5 3 5 5 5 5 5 5 5 5 3 5 5 5 3 5 5 3 5 5 5 5 5 5 5 3 3 5 5 5 5 5 5 5 3 5 5 3 5 5 5 5 5 5 3 5 3 5 5 5 
</DataArray>
</Cells>
<PointData Scalars="" Vectors="displacement," Tensors="">
<DataArray type="Float64" Name="displacement" NumberOfComponents="3" format="ascii">
0.044993798440347427 0.044997801921380656 0 0.043191500947320549 0.04375321035515338 0 0.044997920677741103 0.039177738466610719 0 0.044566429743338888 0.040694475750813579 0 0.043191500947320549 0.04375321035515338 0 0.044997920677741103 0.039177738466610719 0 0.044602567051852733 0.041935091299872801 0 0.046220280326569711 0.040119873681990978 0 0.045364720942283755 0.039810767417725726 0 0.044566429743338888 0.040694475750813579 0 0.044602567051852733 0.041935091299872801 0 0.045364720942283755 0.039810767417725726 0 0.044566429743338888 0.040694475750813579 0 0.044602567051852733 0.041935091299872801 0 0.043191500947320549 0.04375321035515338 0 0.044993798440347427 0.044997801921380656 0 0.043191500947320549 0.04375321035515338 0 0.039399820221355276 0.044996008980276773 0 0.043191500947320549 0.04375321035515338 0 0.039399820221355276 0.044996008980276773 0 0.043344346125035405 0.04369691829969205 0 0.044602567051852733 0.041935091299872801 0 0.043191500947320549 0.04375321035515338 0 0.043344346125035405 0.04369691829969205 0 0.039381287698543058 0.044999950282719331 0 0.037490649531941526 0.04499997560495559 0 0.038645106521181388 0.046723295300565286 0 0.039382374850281558 0.04499963225901929 0 0.040991679259622611 0.044974803860982515 0 0.037490649531941526 0.04499997560495559 0 0.036703763243069933 0.046512879973108323 0 0.038645106521181388 0.046723295300565286 0 0.037490649531941526 0.04499997560495559 0 0.036703763243069933 0.046512879973108323 0 0.035599933200191787 0.044999951371311131 0 0.036703763243069933 0.046512879973108323 0 0.037433101703239539 0.047447243102470588 0 0.036111687232226068 0.048162454759917574 0 0.036703763243069933 0.046512879973108323 0 0.037433101703239539 0.047447243102470588 0 0.038645106521181388 0.046723295300565286 0 0.037433101703239539 0.047447243102470588 0 0.038645106521181388 0.046723295300565286 0 0.037951314893291399 0.048331127901862704 0 0.040991679259622611 0.044974803860982515 0 0.042081385948093269 0.045158522897854887 0 0.034638671820550103 0.046387133535608784 0 0.03370925909225507 0.045000306814593868 0 0.034354120910220387 0.046234529175459067 0 0.033708305119038245 0.044999793062737617 0 0.032930868019594266 0.046165829007704259 0 0.035599933200191787 0.044999951371311131 0 0.034924516612229312 0.046631339147872243 0 0.033709151337596242 0.044999994018820801 0 0.036703763243069933 0.046512879973108323 0 0.035599933200191787 0.044999951371311131 0 0.034924516612229312 0.046631339147872243 0 0.034638671820550103 0.046387133535608784 0 0.035525007527586777 0.047998483323887869 0 0.036703763243069933 0.046512879973108323 0 0.034924516612229312 0.046631339147872243 0 0.036111687232226068 0.048162454759917574 0 0.034354120910220387 0.046234529175459067 0 0.033909699031536317 0.047090135779100331 0 0.035136111567558345 0.047441268559439746 0 0.034354120910220387 0.046234529175459067 0 0.033909699031536317 0.047090135779100331 0 0.032930868019594266 0.046165829007704259 0 0.033909699031536317 0.047090135779100331 0 0.035136111567558345 0.047441268559439746 0 0.034319628409055579 0.048114543932119572 0 0.033084004285878217 0.047481978751147048 0 0.032397096022756415 0.046681878444058855 0 0.033909699031536317 0.047090135779100331 0 0.034319628409055579 0.048114543932119572 0 0.032814343388648005 0.047312264179016544 0 0.035136111567558345 0.047441268559439746 0 0.034319628409055579 0.048114543932119572 0 0.035939069516837209 0.048605349354781079 0 0.034319628409055579 0.048114543932119572 0 0.035939069516837209 0.048605349354781079 0 0.035769295768597026 0.048876143298801161 0 0.033084004285878217 0.047481978751147048 0 0.037016483949339367 0.045304961486433828 0 0.035525007527586777 0.047998483323887869 0 0.038163925490671345 0.047320442136038941 0 0.032874303956614302 0.046666159559451595 0 0.032583997202787512 0.046355452015740088 0 0.033351525586960584 0.046661022833385878 0 0.032583997202787512 0.046355452015740088 0 0.032240478988667019 0.046696223015788407 0 0.03184327818112704 0.046128273556526309 0 0.032874303956614302 0.046666159559451595 0 0.032583997202787512 0.046355452015740088 0 0.032240478988667019 0.046696223015788407 0 0.044602567051852733 0.041935091299872801 0 0.043344346125035405 0.04369691829969205 0 0.046065749134857482 0.041924598816468497 0 0.036111687232226068 0.048162454759917574 0 0.03716614950442497 0.048495263889325915 0 0.037190475898554329 0.049542733068968461 0 0.037433101703239539 0.047447243102470588 0 0.037951314893291399 0.048331127901862704 0 0.03716614950442497 0.048495263889325915 0 0.037433101703239539 0.047447243102470588 0 0.036111687232226068 0.048162454759917574 0 0.03716614950442497 0.048495263889325915 0 0.037951314893291399 0.048331127901862704 0 0.03716614950442497 0.048495263889325915 0 0.037420287477002108 0.049155785273044303 0 0.042081385948093269 0.045158522897854887 0 0.040489491865001927 0.043842118979422598 0 0.037951314893291399 0.048331127901862704 0 0.037420287477002108 0.049155785273044303 0 0.037369513051897264 0.049788719696976486 0 0.037435070681530097 0.04868493385196402 0 0.038163925490671345 0.047320442136038941 0 0.03716614950442497 0.048495263889325915 0 0.037420287477002108 0.049155785273044303 0 0.037190475898554329 0.049542733068968461 0 0.038163925490671345 0.047320442136038941 0 0.037016483949339367 0.045304961486433828 0 0.039434130227925225 0.044529391345074408 0 0.039142097051725069 0.044559732092472271 0 0.039202998706970346 0.044394254208376296 0 0.039282159580360979 0.044780277551065895 0 0.039434130227925225 0.044529391345074408 0 0.039142097051725069 0.044559732092472271 0 0.038163925490671345 0.047320442136038941 0 0.040489491865001927 0.043842118979422598 0 0.037420287477002108 0.049155785273044303 0 0.03719196507541405 0.049514138767925153 0 0.037369513051897264 0.049788719696976486 0 0.047443152666870721 0.040035406270780532 0 0.046220280326569711 0.040119873681990978 0 0.047227980114514977 0.039538069762955909 0 0.040489491865001927 0.043842118979422598 0 0.040570726711320157 0.042421717342582724 0 0.044602567051852733 0.041935091299872801 0 0.046065749134857482 0.041924598816468497 0 0.046220280326569711 0.040119873681990978 0 0.046065749134857482 0.041924598816468497 0 0.047443152666870721 0.040035406270780532 0 0.046220280326569711 0.040119873681990978 0 0.043801140360867276 0.041252697957804223 0 0.045728562602901673 0.03830148301147266 0 0.046761194139694928 0.039029409963102113 0 0.047325845656558868 0.039501706207701805 0 0.04678316743244617 0.037764611654819071 0 0.046220280326569711 0.040119873681990978 0 0.046761194139694928 0.039029409963102113 0 0.046264190506005935 0.038760212356622803 0 0.046761194139694928 0.039029409963102113 0 0.04678316743244617 0.037764611654819071 0 0.046264190506005935 0.038760212356622803 0 0.046220280326569711 0.040119873681990978 0 0.046761194139694928 0.039029409963102113 0 0.047227980114514977 0.039538069762955909 0 0.046505214078606145 0.04035072699058518 0 0.043801140360867276 0.041252697957804223 0 0.037649570427877255 0.041843537899901785 0 0.038854128769104795 0.039606935703771461 0 0.039560922826710233 0.036673100052977213 0 0.040570726711320157 0.042421717342582724 0 0.04395223022589189 0.037273244801980965 0 0.043753478481739862 0.040033349478164809 0 0.043935499846991272 0.040141242999734386 0 0.044328787337238225 0.039074424875407354 0 0.043801140360867276 0.041252697957804223 0 0.040570726711320157 0.042421717342582724 0 0.040489491865001927 0.043842118979422598 0 0.043801140360867276 0.041252697957804223 0 0.041805679223761764 0.041816281210040773 0 0.04211590921603476 0.042263442747014372 0 0.041720439784787393 0.042050098108783691 0 0.038452221325084301 0.042297924201595651 0 0.037649570427877255 0.041843537899901785 0 0.038854128769104795 0.039606935703771461 0 0.038452221325084301 0.042297924201595651 0 0.038854128769104795 0.039606935703771461 0 0.039816958815349864 0.04007056274520928 0 0.037016483949339367 0.045304961486433828 0 0.040570726711320157 0.042421717342582724 0 0.045728562602901673 0.03830148301147266 0 0.04395223022589189 0.037273244801980965 0 0.046897787614236623 0.036971903662374676 0 0.045681021243607983 0.036349494620842623 0 0.046368807446613522 0.036715249033904281 0 0.043753478481739862 0.040033349478164809 0 0.043274261235487194 0.039263802905686818 0 0.044328787337238225 0.039074424875407354 0 0.046897787614236623 0.036971903662374676 0 0.046839984388077717 0.036777624107049392 0 0.046737998196097967 0.037004534275552559 0 0.046897787614236623 0.036971903662374676 0 0.046475533297956791 0.037710496136795869 0 0.046737998196097967 0.037004534275552559 0 0.04678316743244617 0.037764611654819071 0 0.046264190506005935 0.038760212356622803 0 0.046475533297956791 0.037710496136795869 0 0.045728562602901673 0.03830148301147266 0 0.046463275884774252 0.037937883173258365 0 0.03360232390613966 0.039308908100591879 0 0.036737770270620043 0.03918354205353116 0 0.035320458663960802 0.031708967638258354 0 0.03851393268448431 0.033289184644753993 0 0.035594082542829551 0.03402463008740559 0 0.032874303956614302 0.046666159559451595 0 0.032240478988667019 0.046696223015788407 0 0.033129077226464 0.046999768070573732 0 0.032874303956614302 0.046666159559451595 0 0.033351525586960584 0.046661022833385878 0 0.033129077226464 0.046999768070573732 0 0.037016483949339367 0.045304961486433828 0 0.036737770270620043 0.03918354205353116 0 0.038308395330139869 0.039779662658077961 0 0.036737770270620043 0.03918354205353116 0 0.039820806387049011 0.040065655307453381 0 0.039560922826710233 0.036673100052977213 0 0.042190781165114238 0.036215203445417107 0 0.038854128769104795 0.039606935703771461 0 0.039820806387049011 0.040065655307453381 0 0.039560922826710233 0.036673100052977213 0 0.036737770270620043 0.03918354205353116 0 0.040872223726833093 0.035527057645600491 0 0.04395223022589189 0.037273244801980965 0 0.040872223726833093 0.035527057645600491 0 0.035594082542829551 0.03402463008740559 0 0.037070204029203267 0.035615753240689142 0 0.034481123315629532 0.036048292880873689 0 0.03851393268448431 0.033289184644753993 0 0.035594082542829551 0.03402463008740559 0 0.037070204029203267 0.035615753240689142 0 0.040872223726833093 0.035527057645600491 0 0.039875090756454748 0.036601021053743812 0 0.039852000552721492 0.03486616662024479 0 0.038372345898604603 0.037256403268130747 0 0.037290984863808524 0.035296908604712469 0 0.044506952344299681 0.036440721944713352 0 0.044793043991301434 0.037525347183519735 0 0.043877542911407989 0.037461387263784583 0 0.040872223726833093 0.035527057645600491 0 0.034608482339606575 0.035326676047896598 0 0.04395223022589189 0.037273244801980965 0 0.045261498650546274 0.03703683598315715 0 0.045681021243607983 0.036349494620842623 0 0.044793043991301434 0.037525347183519735 0 0.045837546409366048 0.037147635687734104 0 0.045182829712320662 0.036330770143249445 0 0.044506952344299681 0.036440721944713352 0 0.044793043991301434 0.037525347183519735 0 0.044793043991301434 0.037525347183519735 0 0.045837546409366048 0.037147635687734104 0 0.045483559888252943 0.037953142303612027 0 0.044724490015463393 0.038015962083008226 0 0.044793043991301434 0.037525347183519735 0 0.045483559888252943 0.037953142303612027 0 0.041299874961983347 0.034116882304531797 0 0.04020121278590618 0.03587741233634606 0 0.041551292174161182 0.036451657890667032 0 0.044724490015463393 0.038015962083008226 0 0.044793043991301434 0.037525347183519735 0 0.043877542911407989 0.037461387263784583 0 0.046839984388077717 0.036777624107049392 0 0.04744632758760689 0.035013649943913865 0 0.046724461912091002 0.036716242472856403 0 0.046839984388077717 0.036777624107049392 0 0.046724461912091002 0.036716242472856403 0 0.046737998196097967 0.037004534275552559 0 0.046897787614236623 0.036971903662374676 0 0.046839984388077717 0.036777624107049392 0 0.046368807446613522 0.036715249033904281 0 0.046839984388077717 0.036777624107049392 0 0.045837546409366048 0.037147635687734104 0 0.046247198219784909 0.037603416475708917 0 0.045681021243607983 0.036349494620842623 0 0.046368807446613522 0.036715249033904281 0 0.045837546409366048 0.037147635687734104 0 0.046839984388077717 0.036777624107049392 0 0.046368807446613522 0.036715249033904281 0 0.045837546409366048 0.037147635687734104 0 0.045837546409366048 0.037147635687734104 0 0.046247198219784909 0.037603416475708917 0 0.045483559888252943 0.037953142303612027 0 0.046247198219784909 0.037603416475708917 0 0.045483559888252943 0.037953142303612027 0 0.046227997169240621 0.03836290218953 0 0.046899737948165786 0.036704171194420862 0 0.047056195057426482 0.036289131373369185 0 0.046839984388077717 0.036777624107049392 0 0.046247198219784909 0.037603416475708917 0 0.046845995479430816 0.037888285637855394 0 0.046247198219784909 0.037603416475708917 0 0.046845995479430816 0.037888285637855394 0 0.046227997169240621 0.03836290218953 0 0.04744632758760689 0.035013649943913865 0 0.046385034669999735 0.036515043631021378 0 0.046192738778419069 0.03536049439270663 0 0.04744632758760689 0.035013649943913865 0 0.046385034669999735 0.036515043631021378 0 0.046724461912091002 0.036716242472856403 0 0.046385034669999735 0.036515043631021378 0 0.046329012755073007 0.037211734419785022 0 0.045903828726264619 0.037187864201379192 0 0.046385034669999735 0.036515043631021378 0 0.046724461912091002 0.036716242472856403 0 0.046329012755073007 0.037211734419785022 0 0.046192738778419069 0.03536049439270663 0 0.045442085883851673 0.03714961519233239 0 0.045903828726264619 0.037187864201379192 0 0.046385034669999735 0.036515043631021378 0 0.046192738778419069 0.03536049439270663 0 0.045903828726264619 0.037187864201379192 0 0.046192738778419069 0.03536049439270663 0 0.044998802024321299 0.034968994365075876 0 0.045442085883851673 0.03714961519233239 0 0.046192738778419069 0.03536049439270663 0 0.044998802024321299 0.034968994365075876 0 0.045718891981328287 0.033557471984570958 0 0.044566429743338888 0.040694475750813579 0 0.044997920677741103 0.039177738466610719 0 0.045197225000329209 0.038749071507854733 0 0.045442085883851673 0.03714961519233239 0 0.044997920677741103 0.039177738466610719 0 0.045197225000329209 0.038749071507854733 0 0.044998802024321299 0.034968994365075876 0 0.045442085883851673 0.03714961519233239 0 0.044997920677741103 0.039177738466610719 0 0.044566429743338888 0.040694475750813579 0 0.045197225000329209 0.038749071507854733 0 0.045364720942283755 0.039810767417725726 0 0.045197225000329209 0.038749071507854733 0 0.045364720942283755 0.039810767417725726 0 0.045856271749723863 0.038255973759462651 0 0.045364720942283755 0.039810767417725726 0 0.046264190506005935 0.038760212356622803 0 0.045856271749723863 0.038255973759462651 0 0.046220280326569711 0.040119873681990978 0 0.045364720942283755 0.039810767417725726 0 0.046264190506005935 0.038760212356622803 0 0.046264190506005935 0.038760212356622803 0 0.045856271749723863 0.038255973759462651 0 0.046475533297956791 0.037710496136795869 0 0.045856271749723863 0.038255973759462651 0 0.046475533297956791 0.037710496136795869 0 0.046329012755073007 0.037211734419785022 0 0.046724461912091002 0.036716242472856403 0 0.046737998196097967 0.037004534275552559 0 0.046329012755073007 0.037211734419785022 0 0.046475533297956791 0.037710496136795869 0 0.046737998196097967 0.037004534275552559 0 0.046329012755073007 0.037211734419785022 0 0.045856271749723863 0.038255973759462651 0 0.046329012755073007 0.037211734419785022 0 0.045903828726264619 0.037187864201379192 0 0.045197225000329209 0.038749071507854733 0 0.045856271749723863 0.038255973759462651 0 0.045903828726264619 0.037187864201379192 0 0.045442085883851673 0.03714961519233239 0 0.045197225000329209 0.038749071507854733 0 0.045903828726264619 0.037187864201379192 0 0.023016894150041007 0.028765850407301743 0 0.023011553803898445 0.028416607153736992 0 0.022952523742846336 0.028176814726665344 0 0.023526435038407043 0.028636584454849831 0 0.022438023359844402 0.028995883539664927 0 0.022952523742846336 0.028176814726665344 0 0.022438023359844402 0.028995883539664927 0 0.022114652631634365 0.028144396117245358 0 0.023526435038407043 0.028636584454849831 0 0.024292428893133166 0.027981130773489366 0 0.023713720231161282 0.027875706249603248 0 0.022952523742846336 0.028176814726665344 0 0.023526435038407043 0.028636584454849831 0 0.023713720231161282 0.027875706249603248 0 0.024292428893133166 0.027981130773489366 0 0.023713720231161282 0.027875706249603248 0 0.024330525896350232 0.027243367903159472 0 0.022952523742846336 0.028176814726665344 0 0.023713720231161282 0.027875706249603248 0 0.023407499300651946 0.027560635927342515 0 0.023407499300651946 0.027560635927342515 0 0.023712880939036143 0.026619855696160429 0 0.024330525896350232 0.027243367903159472 0 0.023713720231161282 0.027875706249603248 0 0.023407499300651946 0.027560635927342515 0 0.024330525896350232 0.027243367903159472 0 0.023407499300651946 0.027560635927342515 0 0.022571745910582131 0.027606795060203256 0 0.023712880939036143 0.026619855696160429 0 0.022952523742846336 0.028176814726665344 0 0.023407499300651946 0.027560635927342515 0 0.022571745910582131 0.027606795060203256 0 0.022952523742846336 0.028176814726665344 0 0.022571745910582131 0.027606795060203256 0 0.022114652631634365 0.028144396117245358 0 0.024546860859643957 0.040321523542240299 0 0.024512562795130692 0.040230731830964886 0 0.024570179236887014 0.040234645587679099 0 0.022571745910582131 0.027606795060203256 0 0.023712880939036143 0.026619855696160429 0 0.022309154686441915 0.026788452731638473 0 0.023920259035965348 0.032304871136063243 0 0.023628279098498173 0.039793193035923859 0 0.023629604624890173 0.044440891057435671 0 0.023628279098498173 0.039793193035923859 0 0.023348402538551423 0.044999978920893254 0 0.02319328484715321 0.045361852508260546 0 0.024887128333412233 0.046149240978063118 0 0.023348613103208744 0.044999665535231492 0 0.023629604624890173 0.044440891057435671 0 0.023348382936355456 0.044999996556033317 0 0.023191542075563246 0.045365995269794332 0 0.02241735374418867 0.044999998969161445 0 0.023629604624890173 0.044440891057435671 0 0.02241802266173527 0.04499948983958612 0 0.024546860859643957 0.040321523542240299 0 0.024508119056669664 0.040264456755747566 0 0.024512562795130692 0.040230731830964886 0 0.023629604624890173 0.044440891057435671 0 0.024758169145091397 0.043359755266355875 0 0.023348402538551423 0.044999978920893254 0 0.024887128333412233 0.046149240978063118 0 0.025938568917612741 0.04499997193292022 0 0.024758169145091397 0.043359755266355875 0 0.026058717643848785 0.039957542873760549 0 0.024508119056669664 0.040264456755747566 0 0.024512562795130692 0.040230731830964886 0 0.024509278628976658 0.040230420526156226 0 0.023712880939036143 0.026619855696160429 0 0.025144924098125087 0.026492472621734063 0 0.024330525896350232 0.027243367903159472 0 0.023920259035965348 0.032304871136063243 0 0.026058717643848785 0.039957542873760549 0 0.025123892603774785 0.026969332521570532 0 0.025144924098125087 0.026492472621734063 0 0.024330525896350232 0.027243367903159472 0 0.026576615206154938 0.046932117660129988 0 0.025938568917612741 0.04499997193292022 0 0.027435490920836299 0.045936094692280625 0 0.024887128333412233 0.046149240978063118 0 0.026576615206154938 0.046932117660129988 0 0.025938568917612741 0.04499997193292022 0 0.025938568917612741 0.04499997193292022 0 0.027435490920836299 0.045936094692280625 0 0.028528670487865993 0.044999966039796432 0 0.026058717643848785 0.039957542873760549 0 0.029583631618824914 0.036673506140581409 0 0.025123892603774785 0.026969332521570532 0 0.025144924098125087 0.026492472621734063 0 0.028932272075391063 0.028318639957815379 0 0.026576615206154938 0.046932117660129988 0 0.027435490920836299 0.045936094692280625 0 0.028701836611675038 0.046815393783942678 0 0.028398030030254151 0.045435526068972339 0 0.030258502300879307 0.046282908978074952 0 0.030023849227423727 0.045458671813274162 0 0.026058717643848785 0.039957542873760549 0 0.02959553565922984 0.046710101285652512 0 0.025123892603774785 0.026969332521570532 0 0.027240913864338755 0.029953076238965856 0 0.028932272075391063 0.028318639957815379 0 0.025123892603774785 0.026969332521570532 0 0.024963981661682455 0.027531206794619147 0 0.025678898690889834 0.027548084809815153 0 0.025208434023492196 0.02708653465406868 0 0.026473195962283036 0.028716718591154329 0 0.025123892603774785 0.026969332521570532 0 0.024330525896350232 0.027243367903159472 0 0.024963981661682455 0.027531206794619147 0 0.024292428893133166 0.027981130773489366 0 0.024330525896350232 0.027243367903159472 0 0.024963981661682455 0.027531206794619147 0 0.024292428893133166 0.027981130773489366 0 0.024963981661682455 0.027531206794619147 0 0.024905393231547002 0.028049410472123046 0 0.024292428893133166 0.027981130773489366 0 0.024905393231547002 0.028049410472123046 0 0.024178139292696271 0.028815613404795357 0 0.024963981661682455 0.027531206794619147 0 0.024905393231547002 0.028049410472123046 0 0.025678898690889834 0.027548084809815153 0 0.025678898690889834 0.027548084809815153 0 0.026756606739429537 0.028091396887500404 0 0.02535988428553558 0.028340361892612527 0 0.024905393231547002 0.028049410472123046 0 0.025678898690889834 0.027548084809815153 0 0.02535988428553558 0.028340361892612527 0 0.026473195962283036 0.028716718591154329 0 0.028034774886178563 0.030280589436660264 0 0.027240913864338755 0.029953076238965856 0 0.029766801731654968 0.030581358302740298 0 0.029261271594202023 0.032436908389748879 0 0.029766801731654968 0.030581358302740298 0 0.032181775864433208 0.030127095419756143 0 0.031040631000268881 0.031999028939872887 0 0.029766801731654968 0.030581358302740298 0 0.031040631000268881 0.031999028939872887 0 0.029261271594202023 0.032436908389748879 0 0.029766801731654968 0.030581358302740298 0 0.028932272075391063 0.028318639957815379 0 0.032181775864433208 0.030127095419756143 0 0.03114799387658539 0.046153847824472863 0 0.030258502300879307 0.046282908978074952 0 0.030857155227944123 0.045950093013609743 0 0.03114799387658539 0.046153847824472863 0 0.030258502300879307 0.046282908978074952 0 0.03139913751399951 0.046502688825244644 0 0.029583631618824914 0.036673506140581409 0 0.031819945421220207 0.038387625524838993 0 0.027240913864338755 0.029953076238965856 0 0.029766801731654968 0.030581358302740298 0 0.028932272075391063 0.028318639957815379 0 0.030258502300879307 0.046282908978074952 0 0.030023849227423727 0.045458671813274162 0 0.030857155227944123 0.045950093013609743 0 0.027435490920836299 0.045936094692280625 0 0.028701836611675038 0.046815393783942678 0 0.028528670487865993 0.044999966039796432 0 0.028701836611675038 0.046815393783942678 0 0.028528670487865993 0.044999966039796432 0 0.029715325683265317 0.045788252921374076 0 0.028701836611675038 0.046815393783942678 0 0.029715325683265317 0.045788252921374076 0 0.030008015282306729 0.04629004453761424 0 0.029715325683265317 0.045788252921374076 0 0.030755004926318535 0.045911597365676973 0 0.031119260994387481 0.044999843010462531 0 0.028528670487865993 0.044999966039796432 0 0.029715325683265317 0.045788252921374076 0 0.031119260994387481 0.044999843010462531 0 0.029715325683265317 0.045788252921374076 0 0.030008015282306729 0.04629004453761424 0 0.030755004926318535 0.045911597365676973 0 0.030008015282306729 0.04629004453761424 0 0.030755004926318535 0.045911597365676973 0 0.030857245717234687 0.046645232210061047 0 0.02959553565922984 0.046710101285652512 0 0.030983380823663167 0.046132912822430691 0 0.028701836611675038 0.046815393783942678 0 0.030008015282306729 0.04629004453761424 0 0.030857245717234687 0.046645232210061047 0 0.030023849227423727 0.045458671813274162 0 0.031209320384504333 0.045732629275077999 0 0.030857155227944123 0.045950093013609743 0 0.031209320384504333 0.045732629275077999 0 0.031139727329612323 0.04594381319342828 0 0.030857155227944123 0.045950093013609743 0 0.03114799387658539 0.046153847824472863 0 0.031139727329612323 0.04594381319342828 0 0.030857155227944123 0.045950093013609743 0 0.030983380823663167 0.046132912822430691 0 0.032763473971320366 0.046167380560956157 0 0.031206099133889581 0.046018453678389873 0 0.032397096022756415 0.046681878444058855 0 0.031139727329612323 0.04594381319342828 0 0.032043549265784892 0.046301135895617594 0 0.032814343388648005 0.047312264179016544 0 0.03114799387658539 0.046153847824472863 0 0.031139727329612323 0.04594381319342828 0 0.03184327818112704 0.046128273556526309 0 0.030857245717234687 0.046645232210061047 0 0.031873265444109525 0.045849083887194546 0 0.032930868019594266 0.046165829007704259 0 0.031209320384504333 0.045732629275077999 0 0.032043549265784892 0.046301135895617594 0 0.032930868019594266 0.046165829007704259 0 0.031209320384504333 0.045732629275077999 0 0.031139727329612323 0.04594381319342828 0 0.032043549265784892 0.046301135895617594 0 0.030755004926318535 0.045911597365676973 0 0.030857245717234687 0.046645232210061047 0 0.031873265444109525 0.045849083887194546 0 0.031873265444109525 0.045849083887194546 0 0.031119260994387481 0.044999843010462531 0 0.033708305119038245 0.044999793062737617 0 0.030755004926318535 0.045911597365676973 0 0.031873265444109525 0.045849083887194546 0 0.031119260994387481 0.044999843010462531 0 0.031873265444109525 0.045849083887194546 0 0.033708305119038245 0.044999793062737617 0 0.032930868019594266 0.046165829007704259 0 0.032043549265784892 0.046301135895617594 0 0.032930868019594266 0.046165829007704259 0 0.032814343388648005 0.047312264179016544 0 0.033909699031536317 0.047090135779100331 0 0.032930868019594266 0.046165829007704259 0 0.032814343388648005 0.047312264179016544 0 0.03114799387658539 0.046153847824472863 0 0.03184327818112704 0.046128273556526309 0 0.03139913751399951 0.046502688825244644 0 0.032181775864433208 0.030127095419756143 0 0.032670927870727062 0.032699890637296454 0 0.031040631000268881 0.031999028939872887 0 0.032240478988667019 0.046696223015788407 0 0.03184327818112704 0.046128273556526309 0 0.03139913751399951 0.046502688825244644 0 0.035320458663960802 0.031708967638258354 0 0.032181775864433208 0.030127095419756143 0 0.032670927870727062 0.032699890637296454 0 0.03360232390613966 0.039308908100591879 0 0.031819945421220207 0.038387625524838993 0 0.035320458663960802 0.031708967638258354 0 0.034421935876766278 0.033157859193407392 0 0.032670927870727062 0.032699890637296454 0 0.035320458663960802 0.031708967638258354 0 0.035594082542829551 0.03402463008740559 0 0.034421935876766278 0.033157859193407392 0 0.034421935876766278 0.033157859193407392 0 0.032670927870727062 0.032699890637296454 0 0.033576598440974117 0.034409584162175051 0 0.032670927870727062 0.032699890637296454 0 0.031098800427281699 0.034596320770353212 0 0.031040631000268881 0.031999028939872887 0 0.032771038223210501 0.0329108970026964 0 0.033485986855654307 0.034227505698612833 0 0.033364968806919491 0.034090002431436978 0 0.032870768099102006 0.035615585240273515 0 0.031098800427281699 0.034596320770353212 0 0.032670927870727062 0.032699890637296454 0 0.033364968806919491 0.034090002431436978 0 0.031098800427281699 0.034596320770353212 0 0.033485986855654307 0.034227505698612833 0 0.034608482339606575 0.035326676047896598 0 0.035594082542829551 0.03402463008740559 0 0.033576598440974117 0.034409584162175051 0 0.034481123315629532 0.036048292880873689 0 0.033364968806919491 0.034090002431436978 0 0.034069375060067977 0.035416724241299241 0 0.032870768099102006 0.035615585240273515 0 0.035594082542829551 0.03402463008740559 0 0.034421935876766278 0.033157859193407392 0 0.033576598440974117 0.034409584162175051 0 0.039875090756454748 0.036601021053743812 0 0.034608482339606575 0.035326676047896598 0 0.034715622654899976 0.036859694040648872 0 0.033937844190155893 0.035439309510395298 0 0.033582242756310304 0.036245781687024019 0 0.033937844190155893 0.035439309510395298 0 0.033582242756310304 0.036245781687024019 0 0.032870768099102006 0.035615585240273515 0 0.034608482339606575 0.035326676047896598 0 0.032972123773947933 0.035601642924845363 0 0.033582242756310304 0.036245781687024019 0 0.033707364768241606 0.036888787776367907 0 0.032653011331479471 0.036416893832735095 0 0.034715622654899976 0.036859694040648872 0 0.033582242756310304 0.036245781687024019 0 0.033707364768241606 0.036888787776367907 0 0.031439789602774666 0.033415694308414332 0 0.035023091449932535 0.034979485353685912 0 0.033707364768241606 0.036888787776367907 0 0.032653011331479471 0.036416893832735095 0 0.033956852345708458 0.0380628270827282 0 0.032034232883791369 0.032081731894186852 0 0.030608062476661927 0.030406386480043467 0 0.033023588500859187 0.032359009907834566 0 0.034715622654899976 0.036859694040648872 0 0.033707364768241606 0.036888787776367907 0 0.033956852345708458 0.0380628270827282 0 0.039875090756454748 0.036601021053743812 0 0.035023091449932535 0.034979485353685912 0 0.032034232883791369 0.032081731894186852 0 0.031096559771024854 0.031724343727546817 0 0.030608062476661927 0.030406386480043467 0 0.029662791538983008 0.031340698061280613 0 0.030608062476661927 0.030406386480043467 0 0.028732738046496488 0.030348549074261166 0 0.030314806681483907 0.032186128651767551 0 0.029662791538983008 0.031340698061280613 0 0.029354424595028149 0.032807655011384385 0 0.030424350774527948 0.031406975680199067 0 0.030314806681483907 0.032186128651767551 0 0.029662791538983008 0.031340698061280613 0 0.030424350774527948 0.031406975680199067 0 0.030314806681483907 0.032186128651767551 0 0.031096559771024854 0.031724343727546817 0 0.030314806681483907 0.032186128651767551 0 0.031096559771024854 0.031724343727546817 0 0.031415708063442224 0.032479948465603425 0 0.032034232883791369 0.032081731894186852 0 0.031096559771024854 0.031724343727546817 0 0.031415708063442224 0.032479948465603425 0 0.030424350774527948 0.031406975680199067 0 0.031096559771024854 0.031724343727546817 0 0.030608062476661927 0.030406386480043467 0 0.030424350774527948 0.031406975680199067 0 0.029662791538983008 0.031340698061280613 0 0.030608062476661927 0.030406386480043467 0 0.030608062476661927 0.030406386480043467 0 0.028732738046496488 0.030348549074261166 0 0.028420378738870079 0.028941548779305954 0 0.032653011331479471 0.036416893832735095 0 0.032870768099102006 0.035615585240273515 0 0.031098800427281699 0.034596320770353212 0 0.031439789602774666 0.033415694308414332 0 0.029814242511381199 0.031815258616850452 0 0.033582242756310304 0.036245781687024019 0 0.032653011331479471 0.036416893832735095 0 0.032870768099102006 0.035615585240273515 0 0.028732738046496488 0.030348549074261166 0 0.027505235181877839 0.029718139374105283 0 0.028420378738870079 0.028941548779305954 0 0.028732738046496488 0.030348549074261166 0 0.027509554233265735 0.030515969593735686 0 0.027505235181877839 0.029718139374105283 0 0.029662791538983008 0.031340698061280613 0 0.028732738046496488 0.030348549074261166 0 0.028235351957003108 0.031616841149479533 0 0.028732738046496488 0.030348549074261166 0 0.028235351957003108 0.031616841149479533 0 0.027509554233265735 0.030515969593735686 0 0.029662791538983008 0.031340698061280613 0 0.028235351957003108 0.031616841149479533 0 0.029354424595028149 0.032807655011384385 0 0.028235351957003108 0.031616841149479533 0 0.026292262345825983 0.031168794747914546 0 0.027509554233265735 0.030515969593735686 0 0.028235351957003108 0.031616841149479533 0 0.026292262345825983 0.031168794747914546 0 0.027559439609496354 0.033094795375551239 0 0.026292262345825983 0.031168794747914546 0 0.027509554233265735 0.030515969593735686 0 0.026575283951522095 0.029973295093418208 0 0.026292262345825983 0.031168794747914546 0 0.026575283951522095 0.029973295093418208 0 0.025626526944732646 0.030345574146990007 0 0.027509554233265735 0.030515969593735686 0 0.027505235181877839 0.029718139374105283 0 0.026575283951522095 0.029973295093418208 0 0.027505235181877839 0.029718139374105283 0 0.026575283951522095 0.029973295093418208 0 0.026422569711506558 0.029025160936626274 0 0.026575283951522095 0.029973295093418208 0 0.026422569711506558 0.029025160936626274 0 0.025405193343480414 0.029728487761449107 0 0.027505235181877839 0.029718139374105283 0 0.026422569711506558 0.029025160936626274 0 0.028420378738870079 0.028941548779305954 0 0.026422569711506558 0.029025160936626274 0 0.028420378738870079 0.028941548779305954 0 0.026756606739429537 0.028091396887500404 0 0.031098800427281699 0.034596320770353212 0 0.031040631000268881 0.031999028939872887 0 0.029261271594202023 0.032436908389748879 0 0.029814242511381199 0.031815258616850452 0 0.028034774886178563 0.030280589436660264 0 0.026422569711506558 0.029025160936626274 0 0.026756606739429537 0.028091396887500404 0 0.02535988428553558 0.028340361892612527 0 0.024905393231547002 0.028049410472123046 0 0.02535988428553558 0.028340361892612527 0 0.024178139292696271 0.028815613404795357 0 0.02535988428553558 0.028340361892612527 0 0.025276397188089481 0.029065317853121411 0 0.024178139292696271 0.028815613404795357 0 0.025276397188089481 0.029065317853121411 0 0.024643308529484046 0.029656667127208311 0 0.024178139292696271 0.028815613404795357 0 0.024643308529484046 0.029656667127208311 0 0.023980188899156648 0.030009193333437236 0 0.024178139292696271 0.028815613404795357 0 0.026422569711506558 0.029025160936626274 0 0.025276397188089481 0.029065317853121411 0 0.025405193343480414 0.029728487761449107 0 0.026422569711506558 0.029025160936626274 0 0.02535988428553558 0.028340361892612527 0 0.025276397188089481 0.029065317853121411 0 0.025276397188089481 0.029065317853121411 0 0.025405193343480414 0.029728487761449107 0 0.024643308529484046 0.029656667127208311 0 0.026575283951522095 0.029973295093418208 0 0.025405193343480414 0.029728487761449107 0 0.025626526944732646 0.030345574146990007 0 0.025405193343480414 0.029728487761449107 0 0.025104253912051976 0.03020450313194167 0 0.024700259066158275 0.030143244029552943 0 0.025104253912051976 0.03020450313194167 0 0.025626526944732646 0.030345574146990007 0 0.024663351285306286 0.030655138075318979 0 0.025405193343480414 0.029728487761449107 0 0.025104253912051976 0.03020450313194167 0 0.025626526944732646 0.030345574146990007 0 0.025104253912051976 0.03020450313194167 0 0.024663351285306286 0.030655138075318979 0 0.024700259066158275 0.030143244029552943 0 0.024507124845349469 0.030530792618697948 0 0.024099358421004101 0.030035999825328685 0 0.023629941455421691 0.030038002796548592 0 0.026292262345825983 0.031168794747914546 0 0.025626526944732646 0.030345574146990007 0 0.024663351285306286 0.030655138075318979 0 0.024583207371905835 0.030669621029264099 0 0.024841879778921896 0.031449138407249638 0 0.026292262345825983 0.031168794747914546 0 0.024663351285306286 0.030655138075318979 0 0.025886565145739816 0.032764376671310408 0 0.024663351285306286 0.030655138075318979 0 0.024507124845349469 0.030530792618697948 0 0.023629941455421691 0.030038002796548592 0 0.024663351285306286 0.030655138075318979 0 0.024507124845349469 0.030530792618697948 0 0.02451880901221843 0.030540198374875056 0 0.024268266356307615 0.03094389560534842 0 0.024333368461177524 0.030655086267288193 0 0.023836996116235579 0.03073559423802074 0 0.024507124845349469 0.030530792618697948 0 0.024268266356307615 0.03094389560534842 0 0.024333368461177524 0.030655086267288193 0 0.024507124845349469 0.030530792618697948 0 0.024222895454770334 0.030131957857614737 0 0.024099358421004101 0.030035999825328685 0 0.024309578540970083 0.030603220822009135 0 0.024506797479417947 0.030314446183116437 0 0.024507124845349469 0.030530792618697948 0 0.02451880901221843 0.030540198374875056 0 0.024333368461177524 0.030655086267288193 0 0.02451880901221843 0.030540198374875056 0 0.024333368461177524 0.030655086267288193 0 0.024288533865462383 0.030378284950044129 0 0.024333368461177524 0.030655086267288193 0 0.024288533865462383 0.030378284950044129 0 0.023836996116235579 0.03073559423802074 0 0.024663351285306286 0.030655138075318979 0 0.02451880901221843 0.030540198374875056 0 0.024700259066158275 0.030143244029552943 0 0.02451880901221843 0.030540198374875056 0 0.024288533865462383 0.030378284950044129 0 0.024700259066158275 0.030143244029552943 0 0.025405193343480414 0.029728487761449107 0 0.024700259066158275 0.030143244029552943 0 0.024643308529484046 0.029656667127208311 0 0.024288533865462383 0.030378284950044129 0 0.024700259066158275 0.030143244029552943 0 0.024643308529484046 0.029656667127208311 0 0.024288533865462383 0.030378284950044129 0 0.024643308529484046 0.029656667127208311 0 0.023831134721675994 0.030117400028684797 0 0.025010741781426121 0.029470550864941759 0 0.022533862767456531 0.030864157860792694 0 0.023546202370337686 0.031753540098943961 0 0.022239409856372312 0.031388261579820484 0 0.022911819030623851 0.030704138584535055 0 0.024288533865462383 0.030378284950044129 0 0.023831134721675994 0.030117400028684797 0 0.023836996116235579 0.03073559423802074 0 0.019443003643446883 0.032142385327968183 0 0.019390945590665752 0.032458957666351859 0 0.018977635508235051 0.032428656588270835 0 0.022533862767456531 0.030864157860792694 0 0.021623513949051442 0.031737218323280018 0 0.019390945590665752 0.032458957666351859 0 0.019172233134756914 0.032583064738313364 0 0.019331515188607304 0.032737098371432356 0 0.024268266356307615 0.03094389560534842 0 0.023836996116235579 0.03073559423802074 0 0.023771333098462546 0.031320036672274128 0 0.018977635508235051 0.032428656588270835 0 0.019172233134756914 0.032583064738313364 0 0.018994643612158354 0.032706626788701704 0 0.019390945590665752 0.032458957666351859 0 0.018977635508235051 0.032428656588270835 0 0.019172233134756914 0.032583064738313364 0 0.022533862767456531 0.030864157860792694 0 0.020093218670498368 0.032668916007479877 0 0.021684904839886172 0.032540836011131197 0 0.022239409856372312 0.031388261579820484 0 0.021066194150008537 0.031285559971843298 0 0.023546202370337686 0.031753540098943961 0 0.021684904839886172 0.032540836011131197 0 0.022239409856372312 0.031388261579820484 0 0.022017520255070904 0.030636321712731538 0 0.022683102445965071 0.029642870498207463 0 0.021058512768440247 0.030037945749869961 0 0.022239409856372312 0.031388261579820484 0 0.022017520255070904 0.030636321712731538 0 0.021066194150008537 0.031285559971843298 0 0.022017520255070904 0.030636321712731538 0 0.022911819030623851 0.030704138584535055 0 0.022683102445965071 0.029642870498207463 0 0.022239409856372312 0.031388261579820484 0 0.022017520255070904 0.030636321712731538 0 0.022911819030623851 0.030704138584535055 0 0.022533862767456531 0.030864157860792694 0 0.024169470083902828 0.029320874321982264 0 0.023546202370337686 0.031753540098943961 0 0.022911819030623851 0.030704138584535055 0 0.02387620001511984 0.029882899068033077 0 0.022911819030623851 0.030704138584535055 0 0.02387620001511984 0.029882899068033077 0 0.022683102445965071 0.029642870498207463 0 0.024228485064051855 0.028055218450456332 0 0.024169470083902828 0.029320874321982264 0 0.023526435038407043 0.028636584454849831 0 0.02387620001511984 0.029882899068033077 0 0.022683102445965071 0.029642870498207463 0 0.023526435038407043 0.028636584454849831 0 0.024292428893133166 0.027981130773489366 0 0.02387620001511984 0.029882899068033077 0 0.023526435038407043 0.028636584454849831 0 0.021698767576039689 0.028826350451452286 0 0.022683102445965071 0.029642870498207463 0 0.021698767576039689 0.028826350451452286 0 0.022683102445965071 0.029642870498207463 0 0.021058512768440247 0.030037945749869961 0 0.019396062005357748 0.032573327993842029 0 0.019674046172213362 0.032383155080832407 0 0.019234840377275936 0.032413289893237357 0 0.019674046172213362 0.032383155080832407 0 0.019379593403991622 0.032147260647355791 0 0.019234840377275936 0.032413289893237357 0 0.023826865433176921 0.028959711660850387 0 0.02345040823882347 0.02881734104960143 0 0.0235956888250703 0.028499320952540014 0 0.023826865433176921 0.028959711660850387 0 0.023794919131112514 0.029263876896916105 0 0.02345040823882347 0.02881734104960143 0 0.023826865433176921 0.028959711660850387 0 0.02411242481254439 0.029409598050693 0 0.023794919131112514 0.029263876896916105 0 0.021795621475528854 0.031148144660101022 0 0.021968374889635441 0.030453697032449194 0 0.019674046172213362 0.032383155080832407 0 0.019379593403991622 0.032147260647355791 0 0.019752613147206052 0.031938940599264297 0 0.019379593403991622 0.032147260647355791 0 0.019337387951998394 0.031805111295170031 0 0.019752613147206052 0.031938940599264297 0 0.018736688141539427 0.0325650143782008 0 0.021583304018318521 0.031399271130576577 0 0.018920720833590129 0.032926874490928765 0 0.018994643612158354 0.032706626788701704 0 0.019331515188607304 0.032737098371432356 0 0.019172233134756914 0.032583064738313364 0 0.018994643612158354 0.032706626788701704 0 0.019331515188607304 0.032737098371432356 0 0.021623513949051442 0.031737218323280018 0 0.021583304018318521 0.031399271130576577 0 0.024506797479417947 0.030314446183116437 0 0.021583304018318521 0.031399271130576577 0 0.02429142672772926 0.029907571643367548 0 0.02411242481254439 0.029409598050693 0 0.02411598362773535 0.029849306086531198 0 0.021583304018318521 0.031399271130576577 0 0.021968374889635441 0.030453697032449194 0 0.019337387951998394 0.031805111295170031 0 0.019818991296573062 0.031441660302722822 0 0.019752613147206052 0.031938940599264297 0 0.023887146334501917 0.029602705660903169 0 0.023553923984317403 0.029423294425503725 0 0.023794919131112514 0.029263876896916105 0 0.02411242481254439 0.029409598050693 0 0.023887146334501917 0.029602705660903169 0 0.023794919131112514 0.029263876896916105 0 0.02411242481254439 0.029409598050693 0 0.023887146334501917 0.029602705660903169 0 0.02411598362773535 0.029849306086531198 0 0.023887146334501917 0.029602705660903169 0 0.02411598362773535 0.029849306086531198 0 0.024099358421004101 0.030035999825328685 0 0.024222895454770334 0.030131957857614737 0 0.02411598362773535 0.029849306086531198 0 0.024099358421004101 0.030035999825328685 0 0.024222895454770334 0.030131957857614737 0 0.02429142672772926 0.029907571643367548 0 0.02411598362773535 0.029849306086531198 0 0.023887146334501917 0.029602705660903169 0 0.024099358421004101 0.030035999825328685 0 0.023629941455421691 0.030038002796548592 0 0.023887146334501917 0.029602705660903169 0 0.023629941455421691 0.030038002796548592 0 0.023553923984317403 0.029423294425503725 0 0.023553923984317403 0.029423294425503725 0 0.023540314514838841 0.029076558789019422 0 0.023794919131112514 0.029263876896916105 0 0.023553923984317403 0.029423294425503725 0 0.023540314514838841 0.029076558789019422 0 0.023368306906038978 0.029051544269295258 0 0.023540314514838841 0.029076558789019422 0 0.023794919131112514 0.029263876896916105 0 0.02345040823882347 0.02881734104960143 0 0.023540314514838841 0.029076558789019422 0 0.02345040823882347 0.02881734104960143 0 0.023357981552644888 0.028696867237012695 0 0.023540314514838841 0.029076558789019422 0 0.023368306906038978 0.029051544269295258 0 0.023357981552644888 0.028696867237012695 0 0.02311698851418386 0.029126824102236059 0 0.023368306906038978 0.029051544269295258 0 0.023361714626403657 0.028758177518720743 0 0.023368306906038978 0.029051544269295258 0 0.023361714626403657 0.028758177518720743 0 0.023357981552644888 0.028696867237012695 0 0.028699134202323458 0.034191402504526625 0 0.028836481739057271 0.029518479340254693 0 0.030030831026252626 0.040090936316731378 0 0.02849041884248759 0.037584877242702514 0 0.030889259663326611 0.037407367980950464 0 0.030824502927564369 0.036540427406512428 0 0.028699134202323458 0.034191402504526625 0 0.031524038782933292 0.032365594693026065 0 0.032850248642083343 0.03468413594257707 0 0.034107469238368777 0.031609972991255501 0 0.02849041884248759 0.037584877242702514 0 0.029533499337170345 0.034616573677445243 0 0.030889259663326611 0.037407367980950464 0 0.028699134202323458 0.034191402504526625 0 0.029188539644309949 0.035980022734656662 0 0.02311698851418386 0.029126824102236059 0 0.023368306906038978 0.029051544269295258 0 0.02325394456043901 0.029514706573003344 0 0.028699134202323458 0.034191402504526625 0 0.024836530219858603 0.03186460962361131 0 0.023553923984317403 0.029423294425503725 0 0.023368306906038978 0.029051544269295258 0 0.02325394456043901 0.029514706573003344 0 0.023629941455421691 0.030038002796548592 0 0.023553923984317403 0.029423294425503725 0 0.02325394456043901 0.029514706573003344 0 0.026292262345825983 0.031168794747914546 0 0.025886565145739816 0.032764376671310408 0 0.027559439609496354 0.033094795375551239 0 0.024841879778921896 0.031449138407249638 0 0.024836530219858603 0.03186460962361131 0 0.025886565145739816 0.032764376671310408 0 0.027148971531752737 0.034899874129287634 0 0.027559439609496354 0.033094795375551239 0 0.027559439609496354 0.033094795375551239 0 0.029354424595028149 0.032807655011384385 0 0.029533499337170345 0.034616573677445243 0 0.028235351957003108 0.031616841149479533 0 0.027559439609496354 0.033094795375551239 0 0.029354424595028149 0.032807655011384385 0 0.027148971531752737 0.034899874129287634 0 0.027559439609496354 0.033094795375551239 0 0.029533499337170345 0.034616573677445243 0 0.028493268262861027 0.037127399155597041 0 0.027148971531752737 0.034899874129287634 0 0.029533499337170345 0.034616573677445243 0 0.029533499337170345 0.034616573677445243 0 0.031145200712635733 0.033485670076534746 0 0.032450823988778535 0.035110026032983327 0 0.029533499337170345 0.034616573677445243 0 0.032450823988778535 0.035110026032983327 0 0.030889259663326611 0.037407367980950464 0 0.029354424595028149 0.032807655011384385 0 0.029533499337170345 0.034616573677445243 0 0.031145200712635733 0.033485670076534746 0 0.031145200712635733 0.033485670076534746 0 0.031415708063442224 0.032479948465603425 0 0.032006820736498937 0.032969705884546396 0 0.030314806681483907 0.032186128651767551 0 0.031145200712635733 0.033485670076534746 0 0.031415708063442224 0.032479948465603425 0 0.030314806681483907 0.032186128651767551 0 0.029354424595028149 0.032807655011384385 0 0.031145200712635733 0.033485670076534746 0 0.033070676592158059 0.032319546806953058 0 0.033782894685689173 0.033948440408372894 0 0.035644983997560525 0.034520639563661665 0 0.035003401608151637 0.034800768385048392 0 0.035023091449932535 0.034979485353685912 0 0.032944492096409032 0.032533327118599353 0 0.033023588500859187 0.032359009907834566 0 0.032569667525971832 0.032379871429848293 0 0.032034232883791369 0.032081731894186852 0 0.032569667525971832 0.032379871429848293 0 0.032275023136510733 0.032550538829107384 0 0.032034232883791369 0.032081731894186852 0 0.033023588500859187 0.032359009907834566 0 0.032569667525971832 0.032379871429848293 0 0.032034232883791369 0.032081731894186852 0 0.031415708063442224 0.032479948465603425 0 0.032275023136510733 0.032550538829107384 0 0.031415708063442224 0.032479948465603425 0 0.032275023136510733 0.032550538829107384 0 0.032006820736498937 0.032969705884546396 0 0.032275023136510733 0.032550538829107384 0 0.032534970065302524 0.032859012912430409 0 0.032006820736498937 0.032969705884546396 0 0.032944492096409032 0.032533327118599353 0 0.032569667525971832 0.032379871429848293 0 0.032275023136510733 0.032550538829107384 0 0.032944492096409032 0.032533327118599353 0 0.032275023136510733 0.032550538829107384 0 0.032534970065302524 0.032859012912430409 0 0.031145200712635733 0.033485670076534746 0 0.032006820736498937 0.032969705884546396 0 0.032921571285246976 0.033389920548564357 0 0.032534970065302524 0.032859012912430409 0 0.032006820736498937 0.032969705884546396 0 0.032921571285246976 0.033389920548564357 0 0.032944492096409032 0.032533327118599353 0 0.032534970065302524 0.032859012912430409 0 0.032921571285246976 0.033389920548564357 0 0.032944492096409032 0.032533327118599353 0 0.033070676592158059 0.032319546806953058 0 0.033782894685689173 0.033948440408372894 0 0.032944492096409032 0.032533327118599353 0 0.032921571285246976 0.033389920548564357 0 0.033782894685689173 0.033948440408372894 0 0.031145200712635733 0.033485670076534746 0 0.032921571285246976 0.033389920548564357 0 0.032450823988778535 0.035110026032983327 0 0.032921571285246976 0.033389920548564357 0 0.033782894685689173 0.033948440408372894 0 0.032450823988778535 0.035110026032983327 0 0.033782894685689173 0.033948440408372894 0 0.032450823988778535 0.035110026032983327 0 0.034173112129232422 0.035915473580170047 0 0.032450823988778535 0.035110026032983327 0 0.034173112129232422 0.035915473580170047 0 0.032942153824010535 0.037576400385346327 0 0.03455466107343759 0.037785073623693544 0 0.032942153824010535 0.037576400385346327 0 0.034062989156131283 0.039265387848416745 0 0.034173112129232422 0.035915473580170047 0 0.03455466107343759 0.037785073623693544 0 0.032942153824010535 0.037576400385346327 0 0.032450823988778535 0.035110026032983327 0 0.032942153824010535 0.037576400385346327 0 0.030889259663326611 0.037407367980950464 0 0.032942153824010535 0.037576400385346327 0 0.030889259663326611 0.037407367980950464 0 0.031996978854275181 0.039590751450883428 0 0.030030831026252626 0.040090936316731378 0 0.030889259663326611 0.037407367980950464 0 0.031996978854275181 0.039590751450883428 0 0.031996978854275181 0.039590751450883428 0 0.034062989156131283 0.039265387848416745 0 0.033501554106266769 0.040847547030654616 0 0.034062989156131283 0.039265387848416745 0 0.033501554106266769 0.040847547030654616 0 0.035358409097067868 0.04041612788323435 0 0.032942153824010535 0.037576400385346327 0 0.031996978854275181 0.039590751450883428 0 0.034062989156131283 0.039265387848416745 0 0.033501554106266769 0.040847547030654616 0 0.032906476087604351 0.043156133095071519 0 0.03597004334716021 0.042019785706306552 0 0.033501554106266769 0.040847547030654616 0 0.032274227865570833 0.042099346992654781 0 0.032906476087604351 0.043156133095071519 0 0.031901114378046477 0.042439970609066721 0 0.03398007170403107 0.035823464242130905 0 0.031996978854275181 0.039590751450883428 0 0.033501554106266769 0.040847547030654616 0 0.031629781963582557 0.042653169499292508 0 0.030030831026252626 0.040090936316731378 0 0.031996978854275181 0.039590751450883428 0 0.031629781963582557 0.042653169499292508 0 0.031524038782933292 0.032365594693026065 0 0.030175811302351922 0.030034085809055283 0 0.032124856722306069 0.0303961974084355 0 0.030824502927564369 0.036540427406512428 0 0.03398007170403107 0.035823464242130905 0 0.037332748257041436 0.030125660254620077 0 0.035700053500743185 0.027298252694480187 0 0.040520371945613906 0.026853937581159285 0 0.03398007170403107 0.035823464242130905 0 0.039921005867048026 0.025603869642345341 0 0.035700053500743185 0.027298252694480187 0 0.039702541895446433 0.025446404816443845 0 0.040520371945613906 0.026853937581159285 0 0.03398007170403107 0.035823464242130905 0 0.036026501043208974 0.027879256163296007 0 0.030175811302351922 0.030034085809055283 0 0.031667848382639627 0.028473190653629368 0 0.032124856722306069 0.0303961974084355 0 0.039921005867048026 0.025603869642345341 0 0.043329477004550025 0.020871743633203373 0 0.045174234241685013 0.016935529025820593 0 0.045263811440677683 0.016678629085635419 0 0.045506642187594981 0.016728984243587527 0 0.045233386221608954 0.01733029491613922 0 0.045046152259270389 0.016722851959058326 0 0.044858435192957034 0.017311266376023877 0 0.045233386221608954 0.01733029491613922 0 0.044782164515924386 0.017666855006016818 0 0.044858435192957034 0.017311266376023877 0 0.039921005867048026 0.025603869642345341 0 0.039862722201456612 0.030180895864716475 0 0.045046152259270389 0.016722851959058326 0 0.044858435192957034 0.017311266376023877 0 0.044772022732821527 0.016499162831937229 0 0.039921005867048026 0.025603869642345341 0 0.043592496701644001 0.016109244682604239 0 0.045174234241685013 0.016935529025820593 0 0.045046152259270389 0.016722851959058326 0 0.045263811440677683 0.016678629085635419 0 0.045046152259270389 0.016722851959058326 0 0.04490409896869036 0.016019437894480182 0 0.045359368855887428 0.01628656618544146 0 0.045046152259270389 0.016722851959058326 0 0.04490409896869036 0.016019437894480182 0 0.044772022732821527 0.016499162831937229 0 0.04490409896869036 0.016019437894480182 0 0.045359368855887428 0.01628656618544146 0 0.04534297971724853 0.015765500576292297 0 0.045359368855887428 0.01628656618544146 0 0.045643580980059634 0.016246114075681741 0 0.045671155404255287 0.015788395873879785 0 0.045359368855887428 0.01628656618544146 0 0.04534297971724853 0.015765500576292297 0 0.045671155404255287 0.015788395873879785 0 0.045359368855887428 0.01628656618544146 0 0.045263811440677683 0.016678629085635419 0 0.045506642187594981 0.016728984243587527 0 0.045359368855887428 0.01628656618544146 0 0.045506642187594981 0.016728984243587527 0 0.045643580980059634 0.016246114075681741 0 0.045046152259270389 0.016722851959058326 0 0.045359368855887428 0.01628656618544146 0 0.045263811440677683 0.016678629085635419 0 0.04199921287351991 0.021449353538676053 0 0.036026501043208974 0.027879256163296007 0 0.039702541895446433 0.025446404816443845 0 0.043679870436723493 0.023575710086994595 0 0.040520371945613906 0.026853937581159285 0 0.043329477004550025 0.020871743633203373 0 0.04199921287351991 0.021449353538676053 0 0.045838507062078759 0.016447946709818372 0 0.045643580980059634 0.016246114075681741 0 0.045832644195766728 0.016012667909118126 0 0.045506642187594981 0.016728984243587527 0 0.045838507062078759 0.016447946709818372 0 0.045643580980059634 0.016246114075681741 0 0.045643580980059634 0.016246114075681741 0 0.045832644195766728 0.016012667909118126 0 0.045671155404255287 0.015788395873879785 0 0.045832644195766728 0.016012667909118126 0 0.045921420607820236 0.015770626756472526 0 0.045671155404255287 0.015788395873879785 0 0.045921420607820236 0.015770626756472526 0 0.046031420494877184 0.015850019827960568 0 0.045931466224971115 0.015658724286336412 0 0.045838507062078759 0.016447946709818372 0 0.045832644195766728 0.016012667909118126 0 0.046031420494877184 0.015850019827960568 0 0.042392255646015523 0.019047008857041654 0 0.044160941723208488 0.017175027543682379 0 0.045208578336488038 0.017579287076390383 0 0.045832644195766728 0.016012667909118126 0 0.045921420607820236 0.015770626756472526 0 0.046031420494877184 0.015850019827960568 0 0.033177698245610059 0.026909115696691865 0 0.035359142507887631 0.028469578226718445 0 0.036564346123880195 0.025310593250959981 0 0.04199921287351991 0.021449353538676053 0 0.032461096041093165 0.022299858313039655 0 0.04199921287351991 0.021449353538676053 0 0.045651211636219553 0.01585237734684208 0 0.035359142507887631 0.028469578226718445 0 0.033288509635735694 0.029175840480738555 0 0.034107469238368777 0.031609972991255501 0 0.033177698245610059 0.026909115696691865 0 0.035359142507887631 0.028469578226718445 0 0.033288509635735694 0.029175840480738555 0 0.033177698245610059 0.026909115696691865 0 0.031667848382639627 0.028473190653629368 0 0.033288509635735694 0.029175840480738555 0 0.031667848382639627 0.028473190653629368 0 0.033288509635735694 0.029175840480738555 0 0.032124856722306069 0.0303961974084355 0 0.033288509635735694 0.029175840480738555 0 0.032124856722306069 0.0303961974084355 0 0.034107469238368777 0.031609972991255501 0 0.031524038782933292 0.032365594693026065 0 0.032124856722306069 0.0303961974084355 0 0.034107469238368777 0.031609972991255501 0 0.023639223374697354 0.028837456035432224 0 0.023361714626403657 0.028758177518720743 0 0.023357981552644888 0.028696867237012695 0 0.028981304251108914 0.029926568866812487 0 0.028836481739057271 0.029518479340254693 0 0.023357981552644888 0.028696867237012695 0 0.023021780333324478 0.028430370754511356 0 0.023249193780471637 0.028715152528358011 0 0.02345040823882347 0.02881734104960143 0 0.023357981552644888 0.028696867237012695 0 0.023021780333324478 0.028430370754511356 0 0.023021780333324478 0.028430370754511356 0 0.022793428356988121 0.029111547698287391 0 0.022225791511073081 0.028687979809035841 0 0.023021780333324478 0.028430370754511356 0 0.023249193780471637 0.028715152528358011 0 0.022793428356988121 0.029111547698287391 0 0.023639223374697354 0.028837456035432224 0 0.023357981552644888 0.028696867237012695 0 0.023249193780471637 0.028715152528358011 0 0.023639223374697354 0.028837456035432224 0 0.023249193780471637 0.028715152528358011 0 0.022793428356988121 0.029111547698287391 0 0.028981304251108914 0.029926568866812487 0 0.032461096041093165 0.022299858313039655 0 0.023639223374697354 0.028837456035432224 0 0.023597083674497758 0.029836576293432095 0 0.022793428356988121 0.029111547698287391 0 0.044160941723208488 0.017175027543682379 0 0.045208578336488038 0.017579287076390383 0 0.045770201710490475 0.015806440885985491 0 0.045651211636219553 0.01585237734684208 0 0.045472082700197286 0.016128962190372652 0 0.032461096041093165 0.022299858313039655 0 0.022385366894054338 0.02460752311807592 0 0.023597083674497758 0.029836576293432095 0 0.022151946966376845 0.029763569422890972 0 0.022024711758939372 0.030944558455583554 0 0.023597083674497758 0.029836576293432095 0 0.022793428356988121 0.029111547698287391 0 0.022151946966376845 0.029763569422890972 0 0.022793428356988121 0.029111547698287391 0 0.022151946966376845 0.029763569422890972 0 0.021464675974024527 0.029057082305784215 0 0.022151946966376845 0.029763569422890972 0 0.021464675974024527 0.029057082305784215 0 0.020317434174051817 0.030193370111155474 0 0.022151946966376845 0.029763569422890972 0 0.022024711758939372 0.030944558455583554 0 0.020317434174051817 0.030193370111155474 0 0.018804356502305785 0.030873162574283255 0 0.020317434174051817 0.030193370111155474 0 0.018589951062112777 0.029293051803275232 0 0.020776232110531014 0.02769413459813698 0 0.020369167436477924 0.030312305524071333 0 0.020038319405312918 0.027097202599446122 0 0.020317434174051817 0.030193370111155474 0 0.018589951062112777 0.029293051803275232 0 0.018589951062112777 0.029293051803275232 0 0.018237987418572427 0.027546216293044684 0 0.01651455851670049 0.027984945726026257 0 0.020038319405312918 0.027097202599446122 0 0.018589951062112777 0.029293051803275232 0 0.018237987418572427 0.027546216293044684 0 0.020038319405312918 0.027097202599446122 0 0.017715101841043416 0.025867733584861878 0 0.02017575818264055 0.024212091246329275 0 0.020038319405312918 0.027097202599446122 0 0.018237987418572427 0.027546216293044684 0 0.017715101841043416 0.025867733584861878 0 0.022793428356988121 0.029111547698287391 0 0.021464675974024527 0.029057082305784215 0 0.022225791511073081 0.028687979809035841 0 0.021464675974024527 0.029057082305784215 0 0.022225791511073081 0.028687979809035841 0 0.021890731630948519 0.028083391908261514 0 0.020776232110531014 0.02769413459813698 0 0.020646173686391343 0.028469875876630683 0 0.023021780333324478 0.028430370754511356 0 0.022225791511073081 0.028687979809035841 0 0.021890731630948519 0.028083391908261514 0 0.02345040823882347 0.02881734104960143 0 0.023021780333324478 0.028430370754511356 0 0.0235956888250703 0.028499320952540014 0 0.021795621475528854 0.031148144660101022 0 0.020646173686391343 0.028469875876630683 0 0.023558385564057351 0.028525915152975916 0 0.020646173686391343 0.028469875876630683 0 0.019396062005357748 0.032573327993842029 0 0.019674046172213362 0.032383155080832407 0 0.019622587910179391 0.0327771578740488 0 0.017715101841043416 0.025867733584861878 0 0.02017575818264055 0.024212091246329275 0 0.016348126714356245 0.023692057126458287 0 0.020646173686391343 0.028469875876630683 0 0.017507203859893201 0.02812291817434948 0 0.019396062005357748 0.032573327993842029 0 0.019622587910179391 0.0327771578740488 0 0.019053259059865952 0.03272029363193793 0 0.046814700809951641 0.031903803304456677 0 0.045819846493865425 0.032263950558136828 0 0.04623479088135745 0.033007875182975127 0 0.046138469456401453 0.033946052178356237 0 0.045040644542101764 0.030346661541858638 0 0.04492653579752006 0.028941095152915056 0 0.044891949198920318 0.028888553845384055 0 0.044306133147810511 0.028998597991918128 0 0.04492653579752006 0.028941095152915056 0 0.044306133147810511 0.028998597991918128 0 0.044135062813011681 0.029266885740372846 0 0.046138469456401453 0.033946052178356237 0 0.045849855932546327 0.033118340615144827 0 0.047972836176122649 0.040509612997009968 0 0.046909162973761909 0.040126174325939692 0 0.047321700421445644 0.039062875479499735 0 0.047972836176122649 0.040509612997009968 0 0.046909162973761909 0.040126174325939692 0 0.046641604283131084 0.041310508081805315 0 0.046138469456401453 0.033946052178356237 0 0.047516086115416079 0.036632831659824006 0 0.046138469456401453 0.033946052178356237 0 0.046082975236394971 0.035453200105108933 0 0.044905239080596196 0.028925585039311606 0 0.044891949198920318 0.028888553845384055 0 0.045225341711663425 0.028749451125954353 0 0.044919126671572635 0.028655023731287865 0 0.044891949198920318 0.028888553845384055 0 0.045225341711663425 0.028749451125954353 0 0.044919126671572635 0.028655023731287865 0 0.044891949198920318 0.028888553845384055 0 0.044306133147810511 0.028998597991918128 0 0.045292819963620598 0.028869927355642033 0 0.044471513648256106 0.028706531210730898 0 0.045885840364531673 0.027523566568901377 0 0.044487742170579027 0.027983977766054761 0 0.044306133147810511 0.028998597991918128 0 0.045885840364531673 0.027523566568901377 0 0.044487742170579027 0.027983977766054761 0 0.044290475909927504 0.027240677920407422 0 0.04353523784145176 0.028165614043108782 0 0.044487742170579027 0.027983977766054761 0 0.044290475909927504 0.027240677920407422 0 0.04353523784145176 0.028165614043108782 0 0.044487742170579027 0.027983977766054761 0 0.044306133147810511 0.028998597991918128 0 0.043843089219050335 0.029437409812329278 0 0.043942690646696494 0.025623186144112187 0 0.044999985337308576 0.029691835012382244 0 0.045162182936289708 0.029623048062524641 0 0.044999990805036146 0.027837256205534209 0 0.04353523784145176 0.028165614043108782 0 0.042593148052336757 0.026917081415325797 0 0.044290475909927504 0.027240677920407422 0 0.04353523784145176 0.028165614043108782 0 0.042537861336639074 0.028522790629024602 0 0.042593148052336757 0.026917081415325797 0 0.045162182936289708 0.029623048062524641 0 0.045294052721884109 0.027711196970868757 0 0.044999990805036146 0.027837256205534209 0 0.044999985337308576 0.029691835012382244 0 0.045162182936289708 0.029623048062524641 0 0.044972084028643083 0.031533729877419273 0 0.042537861336639074 0.028522790629024602 0 0.043305966254167425 0.028990791363076383 0 0.042454092049759598 0.030094359768822413 0 0.043843089219050335 0.029437409812329278 0 0.043467170895517 0.030560931443804618 0 0.043305966254167425 0.028990791363076383 0 0.044135062813011681 0.029266885740372846 0 0.042454092049759598 0.030094359768822413 0 0.04353523784145176 0.028165614043108782 0 0.042537861336639074 0.028522790629024602 0 0.043305966254167425 0.028990791363076383 0 0.04353523784145176 0.028165614043108782 0 0.043305966254167425 0.028990791363076383 0 0.044306133147810511 0.028998597991918128 0 0.043305966254167425 0.028990791363076383 0 0.044306133147810511 0.028998597991918128 0 0.044135062813011681 0.029266885740372846 0 0.04554658494937474 0.032453471266863591 0 0.045718891981328287 0.033557471984570958 0 0.04623479088135745 0.033007875182975127 0 0.044998802024321299 0.034968994365075876 0 0.044999454781830088 0.031930159081330331 0 0.045718891981328287 0.033557471984570958 0 0.046192738778419069 0.03536049439270663 0 0.045718891981328287 0.033557471984570958 0 0.04623479088135745 0.033007875182975127 0 0.045819846493865425 0.032263950558136828 0 0.04554658494937474 0.032453471266863591 0 0.04623479088135745 0.033007875182975127 0 0.045040644542101764 0.030346661541858638 0 0.043467170895517 0.030560931443804618 0 0.04554658494937474 0.032453471266863591 0 0.044999454781830088 0.031930159081330331 0 0.045718891981328287 0.033557471984570958 0 0.045819846493865425 0.032263950558136828 0 0.044972455006257725 0.031535311641676049 0 0.04554658494937474 0.032453471266863591 0 0.044972455006257725 0.031535311641676049 0 0.04554658494937474 0.032453471266863591 0 0.044999454781830088 0.031930159081330331 0 0.04744632758760689 0.035013649943913865 0 0.046192738778419069 0.03536049439270663 0 0.047258648421646454 0.033161247843289055 0 0.046192738778419069 0.03536049439270663 0 0.04623479088135745 0.033007875182975127 0 0.047258648421646454 0.033161247843289055 0 0.046814700809951641 0.031903803304456677 0 0.04623479088135745 0.033007875182975127 0 0.047258648421646454 0.033161247843289055 0 0.047056195057426482 0.036289131373369185 0 0.047516086115416079 0.036632831659824006 0 0.046845995479430816 0.037888285637855394 0 0.047321700421445644 0.039062875479499735 0 0.046227997169240621 0.03836290218953 0 0.045483559888252943 0.037953142303612027 0 0.045491235587173287 0.038703260056924614 0 0.045000964073856599 0.038460162946370023 0 0.045483559888252943 0.037953142303612027 0 0.046227997169240621 0.03836290218953 0 0.045491235587173287 0.038703260056924614 0 0.045491235587173287 0.038703260056924614 0 0.045000964073856599 0.038460162946370023 0 0.044950383308846487 0.039004734793862565 0 0.046227997169240621 0.03836290218953 0 0.045491235587173287 0.038703260056924614 0 0.046129963334772699 0.039151996218867051 0 0.045286588314434849 0.039435280082202769 0 0.044950383308846487 0.039004734793862565 0 0.044550716676130329 0.039886301759519502 0 0.045491235587173287 0.038703260056924614 0 0.045286588314434849 0.039435280082202769 0 0.046129963334772699 0.039151996218867051 0 0.045491235587173287 0.038703260056924614 0 0.045286588314434849 0.039435280082202769 0 0.044950383308846487 0.039004734793862565 0 0.045286588314434849 0.039435280082202769 0 0.046129963334772699 0.039151996218867051 0 0.045961934411034695 0.040079987583560163 0 0.047321700421445644 0.039062875479499735 0 0.046227997169240621 0.03836290218953 0 0.046129963334772699 0.039151996218867051 0 0.046909162973761909 0.040126174325939692 0 0.047321700421445644 0.039062875479499735 0 0.046129963334772699 0.039151996218867051 0 0.035023091449932535 0.034979485353685912 0 0.039038833618570259 0.036323481265812092 0 0.04020121278590618 0.03587741233634606 0 0.041551292174161182 0.036451657890667032 0 0.041987493672026137 0.038217303061960216 0 0.044724490015463393 0.038015962083008226 0 0.043877542911407989 0.037461387263784583 0 0.044483047608856192 0.038631202650892683 0 0.041299874961983347 0.034116882304531797 0 0.041551292174161182 0.036451657890667032 0 0.042933942015369951 0.037010377050029027 0 0.039875090756454748 0.036601021053743812 0 0.04408152419899098 0.037816909388632192 0 0.041551292174161182 0.036451657890667032 0 0.042933942015369951 0.037010377050029027 0 0.041987493672026137 0.038217303061960216 0 0.044724490015463393 0.038015962083008226 0 0.044483047608856192 0.038631202650892683 0 0.045000964073856599 0.038460162946370023 0 0.044724490015463393 0.038015962083008226 0 0.045483559888252943 0.037953142303612027 0 0.045000964073856599 0.038460162946370023 0 0.044483047608856192 0.038631202650892683 0 0.045000964073856599 0.038460162946370023 0 0.044950383308846487 0.039004734793862565 0 0.04408152419899098 0.037816909388632192 0 0.044446661114484351 0.039780763945515253 0 0.044483047608856192 0.038631202650892683 0 0.044950383308846487 0.039004734793862565 0 0.044550716676130329 0.039886301759519502 0 0.042933942015369951 0.037010377050029027 0 0.041987493672026137 0.038217303061960216 0 0.044550716676130329 0.039886301759519502 0 0.034173112129232422 0.035915473580170047 0 0.035644983997560525 0.034520639563661665 0 0.035827407273619577 0.036805117633093687 0 0.033782894685689173 0.033948440408372894 0 0.034173112129232422 0.035915473580170047 0 0.035644983997560525 0.034520639563661665 0 0.035644983997560525 0.034520639563661665 0 0.035827407273619577 0.036805117633093687 0 0.039111470434664286 0.037189797080674464 0 0.039038833618570259 0.036323481265812092 0 0.041512700318690969 0.038954243808864746 0 0.03455466107343759 0.037785073623693544 0 0.035827407273619577 0.036805117633093687 0 0.03589742835429223 0.039118777580974436 0 0.034173112129232422 0.035915473580170047 0 0.03455466107343759 0.037785073623693544 0 0.035827407273619577 0.036805117633093687 0 0.035827407273619577 0.036805117633093687 0 0.039111470434664286 0.037189797080674464 0 0.03589742835429223 0.039118777580974436 0 0.041987493672026137 0.038217303061960216 0 0.043797565277204291 0.040418961344141982 0 0.044550716676130329 0.039886301759519502 0 0.043797565277204291 0.040418961344141982 0 0.044550716676130329 0.039886301759519502 0 0.044506732058522715 0.040380349924660164 0 0.043797565277204291 0.040418961344141982 0 0.044506732058522715 0.040380349924660164 0 0.044517349997372682 0.04097211388737039 0 0.039111470434664286 0.037189797080674464 0 0.039659525737017566 0.041314722502517026 0 0.03589742835429223 0.039118777580974436 0 0.043797565277204291 0.040418961344141982 0 0.044517349997372682 0.04097211388737039 0 0.044393882426563301 0.042130045350071241 0 0.041512700318690969 0.038954243808864746 0 0.044216918502851879 0.042018649627949371 0 0.039111470434664286 0.037189797080674464 0 0.039659525737017566 0.041314722502517026 0 0.044393882426563301 0.042130045350071241 0 0.039126356553745918 0.040311557007494177 0 0.04326583657208815 0.032083954524903105 0 0.037461694653704192 0.039795051799723438 0 0.03589742835429223 0.039118777580974436 0 0.035358409097067868 0.04041612788323435 0 0.039126356553745918 0.040311557007494177 0 0.036195600729620685 0.039264440932064007 0 0.034062989156131283 0.039265387848416745 0 0.03589742835429223 0.039118777580974436 0 0.035358409097067868 0.04041612788323435 0 0.03455466107343759 0.037785073623693544 0 0.034062989156131283 0.039265387848416745 0 0.03589742835429223 0.039118777580974436 0 0.046909162973761909 0.040126174325939692 0 0.046129963334772699 0.039151996218867051 0 0.045961934411034695 0.040079987583560163 0 0.046909162973761909 0.040126174325939692 0 0.045961934411034695 0.040079987583560163 0 0.046641604283131084 0.041310508081805315 0 0.045286588314434849 0.039435280082202769 0 0.045961934411034695 0.040079987583560163 0 0.045110322940956099 0.040253481534078948 0 0.045286588314434849 0.039435280082202769 0 0.044550716676130329 0.039886301759519502 0 0.045110322940956099 0.040253481534078948 0 0.044550716676130329 0.039886301759519502 0 0.044506732058522715 0.040380349924660164 0 0.045110322940956099 0.040253481534078948 0 0.044506732058522715 0.040380349924660164 0 0.045110322940956099 0.040253481534078948 0 0.044517349997372682 0.04097211388737039 0 0.045961934411034695 0.040079987583560163 0 0.045110322940956099 0.040253481534078948 0 0.04548880854530217 0.041192053254964167 0 0.04548880854530217 0.041192053254964167 0 0.046641604283131084 0.041310508081805315 0 0.04441113790824771 0.042711955686995984 0 0.046082975236394971 0.035453200105108933 0 0.04326583657208815 0.032083954524903105 0 0.045110322940956099 0.040253481534078948 0 0.04548880854530217 0.041192053254964167 0 0.044517349997372682 0.04097211388737039 0 0.04548880854530217 0.041192053254964167 0 0.044517349997372682 0.04097211388737039 0 0.044393882426563301 0.042130045350071241 0 0.039659525737017566 0.041314722502517026 0 0.044393882426563301 0.042130045350071241 0 0.04441113790824771 0.042711955686995984 0 0.04548880854530217 0.041192053254964167 0 0.044393882426563301 0.042130045350071241 0 0.04441113790824771 0.042711955686995984 0 0.045961934411034695 0.040079987583560163 0 0.04548880854530217 0.041192053254964167 0 0.046641604283131084 0.041310508081805315 0 0.045241199701276061 0.022409373710273382 0 0.04326583657208815 0.032083954524903105 0 0.045225341711663425 0.028749451125954353 0 0.045191760593285016 0.028424718427304773 0 0.045478982659207391 0.028636558851006785 0 0.044531019766684471 0.018021633717434239 0 0.04448201456098589 0.017713959405222801 0 0.044701750924331457 0.017559696267691858 0 0.044081669593962348 0.017826337124411666 0 0.044531019766684471 0.018021633717434239 0 0.04448201456098589 0.017713959405222801 0 0.04448201456098589 0.017713959405222801 0 0.044640472285217996 0.017478384631216811 0 0.044701750924331457 0.017559696267691858 0 0.04448201456098589 0.017713959405222801 0 0.044640472285217996 0.017478384631216811 0 0.044397890172597571 0.017466455006713812 0 0.044640472285217996 0.017478384631216811 0 0.044397890172597571 0.017466455006713812 0 0.044739094245534808 0.017353433718787833 0 0.044081669593962348 0.017826337124411666 0 0.04448201456098589 0.017713959405222801 0 0.044397890172597571 0.017466455006713812 0 0.045320190258168983 0.01977918296321856 0 0.045812598370366088 0.019293097053677984 0 0.045522792339023857 0.019178028196627672 0 0.045241199701276061 0.022409373710273382 0 0.045265764323346433 0.017921742716488422 0 0.033501554106266769 0.040847547030654616 0 0.035358409097067868 0.04041612788323435 0 0.03597004334716021 0.042019785706306552 0 0.037461694653704192 0.039795051799723438 0 0.035358409097067868 0.04041612788323435 0 0.03597004334716021 0.042019785706306552 0 0.044531019766684471 0.018021633717434239 0 0.044782164515924386 0.017666855006016818 0 0.044701750924331457 0.017559696267691858 0 0.037461694653704192 0.039795051799723438 0 0.039198864035674255 0.040582069695340534 0 0.03597004334716021 0.042019785706306552 0 0.04326583657208815 0.032083954524903105 0 0.039862722201456612 0.030180895864716475 0 0.044640472285217996 0.017478384631216811 0 0.044701750924331457 0.017559696267691858 0 0.044790072913202111 0.017371362604040732 0 0.044701750924331457 0.017559696267691858 0 0.044870516137286341 0.017306092058684282 0 0.044790072913202111 0.017371362604040732 0 0.044701750924331457 0.017559696267691858 0 0.044807338053168583 0.017450248808969619 0 0.044870516137286341 0.017306092058684282 0 0.044782164515924386 0.017666855006016818 0 0.044701750924331457 0.017559696267691858 0 0.044807338053168583 0.017450248808969619 0 0.044807338053168583 0.017450248808969619 0 0.044858435192957034 0.017311266376023877 0 0.044870516137286341 0.017306092058684282 0 0.044782164515924386 0.017666855006016818 0 0.044807338053168583 0.017450248808969619 0 0.044858435192957034 0.017311266376023877 0 0.044858435192957034 0.017311266376023877 0 0.044772022732821527 0.016499162831937229 0 0.044314435013969158 0.016350499388487542 0 0.044839586359779943 0.017274600515387751 0 0.044622181639479112 0.016792875387533435 0 0.044858435192957034 0.017311266376023877 0 0.044870516137286341 0.017306092058684282 0 0.044906427556046 0.017254731534106022 0 0.044935801851109056 0.017239724906871718 0 0.044870516137286341 0.017306092058684282 0 0.044906427556046 0.017254731534106022 0 0.044935801851109056 0.017239724906871718 0 0.044890020009054551 0.017267676386211669 0 0.044870516137286341 0.017306092058684282 0 0.044890020009054551 0.017267676386211669 0 0.044870516137286341 0.017306092058684282 0 0.044790072913202111 0.017371362604040732 0 0.044890020009054551 0.017267676386211669 0 0.044790072913202111 0.017371362604040732 0 0.044739094245534808 0.017353433718787833 0 0.044640472285217996 0.017478384631216811 0 0.044790072913202111 0.017371362604040732 0 0.044739094245534808 0.017353433718787833 0 0.044890020009054551 0.017267676386211669 0 0.044739094245534808 0.017353433718787833 0 0.044941994057523561 0.017195128299968918 0 0.044739094245534808 0.017353433718787833 0 0.044941994057523561 0.017195128299968918 0 0.044869372557887144 0.017208706803749349 0 0.044935801851109056 0.017239724906871718 0 0.044890020009054551 0.017267676386211669 0 0.044941994057523561 0.017195128299968918 0 0.045060317826081789 0.01718835592734649 0 0.045117665235047975 0.017187274775102464 0 0.045065545324792504 0.017228215529718729 0 0.044941994057523561 0.017195128299968918 0 0.045060317826081789 0.01718835592734649 0 0.045065545324792504 0.017228215529718729 0 0.045117665235047975 0.017187274775102464 0 0.045065545324792504 0.017228215529718729 0 0.045187730838656535 0.01721290024891536 0 0.045117665235047975 0.017187274775102464 0 0.045099642747539866 0.017103696137741122 0 0.045170968384736845 0.017172217685543199 0 0.045060317826081789 0.01718835592734649 0 0.045117665235047975 0.017187274775102464 0 0.045099642747539866 0.017103696137741122 0 0.045552304897115994 0.018092755866656464 0 0.04556341989357382 0.018129097687870941 0 0.044941994057523561 0.017195128299968918 0 0.045060317826081789 0.01718835592734649 0 0.045099642747539866 0.017103696137741122 0 0.045022439457785571 0.017267444579916958 0 0.045220676916907107 0.017314657301563181 0 0.045095597922518646 0.017367300678422119 0 0.044622181639479112 0.016792875387533435 0 0.044494905026551006 0.016597500090346384 0 0.045022439457785571 0.017267444579916958 0 0.044906427556046 0.017254731534106022 0 0.045095597922518646 0.017367300678422119 0 0.045127102663153666 0.017250257936691632 0 0.045022439457785571 0.017267444579916958 0 0.045191822973770952 0.017267698905791242 0 0.045127102663153666 0.017250257936691632 0 0.045065545324792504 0.017228215529718729 0 0.045022439457785571 0.017267444579916958 0 0.045127102663153666 0.017250257936691632 0 0.045065545324792504 0.017228215529718729 0 0.045187730838656535 0.01721290024891536 0 0.044935801851109056 0.017239724906871718 0 0.044941994057523561 0.017195128299968918 0 0.045022439457785571 0.017267444579916958 0 0.044941994057523561 0.017195128299968918 0 0.045065545324792504 0.017228215529718729 0 0.045022439457785571 0.017267444579916958 0 0.045022439457785571 0.017267444579916958 0 0.045191822973770952 0.017267698905791242 0 0.045220676916907107 0.017314657301563181 0 0.044935801851109056 0.017239724906871718 0 0.045022439457785571 0.017267444579916958 0 0.044906427556046 0.017254731534106022 0 0.04490409896869036 0.016019437894480182 0 0.044772022732821527 0.016499162831937229 0 0.044314435013969158 0.016350499388487542 0 0.04490409896869036 0.016019437894480182 0 0.044314435013969158 0.016350499388487542 0 0.044604177464888414 0.015513279914432953 0 0.045499387105100521 0.017328155184960881 0 0.045573286675887135 0.017403033954620631 0 0.045420690845108462 0.017287847817477508 0 0.045499387105100521 0.017328155184960881 0 0.045420690845108462 0.017287847817477508 0 0.045437209768800994 0.017274181779967677 0 0.045499387105100521 0.017328155184960881 0 0.045437209768800994 0.017274181779967677 0 0.045492727339102333 0.017280725096797966 0 0.045499387105100521 0.017328155184960881 0 0.045500098301672884 0.017330666150382826 0 0.045492727339102333 0.017280725096797966 0 0.045500098301672884 0.017330666150382826 0 0.045473471974076245 0.017309437031486744 0 0.045434271018795408 0.017405368043490986 0 0.045500098301672884 0.017330666150382826 0 0.045495921523974976 0.017397803441974044 0 0.045434271018795408 0.017405368043490986 0 0.045499387105100521 0.017328155184960881 0 0.045500098301672884 0.017330666150382826 0 0.045495921523974976 0.017397803441974044 0 0.045495921523974976 0.017397803441974044 0 0.045573286675887135 0.017403033954620631 0 0.045377716541751066 0.017570286799570227 0 0.045499387105100521 0.017328155184960881 0 0.045495921523974976 0.017397803441974044 0 0.045573286675887135 0.017403033954620631 0 0.045573286675887135 0.017403033954620631 0 0.045242998174311148 0.017196356905092788 0 0.045420690845108462 0.017287847817477508 0 0.04556341989357382 0.018129097687870941 0 0.045483601015691044 0.018095915481655806 0 0.045099642747539866 0.017103696137741122 0 0.045573286675887135 0.017403033954620631 0 0.045242998174311148 0.017196356905092788 0 0.045812598370366088 0.019293097053677984 0 0.046260692060402335 0.018846004116558571 0 0.045522792339023857 0.019178028196627672 0 0.044397890172597571 0.017466455006713812 0 0.044739094245534808 0.017353433718787833 0 0.044869372557887144 0.017208706803749349 0 0.045265764323346433 0.017921742716488422 0 0.04556341989357382 0.018129097687870941 0 0.045242998174311148 0.017196356905092788 0 0.045352276218436842 0.017251908543873356 0 0.045260383510935212 0.017234743736297024 0 0.045099642747539866 0.017103696137741122 0 0.045242998174311148 0.017196356905092788 0 0.045170968384736845 0.017172217685543199 0 0.045242998174311148 0.017196356905092788 0 0.045187730838656535 0.01721290024891536 0 0.045260383510935212 0.017234743736297024 0 0.045117665235047975 0.017187274775102464 0 0.045187730838656535 0.01721290024891536 0 0.045170968384736845 0.017172217685543199 0 0.045242998174311148 0.017196356905092788 0 0.045187730838656535 0.01721290024891536 0 0.045170968384736845 0.017172217685543199 0 0.045242998174311148 0.017196356905092788 0 0.045420690845108462 0.017287847817477508 0 0.045352276218436842 0.017251908543873356 0 0.045420690845108462 0.017287847817477508 0 0.045437209768800994 0.017274181779967677 0 0.045352276218436842 0.017251908543873356 0 0.045437209768800994 0.017274181779967677 0 0.045365005391436106 0.0172544094718136 0 0.045453751289961479 0.017258888573496632 0 0.045352276218436842 0.017251908543873356 0 0.045365005391436106 0.0172544094718136 0 0.04528766735238126 0.01725390331127544 0 0.045437209768800994 0.017274181779967677 0 0.045352276218436842 0.017251908543873356 0 0.045365005391436106 0.0172544094718136 0 0.045365005391436106 0.0172544094718136 0 0.045437043453094836 0.017243267100892166 0 0.045453751289961479 0.017258888573496632 0 0.045365005391436106 0.0172544094718136 0 0.045437043453094836 0.017243267100892166 0 0.045367513711164917 0.017256821648312565 0 0.045127102663153666 0.017250257936691632 0 0.045187730838656535 0.01721290024891536 0 0.045213591329672127 0.017246186274263504 0 0.045187730838656535 0.01721290024891536 0 0.045213591329672127 0.017246186274263504 0 0.045260383510935212 0.017234743736297024 0 0.045352276218436842 0.017251908543873356 0 0.045260383510935212 0.017234743736297024 0 0.04528766735238126 0.01725390331127544 0 0.045213591329672127 0.017246186274263504 0 0.045260383510935212 0.017234743736297024 0 0.04528766735238126 0.01725390331127544 0 0.04528766735238126 0.01725390331127544 0 0.045191822973770952 0.017267698905791242 0 0.045302128462357198 0.017270142622959294 0 0.045365005391436106 0.0172544094718136 0 0.04528766735238126 0.01725390331127544 0 0.045302128462357198 0.017270142622959294 0 0.045213591329672127 0.017246186274263504 0 0.04528766735238126 0.01725390331127544 0 0.045191822973770952 0.017267698905791242 0 0.045127102663153666 0.017250257936691632 0 0.045213591329672127 0.017246186274263504 0 0.045191822973770952 0.017267698905791242 0 0.045191822973770952 0.017267698905791242 0 0.045302128462357198 0.017270142622959294 0 0.045220676916907107 0.017314657301563181 0 0.045302128462357198 0.017270142622959294 0 0.045220676916907107 0.017314657301563181 0 0.045345264116080697 0.017285932193730893 0 0.045437043453094836 0.017243267100892166 0 0.045367513711164917 0.017256821648312565 0 0.045386925511990528 0.01725539560787968 0 0.045437043453094836 0.017243267100892166 0 0.045386925511990528 0.01725539560787968 0 0.045440706149939454 0.017235665641610391 0 0.045365005391436106 0.0172544094718136 0 0.045302128462357198 0.017270142622959294 0 0.045367513711164917 0.017256821648312565 0 0.045302128462357198 0.017270142622959294 0 0.045367513711164917 0.017256821648312565 0 0.045386925511990528 0.01725539560787968 0 0.045302128462357198 0.017270142622959294 0 0.045386925511990528 0.01725539560787968 0 0.045345264116080697 0.017285932193730893 0 0.045386925511990528 0.01725539560787968 0 0.045440706149939454 0.017235665641610391 0 0.0454431933958779 0.017237223118372818 0 0.045386925511990528 0.01725539560787968 0 0.045345264116080697 0.017285932193730893 0 0.0454431933958779 0.017237223118372818 0 0.045440706149939454 0.017235665641610391 0 0.045490668382007833 0.01721354133635257 0 0.0454431933958779 0.017237223118372818 0 0.045490668382007833 0.01721354133635257 0 0.045539989076872428 0.017174288644822799 0 0.0454431933958779 0.017237223118372818 0 0.045490668382007833 0.01721354133635257 0 0.045539989076872428 0.017174288644822799 0 0.045537270804361506 0.017201902789911579 0 0.045490668382007833 0.01721354133635257 0 0.045497868197914938 0.017235885873533668 0 0.045537270804361506 0.017201902789911579 0 0.045437043453094836 0.017243267100892166 0 0.045490668382007833 0.01721354133635257 0 0.045497868197914938 0.017235885873533668 0 0.045437043453094836 0.017243267100892166 0 0.045440706149939454 0.017235665641610391 0 0.045490668382007833 0.01721354133635257 0 0.045437043453094836 0.017243267100892166 0 0.045453751289961479 0.017258888573496632 0 0.045497868197914938 0.017235885873533668 0 0.045453751289961479 0.017258888573496632 0 0.045497868197914938 0.017235885873533668 0 0.045492727339102333 0.017280725096797966 0 0.045497868197914938 0.017235885873533668 0 0.045492727339102333 0.017280725096797966 0 0.045511148176283732 0.017263999871867546 0 0.045437209768800994 0.017274181779967677 0 0.045453751289961479 0.017258888573496632 0 0.045492727339102333 0.017280725096797966 0 0.045500098301672884 0.017330666150382826 0 0.045473471974076245 0.017309437031486744 0 0.045511148176283732 0.017263999871867546 0 0.045500098301672884 0.017330666150382826 0 0.045492727339102333 0.017280725096797966 0 0.045511148176283732 0.017263999871867546 0 0.045497868197914938 0.017235885873533668 0 0.045511148176283732 0.017263999871867546 0 0.045537270804361506 0.017201902789911579 0 0.045511148176283732 0.017263999871867546 0 0.045537270804361506 0.017201902789911579 0 0.045501308496865879 0.017223283667306601 0 0.045473471974076245 0.017309437031486744 0 0.045511148176283732 0.017263999871867546 0 0.045501308496865879 0.017223283667306601 0 0.045537270804361506 0.017201902789911579 0 0.045558892996642009 0.017149436206686425 0 0.045501308496865879 0.017223283667306601 0 0.045537270804361506 0.017201902789911579 0 0.045558892996642009 0.017149436206686425 0 0.045596735632590771 0.017122384309240495 0 0.045539989076872428 0.017174288644822799 0 0.045537270804361506 0.017201902789911579 0 0.045596735632590771 0.017122384309240495 0 0.045558892996642009 0.017149436206686425 0 0.04561354544253475 0.017073391880063075 0 0.045596735632590771 0.017122384309240495 0 0.045512186346809098 0.017120023212894079 0 0.045384659936496173 0.017210591223028687 0 0.045304210266347171 0.017056616855309771 0 0.045558892996642009 0.017149436206686425 0 0.045512186346809098 0.017120023212894079 0 0.04561354544253475 0.017073391880063075 0 0.045512186346809098 0.017120023212894079 0 0.045384659936496173 0.017210591223028687 0 0.045501308496865879 0.017223283667306601 0 0.045558892996642009 0.017149436206686425 0 0.045512186346809098 0.017120023212894079 0 0.045501308496865879 0.017223283667306601 0 0.045304210266347171 0.017056616855309771 0 0.04524294191084393 0.017213056147674845 0 0.045071769317468771 0.017147346547244566 0 0.045384659936496173 0.017210591223028687 0 0.045304210266347171 0.017056616855309771 0 0.04524294191084393 0.017213056147674845 0 0.045384659936496173 0.017210591223028687 0 0.045286768469678773 0.017310439086902139 0 0.045392122530258802 0.017323531810478472 0 0.045384659936496173 0.017210591223028687 0 0.04524294191084393 0.017213056147674845 0 0.045286768469678773 0.017310439086902139 0 0.04524294191084393 0.017213056147674845 0 0.045286768469678773 0.017310439086902139 0 0.04514633579200153 0.017332356279523928 0 0.045286768469678773 0.017310439086902139 0 0.04514633579200153 0.017332356279523928 0 0.045258568706365514 0.017469084447427365 0 0.045286768469678773 0.017310439086902139 0 0.045392122530258802 0.017323531810478472 0 0.045258568706365514 0.017469084447427365 0 0.045473471974076245 0.017309437031486744 0 0.045392122530258802 0.017323531810478472 0 0.045501308496865879 0.017223283667306601 0 0.045384659936496173 0.017210591223028687 0 0.045392122530258802 0.017323531810478472 0 0.045501308496865879 0.017223283667306601 0 0.044757015827269382 0.016963631160473669 0 0.044857714357142024 0.017138199058459678 0 0.044612724955679112 0.017184602819436571 0 0.044757015827269382 0.016963631160473669 0 0.044857714357142024 0.017138199058459678 0 0.045015043386006426 0.016940755059595771 0 0.045304210266347171 0.017056616855309771 0 0.045071769317468771 0.017147346547244566 0 0.045015043386006426 0.016940755059595771 0 0.044857714357142024 0.017138199058459678 0 0.045071769317468771 0.017147346547244566 0 0.045015043386006426 0.016940755059595771 0 0.045071769317468771 0.017147346547244566 0 0.04514633579200153 0.017332356279523928 0 0.044899407091736808 0.017352949885052812 0 0.04514633579200153 0.017332356279523928 0 0.044899407091736808 0.017352949885052812 0 0.045092863588146091 0.017475110752687813 0 0.04524294191084393 0.017213056147674845 0 0.045071769317468771 0.017147346547244566 0 0.04514633579200153 0.017332356279523928 0 0.044857714357142024 0.017138199058459678 0 0.045071769317468771 0.017147346547244566 0 0.044899407091736808 0.017352949885052812 0 0.044899407091736808 0.017352949885052812 0 0.044612724955679112 0.017184602819436571 0 0.044637143557745868 0.017412248240972625 0 0.044857714357142024 0.017138199058459678 0 0.044899407091736808 0.017352949885052812 0 0.044612724955679112 0.017184602819436571 0 0.044899407091736808 0.017352949885052812 0 0.04478914647648502 0.017491724319918512 0 0.044637143557745868 0.017412248240972625 0 0.04478914647648502 0.017491724319918512 0 0.044815490046425863 0.017700169145184113 0 0.044651190945509858 0.017638893593684968 0 0.04478914647648502 0.017491724319918512 0 0.044651190945509858 0.017638893593684968 0 0.044637143557745868 0.017412248240972625 0 0.044899407091736808 0.017352949885052812 0 0.04478914647648502 0.017491724319918512 0 0.044925736299726196 0.017573839582852881 0 0.04478914647648502 0.017491724319918512 0 0.044925736299726196 0.017573839582852881 0 0.044815490046425863 0.017700169145184113 0 0.044925736299726196 0.017573839582852881 0 0.045092863588146091 0.017475110752687813 0 0.04514851431916448 0.017705555567733892 0 0.044899407091736808 0.017352949885052812 0 0.044925736299726196 0.017573839582852881 0 0.045092863588146091 0.017475110752687813 0 0.04514851431916448 0.017705555567733892 0 0.044952165579441886 0.017785537302234696 0 0.045008376376198499 0.01804417678441397 0 0.044925736299726196 0.017573839582852881 0 0.04514851431916448 0.017705555567733892 0 0.044952165579441886 0.017785537302234696 0 0.044925736299726196 0.017573839582852881 0 0.044952165579441886 0.017785537302234696 0 0.044815490046425863 0.017700169145184113 0 0.044952165579441886 0.017785537302234696 0 0.044815490046425863 0.017700169145184113 0 0.044750621438176444 0.01787287460945328 0 0.044815490046425863 0.017700169145184113 0 0.044750621438176444 0.01787287460945328 0 0.044651190945509858 0.017638893593684968 0 0.045495921523974976 0.017397803441974044 0 0.045434271018795408 0.017405368043490986 0 0.045377716541751066 0.017570286799570227 0 0.045392122530258802 0.017323531810478472 0 0.045434271018795408 0.017405368043490986 0 0.045258568706365514 0.017469084447427365 0 0.045434271018795408 0.017405368043490986 0 0.045258568706365514 0.017469084447427365 0 0.045377716541751066 0.017570286799570227 0 0.045473471974076245 0.017309437031486744 0 0.045392122530258802 0.017323531810478472 0 0.045434271018795408 0.017405368043490986 0 0.045092863588146091 0.017475110752687813 0 0.04514851431916448 0.017705555567733892 0 0.045258568706365514 0.017469084447427365 0 0.04514633579200153 0.017332356279523928 0 0.045092863588146091 0.017475110752687813 0 0.045258568706365514 0.017469084447427365 0 0.04514851431916448 0.017705555567733892 0 0.045377716541751066 0.017570286799570227 0 0.0451988372793947 0.018032173846634091 0 0.04514851431916448 0.017705555567733892 0 0.045258568706365514 0.017469084447427365 0 0.045377716541751066 0.017570286799570227 0 0.045483601015691044 0.018095915481655806 0 0.045528535392922551 0.020297345149708216 0 0.047397707680756719 0.026051449223696507 0 0.046000790976032442 0.025354776986664083 0 0.045404318782927784 0.026417503406823372 0 0.045320190258168983 0.01977918296321856 0 0.045522792339023857 0.019178028196627672 0 0.04478686538347898 0.019511583557706484 0 0.045241199701276061 0.022409373710273382 0 0.045528535392922551 0.020297345149708216 0 0.045573286675887135 0.017403033954620631 0 0.045377716541751066 0.017570286799570227 0 0.0451988372793947 0.018032173846634091 0 0.045291817303965032 0.018193832504918978 0 0.045008376376198499 0.01804417678441397 0 0.044654578734645463 0.018246380974881612 0 0.045291817303965032 0.018193832504918978 0 0.044654578734645463 0.018246380974881612 0 0.044435646774682057 0.018692764948515118 0 0.04514851431916448 0.017705555567733892 0 0.0451988372793947 0.018032173846634091 0 0.045008376376198499 0.01804417678441397 0 0.046000790976032442 0.025354776986664083 0 0.045404318782927784 0.026417503406823372 0 0.044258302275331007 0.026145400247275817 0 0.045528535392922551 0.020297345149708216 0 0.044244543913734571 0.022323874960150262 0 0.045528535392922551 0.020297345149708216 0 0.044706352964425045 0.019014760006294304 0 0.044750621438176444 0.01787287460945328 0 0.045008376376198499 0.01804417678441397 0 0.044654578734645463 0.018246380974881612 0 0.044952165579441886 0.017785537302234696 0 0.044750621438176444 0.01787287460945328 0 0.045008376376198499 0.01804417678441397 0 0.045885840364531673 0.027523566568901377 0 0.045404318782927784 0.026417503406823372 0 0.044290475909927504 0.027240677920407422 0 0.045885840364531673 0.027523566568901377 0 0.047397707680756719 0.026051449223696507 0 0.045404318782927784 0.026417503406823372 0 0.044919126671572635 0.028655023731287865 0 0.045225341711663425 0.028749451125954353 0 0.045191760593285016 0.028424718427304773 0 0.045292819963620598 0.028869927355642033 0 0.045241199701276061 0.022409373710273382 0 0.045294895065603934 0.027709550034787499 0 0.044999988355002796 0.027837249264585542 0 0.044999991509691514 0.025206276149390409 0 0.04354251089829695 0.019158241617735862 0 0.044435646774682057 0.018692764948515118 0 0.04404915436605699 0.018434343624727428 0 0.043942690646696494 0.025623186144112187 0 0.044244543913734571 0.022323874960150262 0 0.043942690646696494 0.025623186144112187 0 0.044997423457229055 0.027831270109743293 0 0.042593148052336757 0.026917081415325797 0 0.044290475909927504 0.027240677920407422 0 0.044258302275331007 0.026145400247275817 0 0.045404318782927784 0.026417503406823372 0 0.044290475909927504 0.027240677920407422 0 0.044258302275331007 0.026145400247275817 0 0.044435646774682057 0.018692764948515118 0 0.044328630912552146 0.018136653648400017 0 0.04404915436605699 0.018434343624727428 0 0.044654578734645463 0.018246380974881612 0 0.044435646774682057 0.018692764948515118 0 0.044328630912552146 0.018136653648400017 0 0.044654578734645463 0.018246380974881612 0 0.044328630912552146 0.018136653648400017 0 0.044486191089444196 0.017872868667525531 0 0.044750621438176444 0.01787287460945328 0 0.044654578734645463 0.018246380974881612 0 0.044486191089444196 0.017872868667525531 0 0.044328630912552146 0.018136653648400017 0 0.044075914441950297 0.018061861030476311 0 0.04404915436605699 0.018434343624727428 0 0.044328630912552146 0.018136653648400017 0 0.044075914441950297 0.018061861030476311 0 0.044257048814303833 0.017884063286483971 0 0.043845084310898563 0.01831225888812844 0 0.043663632343425206 0.017999032916509908 0 0.043878008730886577 0.017940747728705853 0 0.045294895065603934 0.027709550034787499 0 0.045467033461907697 0.025262135660820095 0 0.044999991509691514 0.025206276149390409 0 0.043942690646696494 0.025623186144112187 0 0.044640807635769178 0.021142404088584116 0 0.044075914441950297 0.018061861030476311 0 0.043845084310898563 0.01831225888812844 0 0.043878008730886577 0.017940747728705853 0 0.04354251089829695 0.019158241617735862 0 0.043845084310898563 0.01831225888812844 0 0.04404915436605699 0.018434343624727428 0 0.04354251089829695 0.019158241617735862 0 0.043845084310898563 0.01831225888812844 0 0.043663632343425206 0.017999032916509908 0 0.044075914441950297 0.018061861030476311 0 0.043845084310898563 0.01831225888812844 0 0.04404915436605699 0.018434343624727428 0 0.044640807635769178 0.021142404088584116 0 0.044684277002663156 0.020044420600123927 0 0.043663632343425206 0.017999032916509908 0 0.043827227786780491 0.017698077414304451 0 0.043767113975379184 0.017056032078299969 0 0.045467033461907697 0.025262135660820095 0 0.044999991509691514 0.025206276149390409 0 0.045638730209316559 0.022817555811189272 0 0.043663632343425206 0.017999032916509908 0 0.043878008730886577 0.017940747728705853 0 0.043827227786780491 0.017698077414304451 0 0.044075914441950297 0.018061861030476311 0 0.043878008730886577 0.017940747728705853 0 0.044027288776554818 0.017834707075600725 0 0.043878008730886577 0.017940747728705853 0 0.044027288776554818 0.017834707075600725 0 0.043827227786780491 0.017698077414304451 0 0.043827227786780491 0.017698077414304451 0 0.043918375334484769 0.017556337459350101 0 0.043903069537243725 0.017380529450893228 0 0.043827227786780491 0.017698077414304451 0 0.044038113300239885 0.017616315595938337 0 0.043918375334484769 0.017556337459350101 0 0.044027288776554818 0.017834707075600725 0 0.043827227786780491 0.017698077414304451 0 0.044038113300239885 0.017616315595938337 0 0.044038113300239885 0.017616315595938337 0 0.043918375334484769 0.017556337459350101 0 0.044057503715614683 0.017411608135471247 0 0.044750621438176444 0.01787287460945328 0 0.044486191089444196 0.017872868667525531 0 0.044651190945509858 0.017638893593684968 0 0.044486191089444196 0.017872868667525531 0 0.044400121020555051 0.017692169989840481 0 0.044651190945509858 0.017638893593684968 0 0.044486191089444196 0.017872868667525531 0 0.044257048814303833 0.017884063286483971 0 0.044400121020555051 0.017692169989840481 0 0.044257048814303833 0.017884063286483971 0 0.044178483190280268 0.017715638457870057 0 0.044400121020555051 0.017692169989840481 0 0.044328630912552146 0.018136653648400017 0 0.044486191089444196 0.017872868667525531 0 0.044257048814303833 0.017884063286483971 0 0.044075914441950297 0.018061861030476311 0 0.044027288776554818 0.017834707075600725 0 0.044257048814303833 0.017884063286483971 0 0.044027288776554818 0.017834707075600725 0 0.044257048814303833 0.017884063286483971 0 0.044178483190280268 0.017715638457870057 0 0.044027288776554818 0.017834707075600725 0 0.044038113300239885 0.017616315595938337 0 0.044178483190280268 0.017715638457870057 0 0.044038113300239885 0.017616315595938337 0 0.044178483190280268 0.017715638457870057 0 0.04422936048187933 0.01749029191158593 0 0.044038113300239885 0.017616315595938337 0 0.04422936048187933 0.01749029191158593 0 0.044057503715614683 0.017411608135471247 0 0.044178483190280268 0.017715638457870057 0 0.04422936048187933 0.01749029191158593 0 0.044400121020555051 0.017692169989840481 0 0.04422936048187933 0.01749029191158593 0 0.044481217807531406 0.017512072834193669 0 0.044467273941735434 0.017347455908044481 0 0.04422936048187933 0.01749029191158593 0 0.044400121020555051 0.017692169989840481 0 0.044481217807531406 0.017512072834193669 0 0.044481217807531406 0.017512072834193669 0 0.044651190945509858 0.017638893593684968 0 0.044637143557745868 0.017412248240972625 0 0.044400121020555051 0.017692169989840481 0 0.044481217807531406 0.017512072834193669 0 0.044651190945509858 0.017638893593684968 0 0.044612724955679112 0.017184602819436571 0 0.044467273941735434 0.017347455908044481 0 0.044302059914017242 0.017239038681077217 0 0.044481217807531406 0.017512072834193669 0 0.044637143557745868 0.017412248240972625 0 0.044467273941735434 0.017347455908044481 0 0.044612724955679112 0.017184602819436571 0 0.044637143557745868 0.017412248240972625 0 0.044467273941735434 0.017347455908044481 0 0.04422936048187933 0.01749029191158593 0 0.044467273941735434 0.017347455908044481 0 0.044302059914017242 0.017239038681077217 0 0.04422936048187933 0.01749029191158593 0 0.044302059914017242 0.017239038681077217 0 0.044057503715614683 0.017411608135471247 0 0.044302059914017242 0.017239038681077217 0 0.044057503715614683 0.017411608135471247 0 0.044012558457707837 0.01722031454913046 0 0.044302059914017242 0.017239038681077217 0 0.04416641146933839 0.017099483983825901 0 0.044012558457707837 0.01722031454913046 0 0.04416641146933839 0.017099483983825901 0 0.044012558457707837 0.01722031454913046 0 0.044049521541805171 0.017014922810479435 0 0.04416641146933839 0.017099483983825901 0 0.044191923329315853 0.01693405664843009 0 0.044049521541805171 0.017014922810479435 0 0.044191923329315853 0.01693405664843009 0 0.04436105693232175 0.017038253439405734 0 0.044364093365799336 0.016831599385746535 0 0.04416641146933839 0.017099483983825901 0 0.044191923329315853 0.01693405664843009 0 0.04436105693232175 0.017038253439405734 0 0.044302059914017242 0.017239038681077217 0 0.04416641146933839 0.017099483983825901 0 0.04436105693232175 0.017038253439405734 0 0.044612724955679112 0.017184602819436571 0 0.044302059914017242 0.017239038681077217 0 0.04436105693232175 0.017038253439405734 0 0.04436105693232175 0.017038253439405734 0 0.04455735360371111 0.016988883680474774 0 0.044364093365799336 0.016831599385746535 0 0.044757015827269382 0.016963631160473669 0 0.044612724955679112 0.017184602819436571 0 0.04455735360371111 0.016988883680474774 0 0.044612724955679112 0.017184602819436571 0 0.04436105693232175 0.017038253439405734 0 0.04455735360371111 0.016988883680474774 0 0.043827227786780491 0.017698077414304451 0 0.043903069537243725 0.017380529450893228 0 0.043767113975379184 0.017056032078299969 0 0.044999991509691514 0.025206276149390409 0 0.045000002696264543 0.022575336470937006 0 0.045638730209316559 0.022817555811189272 0 0.043903069537243725 0.017380529450893228 0 0.044012558457707837 0.01722031454913046 0 0.043767113975379184 0.017056032078299969 0 0.043918375334484769 0.017556337459350101 0 0.043903069537243725 0.017380529450893228 0 0.044057503715614683 0.017411608135471247 0 0.043903069537243725 0.017380529450893228 0 0.044057503715614683 0.017411608135471247 0 0.044012558457707837 0.01722031454913046 0 0.044012558457707837 0.01722031454913046 0 0.044049521541805171 0.017014922810479435 0 0.043767113975379184 0.017056032078299969 0 0.044049521541805171 0.017014922810479435 0 0.043767113975379184 0.017056032078299969 0 0.044112546631323267 0.016755001984659339 0 0.044684277002663156 0.020044420600123927 0 0.044791469493195353 0.018146998041771053 0 0.045000002696264543 0.022575336470937006 0 0.045638730209316559 0.022817555811189272 0 0.045809515804286119 0.020374091524335634 0 0.043767113975379184 0.017056032078299969 0 0.043953666268923559 0.016445623060335899 0 0.043756962424758475 0.01597895936111194 0 0.043767113975379184 0.017056032078299969 0 0.043953666268923559 0.016445623060335899 0 0.044112546631323267 0.016755001984659339 0 0.044191923329315853 0.01693405664843009 0 0.044049521541805171 0.017014922810479435 0 0.044112546631323267 0.016755001984659339 0 0.044191923329315853 0.01693405664843009 0 0.044112546631323267 0.016755001984659339 0 0.044364093365799336 0.016831599385746535 0 0.044112546631323267 0.016755001984659339 0 0.044364093365799336 0.016831599385746535 0 0.044382035283591179 0.016583047643841491 0 0.044757015827269382 0.016963631160473669 0 0.04455735360371111 0.016988883680474774 0 0.044572591548906033 0.016783637712139369 0 0.04455735360371111 0.016988883680474774 0 0.044572591548906033 0.016783637712139369 0 0.044364093365799336 0.016831599385746535 0 0.044572591548906033 0.016783637712139369 0 0.044364093365799336 0.016831599385746535 0 0.044382035283591179 0.016583047643841491 0 0.044572591548906033 0.016783637712139369 0 0.044603053410570359 0.016551724248053703 0 0.044770130156273832 0.016750164907885293 0 0.044572591548906033 0.016783637712139369 0 0.044603053410570359 0.016551724248053703 0 0.044382035283591179 0.016583047643841491 0 0.044603053410570359 0.016551724248053703 0 0.044482103066851943 0.0163082861107702 0 0.044801519959059601 0.016402174586971456 0 0.044603053410570359 0.016551724248053703 0 0.044382035283591179 0.016583047643841491 0 0.044482103066851943 0.0163082861107702 0 0.044112546631323267 0.016755001984659339 0 0.044382035283591179 0.016583047643841491 0 0.044191727077689133 0.01638246771810925 0 0.043953666268923559 0.016445623060335899 0 0.044112546631323267 0.016755001984659339 0 0.044191727077689133 0.01638246771810925 0 0.044382035283591179 0.016583047643841491 0 0.044482103066851943 0.0163082861107702 0 0.044191727077689133 0.01638246771810925 0 0.043953666268923559 0.016445623060335899 0 0.044191727077689133 0.01638246771810925 0 0.044036925571991313 0.016200665115618008 0 0.044482103066851943 0.0163082861107702 0 0.044191727077689133 0.01638246771810925 0 0.044251006888810812 0.015985985304081119 0 0.044191727077689133 0.01638246771810925 0 0.044251006888810812 0.015985985304081119 0 0.044036925571991313 0.016200665115618008 0 0.044482103066851943 0.0163082861107702 0 0.044251006888810812 0.015985985304081119 0 0.044680779305966013 0.015933474543330762 0 0.044482103066851943 0.0163082861107702 0 0.044801519959059601 0.016402174586971456 0 0.044680779305966013 0.015933474543330762 0 0.044680779305966013 0.015933474543330762 0 0.044789131827254247 0.01539356312302108 0 0.044494985938805236 0.015588724098620475 0 0.044251006888810812 0.015985985304081119 0 0.044680779305966013 0.015933474543330762 0 0.044494985938805236 0.015588724098620475 0 0.044251006888810812 0.015985985304081119 0 0.04423115438960059 0.01553640129828587 0 0.044494985938805236 0.015588724098620475 0 0.044251006888810812 0.015985985304081119 0 0.043756962424758475 0.01597895936111194 0 0.04423115438960059 0.01553640129828587 0 0.045000002696264543 0.022575336470937006 0 0.044999960626553814 0.019944395499832158 0 0.045809515804286119 0.020374091524335634 0 0.044251006888810812 0.015985985304081119 0 0.043756962424758475 0.01597895936111194 0 0.044036925571991313 0.016200665115618008 0 0.043953666268923559 0.016445623060335899 0 0.043756962424758475 0.01597895936111194 0 0.044036925571991313 0.016200665115618008 0 0.04561613739259044 0.01674126932378537 0 0.045631813608459332 0.016405372670709958 0 0.045852446641237742 0.016676333233180612 0 0.04561613739259044 0.01674126932378537 0 0.045419064532199939 0.016616013171754179 0 0.045631813608459332 0.016405372670709958 0 0.04561613739259044 0.01674126932378537 0 0.045504101300387137 0.016951363802806721 0 0.045419064532199939 0.016616013171754179 0 0.04561613739259044 0.01674126932378537 0 0.045739860373352877 0.017007372484087045 0 0.045852446641237742 0.016676333233180612 0 0.04561613739259044 0.01674126932378537 0 0.045504101300387137 0.016951363802806721 0 0.045739860373352877 0.017007372484087045 0 0.045512186346809098 0.017120023212894079 0 0.045304210266347171 0.017056616855309771 0 0.045504101300387137 0.016951363802806721 0 0.04561354544253475 0.017073391880063075 0 0.045504101300387137 0.016951363802806721 0 0.045739860373352877 0.017007372484087045 0 0.045512186346809098 0.017120023212894079 0 0.04561354544253475 0.017073391880063075 0 0.045504101300387137 0.016951363802806721 0 0.045304210266347171 0.017056616855309771 0 0.045504101300387137 0.016951363802806721 0 0.045232423192143816 0.01680564607815584 0 0.045504101300387137 0.016951363802806721 0 0.045232423192143816 0.01680564607815584 0 0.045419064532199939 0.016616013171754179 0 0.045419064532199939 0.016616013171754179 0 0.045141337847659321 0.016500467604808226 0 0.045331777446079712 0.016295703266886039 0 0.045419064532199939 0.016616013171754179 0 0.045331777446079712 0.016295703266886039 0 0.045631813608459332 0.016405372670709958 0 0.045232423192143816 0.01680564607815584 0 0.045419064532199939 0.016616013171754179 0 0.045141337847659321 0.016500467604808226 0 0.045141337847659321 0.016500467604808226 0 0.04499108225234489 0.016704223704559387 0 0.044801519959059601 0.016402174586971456 0 0.045141337847659321 0.016500467604808226 0 0.044801519959059601 0.016402174586971456 0 0.045022490836436342 0.0161715839890035 0 0.045232423192143816 0.01680564607815584 0 0.045141337847659321 0.016500467604808226 0 0.04499108225234489 0.016704223704559387 0 0.045304210266347171 0.017056616855309771 0 0.045232423192143816 0.01680564607815584 0 0.045015043386006426 0.016940755059595771 0 0.045232423192143816 0.01680564607815584 0 0.045015043386006426 0.016940755059595771 0 0.04499108225234489 0.016704223704559387 0 0.045015043386006426 0.016940755059595771 0 0.04499108225234489 0.016704223704559387 0 0.044770130156273832 0.016750164907885293 0 0.044757015827269382 0.016963631160473669 0 0.045015043386006426 0.016940755059595771 0 0.044770130156273832 0.016750164907885293 0 0.044757015827269382 0.016963631160473669 0 0.044572591548906033 0.016783637712139369 0 0.044770130156273832 0.016750164907885293 0 0.04499108225234489 0.016704223704559387 0 0.044770130156273832 0.016750164907885293 0 0.044801519959059601 0.016402174586971456 0 0.044603053410570359 0.016551724248053703 0 0.044770130156273832 0.016750164907885293 0 0.044801519959059601 0.016402174586971456 0 0.044801519959059601 0.016402174586971456 0 0.044680779305966013 0.015933474543330762 0 0.045022490836436342 0.0161715839890035 0 0.044680779305966013 0.015933474543330762 0 0.045053588639163866 0.015709282900182083 0 0.045022490836436342 0.0161715839890035 0 0.044680779305966013 0.015933474543330762 0 0.045053588639163866 0.015709282900182083 0 0.044789131827254247 0.01539356312302108 0 0.045053588639163866 0.015709282900182083 0 0.045252329913422165 0.015962864653562513 0 0.045022490836436342 0.0161715839890035 0 0.045053588639163866 0.015709282900182083 0 0.045252329913422165 0.015962864653562513 0 0.045407272423236188 0.015561483866664822 0 0.045252329913422165 0.015962864653562513 0 0.045022490836436342 0.0161715839890035 0 0.045331777446079712 0.016295703266886039 0 0.045141337847659321 0.016500467604808226 0 0.045022490836436342 0.0161715839890035 0 0.045331777446079712 0.016295703266886039 0 0.045331777446079712 0.016295703266886039 0 0.045535702882799713 0.016025732492944714 0 0.045631813608459332 0.016405372670709958 0 0.045252329913422165 0.015962864653562513 0 0.045331777446079712 0.016295703266886039 0 0.045535702882799713 0.016025732492944714 0 0.045252329913422165 0.015962864653562513 0 0.045535702882799713 0.016025732492944714 0 0.045407272423236188 0.015561483866664822 0 0.045535702882799713 0.016025732492944714 0 0.045731597432120893 0.015670387606440701 0 0.045407272423236188 0.015561483866664822 0 0.045535702882799713 0.016025732492944714 0 0.045731597432120893 0.015670387606440701 0 0.04578932454487164 0.016052491924857852 0 0.045731597432120893 0.015670387606440701 0 0.04578932454487164 0.016052491924857852 0 0.046146454658042249 0.015586746207524269 0 0.045535702882799713 0.016025732492944714 0 0.04578932454487164 0.016052491924857852 0 0.045631813608459332 0.016405372670709958 0 0.045631813608459332 0.016405372670709958 0 0.045957855156754927 0.016257954273217426 0 0.045852446641237742 0.016676333233180612 0 0.04578932454487164 0.016052491924857852 0 0.045631813608459332 0.016405372670709958 0 0.045957855156754927 0.016257954273217426 0 0.045725125957903137 0.015142820837280271 0 0.045979821169796022 0.014625487750374326 0 0.046402860674432764 0.015019702140724546 0 0.045731597432120893 0.015670387606440701 0 0.045725125957903137 0.015142820837280271 0 0.046146454658042249 0.015586746207524269 0 0.045731597432120893 0.015670387606440701 0 0.045725125957903137 0.015142820837280271 0 0.045407272423236188 0.015561483866664822 0 0.045725125957903137 0.015142820837280271 0 0.045407272423236188 0.015561483866664822 0 0.045191794095927995 0.01520664803342358 0 0.045725125957903137 0.015142820837280271 0 0.04540082652773627 0.014678508125781347 0 0.045979821169796022 0.014625487750374326 0 0.045725125957903137 0.015142820837280271 0 0.045191794095927995 0.01520664803342358 0 0.04540082652773627 0.014678508125781347 0 0.045191794095927995 0.01520664803342358 0 0.044906727748873665 0.014840159374124159 0 0.04540082652773627 0.014678508125781347 0 0.045053588639163866 0.015709282900182083 0 0.045407272423236188 0.015561483866664822 0 0.045191794095927995 0.01520664803342358 0 0.045053588639163866 0.015709282900182083 0 0.045191794095927995 0.01520664803342358 0 0.044789131827254247 0.01539356312302108 0 0.044789131827254247 0.01539356312302108 0 0.044906727748873665 0.014840159374124159 0 0.044528552428886106 0.01507899636880768 0 0.045191794095927995 0.01520664803342358 0 0.044789131827254247 0.01539356312302108 0 0.044906727748873665 0.014840159374124159 0 0.04501193601270824 0.014168804502449553 0 0.04540082652773627 0.014678508125781347 0 0.045714574159093982 0.014043654512584856 0 0.044906727748873665 0.014840159374124159 0 0.04501193601270824 0.014168804502449553 0 0.044516786120230148 0.014637670004931437 0 0.044906727748873665 0.014840159374124159 0 0.04501193601270824 0.014168804502449553 0 0.04540082652773627 0.014678508125781347 0 0.04540082652773627 0.014678508125781347 0 0.045714574159093982 0.014043654512584856 0 0.045979821169796022 0.014625487750374326 0 0.044999960626553814 0.019944395499832158 0 0.04500012685108426 0.017313451110239651 0 0.045987203546321707 0.017934354641107018 0 0.043756962424758475 0.01597895936111194 0 0.04423115438960059 0.01553640129828587 0 0.044167421754800769 0.015144668052539809 0 0.043756962424758475 0.01597895936111194 0 0.044167421754800769 0.015144668052539809 0 0.043915281776184416 0.01465041565049589 0 0.044791469493195353 0.018146998041771053 0 0.044965320977455418 0.016306642878715753 0 0.044999960626553814 0.019944395499832158 0 0.045809515804286119 0.020374091524335634 0 0.045987203546321707 0.017934354641107018 0 0.04423115438960059 0.01553640129828587 0 0.044528552428886106 0.01507899636880768 0 0.044167421754800769 0.015144668052539809 0 0.04423115438960059 0.01553640129828587 0 0.044494985938805236 0.015588724098620475 0 0.044528552428886106 0.01507899636880768 0 0.044789131827254247 0.01539356312302108 0 0.044494985938805236 0.015588724098620475 0 0.044528552428886106 0.01507899636880768 0 0.044906727748873665 0.014840159374124159 0 0.044528552428886106 0.01507899636880768 0 0.044516786120230148 0.014637670004931437 0 0.044528552428886106 0.01507899636880768 0 0.044167421754800769 0.015144668052539809 0 0.044516786120230148 0.014637670004931437 0 0.044167421754800769 0.015144668052539809 0 0.044516786120230148 0.014637670004931437 0 0.043915281776184416 0.01465041565049589 0 0.04501193601270824 0.014168804502449553 0 0.044516786120230148 0.014637670004931437 0 0.04453630754808189 0.014054174780337932 0 0.044516786120230148 0.014637670004931437 0 0.043915281776184416 0.01465041565049589 0 0.04453630754808189 0.014054174780337932 0 0.04500012685108426 0.017313451110239651 0 0.045987203546321707 0.017934354641107018 0 0.046063557209359118 0.015383253162645851 0 0.04500012685108426 0.017313451110239651 0 0.046063557209359118 0.015383253162645851 0 0.044999212683974089 0.014681970052755837 0 0.044965320977455418 0.016306642878715753 0 0.045158418899893374 0.014465043351830164 0 0.043915281776184416 0.01465041565049589 0 0.044377335946124224 0.013453176318503018 0 0.04453630754808189 0.014054174780337932 0 0.045158418899893374 0.014465043351830164 0 0.044974830887600334 0.013219583455723277 0 0.046063557209359118 0.015383253162645851 0 0.044999212683974089 0.014681970052755837 0 0.045142188332169791 0.014148755676002029 0 0.046063557209359118 0.015383253162645851 0 0.045142188332169791 0.014148755676002029 0 0.044902324236695136 0.013052157595631922 0 0.044377335946124224 0.013453176318503018 0 0.044891643180077892 0.013146353921341773 0 0.044896414625891348 0.013542479031809924 0 0.044377335946124224 0.013453176318503018 0 0.044891643180077892 0.013146353921341773 0 0.044902324236695136 0.013052157595631922 0 0.044377335946124224 0.013453176318503018 0 0.044896414625891348 0.013542479031809924 0 0.04453630754808189 0.014054174780337932 0 0.04501193601270824 0.014168804502449553 0 0.044896414625891348 0.013542479031809924 0 0.04453630754808189 0.014054174780337932 0 0.04501193601270824 0.014168804502449553 0 0.044896414625891348 0.013542479031809924 0 0.045453187070713601 0.013531274417354492 0 0.04501193601270824 0.014168804502449553 0 0.045714574159093982 0.014043654512584856 0 0.045453187070713601 0.013531274417354492 0 0.045714574159093982 0.014043654512584856 0 0.045453187070713601 0.013531274417354492 0 0.04600798925055416 0.013053567179217157 0 0.045276090980486454 0.013104030184719284 0 0.045756198601405576 0.012548234697140996 0 0.04600798925055416 0.013053567179217157 0 0.045453187070713601 0.013531274417354492 0 0.045276090980486454 0.013104030184719284 0 0.04600798925055416 0.013053567179217157 0 0.044896414625891348 0.013542479031809924 0 0.045453187070713601 0.013531274417354492 0 0.045276090980486454 0.013104030184719284 0 0.044891643180077892 0.013146353921341773 0 0.044896414625891348 0.013542479031809924 0 0.045276090980486454 0.013104030184719284 0 0.045276090980486454 0.013104030184719284 0 0.045141545218472377 0.012764404514583712 0 0.045756198601405576 0.012548234697140996 0 0.044891643180077892 0.013146353921341773 0 0.045276090980486454 0.013104030184719284 0 0.045141545218472377 0.012764404514583712 0 0.045756198601405576 0.012548234697140996 0 0.04604699988790275 0.012556863185398845 0 0.04600798925055416 0.013053567179217157 0 0.045756198601405576 0.012548234697140996 0 0.04604699988790275 0.012556863185398845 0 0.046539147269190555 0.011650696070195478 0 0.045756198601405576 0.012548234697140996 0 0.045837427138515775 0.011733725054596092 0 0.046539147269190555 0.011650696070195478 0 0.045141545218472377 0.012764404514583712 0 0.045756198601405576 0.012548234697140996 0 0.045369359551397509 0.012167575747739948 0 0.045756198601405576 0.012548234697140996 0 0.045369359551397509 0.012167575747739948 0 0.045837427138515775 0.011733725054596092 0 0.045141545218472377 0.012764404514583712 0 0.045369359551397509 0.012167575747739948 0 0.044896470125148073 0.012380149801375397 0 0.045369359551397509 0.012167575747739948 0 0.044896470125148073 0.012380149801375397 0 0.044759052849088245 0.011432449860634642 0 0.044896470125148073 0.012380149801375397 0 0.044166880899904275 0.012086294092479162 0 0.044902324236695136 0.013052157595631922 0 0.044896470125148073 0.012380149801375397 0 0.044166880899904275 0.012086294092479162 0 0.044759052849088245 0.011432449860634642 0 0.045142188332169791 0.014148755676002029 0 0.045000004994495128 0.012051720986145063 0 0.045983572413470411 0.011574971107701023 0 0.044999212683974089 0.014681970052755837 0 0.045142188332169791 0.014148755676002029 0 0.045000004994495128 0.012051720986145063 0 0.045142188332169791 0.014148755676002029 0 0.044166880899904275 0.012086294092479162 0 0.044902324236695136 0.013052157595631922 0 0.045089514918944237 0.013952120475291201 0 0.045106292801963106 0.011813108418079685 0 0.045141545218472377 0.012764404514583712 0 0.044896470125148073 0.012380149801375397 0 0.044902324236695136 0.013052157595631922 0 0.044891643180077892 0.013146353921341773 0 0.045141545218472377 0.012764404514583712 0 0.044902324236695136 0.013052157595631922 0 0.045719486203462723 0.012573132096603845 0 0.045490073151216878 0.01263156898458459 0 0.045620058003447372 0.012756996031077453 0 0.045719486203462723 0.012573132096603845 0 0.045901688710047135 0.012649194755620877 0 0.045620058003447372 0.012756996031077453 0 0.045719486203462723 0.012573132096603845 0 0.045490073151216878 0.01263156898458459 0 0.045613815866371518 0.012481180147861206 0 0.045613815866371518 0.012481180147861206 0 0.045495202206837143 0.012427031574405228 0 0.04562501070736278 0.01234837355486728 0 0.045490073151216878 0.01263156898458459 0 0.045613815866371518 0.012481180147861206 0 0.045495202206837143 0.012427031574405228 0 0.045719486203462723 0.012573132096603845 0 0.045743582743318426 0.012413452984773294 0 0.045949676911073108 0.012416136757843558 0 0.045613815866371518 0.012481180147861206 0 0.045743582743318426 0.012413452984773294 0 0.04562501070736278 0.01234837355486728 0 0.045719486203462723 0.012573132096603845 0 0.045613815866371518 0.012481180147861206 0 0.045743582743318426 0.012413452984773294 0 0.046108257629345929 0.012474096500227664 0 0.046263543229741702 0.011943798216740145 0 0.045949676911073108 0.012416136757843558 0 0.04604699988790275 0.012556863185398845 0 0.046024335636456512 0.01232194098811798 0 0.04604699988790275 0.012556863185398845 0 0.045901688710047135 0.012649194755620877 0 0.04600798925055416 0.013053567179217157 0 0.045719486203462723 0.012573132096603845 0 0.045949676911073108 0.012416136757843558 0 0.045901688710047135 0.012649194755620877 0 0.045949676911073108 0.012416136757843558 0 0.04604699988790275 0.012556863185398845 0 0.045901688710047135 0.012649194755620877 0 0.045901688710047135 0.012649194755620877 0 0.045819855133918445 0.012759954290688321 0 0.04600798925055416 0.013053567179217157 0 0.045901688710047135 0.012649194755620877 0 0.045819855133918445 0.012759954290688321 0 0.045620058003447372 0.012756996031077453 0 0.045714574159093982 0.014043654512584856 0 0.04600798925055416 0.013053567179217157 0 0.046638659703547351 0.014168432574953949 0 0.04600798925055416 0.013053567179217157 0 0.045791394896499416 0.012686554058885663 0 0.045929770513832728 0.0126349929219581 0 0.046037417695059313 0.01308766367995814 0 0.046300579098790054 0.0133333077234788 0 0.045819855133918445 0.012759954290688321 0 0.045791394896499416 0.012686554058885663 0 0.045659349728057602 0.012607568311574941 0 0.045819855133918445 0.012759954290688321 0 0.04600798925055416 0.013053567179217157 0 0.045791394896499416 0.012686554058885663 0 0.045620058003447372 0.012756996031077453 0 0.045306448510175026 0.012851639722611316 0 0.045659349728057602 0.012607568311574941 0 0.045819855133918445 0.012759954290688321 0 0.045620058003447372 0.012756996031077453 0 0.045659349728057602 0.012607568311574941 0 0.045490073151216878 0.01263156898458459 0 0.045620058003447372 0.012756996031077453 0 0.045306448510175026 0.012851639722611316 0 0.045306448510175026 0.012851639722611316 0 0.044499120805010041 0.013670874847521056 0 0.04508146813239669 0.013839903125300774 0 0.045320899040342574 0.012920966029252858 0 0.044942786158782021 0.012991025917136871 0 0.044499120805010041 0.013670874847521056 0 0.044645117473083432 0.014150050740771363 0 0.04508146813239669 0.013839903125300774 0 0.044334434297270464 0.01422045353847246 0 0.045060775917668369 0.013864871347286175 0 0.044499120805010041 0.013670874847521056 0 0.044645117473083432 0.014150050740771363 0 0.044095532251785703 0.014238042129666643 0 0.044942786158782021 0.012991025917136871 0 0.045999821279154918 0.014334066762155411 0 0.044645117473083432 0.014150050740771363 0 0.044095532251785703 0.014238042129666643 0 0.044227436834348252 0.014492178982919372 0 0.044248981332365808 0.014392001851339349 0 0.043620136239017761 0.014907869986766967 0 0.04423303123533924 0.015050091004574002 0 0.044334434297270464 0.01422045353847246 0 0.045025577159757385 0.015579645334241178 0 0.044248981332365808 0.014392001851339349 0 0.044786514117570168 0.01481144709750911 0 0.04423303123533924 0.015050091004574002 0 0.044248981332365808 0.014392001851339349 0 0.044786514117570168 0.01481144709750911 0 0.04508146813239669 0.013839903125300774 0 0.046638659703547351 0.014168432574953949 0 0.047161047963283603 0.015202921833988685 0 0.046402860674432764 0.015019702140724546 0 0.045979821169796022 0.014625487750374326 0 0.046638659703547351 0.014168432574953949 0 0.046402860674432764 0.015019702140724546 0 0.045714574159093982 0.014043654512584856 0 0.045979821169796022 0.014625487750374326 0 0.046638659703547351 0.014168432574953949 0 0.045659349728057602 0.012607568311574941 0 0.045799871207477263 0.012598433673037484 0 0.045824566091595915 0.012470866873426328 0 0.045929770513832728 0.0126349929219581 0 0.045799871207477263 0.012598433673037484 0 0.045824566091595915 0.012470866873426328 0 0.046300579098790054 0.0133333077234788 0 0.045999821279154918 0.014334066762155411 0 0.045791394896499416 0.012686554058885663 0 0.045929770513832728 0.0126349929219581 0 0.045799871207477263 0.012598433673037484 0 0.045791394896499416 0.012686554058885663 0 0.045659349728057602 0.012607568311574941 0 0.045799871207477263 0.012598433673037484 0 0.045999821279154918 0.014334066762155411 0 0.045025577159757385 0.015579645334241178 0 0.045999821279154918 0.014334066762155411 0 0.046515992065695497 0.015911060776747803 0 0.047161047963283603 0.015202921833988685 0 0.046587218291327427 0.015427434417573544 0 0.046625183525257928 0.015910573170919481 0 0.047161047963283603 0.015202921833988685 0 0.046587218291327427 0.015427434417573544 0 0.046402860674432764 0.015019702140724546 0 0.045725125957903137 0.015142820837280271 0 0.046146454658042249 0.015586746207524269 0 0.046402860674432764 0.015019702140724546 0 0.046587218291327427 0.015427434417573544 0 0.046146454658042249 0.015586746207524269 0 0.046402860674432764 0.015019702140724546 0 0.045957855156754927 0.016257954273217426 0 0.046625183525257928 0.015910573170919481 0 0.045852446641237742 0.016676333233180612 0 0.045957855156754927 0.016257954273217426 0 0.046123448488522657 0.015980072994825237 0 0.046625183525257928 0.015910573170919481 0 0.046515992065695497 0.015911060776747803 0 0.045957239927464887 0.016581639910920602 0 0.04578932454487164 0.016052491924857852 0 0.045957855156754927 0.016257954273217426 0 0.046123448488522657 0.015980072994825237 0 0.046146454658042249 0.015586746207524269 0 0.046123448488522657 0.015980072994825237 0 0.046625183525257928 0.015910573170919481 0 0.04578932454487164 0.016052491924857852 0 0.046146454658042249 0.015586746207524269 0 0.046123448488522657 0.015980072994825237 0 0.046587218291327427 0.015427434417573544 0 0.046146454658042249 0.015586746207524269 0 0.046625183525257928 0.015910573170919481 0 0.046471583670978069 0.015898128550197867 0 0.046610446327506216 0.016341927001131712 0 0.045852446641237742 0.016676333233180612 0 0.045247739626451212 0.017597650745120076 0 0.045291099586108913 0.01745834348582543 0 0.045095597922518646 0.017367300678422119 0 0.047018702134304285 0.015180775371351813 0 0.046471583670978069 0.015898128550197867 0 0.04731423475288641 0.015745708593982843 0 0.046471583670978069 0.015898128550197867 0 0.046610446327506216 0.016341927001131712 0 0.04731423475288641 0.015745708593982843 0 0.045453818168984979 0.017484886929090563 0 0.045247739626451212 0.017597650745120076 0 0.045291099586108913 0.01745834348582543 0 0.046054930142759937 0.016866395963840295 0 0.045025577159757385 0.015579645334241178 0 0.045291099586108913 0.01745834348582543 0 0.04529239532531814 0.017352934114734698 0 0.045095597922518646 0.017367300678422119 0 0.04529239532531814 0.017352934114734698 0 0.045220676916907107 0.017314657301563181 0 0.045095597922518646 0.017367300678422119 0 0.04529239532531814 0.017352934114734698 0 0.045220676916907107 0.017314657301563181 0 0.045345264116080697 0.017285932193730893 0 0.04529239532531814 0.017352934114734698 0 0.045345264116080697 0.017285932193730893 0 0.045418825459163932 0.017279883239227023 0 0.045345264116080697 0.017285932193730893 0 0.0454431933958779 0.017237223118372818 0 0.045418825459163932 0.017279883239227023 0 0.045453818168984979 0.017484886929090563 0 0.045291099586108913 0.01745834348582543 0 0.04538536131953267 0.017364958277523889 0 0.045291099586108913 0.01745834348582543 0 0.04529239532531814 0.017352934114734698 0 0.04538536131953267 0.017364958277523889 0 0.04529239532531814 0.017352934114734698 0 0.045418825459163932 0.017279883239227023 0 0.04538536131953267 0.017364958277523889 0 0.045453818168984979 0.017484886929090563 0 0.04538536131953267 0.017364958277523889 0 0.045516978739090538 0.017251663622282365 0 0.045453818168984979 0.017484886929090563 0 0.045516978739090538 0.017251663622282365 0 0.045739860373352877 0.017007372484087045 0 0.045418825459163932 0.017279883239227023 0 0.04538536131953267 0.017364958277523889 0 0.045516978739090538 0.017251663622282365 0 0.045418825459163932 0.017279883239227023 0 0.045516978739090538 0.017251663622282365 0 0.045528923429658842 0.017187633065329014 0 0.0454431933958779 0.017237223118372818 0 0.045418825459163932 0.017279883239227023 0 0.045528923429658842 0.017187633065329014 0 0.045539989076872428 0.017174288644822799 0 0.0454431933958779 0.017237223118372818 0 0.045528923429658842 0.017187633065329014 0 0.045539989076872428 0.017174288644822799 0 0.045528923429658842 0.017187633065329014 0 0.045596735632590771 0.017122384309240495 0 0.045516978739090538 0.017251663622282365 0 0.045528923429658842 0.017187633065329014 0 0.045597954210330693 0.017134508909869003 0 0.045516978739090538 0.017251663622282365 0 0.045597954210330693 0.017134508909869003 0 0.045739860373352877 0.017007372484087045 0 0.045597954210330693 0.017134508909869003 0 0.045596735632590771 0.017122384309240495 0 0.045739860373352877 0.017007372484087045 0 0.045528923429658842 0.017187633065329014 0 0.045597954210330693 0.017134508909869003 0 0.045596735632590771 0.017122384309240495 0 0.04561354544253475 0.017073391880063075 0 0.045596735632590771 0.017122384309240495 0 0.045739860373352877 0.017007372484087045 0 0.046054930142759937 0.016866395963840295 0 0.045760601271590512 0.017036214957379611 0 0.046610446327506216 0.016341927001131712 0 0.045739860373352877 0.017007372484087045 0 0.045852446641237742 0.016676333233180612 0 0.044786514117570168 0.01481144709750911 0 0.04423303123533924 0.015050091004574002 0 0.044604177464888414 0.015513279914432953 0 0.045025577159757385 0.015579645334241178 0 0.044494905026551006 0.016597500090346384 0 0.043620136239017761 0.014907869986766967 0 0.04423303123533924 0.015050091004574002 0 0.043989382241345812 0.015633341686815471 0 0.04423303123533924 0.015050091004574002 0 0.043989382241345812 0.015633341686815471 0 0.044604177464888414 0.015513279914432953 0 0.044314435013969158 0.016350499388487542 0 0.043989382241345812 0.015633341686815471 0 0.044604177464888414 0.015513279914432953 0 0.04490409896869036 0.016019437894480182 0 0.044604177464888414 0.015513279914432953 0 0.045140242104323755 0.015315317556131637 0 0.04490409896869036 0.016019437894480182 0 0.045140242104323755 0.015315317556131637 0 0.04534297971724853 0.015765500576292297 0 0.044786514117570168 0.01481144709750911 0 0.045140242104323755 0.015315317556131637 0 0.045364425389296442 0.014617590421385575 0 0.044786514117570168 0.01481144709750911 0 0.044604177464888414 0.015513279914432953 0 0.045140242104323755 0.015315317556131637 0 0.045562634758365285 0.015274366784919361 0 0.045691994995615152 0.014722275767252137 0 0.045364425389296442 0.014617590421385575 0 0.045140242104323755 0.015315317556131637 0 0.045562634758365285 0.015274366784919361 0 0.045364425389296442 0.014617590421385575 0 0.045140242104323755 0.015315317556131637 0 0.045562634758365285 0.015274366784919361 0 0.04534297971724853 0.015765500576292297 0 0.045562634758365285 0.015274366784919361 0 0.04534297971724853 0.015765500576292297 0 0.045671155404255287 0.015788395873879785 0 0.045562634758365285 0.015274366784919361 0 0.045671155404255287 0.015788395873879785 0 0.045983926148300144 0.01533966443669392 0 0.045921420607820236 0.015770626756472526 0 0.045671155404255287 0.015788395873879785 0 0.045983926148300144 0.01533966443669392 0 0.045921420607820236 0.015770626756472526 0 0.045931466224971115 0.015658724286336412 0 0.045983926148300144 0.01533966443669392 0 0.045931466224971115 0.015658724286336412 0 0.045983926148300144 0.01533966443669392 0 0.045896223772816901 0.015397167873686441 0 0.045983926148300144 0.01533966443669392 0 0.045896223772816901 0.015397167873686441 0 0.045737982678889753 0.015244532419423142 0 0.045562634758365285 0.015274366784919361 0 0.045983926148300144 0.01533966443669392 0 0.045691994995615152 0.014722275767252137 0 0.04600055501265609 0.014438011780641068 0 0.045691994995615152 0.014722275767252137 0 0.045604414350694643 0.014064284812466899 0 0.045983926148300144 0.01533966443669392 0 0.04600055501265609 0.014438011780641068 0 0.045691994995615152 0.014722275767252137 0 0.045983926148300144 0.01533966443669392 0 0.04600055501265609 0.014438011780641068 0 0.046415429413177993 0.014417912400634961 0 0.045986292550703932 0.015287597774634315 0 0.046065427441785239 0.014826833605858 0 0.04600055501265609 0.014438011780641068 0 0.046149049539395928 0.013936600886537578 0 0.046415429413177993 0.014417912400634961 0 0.046007747261662853 0.014376659546966456 0 0.045785410638261879 0.013643151324258893 0 0.04600055501265609 0.014438011780641068 0 0.045604414350694643 0.014064284812466899 0 0.045887919144556262 0.013525368982171052 0 0.04600055501265609 0.014438011780641068 0 0.046149049539395928 0.013936600886537578 0 0.045705464808840558 0.013743220274695857 0 0.045604414350694643 0.014064284812466899 0 0.04508146813239669 0.013839903125300774 0 0.04550059957685431 0.013244545730863153 0 0.045604414350694643 0.014064284812466899 0 0.04508146813239669 0.013839903125300774 0 0.045364425389296442 0.014617590421385575 0 0.044786514117570168 0.01481144709750911 0 0.04508146813239669 0.013839903125300774 0 0.045364425389296442 0.014617590421385575 0 0.045691994995615152 0.014722275767252137 0 0.045604414350694643 0.014064284812466899 0 0.045364425389296442 0.014617590421385575 0 0.025626230636930869 0.018105707132009444 0 0.025287905136743848 0.018561754682638813 0 0.024961684214982821 0.018278634348108114 0 0.025122919239174417 0.01785310438837202 0 0.025626230636930869 0.018105707132009444 0 0.024961684214982821 0.018278634348108114 0 0.018804356502305785 0.030873162574283255 0 0.020317434174051817 0.030193370111155474 0 0.018939834950149802 0.032198480157636579 0 0.022024711758939372 0.030944558455583554 0 0.020317434174051817 0.030193370111155474 0 0.018939834950149802 0.032198480157636579 0 0.022385366894054338 0.02460752311807592 0 0.022219232619859416 0.025377463291257535 0 0.025884506674351198 0.017538188390219572 0 0.025122919239174417 0.01785310438837202 0 0.025626230636930869 0.018105707132009444 0 0.025626230636930869 0.018105707132009444 0 0.026354760154884038 0.017909546707915426 0 0.026017256237584142 0.018528438868302154 0 0.036855922980182601 0.015507555814120083 0 0.035837779945740084 0.017153682675972112 0 0.04607044217005038 0.015371772473876982 0 0.045896223772816901 0.015397167873686441 0 0.045885259300916185 0.015254004578092919 0 0.026718614661323001 0.017255287105007441 0 0.025884506674351198 0.017538188390219572 0 0.026354760154884038 0.017909546707915426 0 0.025884506674351198 0.017538188390219572 0 0.025626230636930869 0.018105707132009444 0 0.026354760154884038 0.017909546707915426 0 0.045208578336488038 0.017579287076390383 0 0.04607044217005038 0.015371772473876982 0 0.045770201710490475 0.015806440885985491 0 0.046031420494877184 0.015850019827960568 0 0.045931466224971115 0.015658724286336412 0 0.045770201710490475 0.015806440885985491 0 0.032461096041093165 0.022299858313039655 0 0.036855922980182601 0.015507555814120083 0 0.04607044217005038 0.015371772473876982 0 0.045770201710490475 0.015806440885985491 0 0.045896223772816901 0.015397167873686441 0 0.045931466224971115 0.015658724286336412 0 0.045770201710490475 0.015806440885985491 0 0.045896223772816901 0.015397167873686441 0 0.045737982678889753 0.015244532419423142 0 0.045768353860167421 0.015112626146838651 0 0.045885259300916185 0.015254004578092919 0 0.045896223772816901 0.015397167873686441 0 0.045737982678889753 0.015244532419423142 0 0.045885259300916185 0.015254004578092919 0 0.046149049539395928 0.013936600886537578 0 0.046415429413177993 0.014417912400634961 0 0.046418879132657638 0.013761240255589596 0 0.046065427441785239 0.014826833605858 0 0.046013473177677643 0.014322763409440655 0 0.045737982678889753 0.015244532419423142 0 0.045768353860167421 0.015112626146838651 0 0.045603950604817318 0.014879218106910059 0 0.045768353860167421 0.015112626146838651 0 0.045885259300916185 0.015254004578092919 0 0.045971983581281732 0.01489572683592694 0 0.045768353860167421 0.015112626146838651 0 0.045971983581281732 0.01489572683592694 0 0.045603950604817318 0.014879218106910059 0 0.025626230636930869 0.018105707132009444 0 0.026017256237584142 0.018528438868302154 0 0.025287905136743848 0.018561754682638813 0 0.035837779945740084 0.017153682675972112 0 0.035801734657617892 0.016958358820351405 0 0.026017256237584142 0.018528438868302154 0 0.025287905136743848 0.018561754682638813 0 0.025704988810762372 0.019131139796303064 0 0.025140473958286953 0.019004665995022527 0 0.025287905136743848 0.018561754682638813 0 0.025704988810762372 0.019131139796303064 0 0.025140473958286953 0.019004665995022527 0 0.025287905136743848 0.018561754682638813 0 0.024671425867112698 0.018767156396200795 0 0.025330330163375565 0.019814812040407269 0 0.024646124727467793 0.020333854185864239 0 0.024762746601497233 0.019397059741022196 0 0.025140473958286953 0.019004665995022527 0 0.025330330163375565 0.019814812040407269 0 0.025704988810762372 0.019131139796303064 0 0.025140473958286953 0.019004665995022527 0 0.025330330163375565 0.019814812040407269 0 0.024762746601497233 0.019397059741022196 0 0.03615458375890078 0.017075430328292306 0 0.035801734657617892 0.016958358820351405 0 0.046124401235051266 0.014265253751973678 0 0.045971983581281732 0.01489572683592694 0 0.04563340445068937 0.014338752139598558 0 0.045971983581281732 0.01489572683592694 0 0.04563340445068937 0.014338752139598558 0 0.045603950604817318 0.014879218106910059 0 0.046261065733937394 0.013398085370661653 0 0.046418879132657638 0.013761240255589596 0 0.046166953101527658 0.013495278716185301 0 0.045947435807200683 0.013883926111878053 0 0.046013473177677643 0.014322763409440655 0 0.046261065733937394 0.013398085370661653 0 0.046166953101527658 0.013495278716185301 0 0.046195291611613523 0.013240007936330379 0 0.046261065733937394 0.013398085370661653 0 0.046145945554841028 0.013465787065911622 0 0.046195291611613523 0.013240007936330379 0 0.046441005001422085 0.01286482882021904 0 0.046195291611613523 0.013240007936330379 0 0.04621533608096523 0.012732264449155097 0 0.046434900858209928 0.013191690697503106 0 0.046157925781393619 0.013300695293054941 0 0.046145945554841028 0.013465787065911622 0 0.046154928068668742 0.013623137968640998 0 0.046195291611613523 0.013240007936330379 0 0.046154928068668742 0.013623137968640998 0 0.045875978189908087 0.013686909907088998 0 0.045922240898260025 0.013709380227084898 0 0.046145945554841028 0.013465787065911622 0 0.046154928068668742 0.013623137968640998 0 0.045875978189908087 0.013686909907088998 0 0.046261065733937394 0.013398085370661653 0 0.046145945554841028 0.013465787065911622 0 0.045875978189908087 0.013686909907088998 0 0.045947435807200683 0.013883926111878053 0 0.045891650948346706 0.013711671007613172 0 0.046124401235051266 0.014265253751973678 0 0.04563340445068937 0.014338752139598558 0 0.045875978189908087 0.013686909907088998 0 0.046124401235051266 0.014265253751973678 0 0.045875978189908087 0.013686909907088998 0 0.046005174667855898 0.013827673779891071 0 0.045875978189908087 0.013686909907088998 0 0.046005174667855898 0.013827673779891071 0 0.045917283374885202 0.013683183798799608 0 0.045875978189908087 0.013686909907088998 0 0.045917283374885202 0.013683183798799608 0 0.045922240898260025 0.013709380227084898 0 0.037211408199156373 0.01175831285436725 0 0.037859742317172818 0.012441952811670294 0 0.038621560306682783 0.012247741762273757 0 0.032294453684760097 0.016875752729499156 0 0.043373905294312634 0.013193224625313339 0 0.046005174667855898 0.013827673779891071 0 0.046116060249742366 0.013762339982930616 0 0.045917283374885202 0.013683183798799608 0 0.046124401235051266 0.014265253751973678 0 0.046005174667855898 0.013827673779891071 0 0.046116060249742366 0.013762339982930616 0 0.03615458375890078 0.017075430328292306 0 0.032294453684760097 0.016875752729499156 0 0.025330330163375565 0.019814812040407269 0 0.024812151669472256 0.021041535420421142 0 0.024646124727467793 0.020333854185864239 0 0.04550059957685431 0.013244545730863153 0 0.045887919144556262 0.013525368982171052 0 0.045622070690321953 0.0127461487677599 0 0.045785410638261879 0.013643151324258893 0 0.045568731704636913 0.012957513263209099 0 0.045705464808840558 0.013743220274695857 0 0.045899811022893262 0.013243247852424625 0 0.045489045476770316 0.013176164396899172 0 0.045306448510175026 0.012851639722611316 0 0.04550059957685431 0.013244545730863153 0 0.045622070690321953 0.0127461487677599 0 0.045306448510175026 0.012851639722611316 0 0.04508146813239669 0.013839903125300774 0 0.04550059957685431 0.013244545730863153 0 0.045604414350694643 0.014064284812466899 0 0.04550059957685431 0.013244545730863153 0 0.045887919144556262 0.013525368982171052 0 0.046149049539395928 0.013936600886537578 0 0.046418879132657638 0.013761240255589596 0 0.046166953101527658 0.013495278716185301 0 0.046149049539395928 0.013936600886537578 0 0.045705464808840558 0.013743220274695857 0 0.046166953101527658 0.013495278716185301 0 0.045705464808840558 0.013743220274695857 0 0.046166953101527658 0.013495278716185301 0 0.045899811022893262 0.013243247852424625 0 0.045899811022893262 0.013243247852424625 0 0.046195291611613523 0.013240007936330379 0 0.045950475744054323 0.012935964747238893 0 0.045899811022893262 0.013243247852424625 0 0.045950475744054323 0.012935964747238893 0 0.045734848338885678 0.012928364945637458 0 0.046166953101527658 0.013495278716185301 0 0.045899811022893262 0.013243247852424625 0 0.046195291611613523 0.013240007936330379 0 0.046195291611613523 0.013240007936330379 0 0.045950475744054323 0.012935964747238893 0 0.04621533608096523 0.012732264449155097 0 0.045950475744054323 0.012935964747238893 0 0.04621533608096523 0.012732264449155097 0 0.046021555168363572 0.012711188705783189 0 0.045950475744054323 0.012935964747238893 0 0.045734848338885678 0.012928364945637458 0 0.045778244143845216 0.01270537561912616 0 0.045950475744054323 0.012935964747238893 0 0.045778244143845216 0.01270537561912616 0 0.046021555168363572 0.012711188705783189 0 0.045734848338885678 0.012928364945637458 0 0.045531258965808181 0.012613966639949329 0 0.045778244143845216 0.01270537561912616 0 0.045491947888470184 0.012584724074489972 0 0.045415271448345153 0.012410445489707399 0 0.045531258965808181 0.012613966639949329 0 0.045460419209973416 0.012319489484216843 0 0.045218823389991052 0.012025735239258114 0 0.045899811022893262 0.013243247852424625 0 0.045734848338885678 0.012928364945637458 0 0.045489045476770316 0.013176164396899172 0 0.045734848338885678 0.012928364945637458 0 0.045489045476770316 0.013176164396899172 0 0.045531258965808181 0.012613966639949329 0 0.045490073151216878 0.01263156898458459 0 0.045306448510175026 0.012851639722611316 0 0.045622070690321953 0.0127461487677599 0 0.045568731704636913 0.012957513263209099 0 0.045484225392521851 0.01247795705466985 0 0.045490073151216878 0.01263156898458459 0 0.045622070690321953 0.0127461487677599 0 0.045495202206837143 0.012427031574405228 0 0.045489045476770316 0.013176164396899172 0 0.045531258965808181 0.012613966639949329 0 0.045495202206837143 0.012427031574405228 0 0.045531258965808181 0.012613966639949329 0 0.045495202206837143 0.012427031574405228 0 0.045460419209973416 0.012319489484216843 0 0.045495202206837143 0.012427031574405228 0 0.045460419209973416 0.012319489484216843 0 0.04551616543634826 0.012300563735630704 0 0.04551616543634826 0.012300563735630704 0 0.045443125781632218 0.012242677129419071 0 0.045406275587727259 0.012210308971585638 0 0.045460419209973416 0.012319489484216843 0 0.04551616543634826 0.012300563735630704 0 0.045406275587727259 0.012210308971585638 0 0.04551616543634826 0.012300563735630704 0 0.045443125781632218 0.012242677129419071 0 0.045532689949820897 0.01228534989517957 0 0.045443125781632218 0.012242677129419071 0 0.045477965873723922 0.012305807589168464 0 0.045532689949820897 0.01228534989517957 0 0.045477965873723922 0.012305807589168464 0 0.045532689949820897 0.01228534989517957 0 0.04551813799796977 0.01230779754148929 0 0.045443125781632218 0.012242677129419071 0 0.045477965873723922 0.012305807589168464 0 0.04526973719132707 0.012348484286524127 0 0.045443125781632218 0.012242677129419071 0 0.045272412057979862 0.01211489641691587 0 0.04526973719132707 0.012348484286524127 0 0.045272412057979862 0.01211489641691587 0 0.045406275587727259 0.012210308971585638 0 0.045218823389991052 0.012025735239258114 0 0.045460419209973416 0.012319489484216843 0 0.045406275587727259 0.012210308971585638 0 0.045218823389991052 0.012025735239258114 0 0.045443125781632218 0.012242677129419071 0 0.045272412057979862 0.01211489641691587 0 0.045406275587727259 0.012210308971585638 0 0.045415271448345153 0.012410445489707399 0 0.045837388722502294 0.012200168209472995 0 0.045778244143845216 0.01270537561912616 0 0.046021555168363572 0.012711188705783189 0 0.046109032802291443 0.012523563291021786 0 0.045272412057979862 0.01211489641691587 0 0.045218823389991052 0.012025735239258114 0 0.044754417499316773 0.01176551372159494 0 0.045218823389991052 0.012025735239258114 0 0.044919493222737514 0.011845875948094293 0 0.044754417499316773 0.01176551372159494 0 0.04621533608096523 0.012732264449155097 0 0.046206530736085216 0.012611359714171641 0 0.046306311699879678 0.012613282560927693 0 0.04621533608096523 0.012732264449155097 0 0.046137758828744019 0.012643927016599355 0 0.046206530736085216 0.012611359714171641 0 0.04621533608096523 0.012732264449155097 0 0.046137758828744019 0.012643927016599355 0 0.046021555168363572 0.012711188705783189 0 0.046137758828744019 0.012643927016599355 0 0.046021555168363572 0.012711188705783189 0 0.046109032802291443 0.012523563291021786 0 0.046109032802291443 0.012523563291021786 0 0.046206530736085216 0.012611359714171641 0 0.046286032171194695 0.012517192330853964 0 0.046137758828744019 0.012643927016599355 0 0.046109032802291443 0.012523563291021786 0 0.046206530736085216 0.012611359714171641 0 0.044754417499316773 0.01176551372159494 0 0.045410728550037562 0.0098188107022169173 0 0.043475908422722594 0.0083317821083418401 0 0.044919493222737514 0.011845875948094293 0 0.045410728550037562 0.0098188107022169173 0 0.048635450872038528 0.0097314360380141521 0 0.044919493222737514 0.011845875948094293 0 0.044754417499316773 0.01176551372159494 0 0.045410728550037562 0.0098188107022169173 0 0.044688281011610168 0.011707185519418071 0 0.043225323816409492 0.010407357411889218 0 0.044754417499316773 0.01176551372159494 0 0.043475908422722594 0.0083317821083418401 0 0.041053012045247271 0.0085279971361185789 0 0.045272412057979862 0.01211489641691587 0 0.044754417499316773 0.01176551372159494 0 0.04526973719132707 0.012348484286524127 0 0.043475908422722594 0.0083317821083418401 0 0.042098114677948544 0.0050956723024370969 0 0.041053012045247271 0.0085279971361185789 0 0.043475908422722594 0.0083317821083418401 0 0.045537852974912113 0.0072327439341746671 0 0.042098114677948544 0.0050956723024370969 0 0.045410728550037562 0.0098188107022169173 0 0.045537852974912113 0.0072327439341746671 0 0.048635450872038528 0.0097314360380141521 0 0.045410728550037562 0.0098188107022169173 0 0.043475908422722594 0.0083317821083418401 0 0.045537852974912113 0.0072327439341746671 0 0.043327833793509372 0.0060534496946094063 0 0.042098114677948544 0.0050956723024370969 0 0.044164478287295694 0.0048243749698837751 0 0.044391280169183409 0.0064776947199615773 0 0.042343408423189115 0.005240730688927055 0 0.042098114677948544 0.0050956723024370969 0 0.040431462053178421 0.0053492954216447413 0 0.041053012045247271 0.0085279971361185789 0 0.042098114677948544 0.0050956723024370969 0 0.040431462053178421 0.0053492954216447413 0 0.040738047318112411 0.0037694720288136189 0 0.039208684795795826 0.0050329992362585299 0 0.039203897583485019 0.0061749019418172136 0 0.037649495966581688 0.0046577733655727939 0 0.040431462053178421 0.0053492954216447413 0 0.039208684795795826 0.0050329992362585299 0 0.039574355426597069 0.0042921302664096425 0 0.040431462053178421 0.0053492954216447413 0 0.039208684795795826 0.0050329992362585299 0 0.039203897583485019 0.0061749019418172136 0 0.045496166400905695 0.012332970647749644 0 0.045477965873723922 0.012305807589168464 0 0.04526973719132707 0.012348484286524127 0 0.045496166400905695 0.012332970647749644 0 0.04551813799796977 0.01230779754148929 0 0.045490456488853234 0.012297804928534575 0 0.045496166400905695 0.012332970647749644 0 0.045477965873723922 0.012305807589168464 0 0.04551813799796977 0.01230779754148929 0 0.040431462053178421 0.0053492954216447413 0 0.039203897583485019 0.0061749019418172136 0 0.041053012045247271 0.0085279971361185789 0 0.042357955675132807 0.009609932222766961 0 0.043225323816409492 0.010407357411889218 0 0.037473089199805999 0.013486881361620141 0 0.03792506353949094 0.013586375015007226 0 0.037726887093086102 0.014324955545491137 0 0.037473089199805999 0.013486881361620141 0 0.037028065481831816 0.014033568938077414 0 0.036736980493444434 0.013211050602296237 0 0.037473089199805999 0.013486881361620141 0 0.03792506353949094 0.013586375015007226 0 0.03792330363556027 0.013079186969968475 0 0.037473089199805999 0.013486881361620141 0 0.03792330363556027 0.013079186969968475 0 0.037460663036312097 0.01280209436862477 0 0.037473089199805999 0.013486881361620141 0 0.037460663036312097 0.01280209436862477 0 0.036736980493444434 0.013211050602296237 0 0.037211408199156373 0.01175831285436725 0 0.037460663036312097 0.01280209436862477 0 0.036736980493444434 0.013211050602296237 0 0.037211408199156373 0.01175831285436725 0 0.037460663036312097 0.01280209436862477 0 0.037859742317172818 0.012441952811670294 0 0.03792330363556027 0.013079186969968475 0 0.037460663036312097 0.01280209436862477 0 0.037859742317172818 0.012441952811670294 0 0.03792330363556027 0.013079186969968475 0 0.037859742317172818 0.012441952811670294 0 0.038565561665423617 0.013432450168000962 0 0.037859742317172818 0.012441952811670294 0 0.039052413978785221 0.013254206869339315 0 0.039294617021390275 0.014208075689537905 0 0.043373905294312634 0.013193224625313339 0 0.044604725171631041 0.012597148842881359 0 0.038621560306682783 0.012247741762273757 0 0.039109451523214225 0.012856243420991094 0 0.040506782245428176 0.013088426675950525 0 0.037744979353669668 0.012704266099224041 0 0.039826537434200233 0.012983311640919187 0 0.037859742317172818 0.012441952811670294 0 0.039052413978785221 0.013254206869339315 0 0.039109451523214225 0.012856243420991094 0 0.037859742317172818 0.012441952811670294 0 0.038621560306682783 0.012247741762273757 0 0.039109451523214225 0.012856243420991094 0 0.039496646460628643 0.012386379647783434 0 0.042344755988013558 0.012831415339774855 0 0.039052413978785221 0.013254206869339315 0 0.039109451523214225 0.012856243420991094 0 0.039951925609747974 0.01350434573887507 0 0.03792506353949094 0.013586375015007226 0 0.038565561665423617 0.013432450168000962 0 0.037726887093086102 0.014324955545491137 0 0.039052413978785221 0.013254206869339315 0 0.039294617021390275 0.014208075689537905 0 0.039951925609747974 0.01350434573887507 0 0.03792506353949094 0.013586375015007226 0 0.03792330363556027 0.013079186969968475 0 0.038565561665423617 0.013432450168000962 0 0.04650598368837866 0.012474702534454478 0 0.046651583474269634 0.012523973552960459 0 0.046439213607061644 0.012321945165785927 0 0.042344755988013558 0.012831415339774855 0 0.045903801036482575 0.010118880268785399 0 0.042824408464278291 0.011175325782521306 0 0.042706715522855182 0.010791906422545749 0 0.043336549178061221 0.011260938063459514 0 0.039826537434200233 0.012983311640919187 0 0.042380472991783782 0.0087227065787204763 0 0.042425392931364311 0.011087960400756431 0 0.042824408464278291 0.011175325782521306 0 0.042830618122271853 0.011559930136645122 0 0.042824408464278291 0.011175325782521306 0 0.043336549178061221 0.011260938063459514 0 0.042830618122271853 0.011559930136645122 0 0.04650598368837866 0.012474702534454478 0 0.046651583474269634 0.012523973552960459 0 0.046511143955226673 0.01253480154342225 0 0.042425392931364311 0.011087960400756431 0 0.042824408464278291 0.011175325782521306 0 0.042706715522855182 0.010791906422545749 0 0.039826537434200233 0.012983311640919187 0 0.042344755988013558 0.012831415339774855 0 0.046154928068668742 0.013623137968640998 0 0.045922240898260025 0.013709380227084898 0 0.045952934266878943 0.013777838467113572 0 0.039109451523214225 0.012856243420991094 0 0.040066650534308655 0.013568598243830284 0 0.040506782245428176 0.013088426675950525 0 0.045917283374885202 0.013683183798799608 0 0.045922240898260025 0.013709380227084898 0 0.045952934266878943 0.013777838467113572 0 0.042344755988013558 0.012831415339774855 0 0.044604725171631041 0.012597148842881359 0 0.046434900858209928 0.013191690697503106 0 0.044604725171631041 0.012597148842881359 0 0.046651583474269634 0.012523973552960459 0 0.04656427728222548 0.01256764443893079 0 0.046511143955226673 0.01253480154342225 0 0.046604672595588925 0.01258629342145944 0 0.04656427728222548 0.01256764443893079 0 0.046472767093026328 0.012617863550232268 0 0.044604725171631041 0.012597148842881359 0 0.045108242535386901 0.012761670250967911 0 0.046651583474269634 0.012523973552960459 0 0.046596920899689094 0.012585485911125028 0 0.04656427728222548 0.01256764443893079 0 0.04656427728222548 0.01256764443893079 0 0.046511143955226673 0.01253480154342225 0 0.046472767093026328 0.012617863550232268 0 0.046511143955226673 0.01253480154342225 0 0.046472767093026328 0.012617863550232268 0 0.046449059004417946 0.012507362838225372 0 0.046393840612867589 0.012587823825305093 0 0.046369573031129492 0.012516961504795109 0 0.046449059004417946 0.012507362838225372 0 0.046393840612867589 0.012587823825305093 0 0.046472767093026328 0.012617863550232268 0 0.046449059004417946 0.012507362838225372 0 0.046393840612867589 0.012587823825305093 0 0.046472767093026328 0.012617863550232268 0 0.046365054309216627 0.012686503912322672 0 0.046441005001422085 0.01286482882021904 0 0.046604672595588925 0.01258629342145944 0 0.046472767093026328 0.012617863550232268 0 0.046441005001422085 0.01286482882021904 0 0.046472767093026328 0.012617863550232268 0 0.046365054309216627 0.012686503912322672 0 0.04621533608096523 0.012732264449155097 0 0.046365054309216627 0.012686503912322672 0 0.046306311699879678 0.012613282560927693 0 0.046441005001422085 0.01286482882021904 0 0.04621533608096523 0.012732264449155097 0 0.046365054309216627 0.012686503912322672 0 0.046206530736085216 0.012611359714171641 0 0.046306311699879678 0.012613282560927693 0 0.046286032171194695 0.012517192330853964 0 0.046393840612867589 0.012587823825305093 0 0.046365054309216627 0.012686503912322672 0 0.046306311699879678 0.012613282560927693 0 0.046393840612867589 0.012587823825305093 0 0.046306311699879678 0.012613282560927693 0 0.046369573031129492 0.012516961504795109 0 0.046306311699879678 0.012613282560927693 0 0.046369573031129492 0.012516961504795109 0 0.046286032171194695 0.012517192330853964 0 0.045837388722502294 0.012200168209472995 0 0.045903801036482575 0.010118880268785399 0 0.046109032802291443 0.012523563291021786 0 0.046286032171194695 0.012517192330853964 0 0.046439213607061644 0.012321945165785927 0 0.046369573031129492 0.012516961504795109 0 0.046286032171194695 0.012517192330853964 0 0.046439213607061644 0.012321945165785927 0 0.04650598368837866 0.012474702534454478 0 0.046449059004417946 0.012507362838225372 0 0.046439213607061644 0.012321945165785927 0 0.046369573031129492 0.012516961504795109 0 0.046449059004417946 0.012507362838225372 0 0.046439213607061644 0.012321945165785927 0 0.04650598368837866 0.012474702534454478 0 0.046511143955226673 0.01253480154342225 0 0.046449059004417946 0.012507362838225372 0 0.044604710045826404 0.0071085308115829901 0 0.044164478287295694 0.0048243749698837751 0 0.045522707385278513 0.0065430458684207545 0 0.043327833793509372 0.0060534496946094063 0 0.044604710045826404 0.0071085308115829901 0 0.044164478287295694 0.0048243749698837751 0 0.043276844117158479 0.0030675328644827016 0 0.042380472991783782 0.0087227065787204763 0 0.044391280169183409 0.0064776947199615773 0 0.045903801036482575 0.010118880268785399 0 0.042194342338798652 0.0027020580475792255 0 0.042523910518559756 0.0027358759171021091 0 0.042430773641702398 0.0032528861783091903 0 0.045903801036482575 0.010118880268785399 0 0.042380472991783782 0.0087227065787204763 0 0.042380472991783782 0.0087227065787204763 0 0.040034975131286031 0.0092630896626298889 0 0.040134371442272214 0.013702886315243126 0 0.038802161577341926 0.013870808025277652 0 0.038017321902345094 0.014896786275323509 0 0.039826537434200233 0.012983311640919187 0 0.037497608173188382 0.014345424713680699 0 0.039230242421590483 0.012584604819713645 0 0.038802161577341926 0.013870808025277652 0 0.037726887093086102 0.014324955545491137 0 0.039230242421590483 0.012584604819713645 0 0.040134371442272214 0.013702886315243126 0 0.038802161577341926 0.013870808025277652 0 0.038802161577341926 0.013870808025277652 0 0.038017321902345094 0.014896786275323509 0 0.037726887093086102 0.014324955545491137 0 0.042523910518559756 0.0027358759171021091 0 0.042430773641702398 0.0032528861783091903 0 0.042897270069338016 0.0030260554422128026 0 0.042523910518559756 0.0027358759171021091 0 0.042897270069338016 0.0030260554422128026 0 0.042791606621620369 0.0026689311640302298 0 0.042897270069338016 0.0030260554422128026 0 0.043558360030972527 0.0027581046720844952 0 0.04343554948801169 0.0027705373626967481 0 0.038017321902345094 0.014896786275323509 0 0.036556424609764819 0.015663130931754712 0 0.037052958801865252 0.014673194514528282 0 0.042897270069338016 0.0030260554422128026 0 0.04311078095267442 0.0025103828895828768 0 0.042791606621620369 0.0026689311640302298 0 0.042897270069338016 0.0030260554422128026 0 0.04311078095267442 0.0025103828895828768 0 0.04343554948801169 0.0027705373626967481 0 0.040034975131286031 0.0092630896626298889 0 0.040953985389292159 0.0074195424589597655 0 0.037726887093086102 0.014324955545491137 0 0.037028065481831816 0.014033568938077414 0 0.037052958801865252 0.014673194514528282 0 0.037473089199805999 0.013486881361620141 0 0.037726887093086102 0.014324955545491137 0 0.037028065481831816 0.014033568938077414 0 0.038017321902345094 0.014896786275323509 0 0.037726887093086102 0.014324955545491137 0 0.037052958801865252 0.014673194514528282 0 0.042955971600847971 0.0019257436360691541 0 0.04311078095267442 0.0025103828895828768 0 0.042667119670872541 0.0023851809562722374 0 0.042955971600847971 0.0019257436360691541 0 0.043377470301572831 0.0013732617676768177 0 0.043414897655499544 0.0021309261506629092 0 0.042955971600847971 0.0019257436360691541 0 0.04311078095267442 0.0025103828895828768 0 0.043414897655499544 0.0021309261506629092 0 0.04311078095267442 0.0025103828895828768 0 0.043474626830411235 0.0024970570812085854 0 0.043414897655499544 0.0021309261506629092 0 0.04311078095267442 0.0025103828895828768 0 0.042791606621620369 0.0026689311640302298 0 0.042667119670872541 0.0023851809562722374 0 0.042523910518559756 0.0027358759171021091 0 0.042791606621620369 0.0026689311640302298 0 0.042667119670872541 0.0023851809562722374 0 0.042955971600847971 0.0019257436360691541 0 0.042667119670872541 0.0023851809562722374 0 0.042426484409558492 0.0018731204432878056 0 0.042301467517307526 0.0023869040562069367 0 0.04218196230455707 0.0019805742398529662 0 0.042426484409558492 0.0018731204432878056 0 0.042667119670872541 0.0023851809562722374 0 0.042301467517307526 0.0023869040562069367 0 0.042426484409558492 0.0018731204432878056 0 0.042523910518559756 0.0027358759171021091 0 0.042667119670872541 0.0023851809562722374 0 0.042301467517307526 0.0023869040562069367 0 0.042194342338798652 0.0027020580475792255 0 0.042523910518559756 0.0027358759171021091 0 0.042301467517307526 0.0023869040562069367 0 0.042194342338798652 0.0027020580475792255 0 0.042301467517307526 0.0023869040562069367 0 0.042306242345727392 0.0027556791586191456 0 0.042301467517307526 0.0023869040562069367 0 0.04218196230455707 0.0019805742398529662 0 0.042306242345727392 0.0027556791586191456 0 0.042196976028950853 0.0021411337642246414 0 0.04195748411121538 0.00084204685224824414 0 0.04218196230455707 0.0019805742398529662 0 0.042333924424707368 0.001533521786739208 0 0.042128390092795495 0.0018181995992226363 0 0.04218196230455707 0.0019805742398529662 0 0.041957032765123449 0.0013178479084863619 0 0.042111170146634513 0.0012527074060700619 0 0.04195748411121538 0.00084204685224824414 0 0.04186444977610889 0.0012145180506441468 0 0.040744952815329319 0.00078203684154958171 0 0.042111170146634513 0.0012527074060700619 0 0.041544240443664421 0.00030764590972383332 0 0.04195748411121538 0.00084204685224824414 0 0.0432086257343458 5.2261467624137051e-05 0 0.042207140210059474 6.0804094721016149e-05 0 0.042193157059451751 5.3459441688343517e-05 0 0.042206548942566979 3.7053967324994376e-05 0 0.042111170146634513 0.0012527074060700619 0 0.041544240443664421 0.00030764590972383332 0 0.042347601260809643 5.4376368150826646e-05 0 0.04218196230455707 0.0019805742398529662 0 0.042111170146634513 0.0012527074060700619 0 0.042426484409558492 0.0018731204432878056 0 0.042111170146634513 0.0012527074060700619 0 0.042426484409558492 0.0018731204432878056 0 0.042829034801383288 0.0011103682166103393 0 0.042955971600847971 0.0019257436360691541 0 0.042426484409558492 0.0018731204432878056 0 0.042829034801383288 0.0011103682166103393 0 0.042111170146634513 0.0012527074060700619 0 0.042829034801383288 0.0011103682166103393 0 0.042347601260809643 5.4376368150826646e-05 0 0.042829034801383288 0.0011103682166103393 0 0.042347601260809643 5.4376368150826646e-05 0 0.043142918801858866 6.6860787103993589e-05 0 0.042829034801383288 0.0011103682166103393 0 0.043299680042098103 0.00079649947207669489 0 0.043142918801858866 6.6860787103993589e-05 0 0.042955971600847971 0.0019257436360691541 0 0.042829034801383288 0.0011103682166103393 0 0.043377470301572831 0.0013732617676768177 0 0.042829034801383288 0.0011103682166103393 0 0.043299680042098103 0.00079649947207669489 0 0.043377470301572831 0.0013732617676768177 0 0.040722793130414207 0.0022775692154416972 0 0.039200433009694287 0.0035096299258556788 0 0.040738047318112411 0.0037694720288136189 0 0.045168196005798002 0.00192065648949289 0 0.045250580727461971 0.0010226768849536272 0 0.044862155695654181 0.0014560269268118452 0 0.043299040621998339 0.0018060091737543487 0 0.041784698497421835 0.0025842573221775919 0 0.045835016417514265 0.0012950507186913016 0 0.045168196005798002 0.00192065648949289 0 0.045250580727461971 0.0010226768849536272 0 0.039200433009694287 0.0035096299258556788 0 0.039574355426597069 0.0042921302664096425 0 0.040738047318112411 0.0037694720288136189 0 0.039200433009694287 0.0035096299258556788 0 0.039574355426597069 0.0042921302664096425 0 0.038920240103676645 0.0043769500433563681 0 0.039208684795795826 0.0050329992362585299 0 0.039574355426597069 0.0042921302664096425 0 0.038920240103676645 0.0043769500433563681 0 0.040431462053178421 0.0053492954216447413 0 0.039574355426597069 0.0042921302664096425 0 0.040738047318112411 0.0037694720288136189 0 0.042098114677948544 0.0050956723024370969 0 0.040738047318112411 0.0037694720288136189 0 0.042306242345727392 0.0027556791586191456 0 0.042098114677948544 0.0050956723024370969 0 0.044164478287295694 0.0048243749698837751 0 0.042306242345727392 0.0027556791586191456 0 0.043276844117158479 0.0030675328644827016 0 0.042375083342769661 0.0030563493882595923 0 0.040722793130414207 0.0022775692154416972 0 0.040738047318112411 0.0037694720288136189 0 0.042306242345727392 0.0027556791586191456 0 0.043299040621998339 0.0018060091737543487 0 0.044227969330978611 0.0012356634369072056 0 0.040722793130414207 0.0022775692154416972 0 0.042306242345727392 0.0027556791586191456 0 0.041717061394842006 0.0016730586697614326 0 0.04218196230455707 0.0019805742398529662 0 0.042306242345727392 0.0027556791586191456 0 0.042128390092795495 0.0018181995992226363 0 0.042306242345727392 0.0027556791586191456 0 0.041717061394842006 0.0016730586697614326 0 0.042128390092795495 0.0018181995992226363 0 0.044227969330978611 0.0012356634369072056 0 0.0432086257343458 5.2261467624137051e-05 0 0.042333924424707368 0.001533521786739208 0 0.042128390092795495 0.0018181995992226363 0 0.04217830105128912 0.0014447127587713783 0 0.041717061394842006 0.0016730586697614326 0 0.042128390092795495 0.0018181995992226363 0 0.04217830105128912 0.0014447127587713783 0 0.046436598321009673 0.00070741380808593481 0 0.045714779518405746 0.00038514209422777103 0 0.046316340592103045 -7.7265444931264059e-05 0 0.046436598321009673 0.00070741380808593481 0 0.046969376064669617 0.00020936688126833874 0 0.046316340592103045 -7.7265444931264059e-05 0 0.045835016417514265 0.0012950507186913016 0 0.046436598321009673 0.00070741380808593481 0 0.045714779518405746 0.00038514209422777103 0 0.045835016417514265 0.0012950507186913016 0 0.045714779518405746 0.00038514209422777103 0 0.045250580727461971 0.0010226768849536272 0 0.045714779518405746 0.00038514209422777103 0 0.045250580727461971 0.0010226768849536272 0 0.045185629815867566 0.00038187387374663323 0 0.045250580727461971 0.0010226768849536272 0 0.045185629815867566 0.00038187387374663323 0 0.044764769524751807 0.00058529656454128526 0 0.045714779518405746 0.00038514209422777103 0 0.045185629815867566 0.00038187387374663323 0 0.045233867552290405 -6.6429790580573782e-05 0 0.045185629815867566 0.00038187387374663323 0 0.044864002536479701 0.00016736010897696032 0 0.045233867552290405 -6.6429790580573782e-05 0 0.045185629815867566 0.00038187387374663323 0 0.044864002536479701 0.00016736010897696032 0 0.044764769524751807 0.00058529656454128526 0 0.044864002536479701 0.00016736010897696032 0 0.044764769524751807 0.00058529656454128526 0 0.044302426467246331 0.0004614034287547229 0 0.044764769524751807 0.00058529656454128526 0 0.044302426467246331 0.0004614034287547229 0 0.044572367500913465 0.0010285246493239419 0 0.045703097390787095 0.00062783249350708452 0 0.045428160531991474 0.00052227157203275985 0 0.045179537392261493 -7.9162290214224775e-05 0 0.045703097390787095 0.00062783249350708452 0 0.045643229215048937 0.0011123451709563346 0 0.045428160531991474 0.00052227157203275985 0 0.044302426467246331 0.0004614034287547229 0 0.044572367500913465 0.0010285246493239419 0 0.043910851428499542 0.0013244731839615481 0 0.045703097390787095 0.00062783249350708452 0 0.045949804538182856 0.0018089559653285754 0 0.045643229215048937 0.0011123451709563346 0 0.044978878780930903 0.00059526738271878409 0 0.044664723829853363 0.0013595393795325368 0 0.045250580727461971 0.0010226768849536272 0 0.044572367500913465 0.0010285246493239419 0 0.044862155695654181 0.0014560269268118452 0 0.045250580727461971 0.0010226768849536272 0 0.044764769524751807 0.00058529656454128526 0 0.044572367500913465 0.0010285246493239419 0 0.045168196005798002 0.00192065648949289 0 0.044862155695654181 0.0014560269268118452 0 0.044621072299790787 0.0019627209983839804 0 0.044466657228625431 0.0016044737160551296 0 0.044247493932224019 0.0019281591354870604 0 0.044621072299790787 0.0019627209983839804 0 0.044862155695654181 0.0014560269268118452 0 0.044466657228625431 0.0016044737160551296 0 0.044621072299790787 0.0019627209983839804 0 0.044572367500913465 0.0010285246493239419 0 0.044862155695654181 0.0014560269268118452 0 0.044466657228625431 0.0016044737160551296 0 0.044572367500913465 0.0010285246493239419 0 0.044466657228625431 0.0016044737160551296 0 0.04397817628796636 0.001698274256915477 0 0.04460798545942686 0.0010602029813360761 0 0.043738299521531444 0.0015625600801728405 0 0.044572367500913465 0.0010285246493239419 0 0.044076036842801578 0.0015800128585843501 0 0.043910851428499542 0.0013244731839615481 0 0.04397817628796636 0.001698274256915477 0 0.044247493932224019 0.0019281591354870604 0 0.043945055045125095 0.0020633641323764651 0 0.044466657228625431 0.0016044737160551296 0 0.04397817628796636 0.001698274256915477 0 0.044247493932224019 0.0019281591354870604 0 0.051161354427653627 0.007521711244285057 0 0.048676091322391896 0.0070576540704847812 0 0.04946627721589978 0.0076224642286579379 0 0.044247493932224019 0.0019281591354870604 0 0.044377365646662857 0.0021776658363422516 0 0.044152760333749104 0.0022811895739648252 0 0.044152760333749104 0.0022811895739648252 0 0.044504221108230949 0.0025584409816386362 0 0.043402889498545483 0.0023450162665383657 0 0.044971564643205494 0.0060916239042636726 0 0.046423818938445029 0.0039812263359068085 0 0.044247493932224019 0.0019281591354870604 0 0.044377365646662857 0.0021776658363422516 0 0.044621072299790787 0.0019627209983839804 0 0.044247493932224019 0.0019281591354870604 0 0.043945055045125095 0.0020633641323764651 0 0.044152760333749104 0.0022811895739648252 0 0.044377365646662857 0.0021776658363422516 0 0.044152760333749104 0.0022811895739648252 0 0.044487719992104019 0.0025355106215198026 0 0.043434611267194501 0.0027459012358369674 0 0.044971564643205494 0.0060916239042636726 0 0.045168196005798002 0.00192065648949289 0 0.044487719992104019 0.0025355106215198026 0 0.044621072299790787 0.0019627209983839804 0 0.041784698497421835 0.0025842573221775919 0 0.044971564643205494 0.0060916239042636726 0 0.038377229498390918 0.0048170177228364103 0 0.038920240103676645 0.0043769500433563681 0 0.0384487640052169 0.0048403174868482113 0 0.039208684795795826 0.0050329992362585299 0 0.038920240103676645 0.0043769500433563681 0 0.0384487640052169 0.0048403174868482113 0 0.039200433009694287 0.0035096299258556788 0 0.038377229498390918 0.0048170177228364103 0 0.038920240103676645 0.0043769500433563681 0 0.044971564643205494 0.0060916239042636726 0 0.042141518881758801 0.0060784099374881643 0 0.044377365646662857 0.0021776658363422516 0 0.044487719992104019 0.0025355106215198026 0 0.044621072299790787 0.0019627209983839804 0 0.045753074435483071 0.0023885505434180386 0 0.045833835189209943 0.0024738301025024286 0 0.045720409452215331 0.0025633640903786779 0 0.046739712292716437 0.0037597454062476155 0 0.046648870250388899 0.0036741542408035171 0 0.048427686415191525 0.0057297133493036173 0 0.050006436664257602 0.005192918792562104 0 0.047197322414818117 0.0046784132368217143 0 0.045797662844521969 0.002325545075597674 0 0.045753074435483071 0.0023885505434180386 0 0.045833835189209943 0.0024738301025024286 0 0.048427686415191525 0.0057297133493036173 0 0.047197322414818117 0.0046784132368217143 0 0.047125259883924596 0.0066240963153451383 0 0.046739712292716437 0.0037597454062476155 0 0.047515432693130188 0.0065363862680515861 0 0.048427686415191525 0.0057297133493036173 0 0.050006436664257602 0.005192918792562104 0 0.049355696661160312 0.006489396921894066 0 0.043945055045125095 0.0020633641323764651 0 0.044152760333749104 0.0022811895739648252 0 0.043402889498545483 0.0023450162665383657 0 0.048676091322391896 0.0070576540704847812 0 0.048550018448513754 0.0077184880565573308 0 0.047899007511567844 0.0077709601872041258 0 0.046423818938445029 0.0039812263359068085 0 0.047515432693130188 0.0065363862680515861 0 0.04397817628796636 0.001698274256915477 0 0.043945055045125095 0.0020633641323764651 0 0.043402889498545483 0.0023450162665383657 0 0.043738299521531444 0.0015625600801728405 0 0.046423818938445029 0.0039812263359068085 0 0.043659530039749671 0.002105105129460189 0 0.043578245608947783 0.0020894409511564133 0 0.043910851428499542 0.0013244731839615481 0 0.047515282848387665 0.0046731245247061187 0 0.047199575219201553 0.0046084446640918637 0 0.046656530905417229 0.0055901790488129899 0 0.048921910491600377 0.0075953972382211124 0 0.048676091322391896 0.0070576540704847812 0 0.048550018448513754 0.0077184880565573308 0 0.046423818938445029 0.0039812263359068085 0 0.046739712292716437 0.0037597454062476155 0 0.048921910491600377 0.0075953972382211124 0 0.048676091322391896 0.0070576540704847812 0 0.04946627721589978 0.0076224642286579379 0 0.045797662844521969 0.002325545075597674 0 0.045833835189209943 0.0024738301025024286 0 0.045820601917481489 0.0021404423953508439 0 0.045833835189209943 0.0024738301025024286 0 0.045820601917481489 0.0021404423953508439 0 0.045949804538182856 0.0018089559653285754 0 0.044076036842801578 0.0015800128585843501 0 0.043659530039749671 0.002105105129460189 0 0.043910851428499542 0.0013244731839615481 0 0.046739712292716437 0.0037597454062476155 0 0.044664723829853363 0.0013595393795325368 0 0.045791830341708112 0.0019308675022840643 0 0.045734082743328651 0.0021260202289516104 0 0.045684051087964313 0.0016203849578247918 0 0.045820601917481489 0.0021404423953508439 0 0.045949804538182856 0.0018089559653285754 0 0.045791830341708112 0.0019308675022840643 0 0.045820601917481489 0.0021404423953508439 0 0.045791830341708112 0.0019308675022840643 0 0.045734082743328651 0.0021260202289516104 0 0.045797662844521969 0.002325545075597674 0 0.045753074435483071 0.0023885505434180386 0 0.045734082743328651 0.0021260202289516104 0 0.045797662844521969 0.002325545075597674 0 0.045820601917481489 0.0021404423953508439 0 0.045734082743328651 0.0021260202289516104 0 0.045753074435483071 0.0023885505434180386 0 0.045734082743328651 0.0021260202289516104 0 0.045684502599924015 0.0023386347731956464 0 0.045753074435483071 0.0023885505434180386 0 0.045684502599924015 0.0023386347731956464 0 0.045720409452215331 0.0025633640903786779 0 0.045734082743328651 0.0021260202289516104 0 0.045597541511101236 0.0016833489489574728 0 0.045684502599924015 0.0023386347731956464 0 0.045597541511101236 0.0016833489489574728 0 0.045422684739297975 0.0011222138695511073 0 0.045532772158750928 0.001796179852339109 0 0.045597541511101236 0.0016833489489574728 0 0.045532772158750928 0.001796179852339109 0 0.045684502599924015 0.0023386347731956464 0 0.045734082743328651 0.0021260202289516104 0 0.045597541511101236 0.0016833489489574728 0 0.045684051087964313 0.0016203849578247918 0 0.045597541511101236 0.0016833489489574728 0 0.045684051087964313 0.0016203849578247918 0 0.045509169315379766 0.001068629619307847 0 0.045949804538182856 0.0018089559653285754 0 0.045684051087964313 0.0016203849578247918 0 0.045643229215048937 0.0011123451709563346 0 0.045949804538182856 0.0018089559653285754 0 0.045791830341708112 0.0019308675022840643 0 0.045684051087964313 0.0016203849578247918 0 0.045684051087964313 0.0016203849578247918 0 0.045643229215048937 0.0011123451709563346 0 0.045509169315379766 0.001068629619307847 0 0.045509169315379766 0.001068629619307847 0 0.045428160531991474 0.00052227157203275985 0 0.045324017452961378 0.00047753511274063141 0 0.045643229215048937 0.0011123451709563346 0 0.045509169315379766 0.001068629619307847 0 0.045428160531991474 0.00052227157203275985 0 0.045597541511101236 0.0016833489489574728 0 0.045509169315379766 0.001068629619307847 0 0.045422684739297975 0.0011222138695511073 0 0.045509169315379766 0.001068629619307847 0 0.045422684739297975 0.0011222138695511073 0 0.045324017452961378 0.00047753511274063141 0 0.045422684739297975 0.0011222138695511073 0 0.045307541236566884 0.0012839655393862598 0 0.045532772158750928 0.001796179852339109 0 0.045307541236566884 0.0012839655393862598 0 0.045471480605690555 0.0019525924857486071 0 0.045532772158750928 0.001796179852339109 0 0.045307541236566884 0.0012839655393862598 0 0.045344184257360871 0.0019067137696332972 0 0.045096346835233649 0.0013274478299044083 0 0.045307541236566884 0.0012839655393862598 0 0.045471480605690555 0.0019525924857486071 0 0.045344184257360871 0.0019067137696332972 0 0.045471480605690555 0.0019525924857486071 0 0.045487576678142926 0.0024765573751723102 0 0.045344184257360871 0.0019067137696332972 0 0.045471480605690555 0.0019525924857486071 0 0.045487576678142926 0.0024765573751723102 0 0.045624146974154643 0.0023988035124077006 0 0.045471480605690555 0.0019525924857486071 0 0.045532772158750928 0.001796179852339109 0 0.045624146974154643 0.0023988035124077006 0 0.045532772158750928 0.001796179852339109 0 0.045684502599924015 0.0023386347731956464 0 0.045624146974154643 0.0023988035124077006 0 0.045000125143637076 0.0015275862650964886 0 0.045890184607888712 0.00047950954898801345 0 0.045344184257360871 0.0019067137696332972 0 0.044999050330881973 0.0015300944822339122 0 0.045096346835233649 0.0013274478299044083 0 0.045487576678142926 0.0024765573751723102 0 0.045344184257360871 0.0019067137696332972 0 0.045481246993173505 0.0029046928803190004 0 0.045344184257360871 0.0019067137696332972 0 0.044999050330881973 0.0015300944822339122 0 0.045481246993173505 0.0029046928803190004 0 0.044999050330881973 0.0015300944822339122 0 0.044999251922127823 0.004157354593035947 0 0.045481246993173505 0.0029046928803190004 0 0.044999251922127823 0.004157354593035947 0 0.045481246993173505 0.0029046928803190004 0 0.045738308527028086 0.0044209889973798773 0 0.045481246993173505 0.0029046928803190004 0 0.045738308527028086 0.0044209889973798773 0 0.045524432554374959 0.003133818357575301 0 0.045487576678142926 0.0024765573751723102 0 0.045481246993173505 0.0029046928803190004 0 0.045524432554374959 0.003133818357575301 0 0.045550236630983926 0.0034266703857560852 0 0.045333635432092519 0.0063951884970816957 0 0.045738308527028086 0.0044209889973798773 0 0.045524432554374959 0.003133818357575301 0 0.046775465998877185 0.0060597096501708329 0 0.044999251922127823 0.004157354593035947 0 0.045738308527028086 0.0044209889973798773 0 0.044999494796642434 0.0067892183808286165 0 0.045735959686150802 0.0028120104785875929 0 0.045684502599924015 0.0023386347731956464 0 0.045720409452215331 0.0025633640903786779 0 0.045735959686150802 0.0028120104785875929 0 0.045624146974154643 0.0023988035124077006 0 0.045616593115570807 0.0028674106158989841 0 0.045735959686150802 0.0028120104785875929 0 0.045684502599924015 0.0023386347731956464 0 0.045624146974154643 0.0023988035124077006 0 0.045487576678142926 0.0024765573751723102 0 0.045624146974154643 0.0023988035124077006 0 0.045616593115570807 0.0028674106158989841 0 0.045487576678142926 0.0024765573751723102 0 0.045524432554374959 0.003133818357575301 0 0.045616593115570807 0.0028674106158989841 0 0.045524432554374959 0.003133818357575301 0 0.045616593115570807 0.0028674106158989841 0 0.045663308287863823 0.0036776002035782004 0 0.045735959686150802 0.0028120104785875929 0 0.045616593115570807 0.0028674106158989841 0 0.045663308287863823 0.0036776002035782004 0 0.045524432554374959 0.003133818357575301 0 0.045403433020941991 0.0059426637579169809 0 0.043933256759195911 0.006706189850589391 0 0.045524432554374959 0.003133818357575301 0 0.045691377799264091 0.0042588736841903682 0 0.045403433020941991 0.0059426637579169809 0 0.045524432554374959 0.003133818357575301 0 0.045691377799264091 0.0042588736841903682 0 0.045663308287863823 0.0036776002035782004 0 0.045691377799264091 0.0042588736841903682 0 0.046359222924324914 0.005865466722925353 0 0.047197322414818117 0.0046784132368217143 0 0.045520680405219609 0.0035850067321012641 0 0.046648870250388899 0.0036741542408035171 0 0.045691377799264091 0.0042588736841903682 0 0.045663308287863823 0.0036776002035782004 0 0.047197322414818117 0.0046784132368217143 0 0.045735959686150802 0.0028120104785875929 0 0.045663308287863823 0.0036776002035782004 0 0.045720409452215331 0.0025633640903786779 0 0.046359222924324914 0.005865466722925353 0 0.047197322414818117 0.0046784132368217143 0 0.047125259883924596 0.0066240963153451383 0 0.045691377799264091 0.0042588736841903682 0 0.046359222924324914 0.005865466722925353 0 0.045288609677447481 0.0082006733602297648 0 0.047125259883924596 0.0066240963153451383 0 0.045288609677447481 0.0082006733602297648 0 0.046583200025555736 0.0091042855009638001 0 0.046359222924324914 0.005865466722925353 0 0.047125259883924596 0.0066240963153451383 0 0.045288609677447481 0.0082006733602297648 0 0.045634168358829781 0.0046214183788899667 0 0.045997229100090256 0.0076851347174432044 0 0.045691377799264091 0.0042588736841903682 0 0.046640306472143588 0.0072096437544774709 0 0.045403433020941991 0.0059426637579169809 0 0.045403433020941991 0.0059426637579169809 0 0.045398476662768333 0.007439173099527966 0 0.043933256759195911 0.006706189850589391 0 0.046640306472143588 0.0072096437544774709 0 0.045403433020941991 0.0059426637579169809 0 0.045398476662768333 0.007439173099527966 0 0.045398476662768333 0.007439173099527966 0 0.044979510449498675 0.0087959929125641829 0 0.046004108492197909 0.0085855759059454261 0 0.045398476662768333 0.007439173099527966 0 0.044979510449498675 0.0087959929125641829 0 0.043933256759195911 0.006706189850589391 0 0.046640306472143588 0.0072096437544774709 0 0.045398476662768333 0.007439173099527966 0 0.046004108492197909 0.0085855759059454261 0 0.044979510449498675 0.0087959929125641829 0 0.046004108492197909 0.0085855759059454261 0 0.045812033325510468 0.0096207649130645445 0 0.046004108492197909 0.0085855759059454261 0 0.046828899590041259 0.0098657964645869015 0 0.045812033325510468 0.0096207649130645445 0 0.045997229100090256 0.0076851347174432044 0 0.046327039210718901 0.010661242768380597 0 0.046640306472143588 0.0072096437544774709 0 0.046004108492197909 0.0085855759059454261 0 0.046828899590041259 0.0098657964645869015 0 0.045288609677447481 0.0082006733602297648 0 0.046519246693428162 0.010522649510098648 0 0.045858372736831181 0.011611378777048716 0 0.045288609677447481 0.0082006733602297648 0 0.046519246693428162 0.010522649510098648 0 0.046583200025555736 0.0091042855009638001 0 0.045738308527028086 0.0044209889973798773 0 0.044999494796642434 0.0067892183808286165 0 0.046775465998877185 0.0060597096501708329 0 0.044979510449498675 0.0087959929125641829 0 0.043933256759195911 0.006706189850589391 0 0.043787243864590708 0.010061955670671446 0 0.045333635432092519 0.0063951884970816957 0 0.045168082943194882 0.0094365632501262585 0 0.044999494796642434 0.0067892183808286165 0 0.044999982203688609 0.0094204843414434445 0 0.046542733081845956 0.0088968167864333664 0 0.044999494796642434 0.0067892183808286165 0 0.046775465998877185 0.0060597096501708329 0 0.046542733081845956 0.0088968167864333664 0 0.044979510449498675 0.0087959929125641829 0 0.043787243864590708 0.010061955670671446 0 0.045071118649793275 0.010281231276205645 0 0.043787243864590708 0.010061955670671446 0 0.044759052849088245 0.011432449860634642 0 0.045071118649793275 0.010281231276205645 0 0.044166880899904275 0.012086294092479162 0 0.043787243864590708 0.010061955670671446 0 0.044759052849088245 0.011432449860634642 0 0.045106292801963106 0.011813108418079685 0 0.045168082943194882 0.0094365632501262585 0 0.045000004994495128 0.012051720986145063 0 0.045983572413470411 0.011574971107701023 0 0.044999982203688609 0.0094204843414434445 0 0.045983572413470411 0.011574971107701023 0 0.044999982203688609 0.0094204843414434445 0 0.046542733081845956 0.0088968167864333664 0 0.045858372736831181 0.011611378777048716 0 0.046024335636456512 0.01232194098811798 0 0.046453384879910839 0.011747805854572444 0 0.045989856390029199 0.010780081326614172 0 0.046828899590041259 0.0098657964645869015 0 0.046539147269190555 0.011650696070195478 0 0.046327039210718901 0.010661242768380597 0 0.046263543229741702 0.011943798216740145 0 0.046519246693428162 0.010522649510098648 0 0.045858372736831181 0.011611378777048716 0 0.046453384879910839 0.011747805854572444 0 0.045989856390029199 0.010780081326614172 0 0.046828899590041259 0.0098657964645869015 0 0.045812033325510468 0.0096207649130645445 0 0.044979510449498675 0.0087959929125641829 0 0.045812033325510468 0.0096207649130645445 0 0.045071118649793275 0.010281231276205645 0 0.045989856390029199 0.010780081326614172 0 0.045071118649793275 0.010281231276205645 0 0.045408484015052764 0.011140243422193758 0 0.045989856390029199 0.010780081326614172 0 0.045812033325510468 0.0096207649130645445 0 0.045071118649793275 0.010281231276205645 0 0.045369359551397509 0.012167575747739948 0 0.045408484015052764 0.011140243422193758 0 0.045837427138515775 0.011733725054596092 0 0.045989856390029199 0.010780081326614172 0 0.045408484015052764 0.011140243422193758 0 0.045837427138515775 0.011733725054596092 0 0.045369359551397509 0.012167575747739948 0 0.044759052849088245 0.011432449860634642 0 0.045408484015052764 0.011140243422193758 0 0.044759052849088245 0.011432449860634642 0 0.045071118649793275 0.010281231276205645 0 0.045408484015052764 0.011140243422193758 0 0.045989856390029199 0.010780081326614172 0 0.045837427138515775 0.011733725054596092 0 0.046539147269190555 0.011650696070195478 0 0.046024335636456512 0.01232194098811798 0 0.046095308526100394 0.012122725218859905 0 0.046453384879910839 0.011747805854572444 0 0.045949676911073108 0.012416136757843558 0 0.046024335636456512 0.01232194098811798 0 0.046095308526100394 0.012122725218859905 0 0.046095308526100394 0.012122725218859905 0 0.046453384879910839 0.011747805854572444 0 0.045987763614452455 0.012092733862105036 0 0.046095308526100394 0.012122725218859905 0 0.045987763614452455 0.012092733862105036 0 0.045815096874644093 0.012242960687387497 0 0.045987763614452455 0.012092733862105036 0 0.045815096874644093 0.012242960687387497 0 0.045756472301716505 0.012242600453242134 0 0.045949676911073108 0.012416136757843558 0 0.046095308526100394 0.012122725218859905 0 0.045815096874644093 0.012242960687387497 0 0.045743582743318426 0.012413452984773294 0 0.045949676911073108 0.012416136757843558 0 0.045815096874644093 0.012242960687387497 0 0.045815096874644093 0.012242960687387497 0 0.04562501070736278 0.01234837355486728 0 0.045609568485809854 0.012290473425896386 0 0.045743582743318426 0.012413452984773294 0 0.045815096874644093 0.012242960687387497 0 0.04562501070736278 0.01234837355486728 0 0.045495202206837143 0.012427031574405228 0 0.04551616543634826 0.012300563735630704 0 0.04562501070736278 0.01234837355486728 0 0.04551616543634826 0.012300563735630704 0 0.04562501070736278 0.01234837355486728 0 0.045609568485809854 0.012290473425896386 0 0.045532689949820897 0.01228534989517957 0 0.045609568485809854 0.012290473425896386 0 0.045577199431417671 0.012288381380117815 0 0.04551616543634826 0.012300563735630704 0 0.045532689949820897 0.01228534989517957 0 0.045609568485809854 0.012290473425896386 0 0.045609568485809854 0.012290473425896386 0 0.045577199431417671 0.012288381380117815 0 0.045664137527478124 0.012268792959255662 0 0.045532689949820897 0.01228534989517957 0 0.045577199431417671 0.012288381380117815 0 0.04551813799796977 0.01230779754148929 0 0.045815096874644093 0.012242960687387497 0 0.045609568485809854 0.012290473425896386 0 0.045664137527478124 0.012268792959255662 0 0.045815096874644093 0.012242960687387497 0 0.045664137527478124 0.012268792959255662 0 0.045756472301716505 0.012242600453242134 0 0.045756472301716505 0.012242600453242134 0 0.045580228351947367 0.01229055172168997 0 0.045838169730184793 0.012404338048238955 0 0.045580228351947367 0.01229055172168997 0 0.045520876881369736 0.012276746551861504 0 0.045838169730184793 0.012404338048238955 0 0.045664137527478124 0.012268792959255662 0 0.045756472301716505 0.012242600453242134 0 0.045580228351947367 0.01229055172168997 0 0.045577199431417671 0.012288381380117815 0 0.045580228351947367 0.01229055172168997 0 0.04551813799796977 0.01230779754148929 0 0.045577199431417671 0.012288381380117815 0 0.045664137527478124 0.012268792959255662 0 0.045580228351947367 0.01229055172168997 0 0.045580228351947367 0.01229055172168997 0 0.04551813799796977 0.01230779754148929 0 0.045513526826592321 0.012290617585274199 0 0.045580228351947367 0.01229055172168997 0 0.045513526826592321 0.012290617585274199 0 0.045520876881369736 0.012276746551861504 0 0.04551813799796977 0.01230779754148929 0 0.045513526826592321 0.012290617585274199 0 0.045490456488853234 0.012297804928534575 0 0.037594169304787622 0.0046535188560030234 0 0.042141518881758801 0.0060784099374881643 0 0.042357955675132807 0.009609932222766961 0 0.042141518881758801 0.0060784099374881643 0 0.045496166400905695 0.012332970647749644 0 0.045469151030060065 0.012266310678402368 0 0.045416715356965863 0.012184247505109526 0 0.045496166400905695 0.012332970647749644 0 0.045490456488853234 0.012297804928534575 0 0.045469151030060065 0.012266310678402368 0 0.045513526826592321 0.012290617585274199 0 0.045490456488853234 0.012297804928534575 0 0.045469151030060065 0.012266310678402368 0 0.045513526826592321 0.012290617585274199 0 0.045469151030060065 0.012266310678402368 0 0.045520876881369736 0.012276746551861504 0 0.045469151030060065 0.012266310678402368 0 0.045452867302217523 0.012232143439483908 0 0.045520876881369736 0.012276746551861504 0 0.045390031350908043 0.012186984174890928 0 0.045452867302217523 0.012232143439483908 0 0.045520876881369736 0.012276746551861504 0 0.045469151030060065 0.012266310678402368 0 0.045452867302217523 0.012232143439483908 0 0.045416715356965863 0.012184247505109526 0 0.045390031350908043 0.012186984174890928 0 0.045452867302217523 0.012232143439483908 0 0.045416715356965863 0.012184247505109526 0 0.044971564643205494 0.0060916239042636726 0 0.048044678764399544 0.011403769447810097 0 0.051161354427653627 0.007521711244285057 0 0.04946627721589978 0.0076224642286579379 0 0.049651136069395085 0.0080563102418978339 0 0.051161354427653627 0.007521711244285057 0 0.049651136069395085 0.0080563102418978339 0 0.04928223081123604 0.0093087393047773317 0 0.045390031350908043 0.012186984174890928 0 0.045520876881369736 0.012276746551861504 0 0.045838169730184793 0.012404338048238955 0 0.04946627721589978 0.0076224642286579379 0 0.049651136069395085 0.0080563102418978339 0 0.048985618388999994 0.0079944270870848932 0 0.048285898455795888 0.008368804796331895 0 0.047451708885170266 0.0094301205320520606 0 0.04928223081123604 0.0093087393047773317 0 0.048921910491600377 0.0075953972382211124 0 0.04946627721589978 0.0076224642286579379 0 0.048985618388999994 0.0079944270870848932 0 0.049651136069395085 0.0080563102418978339 0 0.048985618388999994 0.0079944270870848932 0 0.04928223081123604 0.0093087393047773317 0 0.048285898455795888 0.008368804796331895 0 0.048985618388999994 0.0079944270870848932 0 0.04928223081123604 0.0093087393047773317 0 0.048285898455795888 0.008368804796331895 0 0.048985618388999994 0.0079944270870848932 0 0.048550018448513754 0.0077184880565573308 0 0.048921910491600377 0.0075953972382211124 0 0.048985618388999994 0.0079944270870848932 0 0.048550018448513754 0.0077184880565573308 0 0.048285898455795888 0.008368804796331895 0 0.048550018448513754 0.0077184880565573308 0 0.047899007511567844 0.0077709601872041258 0 0.047515432693130188 0.0065363862680515861 0 0.047314367086967825 0.0072965038174564309 0 0.048285898455795888 0.008368804796331895 0 0.047899007511567844 0.0077709601872041258 0 0.047617193280033027 0.0082140194684179602 0 0.047125259883924596 0.0066240963153451383 0 0.046583200025555736 0.0091042855009638001 0 0.049355696661160312 0.006489396921894066 0 0.048427686415191525 0.0057297133493036173 0 0.047125259883924596 0.0066240963153451383 0 0.049355696661160312 0.006489396921894066 0 0.046946832695209648 0.0089848155722375197 0 0.047515432693130188 0.0065363862680515861 0 0.046583200025555736 0.0091042855009638001 0 0.047829693331667693 0.0078538434084485624 0 0.047617193280033027 0.0082140194684179602 0 0.046583200025555736 0.0091042855009638001 0 0.047617193280033027 0.0082140194684179602 0 0.047451708885170266 0.0094301205320520606 0 0.048285898455795888 0.008368804796331895 0 0.047617193280033027 0.0082140194684179602 0 0.047451708885170266 0.0094301205320520606 0 0.046352961338416342 0.011572922042616141 0 0.048044678764399544 0.011403769447810097 0 0.046453384879910839 0.011747805854572444 0 0.047451708885170266 0.0094301205320520606 0 0.04928223081123604 0.0093087393047773317 0 0.046519246693428162 0.010522649510098648 0 0.046453384879910839 0.011747805854572444 0 0.047451708885170266 0.0094301205320520606 0 0.046519246693428162 0.010522649510098648 0 0.046583200025555736 0.0091042855009638001 0 0.047451708885170266 0.0094301205320520606 0 0.046453384879910839 0.011747805854572444 0 0.045987763614452455 0.012092733862105036 0 0.045838169730184793 0.012404338048238955 0 0.045987763614452455 0.012092733862105036 0 0.045756472301716505 0.012242600453242134 0 0.045838169730184793 0.012404338048238955 0 0.0068092848271918008 0.022497436232774792 0 0.0053576715437593054 0.022977853937708809 0 0.007010567315982456 0.024363714671692294 0 0.0087853187618092739 0.023478568510961823 0 0.0079580140471829843 0.025313626999729263 0 0.007010567315982456 0.024363714671692294 0 0.0087853187618092739 0.023478568510961823 0 0.0057516247753641109 0.022966166583791869 0 0.0087853187618092739 0.023478568510961823 0 0.0089746836853140544 0.025206271907224687 0 0.0097660064156935896 0.024802406994169014 0 0.0087853187618092739 0.023478568510961823 0 0.0079580140471829843 0.025313626999729263 0 0.0089746836853140544 0.025206271907224687 0 0.0036087419595329097 0.021790928232719328 0 0.0047516847122913691 0.022943945569220102 0 0.003403220816481538 0.022854913604051626 0 0.0036087419595329097 0.021790928232719328 0 0.0047516847122913691 0.022943945569220102 0 0.0057516247753641109 0.022966166583791869 0 0.0047516847122913691 0.022943945569220102 0 0.0053633901690688943 0.02277742882579873 0 0.0057516247753641109 0.022966166583791869 0 0.0073457581847843302 0.017852967873491467 0 0.0071578486783629245 0.017798114200852606 0 0.0071927059489488186 0.018196834600269517 0 0.0053633901690688943 0.02277742882579873 0 0.0040954461531985892 0.024030684135005746 0 0.0052509712736681872 0.023660754343293528 0 0.0061243010238578467 0.020156936829634299 0 0.0075010317325160218 0.022593842504844888 0 0.0040954461531985892 0.024030684135005746 0 0.0052509712736681872 0.023660754343293528 0 0.0051366620133883089 0.024645258499943971 0 0.0053633901690688943 0.02277742882579873 0 0.0057516247753641109 0.022966166583791869 0 0.0052509712736681872 0.023660754343293528 0 0.0052509712736681872 0.023660754343293528 0 0.0058989167156690532 0.024480500997535574 0 0.0051366620133883089 0.024645258499943971 0 0.0057516247753641109 0.022966166583791869 0 0.0052509712736681872 0.023660754343293528 0 0.0058989167156690532 0.024480500997535574 0 0.007010567315982456 0.024363714671692294 0 0.0057516247753641109 0.022966166583791869 0 0.0058989167156690532 0.024480500997535574 0 0.0058989167156690532 0.024480500997535574 0 0.0058453938423351894 0.025344165584273805 0 0.0068576544610119226 0.025446146896734915 0 0.0058989167156690532 0.024480500997535574 0 0.0058453938423351894 0.025344165584273805 0 0.0051366620133883089 0.024645258499943971 0 0.0058453938423351894 0.025344165584273805 0 0.0063593698942196412 0.026087533927111405 0 0.005158835688869599 0.026097811680661085 0 0.0058453938423351894 0.025344165584273805 0 0.0051366620133883089 0.024645258499943971 0 0.005158835688869599 0.026097811680661085 0 0.0063593698942196412 0.026087533927111405 0 0.0071759377703961534 0.026533665403618106 0 0.0068576544610119226 0.025446146896734915 0 0.0058453938423351894 0.025344165584273805 0 0.0063593698942196412 0.026087533927111405 0 0.0068576544610119226 0.025446146896734915 0 0.0092809309212867099 0.029282224965525152 0 0.0092594488673916377 0.028747872041873693 0 0.008857190373094001 0.028855383664894874 0 0.0092809309212867099 0.029282224965525152 0 0.0092594488673916377 0.028747872041873693 0 0.0095528425632061733 0.028861274603468486 0 0.0040954461531985892 0.024030684135005746 0 0.0051366620133883089 0.024645258499943971 0 0.005158835688869599 0.026097811680661085 0 0.0075010317325160218 0.022593842504844888 0 0.0072242592808393815 0.028058102323489802 0 0.0092594488673916377 0.028747872041873693 0 0.0088070362916230424 0.028743871536461251 0 0.0096321020318260106 0.028435982513391928 0 0.0092594488673916377 0.028747872041873693 0 0.008857190373094001 0.028855383664894874 0 0.0088070362916230424 0.028743871536461251 0 0.0072242592808393815 0.028058102323489802 0 0.0075614830295967954 0.027681289633823429 0 0.0088070362916230424 0.028743871536461251 0 0.0078519675492728577 0.027975644806448468 0 0.0083865522430315222 0.028228417130004162 0 0.008857190373094001 0.028855383664894874 0 0.0088070362916230424 0.028743871536461251 0 0.0078519675492728577 0.027975644806448468 0 0.0088070362916230424 0.028743871536461251 0 0.0083865522430315222 0.028228417130004162 0 0.0085824982738578436 0.028210955007709319 0 0.0068458170662570837 0.026805661277331291 0 0.005158835688869599 0.026097811680661085 0 0.0078519675492728577 0.027975644806448468 0 0.0068458170662570837 0.026805661277331291 0 0.007523278080604808 0.027281308362206155 0 0.0071759377703961534 0.026533665403618106 0 0.0068458170662570837 0.026805661277331291 0 0.0063593698942196412 0.026087533927111405 0 0.0071759377703961534 0.026533665403618106 0 0.0068458170662570837 0.026805661277331291 0 0.0063593698942196412 0.026087533927111405 0 0.005158835688869599 0.026097811680661085 0 0.0068458170662570837 0.026805661277331291 0 0.007523278080604808 0.027281308362206155 0 0.0078519675492728577 0.027975644806448468 0 0.0078386752795891763 0.027047238469203969 0 0.007523278080604808 0.027281308362206155 0 0.0079235861680711679 0.027825349258823885 0 0.0078386752795891763 0.027047238469203969 0 0.007523278080604808 0.027281308362206155 0 0.0071759377703961534 0.026533665403618106 0 0.0078386752795891763 0.027047238469203969 0 0.0082962122235030952 0.026742132869148214 0 0.0083550424819267138 0.027515059787496556 0 0.0078386752795891763 0.027047238469203969 0 0.0083550424819267138 0.027515059787496556 0 0.0079235861680711679 0.027825349258823885 0 0.0078386752795891763 0.027047238469203969 0 0.0082962122235030952 0.026742132869148214 0 0.007731851139881704 0.02612163732517905 0 0.0082962122235030952 0.026742132869148214 0 0.007731851139881704 0.02612163732517905 0 0.0085096822214193579 0.026137068596658795 0 0.0078386752795891763 0.027047238469203969 0 0.0071759377703961534 0.026533665403618106 0 0.007731851139881704 0.02612163732517905 0 0.0071759377703961534 0.026533665403618106 0 0.0068576544610119226 0.025446146896734915 0 0.007731851139881704 0.02612163732517905 0 0.007731851139881704 0.02612163732517905 0 0.0079580140471829843 0.025313626999729263 0 0.0085096822214193579 0.026137068596658795 0 0.0068576544610119226 0.025446146896734915 0 0.007731851139881704 0.02612163732517905 0 0.0079580140471829843 0.025313626999729263 0 0.007010567315982456 0.024363714671692294 0 0.0058989167156690532 0.024480500997535574 0 0.0068576544610119226 0.025446146896734915 0 0.007010567315982456 0.024363714671692294 0 0.0068576544610119226 0.025446146896734915 0 0.0079580140471829843 0.025313626999729263 0 0.0079580140471829843 0.025313626999729263 0 0.0089746836853140544 0.025206271907224687 0 0.0085096822214193579 0.026137068596658795 0 0.0089746836853140544 0.025206271907224687 0 0.0085096822214193579 0.026137068596658795 0 0.0092338133862505129 0.026277252248188998 0 0.0092338133862505129 0.026277252248188998 0 0.0087693950343061822 0.027000093515511456 0 0.0093078084929285945 0.027397398986590663 0 0.0085096822214193579 0.026137068596658795 0 0.0092338133862505129 0.026277252248188998 0 0.0087693950343061822 0.027000093515511456 0 0.0082962122235030952 0.026742132869148214 0 0.0085096822214193579 0.026137068596658795 0 0.0087693950343061822 0.027000093515511456 0 0.0082962122235030952 0.026742132869148214 0 0.0087693950343061822 0.027000093515511456 0 0.0083550424819267138 0.027515059787496556 0 0.0092338133862505129 0.026277252248188998 0 0.0099351069471595947 0.027236582893730928 0 0.0093078084929285945 0.027397398986590663 0 0.0092338133862505129 0.026277252248188998 0 0.0099351069471595947 0.027236582893730928 0 0.010308787262930184 0.026317095375061453 0 0.0099351069471595947 0.027236582893730928 0 0.010308787262930184 0.026317095375061453 0 0.010554853156419826 0.027388453546998863 0 0.010308787262930184 0.026317095375061453 0 0.011236827705228995 0.026760168058221765 0 0.010554853156419826 0.027388453546998863 0 0.010308787262930184 0.026317095375061453 0 0.010983414827282554 0.025211320684015291 0 0.0097660064156935896 0.024802406994169014 0 0.010308787262930184 0.026317095375061453 0 0.010983414827282554 0.025211320684015291 0 0.011236827705228995 0.026760168058221765 0 0.0089746836853140544 0.025206271907224687 0 0.0092338133862505129 0.026277252248188998 0 0.0097660064156935896 0.024802406994169014 0 0.0092338133862505129 0.026277252248188998 0 0.010308787262930184 0.026317095375061453 0 0.0097660064156935896 0.024802406994169014 0 -0.0026249106151303545 0.024660657627006855 0 -0.0024015853149291144 0.025377792228625927 0 -0.0032382239045522041 0.024955270508990476 0 -0.0026249106151303545 0.024660657627006855 0 -0.0030248812043590918 0.024292459065712983 0 -0.0032382239045522041 0.024955270508990476 0 -0.0026249106151303545 0.024660657627006855 0 -0.0019843581353148946 0.024736253041012842 0 -0.0024015853149291144 0.025377792228625927 0 0.0049569941764390528 0.025879477100839696 0 0.0046265967577009534 0.025361246238468256 0 -0.0015174439556145127 0.025712981976211389 0 -0.0019843581353148946 0.024736253041012842 0 -0.0024015853149291144 0.025377792228625927 0 -0.0015174439556145127 0.025712981976211389 0 -0.0024015853149291144 0.025377792228625927 0 -0.0020442613605157821 0.026235407202192165 0 -0.0030574802294964613 0.026046677936193526 0 -0.0027586223366818608 0.024467271034924812 0 -0.0028395822959534247 0.026082273756327129 0 -0.0037546633318311768 0.024343007568743191 0 -0.0039577401904017408 0.025778926634495984 0 -0.0024015853149291144 0.025377792228625927 0 -0.0028395822959534247 0.026082273756327129 0 -0.0032382239045522041 0.024955270508990476 0 -0.0028395822959534247 0.026082273756327129 0 -0.0039577401904017408 0.025778926634495984 0 -0.0036272291342987002 0.027227393914699305 0 -0.0028395822959534247 0.026082273756327129 0 -0.0020442613605157821 0.026235407202192165 0 -0.0022400141724203864 0.027019125449354392 0 -0.0024015853149291144 0.025377792228625927 0 -0.0028395822959534247 0.026082273756327129 0 -0.0020442613605157821 0.026235407202192165 0 -0.0020442613605157821 0.026235407202192165 0 -0.0022400141724203864 0.027019125449354392 0 -0.00099300239334332969 0.026837502226697518 0 -0.0033388038982768435 0.019035779988088843 0 -0.0010733580722565072 0.021775616041688838 0 -0.004506986846364509 0.0219759694720685 0 -0.0028395822959534247 0.026082273756327129 0 -0.0022400141724203864 0.027019125449354392 0 -0.0036272291342987002 0.027227393914699305 0 -0.0033388038982768435 0.019035779988088843 0 -0.004506986846364509 0.0219759694720685 0 -0.0078865398091244494 0.019403087456981952 0 -0.0030710709141230385 0.023008555215108393 0 -0.0076030128510533755 0.023224936061196404 0 0.0087853187618092739 0.023478568510961823 0 0.0097660064156935896 0.024802406994169014 0 0.010506320999139188 0.023605990233053542 0 -0.0015174439556145127 0.025712981976211389 0 -0.0020442613605157821 0.026235407202192165 0 -0.00099300239334332969 0.026837502226697518 0 0.0049569941764390528 0.025879477100839696 0 0.0031351125607641107 0.023652214590816099 0 0.010983414827282554 0.025211320684015291 0 0.0097660064156935896 0.024802406994169014 0 0.010506320999139188 0.023605990233053542 0 -0.0033388038982768435 0.019035779988088843 0 0.00087145303372812685 0.018868523221060585 0 -0.0010733580722565072 0.021775616041688838 0 0.00087145303372812685 0.018868523221060585 0 0.0019587100584751421 0.022198186788564934 0 -0.0010733580722565072 0.021775616041688838 0 -0.0030710709141230385 0.023008555215108393 0 0.0031351125607641107 0.023652214590816099 0 0.0031351125607641107 0.023652214590816099 0 0.0014625435170949011 0.020770862848677057 0 0.0068092848271918008 0.022497436232774792 0 0.0031351125607641107 0.023652214590816099 0 0.0036087419595329097 0.021790928232719328 0 0.0019587100584751421 0.022198186788564934 0 0.003403220816481538 0.022854913604051626 0 0.0036087419595329097 0.021790928232719328 0 0.0017672375291334587 0.021509181573614113 0 0.0019587100584751421 0.022198186788564934 0 0.0019587100584751421 0.022198186788564934 0 0.0028213644481735892 0.023976955019760545 0 0.003403220816481538 0.022854913604051626 0 0.0019587100584751421 0.022198186788564934 0 0.0007643820444217475 0.023914313493120988 0 0.0028213644481735892 0.023976955019760545 0 0.0019587100584751421 0.022198186788564934 0 -0.0010733580722565072 0.021775616041688838 0 0.0007643820444217475 0.023914313493120988 0 -0.0010733580722565072 0.021775616041688838 0 0.0007643820444217475 0.023914313493120988 0 -0.0027448956759447774 0.02416282751810352 0 0.0007643820444217475 0.023914313493120988 0 -0.0020982725282531157 0.027437218749575911 0 0.002509350135221649 0.025624841522526653 0 0.0028213644481735892 0.023976955019760545 0 0.002509350135221649 0.025624841522526653 0 0.0031024915280507093 0.024839789842623063 0 0.0007643820444217475 0.023914313493120988 0 0.0028213644481735892 0.023976955019760545 0 0.002509350135221649 0.025624841522526653 0 -0.0074211585603630465 0.022936902566526508 0 -0.004506986846364509 0.0219759694720685 0 -0.0078865398091244494 0.019403087456981952 0 -0.007712190570119049 0.021719358709412898 0 -0.0076030128510533755 0.023224936061196404 0 -0.0074211585603630465 0.022936902566526508 0 -0.004506986846364509 0.0219759694720685 0 -0.0057309098342560854 0.024152651387770323 0 -0.0010733580722565072 0.021775616041688838 0 -0.004506986846364509 0.0219759694720685 0 -0.0027448956759447774 0.02416282751810352 0 -0.004506986846364509 0.0219759694720685 0 -0.0027448956759447774 0.02416282751810352 0 -0.0057309098342560854 0.024152651387770323 0 0.0007643820444217475 0.023914313493120988 0 -0.0027448956759447774 0.02416282751810352 0 -0.0020982725282531157 0.027437218749575911 0 -0.0027448956759447774 0.02416282751810352 0 -0.0054045093866974536 0.026540172921631522 0 -0.0020982725282531157 0.027437218749575911 0 -0.0027448956759447774 0.02416282751810352 0 -0.0057309098342560854 0.024152651387770323 0 -0.0054045093866974536 0.026540172921631522 0 -0.0057309098342560854 0.024152651387770323 0 -0.0054045093866974536 0.026540172921631522 0 -0.0083644288212014074 0.024970695961331276 0 -0.0074211585603630465 0.022936902566526508 0 -0.0057309098342560854 0.024152651387770323 0 -0.0083644288212014074 0.024970695961331276 0 -0.0054045093866974536 0.026540172921631522 0 -0.0040903514200332719 0.029748031796231623 0 -0.007088378684598236 0.029235283358733159 0 -0.0054045093866974536 0.026540172921631522 0 -0.0020982725282531157 0.027437218749575911 0 -0.0040903514200332719 0.029748031796231623 0 -0.0020982725282531157 0.027437218749575911 0 -0.0020268805816390577 0.030430789441862931 0 -0.0040903514200332719 0.029748031796231623 0 -0.0020268805816390577 0.030430789441862931 0 -0.0040903514200332719 0.029748031796231623 0 -0.003036229445583035 0.031975812058499781 0 -0.0040903514200332719 0.029748031796231623 0 -0.0049245023235769819 0.031352419764316644 0 -0.003036229445583035 0.031975812058499781 0 -0.007088378684598236 0.029235283358733159 0 -0.0070439653710976371 0.032132525691792674 0 -0.0049245023235769819 0.031352419764316644 0 -0.0040903514200332719 0.029748031796231623 0 -0.007088378684598236 0.029235283358733159 0 -0.0049245023235769819 0.031352419764316644 0 0.002509350135221649 0.025624841522526653 0 0.0047973959476189862 0.023855584784378513 0 0.0031142357331901452 0.024408073274657372 0 0.002509350135221649 0.025624841522526653 0 0.0031142357331901452 0.024408073274657372 0 0.0031024915280507093 0.024839789842623063 0 -0.0020982725282531157 0.027437218749575911 0 0.002509350135221649 0.025624841522526653 0 0.00040890694433377443 0.029776017869244064 0 0.002716670884206256 0.025494011519281285 0 0.0025333714820392731 0.027251519975940483 0 -0.0020268805816390577 0.030430789441862931 0 0.00040890694433377443 0.029776017869244064 0 -0.0014005162394631881 0.032952774840606505 0 -0.0020982725282531157 0.027437218749575911 0 -0.0020268805816390577 0.030430789441862931 0 0.00040890694433377443 0.029776017869244064 0 0.0047973959476189862 0.023855584784378513 0 0.0036257474238987259 0.023125860694590831 0 0.0043599823682030376 0.022255797803500538 0 0.0031142357331901452 0.024408073274657372 0 0.0036257474238987259 0.023125860694590831 0 0.0023744589130679458 0.023720169158381241 0 0.0047973959476189862 0.023855584784378513 0 0.0031142357331901452 0.024408073274657372 0 0.0036257474238987259 0.023125860694590831 0 0.0031142357331901452 0.024408073274657372 0 0.0023744589130679458 0.023720169158381241 0 0.0031024915280507093 0.024839789842623063 0 0.0061153107882179463 0.016709320576544014 0 0.0074525928972308782 0.016815307632531862 0 0.0070900890719994515 0.017293129883348812 0 0.0061153107882179463 0.016709320576544014 0 0.0074525928972308782 0.016815307632531862 0 0.0073499975496352406 0.016757672335092916 0 0.0043150411094694174 0.020242833469015006 0 0.005415908757804057 0.0206523109346032 0 0.0023744589130679458 0.023720169158381241 0 0.0035853934594725608 0.024689874990441483 0 0.0031024915280507093 0.024839789842623063 0 0.0028213644481735892 0.023976955019760545 0 0.0031024915280507093 0.024839789842623063 0 0.003785320245544828 0.023826776571138381 0 0.0035853934594725608 0.024689874990441483 0 0.0031024915280507093 0.024839789842623063 0 0.003785320245544828 0.023826776571138381 0 0.0035853934594725608 0.024689874990441483 0 0.003785320245544828 0.023826776571138381 0 0.0049557984538833076 0.023607576812765391 0 0.005415908757804057 0.0206523109346032 0 0.0061995402834627965 0.020507079179753283 0 0.0047516847122913691 0.022943945569220102 0 0.003785320245544828 0.023826776571138381 0 0.0049557984538833076 0.023607576812765391 0 0.0028213644481735892 0.023976955019760545 0 0.003785320245544828 0.023826776571138381 0 0.003403220816481538 0.022854913604051626 0 0.0047516847122913691 0.022943945569220102 0 0.003785320245544828 0.023826776571138381 0 0.003403220816481538 0.022854913604051626 0 0.0073457581847843302 0.017852967873491467 0 0.0071578486783629245 0.017798114200852606 0 0.007164059568171963 0.017523119242016133 0 0.0073457581847843302 0.017852967873491467 0 0.007164059568171963 0.017523119242016133 0 0.0074782658421549608 0.017381642998308296 0 0.0047516847122913691 0.022943945569220102 0 0.0053633901690688943 0.02277742882579873 0 0.0049557984538833076 0.023607576812765391 0 0.0061243010238578467 0.020156936829634299 0 0.0061995402834627965 0.020507079179753283 0 0.0073499975496352406 0.016757672335092916 0 0.0074782658421549608 0.017381642998308296 0 0.0073598115385078607 0.016990680590271742 0 0.007164059568171963 0.017523119242016133 0 0.0074782658421549608 0.017381642998308296 0 0.0073598115385078607 0.016990680590271742 0 0.007164059568171963 0.017523119242016133 0 0.0070974465703564811 0.017186347905259979 0 0.0073598115385078607 0.016990680590271742 0 0.0070974465703564811 0.017186347905259979 0 0.0073598115385078607 0.016990680590271742 0 0.0073117904395414348 0.016730697066885843 0 0.0074525928972308782 0.016815307632531862 0 0.0073499975496352406 0.016757672335092916 0 0.0073598115385078607 0.016990680590271742 0 0.0074525928972308782 0.016815307632531862 0 0.0073117904395414348 0.016730697066885843 0 0.0079125954493741279 0.016868154336735386 0 0.0074525928972308782 0.016815307632531862 0 0.0073598115385078607 0.016990680590271742 0 0.0073117904395414348 0.016730697066885843 0 0.0070974465703564811 0.017186347905259979 0 0.0073117904395414348 0.016730697066885843 0 0.0065692251689626821 0.016775053437098553 0 0.0070974465703564811 0.017186347905259979 0 0.0065692251689626821 0.016775053437098553 0 0.0062881154616397511 0.017438457901212907 0 0.0064669574178277843 0.016697855362556222 0 0.0051474973366661403 0.017662740985836922 0 0.006111919723991284 0.016703235458626394 0 0.0051585551658798476 0.017155582221694218 0 0.0055518192188694854 0.017956434304892906 0 0.006111919723991284 0.016703235458626394 0 0.0050669185501515277 0.016368967903227963 0 0.0057662120359215389 0.015795263186626926 0 0.006111919723991284 0.016703235458626394 0 0.0050669185501515277 0.016368967903227963 0 0.0051585551658798476 0.017155582221694218 0 0.0050669185501515277 0.016368967903227963 0 0.0044236332156453034 0.017046828712272061 0 0.0051585551658798476 0.017155582221694218 0 0.0050669185501515277 0.016368967903227963 0 0.0044236332156453034 0.017046828712272061 0 0.0040571242505161092 0.015899228740017205 0 0.0044236332156453034 0.017046828712272061 0 0.0035236212468534337 0.016634121626973319 0 0.0040571242505161092 0.015899228740017205 0 0.0044236332156453034 0.017046828712272061 0 0.0039776201488686313 0.017423813786745769 0 0.0035236212468534337 0.016634121626973319 0 0.0044236332156453034 0.017046828712272061 0 0.0039776201488686313 0.017423813786745769 0 0.0042589992981928301 0.017398968187818699 0 0.0044236332156453034 0.017046828712272061 0 0.0046343773727858363 0.017677096958479101 0 0.0042589992981928301 0.017398968187818699 0 0.0046343773727858363 0.017677096958479101 0 0.0039776201488686313 0.017423813786745769 0 0.0042589992981928301 0.017398968187818699 0 0.0046343773727858363 0.017677096958479101 0 0.0051585551658798476 0.017155582221694218 0 0.0055518192188694854 0.017956434304892906 0 0.0044236332156453034 0.017046828712272061 0 0.0046343773727858363 0.017677096958479101 0 0.0051585551658798476 0.017155582221694218 0 0.0046343773727858363 0.017677096958479101 0 0.00443436526377317 0.018256016496646616 0 0.0055518192188694854 0.017956434304892906 0 0.014147841088653013 0.015877861334192184 0 0.0051474973366661403 0.017662740985836922 0 0.024048142692386667 0.010349119256391294 0 0.0229262223809431 0.0079480055252146228 0 0.024888407226365029 0.008821284800665484 0 0.0046343773727858363 0.017677096958479101 0 0.0039776201488686313 0.017423813786745769 0 0.00443436526377317 0.018256016496646616 0 0.015354242755987473 0.013175043894569562 0 0.014147841088653013 0.015877861334192184 0 0.02189724031135911 0.020799523512994685 0 0.021765825988874082 0.020525164530745949 0 0.022060492486505035 0.020565020061589299 0 0.0069280155179307981 0.017640622185177524 0 0.0051474973366661403 0.017662740985836922 0 0.014147841088653013 0.015877861334192184 0 0.014076203557595137 0.020230003442294916 0 0.0060999620660587171 0.017375215842479363 0 0.0064419806190485962 0.017946331513320542 0 0.0068098167966325202 0.017190831146991537 0 0.0060999620660587171 0.017375215842479363 0 0.0064419806190485962 0.017946331513320542 0 0.0062994845563793915 0.018300955363947956 0 0.0070061983937980297 0.017822180220864979 0 0.0070129076101373275 0.017463727832643845 0 0.0067469886162827208 0.017322416874489505 0 0.0064419806190485962 0.017946331513320542 0 0.0070061983937980297 0.017822180220864979 0 0.0067469886162827208 0.017322416874489505 0 0.0071578486783629245 0.017798114200852606 0 0.007164059568171963 0.017523119242016133 0 0.0070061983937980297 0.017822180220864979 0 0.007164059568171963 0.017523119242016133 0 0.0070061983937980297 0.017822180220864979 0 0.0070129076101373275 0.017463727832643845 0 0.007164059568171963 0.017523119242016133 0 0.0070974465703564811 0.017186347905259979 0 0.0070129076101373275 0.017463727832643845 0 0.0076727089704432027 0.01706125045714255 0 0.0051474973366661403 0.017662740985836922 0 0.0070974465703564811 0.017186347905259979 0 0.0070129076101373275 0.017463727832643845 0 0.0067469886162827208 0.017322416874489505 0 0.043377470301572831 0.0013732617676768177 0 0.043818242962529494 0.00063864059084744356 0 0.044002717877343153 0.0016202145650304493 0 0.043299680042098103 0.00079649947207669489 0 0.043818242962529494 0.00063864059084744356 0 0.043142918801858866 6.6860787103993589e-05 0 0.043299680042098103 0.00079649947207669489 0 0.043377470301572831 0.0013732617676768177 0 0.043818242962529494 0.00063864059084744356 0 0.043818242962529494 0.00063864059084744356 0 0.044446459209492445 0.00074095598472748668 0 0.044002717877343153 0.0016202145650304493 0 0.043818242962529494 0.00063864059084744356 0 0.044446459209492445 0.00074095598472748668 0 0.043922952917602683 -0.00018763600713853825 0 0.044446459209492445 0.00074095598472748668 0 0.044002717877343153 0.0016202145650304493 0 0.044759863026952958 0.0015154677736185179 0 0.037341300498875275 0.0052128723819125757 0 0.028589377874845806 0.0070258260289175973 0 0.027785181219879357 0.010211366712014469 0 0.026547197669161866 0.013141471511655029 0 0.025823748047558649 0.01023950291825795 0 0.027785181219879357 0.010211366712014469 0 0.025823748047558649 0.01023950291825795 0 0.026264952783411087 0.0087826508902818425 0 0.044446459209492445 0.00074095598472748668 0 0.04513848843697299 0.00056962354306726336 0 0.044617624375521775 -0.00031921338453803249 0 0.044446459209492445 0.00074095598472748668 0 0.044759863026952958 0.0015154677736185179 0 0.04513848843697299 0.00056962354306726336 0 0.018392167392187617 0.011086428312680748 0 0.018178690963962189 0.010674793959301987 0 0.018322620027223787 0.010789109935198042 0 0.0035236212468534337 0.016634121626973319 0 0.0030747896601505966 0.015775239334788884 0 0.0040571242505161092 0.015899228740017205 0 0.015354242755987473 0.013175043894569562 0 0.028589377874845806 0.0070258260289175973 0 0.010970029618885576 0.013623357382054332 0 0.018310959235678159 0.0092833807340618139 0 0.018178690963962189 0.010674793959301987 0 0.018322620027223787 0.010789109935198042 0 0.01823853079946159 0.010500558451441344 0 0.024048142692386667 0.010349119256391294 0 0.026547197669161866 0.013141471511655029 0 0.025823748047558649 0.01023950291825795 0 0.015354242755987473 0.013175043894569562 0 0.010970029618885576 0.013623357382054332 0 0.024048142692386667 0.010349119256391294 0 0.025823748047558649 0.01023950291825795 0 0.024888407226365029 0.008821284800665484 0 0.014147841088653013 0.015877861334192184 0 0.02524559245886094 0.013544969233356964 0 0.0229262223809431 0.0079480055252146228 0 0.024888407226365029 0.008821284800665484 0 0.026116544301814919 0.0071288506784136724 0 0.025823748047558649 0.01023950291825795 0 0.024888407226365029 0.008821284800665484 0 0.026264952783411087 0.0087826508902818425 0 0.024888407226365029 0.008821284800665484 0 0.026264952783411087 0.0087826508902818425 0 0.026116544301814919 0.0071288506784136724 0 0.02189724031135911 0.020799523512994685 0 0.022279655734017113 0.020740369421938097 0 0.022060492486505035 0.020565020061589299 0 0.02524559245886094 0.013544969233356964 0 0.029104656750796747 0.014539984973236806 0 0.022279655734017113 0.020740369421938097 0 0.022631843158192069 0.020651859152399178 0 0.022314562184636434 0.020420738216584505 0 0.026116544301814919 0.0071288506784136724 0 0.028693067250849736 0.007370382676128346 0 0.029084140003523981 0.0064277514308378782 0 0.037341300498875275 0.0052128723819125757 0 0.034386088706720039 0.0059340549722991928 0 0.026264952783411087 0.0087826508902818425 0 0.026116544301814919 0.0071288506784136724 0 0.028693067250849736 0.007370382676128346 0 0.02453243210796581 0.009530320087571648 0 0.034386088706720039 0.0059340549722991928 0 0.027785181219879357 0.010211366712014469 0 0.026264952783411087 0.0087826508902818425 0 0.029169388702646182 0.0069973211235062624 0 0.044002717877343153 0.0016202145650304493 0 0.044349440666036223 0.0023764535062247988 0 0.043807961133740476 0.0022956924970305393 0 0.044002717877343153 0.0016202145650304493 0 0.044759863026952958 0.0015154677736185179 0 0.044349440666036223 0.0023764535062247988 0 0.034386088706720039 0.0059340549722991928 0 0.040953985389292159 0.0074195424589597655 0 0.032582038873989479 0.01103138399565701 0 0.033517348855307209 0.0087064828730815998 0 0.038819127242024909 0.0073216527785788434 0 0.044349440666036223 0.0023764535062247988 0 0.043807961133740476 0.0022956924970305393 0 0.043599608838155765 0.0027568904363449546 0 0.029104656750796747 0.014539984973236806 0 0.040953985389292159 0.0074195424589597655 0 0.034386088706720039 0.0059340549722991928 0 0.029104656750796747 0.014539984973236806 0 0.043807961133740476 0.0022956924970305393 0 0.043599608838155765 0.0027568904363449546 0 0.043474626830411235 0.0024970570812085854 0 0.04311078095267442 0.0025103828895828768 0 0.04343554948801169 0.0027705373626967481 0 0.043474626830411235 0.0024970570812085854 0 0.043599608838155765 0.0027568904363449546 0 0.04343554948801169 0.0027705373626967481 0 0.043474626830411235 0.0024970570812085854 0 0.040953985389292159 0.0074195424589597655 0 0.042736856982810267 0.006166519223873782 0 0.043807961133740476 0.0022956924970305393 0 0.043474626830411235 0.0024970570812085854 0 0.043414897655499544 0.0021309261506629092 0 0.044002717877343153 0.0016202145650304493 0 0.043807961133740476 0.0022956924970305393 0 0.043414897655499544 0.0021309261506629092 0 0.043377470301572831 0.0013732617676768177 0 0.044002717877343153 0.0016202145650304493 0 0.043414897655499544 0.0021309261506629092 0 0.037028065481831816 0.014033568938077414 0 0.037052958801865252 0.014673194514528282 0 0.036143294862723649 0.014503772212513855 0 0.037028065481831816 0.014033568938077414 0 0.036143294862723649 0.014503772212513855 0 0.036736980493444434 0.013211050602296237 0 0.036556424609764819 0.015663130931754712 0 0.037052958801865252 0.014673194514528282 0 0.036143294862723649 0.014503772212513855 0 0.035492262841039825 0.01593141021355261 0 0.036556424609764819 0.015663130931754712 0 0.036143294862723649 0.014503772212513855 0 0.022631843158192069 0.020651859152399178 0 0.022750123766777285 0.020387235654773954 0 0.022314562184636434 0.020420738216584505 0 0.029104656750796747 0.014539984973236806 0 0.029346112836880812 0.018269692943187164 0 0.022750123766777285 0.020387235654773954 0 0.022314562184636434 0.020420738216584505 0 0.022543625359267724 0.020235668324324923 0 0.022279655734017113 0.020740369421938097 0 0.022314562184636434 0.020420738216584505 0 0.022060492486505035 0.020565020061589299 0 0.022314562184636434 0.020420738216584505 0 0.022060492486505035 0.020565020061589299 0 0.021966174276056804 0.020299558514910086 0 0.022314562184636434 0.020420738216584505 0 0.022282765172568945 0.020165506132852794 0 0.021966174276056804 0.020299558514910086 0 0.022282765172568945 0.020165506132852794 0 0.021966174276056804 0.020299558514910086 0 0.022078788758134751 0.020073283200993997 0 0.022282765172568945 0.020165506132852794 0 0.022078788758134751 0.020073283200993997 0 0.022368004619635503 0.019943724172710831 0 0.022282765172568945 0.020165506132852794 0 0.022582970179508943 0.020025040437788383 0 0.022368004619635503 0.019943724172710831 0 0.022282765172568945 0.020165506132852794 0 0.022543625359267724 0.020235668324324923 0 0.022582970179508943 0.020025040437788383 0 0.022314562184636434 0.020420738216584505 0 0.022282765172568945 0.020165506132852794 0 0.022543625359267724 0.020235668324324923 0 0.022543625359267724 0.020235668324324923 0 0.022582970179508943 0.020025040437788383 0 0.022889540648088295 0.020132335996804793 0 0.022750123766777285 0.020387235654773954 0 0.022543625359267724 0.020235668324324923 0 0.022889540648088295 0.020132335996804793 0 0.022582970179508943 0.020025040437788383 0 0.022889540648088295 0.020132335996804793 0 0.022808664047072429 0.019946348221945753 0 0.032294453684760097 0.016875752729499156 0 0.029585641440963796 0.016343802985063442 0 0.023060439565425892 0.01984546054928606 0 0.022889540648088295 0.020132335996804793 0 0.022808664047072429 0.019946348221945753 0 0.029346112836880812 0.018269692943187164 0 0.029585641440963796 0.016343802985063442 0 0.0076403869788081421 0.019457725966767137 0 0.006965272637114021 0.018642651479385527 0 0.0067611088051331416 0.019909394892682439 0 0.006965272637114021 0.018642651479385527 0 0.0062994845563793915 0.018300955363947956 0 0.0067611088051331416 0.019909394892682439 0 0.0085837807336636551 0.019562317542353817 0 0.0076403869788081421 0.019457725966767137 0 0.0078622560702697204 0.018630933173266931 0 0.0076403869788081421 0.019457725966767137 0 0.0078622560702697204 0.018630933173266931 0 0.006965272637114021 0.018642651479385527 0 0.0075010317325160218 0.022593842504844888 0 0.0071976644231589457 0.017819874467541762 0 0.0071578486783629245 0.017798114200852606 0 0.0071927059489488186 0.018196834600269517 0 0.0070551799876374397 0.01794153611427677 0 0.0071578486783629245 0.017798114200852606 0 0.0070061983937980297 0.017822180220864979 0 0.0070551799876374397 0.01794153611427677 0 0.0071860571500174646 0.018030140541727711 0 0.0071976644231589457 0.017819874467541762 0 0.0070061983937980297 0.017822180220864979 0 0.0078622560702697204 0.018630933173266931 0 0.006965272637114021 0.018642651479385527 0 0.0064419806190485962 0.017946331513320542 0 0.0070061983937980297 0.017822180220864979 0 0.006676870294206291 0.018190271652228522 0 0.0070061983937980297 0.017822180220864979 0 0.006965272637114021 0.018642651479385527 0 0.006676870294206291 0.018190271652228522 0 0.0064419806190485962 0.017946331513320542 0 0.006676870294206291 0.018190271652228522 0 0.0062994845563793915 0.018300955363947956 0 0.006965272637114021 0.018642651479385527 0 0.006676870294206291 0.018190271652228522 0 0.0062994845563793915 0.018300955363947956 0 0.021765825988874082 0.020525164530745949 0 0.022060492486505035 0.020565020061589299 0 0.021966174276056804 0.020299558514910086 0 0.021765825988874082 0.020525164530745949 0 0.021966174276056804 0.020299558514910086 0 0.02159838527190009 0.020294139664944401 0 0.014076203557595137 0.020230003442294916 0 0.014510156162967646 0.019383748041288971 0 0.021966174276056804 0.020299558514910086 0 0.021735256471911744 0.020052221625802474 0 0.02159838527190009 0.020294139664944401 0 0.021966174276056804 0.020299558514910086 0 0.022078788758134751 0.020073283200993997 0 0.021735256471911744 0.020052221625802474 0 0.021735256471911744 0.020052221625802474 0 0.02159838527190009 0.020294139664944401 0 0.021398041149638489 0.020070312731077622 0 0.0067611088051331416 0.019909394892682439 0 0.0080642735378678183 0.020599455338523632 0 0.0075211596694800455 0.021685956047814408 0 0.014510156162967646 0.019383748041288971 0 0.011612137424141317 0.023935822938788386 0 0.0076403869788081421 0.019457725966767137 0 0.0067611088051331416 0.019909394892682439 0 0.0080642735378678183 0.020599455338523632 0 0.0085837807336636551 0.019562317542353817 0 0.0076403869788081421 0.019457725966767137 0 0.0080642735378678183 0.020599455338523632 0 0.0075010317325160218 0.022593842504844888 0 0.0085090353873601646 0.025277376514166661 0 0.0095528425632061733 0.028861274603468486 0 0.0095442833288059952 0.028592112094349104 0 0.009756171648463461 0.028570370544340081 0 0.0092594488673916377 0.028747872041873693 0 0.0095528425632061733 0.028861274603468486 0 0.0095442833288059952 0.028592112094349104 0 0.0085090353873601646 0.025277376514166661 0 0.011612137424141317 0.023935822938788386 0 0.0095442833288059952 0.028592112094349104 0 0.0096397787400998303 0.028509228382196019 0 0.0096321020318260106 0.028435982513391928 0 0.0095442833288059952 0.028592112094349104 0 0.0097127133632482938 0.02849269873201956 0 0.0096397787400998303 0.028509228382196019 0 0.0095442833288059952 0.028592112094349104 0 0.0097127133632482938 0.02849269873201956 0 0.009756171648463461 0.028570370544340081 0 0.01134006824890014 0.027786000616546128 0 0.011612137424141317 0.023935822938788386 0 0.0097127133632482938 0.02849269873201956 0 0.0096871266389436644 0.028524390568734931 0 0.0097539766406727606 0.028693848497547594 0 0.0097127133632482938 0.02849269873201956 0 0.0096397787400998303 0.028509228382196019 0 0.0096871266389436644 0.028524390568734931 0 0.0096397787400998303 0.028509228382196019 0 0.0096871266389436644 0.028524390568734931 0 0.0096321020318260106 0.028435982513391928 0 0.0094646408499708731 0.028833306749778589 0 0.0091965479461837123 0.02832214872624109 0 0.0096871266389436644 0.028524390568734931 0 0.0097539766406727606 0.028693848497547594 0 0.0096321020318260106 0.028435982513391928 0 0.0090069114175622845 0.028717881635379715 0 0.0087632135324845553 0.028088867775973282 0 0.0089015001871250443 0.028351629618187012 0 0.0097539766406727606 0.028693848497547594 0 0.009896983047089053 0.028991509050413995 0 0.0096321020318260106 0.028435982513391928 0 0.0096369346067716674 0.028643494237049229 0 0.0096115427973817429 0.029073523537809298 0 0.0097201006026060716 0.028921491928881087 0 0.0097539766406727606 0.028693848497547594 0 0.0096369346067716674 0.028643494237049229 0 0.0097201006026060716 0.028921491928881087 0 0.0097127133632482938 0.02849269873201956 0 0.0097539766406727606 0.028693848497547594 0 0.0096369346067716674 0.028643494237049229 0 0.0097127133632482938 0.02849269873201956 0 0.0096369346067716674 0.028643494237049229 0 0.009681125531951178 0.028385308183738311 0 0.015915104568620494 0.024158758198059526 0 0.011612137424141317 0.023935822938788386 0 0.021735256471911744 0.020052221625802474 0 0.021523859056609494 0.019865063597508059 0 0.021398041149638489 0.020070312731077622 0 0.021735256471911744 0.020052221625802474 0 0.021523859056609494 0.019865063597508059 0 0.021763610580948948 0.019814170766485961 0 0.021735256471911744 0.020052221625802474 0 0.022050843916596792 0.019892070384664479 0 0.021763610580948948 0.019814170766485961 0 0.022078788758134751 0.020073283200993997 0 0.021735256471911744 0.020052221625802474 0 0.022050843916596792 0.019892070384664479 0 0.022050843916596792 0.019892070384664479 0 0.021763610580948948 0.019814170766485961 0 0.021964627048584179 0.019624749087244129 0 0.015915104568620494 0.024158758198059526 0 0.015838056903048018 0.023963561943802607 0 0.021523859056609494 0.019865063597508059 0 0.021763610580948948 0.019814170766485961 0 0.02162077215680408 0.019617746535000376 0 0.021763610580948948 0.019814170766485961 0 0.02162077215680408 0.019617746535000376 0 0.021964627048584179 0.019624749087244129 0 0.0096115427973817429 0.029073523537809298 0 0.0097040071433619531 0.029339844530857462 0 0.0097043215049043927 0.02925479240403903 0 0.02162077215680408 0.019617746535000376 0 0.021964627048584179 0.019624749087244129 0 0.021738945075855536 0.01926816300264474 0 0.021964627048584179 0.019624749087244129 0 0.021738945075855536 0.01926816300264474 0 0.022180153600550537 0.019260777370140265 0 0.015838056903048018 0.023963561943802607 0 0.014320067122589895 0.02632135086523588 0 0.0096115427973817429 0.029073523537809298 0 0.0097194442007810695 0.029493882671244843 0 0.0097040071433619531 0.029339844530857462 0 0.0097040071433619531 0.029339844530857462 0 0.0097962534731859188 0.029540026877046519 0 0.0097043215049043927 0.02925479240403903 0 0.014320067122589895 0.02632135086523588 0 0.0096893611433001587 0.03005055566098901 0 0.0098326492564916775 0.029560241622019954 0 0.0097040071433619531 0.029339844530857462 0 0.0097962534731859188 0.029540026877046519 0 0.0094646408499708731 0.028833306749778589 0 0.0095996653686136763 0.029384606690552102 0 0.0097962534731859188 0.029540026877046519 0 0.0097043215049043927 0.02925479240403903 0 0.0096289027223855819 0.029473883459885251 0 0.0097043215049043927 0.02925479240403903 0 0.009896983047089053 0.028991509050413995 0 0.0096289027223855819 0.029473883459885251 0 0.0090069114175622845 0.028717881635379715 0 0.0094162156516332304 0.029282682829882747 0 0.0091507646746427952 0.028669736091785945 0 0.0090069114175622845 0.028717881635379715 0 0.0094162156516332304 0.029282682829882747 0 0.0096289027223855819 0.029473883459885251 0 0.0097539766406727606 0.028693848497547594 0 0.009896983047089053 0.028991509050413995 0 0.0097201006026060716 0.028921491928881087 0 0.0097043215049043927 0.02925479240403903 0 0.009896983047089053 0.028991509050413995 0 0.0097201006026060716 0.028921491928881087 0 0.0096115427973817429 0.029073523537809298 0 0.0097043215049043927 0.02925479240403903 0 0.0097201006026060716 0.028921491928881087 0 0.024646124727467793 0.020333854185864239 0 0.0234593435599403 0.020498893159034151 0 0.023777249953550801 0.019904757525718974 0 0.024812151669472256 0.021041535420421142 0 0.024646124727467793 0.020333854185864239 0 0.0234593435599403 0.020498893159034151 0 0.023060439565425892 0.01984546054928606 0 0.022808664047072429 0.019946348221945753 0 0.022713684793161649 0.019782332525806939 0 0.032294453684760097 0.016875752729499156 0 0.02160729723548948 0.020163767538072707 0 0.022582970179508943 0.020025040437788383 0 0.022808664047072429 0.019946348221945753 0 0.022713684793161649 0.019782332525806939 0 0.022582970179508943 0.020025040437788383 0 0.022713684793161649 0.019782332525806939 0 0.022368004619635503 0.019943724172710831 0 0.02160729723548948 0.020163767538072707 0 0.023113973352001851 0.019961113147670444 0 0.0234593435599403 0.020498893159034151 0 0.023239738937198322 0.019653344274928018 0 0.023777249953550801 0.019904757525718974 0 0.0234593435599403 0.020498893159034151 0 0.022521274315228167 0.019804707101862374 0 0.023239738937198322 0.019653344274928018 0 0.022713684793161649 0.019782332525806939 0 0.022521274315228167 0.019804707101862374 0 0.022368004619635503 0.019943724172710831 0 0.022078788758134751 0.020073283200993997 0 0.022050843916596792 0.019892070384664479 0 0.022368004619635503 0.019943724172710831 0 0.022050843916596792 0.019892070384664479 0 0.022521274315228167 0.019804707101862374 0 0.022368004619635503 0.019943724172710831 0 0.022050843916596792 0.019892070384664479 0 0.021964627048584179 0.019624749087244129 0 0.022521274315228167 0.019804707101862374 0 0.021964627048584179 0.019624749087244129 0 0.022521274315228167 0.019804707101862374 0 0.022180153600550537 0.019260777370140265 0 0.022521274315228167 0.019804707101862374 0 0.022180153600550537 0.019260777370140265 0 0.022749705139640499 0.019130874693379624 0 0.022521274315228167 0.019804707101862374 0 0.022749705139640499 0.019130874693379624 0 0.023239738937198322 0.019653344274928018 0 0.022749705139640499 0.019130874693379624 0 0.023740632592472572 0.019268978930535922 0 0.023300376920845783 0.01870650063742333 0 0.022749705139640499 0.019130874693379624 0 0.023239738937198322 0.019653344274928018 0 0.023740632592472572 0.019268978930535922 0 0.024249851720971036 0.01957657555864669 0 0.024291875211639686 0.017863072464562427 0 0.024622690093535533 0.020247847682803695 0 0.024249851720971036 0.01957657555864669 0 0.023239738937198322 0.019653344274928018 0 0.023740632592472572 0.019268978930535922 0 0.023777249953550801 0.019904757525718974 0 0.024646124727467793 0.020333854185864239 0 0.023740632592472572 0.019268978930535922 0 0.023777249953550801 0.019904757525718974 0 0.025287905136743848 0.018561754682638813 0 0.024671425867112698 0.018767156396200795 0 0.024961684214982821 0.018278634348108114 0 0.024671425867112698 0.018767156396200795 0 0.024460235125903614 0.018164604755858123 0 0.024961684214982821 0.018278634348108114 0 0.025140473958286953 0.019004665995022527 0 0.024762746601497233 0.019397059741022196 0 0.024671425867112698 0.018767156396200795 0 0.022749705139640499 0.019130874693379624 0 0.023300376920845783 0.01870650063742333 0 0.022786444293168697 0.018697965237440675 0 0.024291875211639686 0.017863072464562427 0 0.020780495780724082 0.022490205954240922 0 0.023300376920845783 0.01870650063742333 0 0.022786444293168697 0.018697965237440675 0 0.023020430137169756 0.018185020002523554 0 0.022573418259146667 0.018376533899745768 0 0.022786444293168697 0.018697965237440675 0 0.022126670978399859 0.018805032603207639 0 0.022573418259146667 0.018376533899745768 0 0.022786444293168697 0.018697965237440675 0 0.023020430137169756 0.018185020002523554 0 0.017127803279900485 0.025655497269969171 0 0.014057343532021841 0.027594349301916555 0 0.022749705139640499 0.019130874693379624 0 0.022786444293168697 0.018697965237440675 0 0.022126670978399859 0.018805032603207639 0 0.022180153600550537 0.019260777370140265 0 0.022749705139640499 0.019130874693379624 0 0.022126670978399859 0.018805032603207639 0 0.017127803279900485 0.025655497269969171 0 0.018197091912162542 0.023522319408848046 0 0.012609050780984069 0.029837149294265442 0 0.012557720485268977 0.030168966991686596 0 0.01291084842821192 0.03013720104375428 0 0.012393963957096289 0.030455030202988436 0 0.012457128313889006 0.030379459153956099 0 0.012609050780984069 0.029837149294265442 0 0.01229725761179935 0.029811232840463699 0 0.011288014397870475 0.030647113145666934 0 0.012457128313889006 0.030379459153956099 0 0.012609050780984069 0.029837149294265442 0 0.012557720485268977 0.030168966991686596 0 0.012131948987476226 0.030228901558341542 0 0.010514047559053856 0.029993975664370169 0 0.011024363198174344 0.029998028905455658 0 0.012445437141479153 0.03025525418381967 0 0.012131948987476226 0.030228901558341542 0 0.01291084842821192 0.03013720104375428 0 0.012457128313889006 0.030379459153956099 0 0.012557720485268977 0.030168966991686596 0 0.012445437141479153 0.03025525418381967 0 0.012457128313889006 0.030379459153956099 0 0.012445437141479153 0.03025525418381967 0 0.012442377746884833 0.030383477762948845 0 0.012557720485268977 0.030168966991686596 0 0.012445437141479153 0.03025525418381967 0 0.01291084842821192 0.03013720104375428 0 0.012131948987476226 0.030228901558341542 0 0.012439343467171699 0.030036775885183161 0 0.010630891209548198 0.029264116549499366 0 0.012445437141479153 0.03025525418381967 0 0.012131948987476226 0.030228901558341542 0 0.012442377746884833 0.030383477762948845 0 0.012131948987476226 0.030228901558341542 0 0.012620525865793736 0.030336369238206495 0 0.012442377746884833 0.030383477762948845 0 0.012131948987476226 0.030228901558341542 0 0.012439343467171699 0.030036775885183161 0 0.012620525865793736 0.030336369238206495 0 0.012374913075866889 0.02978093577788998 0 0.011347675462798789 0.030221835181424517 0 0.011746062090857096 0.029635331279713111 0 0.012271921694113385 0.029966054141039932 0 0.011007586276711905 0.029768273636816455 0 0.012374913075866889 0.02978093577788998 0 0.012439343467171699 0.030036775885183161 0 0.011347675462798789 0.030221835181424517 0 0.012374913075866889 0.02978093577788998 0 0.012439343467171699 0.030036775885183161 0 0.012820870750263247 0.030008285970357412 0 0.012439343467171699 0.030036775885183161 0 0.012820870750263247 0.030008285970357412 0 0.013135811334242634 0.030346305703055451 0 0.012374913075866889 0.02978093577788998 0 0.012820870750263247 0.030008285970357412 0 0.013091599123070681 0.029772262694482788 0 0.013347941589710333 0.030152212946943129 0 0.013942288620345503 0.029926410249078359 0 0.013091599123070681 0.029772262694482788 0 0.012820870750263247 0.030008285970357412 0 0.013347941589710333 0.030152212946943129 0 0.013091599123070681 0.029772262694482788 0 0.013347941589710333 0.030152212946943129 0 0.013135811334242634 0.030346305703055451 0 0.01392306615692929 0.030525717101858415 0 0.012820870750263247 0.030008285970357412 0 0.013347941589710333 0.030152212946943129 0 0.013135811334242634 0.030346305703055451 0 0.017127803279900485 0.025655497269969171 0 0.015944522831805065 0.030391880807135313 0 0.012646975923785919 0.030520596302526574 0 0.013135811334242634 0.030346305703055451 0 0.012620525865793736 0.030336369238206495 0 0.012646975923785919 0.030520596302526574 0 0.013135811334242634 0.030346305703055451 0 0.01378816755541503 0.030537018516027189 0 0.012439343467171699 0.030036775885183161 0 0.013135811334242634 0.030346305703055451 0 0.012620525865793736 0.030336369238206495 0 0.012646975923785919 0.030520596302526574 0 0.012620525865793736 0.030336369238206495 0 0.012442377746884833 0.030383477762948845 0 0.012646975923785919 0.030520596302526574 0 0.012457128313889006 0.030379459153956099 0 0.012442377746884833 0.030383477762948845 0 0.017127803279900485 0.025655497269969171 0 0.020780495780724082 0.022490205954240922 0 0.017886531569221206 0.025864452847766083 0 0.017743536139633868 0.025948987434887775 0 0.017759647885169327 0.026030684556538449 0 0.020780495780724082 0.022490205954240922 0 0.015944522831805065 0.030391880807135313 0 0.01392306615692929 0.030525717101858415 0 0.015830937719444771 0.030441813480554941 0 0.013942288620345503 0.029926410249078359 0 0.01406449847495559 0.031047391507066379 0 0.01392306615692929 0.030525717101858415 0 0.015830937719444771 0.030441813480554941 0 0.013135811334242634 0.030346305703055451 0 0.01378816755541503 0.030537018516027189 0 0.01392306615692929 0.030525717101858415 0 0.015944522831805065 0.030391880807135313 0 0.0152680158773385 0.030293660691130299 0 0.013347941589710333 0.030152212946943129 0 0.01392306615692929 0.030525717101858415 0 0.013942288620345503 0.029926410249078359 0 0.015944522831805065 0.030391880807135313 0 0.016612444923208049 0.030869131473675596 0 0.018939834950149802 0.032198480157636579 0 0.016306315117383861 0.032361452132835714 0 0.017584226650765776 0.031080841786464121 0 0.018804356502305785 0.030873162574283255 0 0.018939834950149802 0.032198480157636579 0 0.017584226650765776 0.031080841786464121 0 0.022219232619859416 0.025377463291257535 0 0.020780495780724082 0.022490205954240922 0 0.025122919239174417 0.01785310438837202 0 0.024460235125903614 0.018164604755858123 0 0.024961684214982821 0.018278634348108114 0 0.018939834950149802 0.032198480157636579 0 0.016540528620048307 0.033086372822338117 0 0.016306315117383861 0.032361452132835714 0 0.0095707835422861424 0.029497063347168638 0 0.0098835362181001855 0.029607511630879903 0 0.0095185707377371965 0.029400926176185862 0 0.0095707835422861424 0.029497063347168638 0 0.0098978065195805803 0.029657541013660155 0 0.0098835362181001855 0.029607511630879903 0 0.0095707835422861424 0.029497063347168638 0 0.0095185707377371965 0.029400926176185862 0 0.0093825760999925751 0.029353387740039635 0 0.0095707835422861424 0.029497063347168638 0 0.0093825760999925751 0.029353387740039635 0 0.0092745750061653653 0.029398752811067175 0 0.0095222941852634545 0.0294594017840571 0 0.0092863837067720528 0.029329384344673394 0 0.0095707835422861424 0.029497063347168638 0 0.009168265155614197 0.029404343496793335 0 0.0092745750061653653 0.029398752811067175 0 0.0095707835422861424 0.029497063347168638 0 0.0094162156516332304 0.029282682829882747 0 0.0096289027223855819 0.029473883459885251 0 0.0095707835422861424 0.029497063347168638 0 0.0096289027223855819 0.029473883459885251 0 0.0098978065195805803 0.029657541013660155 0 0.0097962534731859188 0.029540026877046519 0 0.0096289027223855819 0.029473883459885251 0 0.0098978065195805803 0.029657541013660155 0 0.0097962534731859188 0.029540026877046519 0 0.010048896027977795 0.029729611962243552 0 0.0098978065195805803 0.029657541013660155 0 0.0098326492564916775 0.029560241622019954 0 0.0097962534731859188 0.029540026877046519 0 0.010048896027977795 0.029729611962243552 0 0.010048896027977795 0.029729611962243552 0 0.0098978065195805803 0.029657541013660155 0 0.010245332451738991 0.02982088615534206 0 0.014320067122589895 0.02632135086523588 0 0.011288014397870475 0.030647113145666934 0 0.014320067122589895 0.02632135086523588 0 0.018197091912162542 0.023522319408848046 0 0.0098326492564916775 0.029560241622019954 0 0.010048896027977795 0.029729611962243552 0 0.010514047559053856 0.029993975664370169 0 0.021738945075855536 0.01926816300264474 0 0.022180153600550537 0.019260777370140265 0 0.022126670978399859 0.018805032603207639 0 0.013875035841288656 0.028441313394764921 0 0.012609050780984069 0.029837149294265442 0 0.01291084842821192 0.03013720104375428 0 0.010048896027977795 0.029729611962243552 0 0.010514047559053856 0.029993975664370169 0 0.010245332451738991 0.02982088615534206 0 0.010514047559053856 0.029993975664370169 0 0.010245332451738991 0.02982088615534206 0 0.010544493322396689 0.029916661906412255 0 0.010245332451738991 0.02982088615534206 0 0.010544493322396689 0.029916661906412255 0 0.010350415498608932 0.029733125073333904 0 0.010544493322396689 0.029916661906412255 0 0.011024363198174344 0.029998028905455658 0 0.010350415498608932 0.029733125073333904 0 0.010514047559053856 0.029993975664370169 0 0.010544493322396689 0.029916661906412255 0 0.011024363198174344 0.029998028905455658 0 0.0098978065195805803 0.029657541013660155 0 0.010245332451738991 0.02982088615534206 0 0.0098835362181001855 0.029607511630879903 0 0.010245332451738991 0.02982088615534206 0 0.0098835362181001855 0.029607511630879903 0 0.010350415498608932 0.029733125073333904 0 0.0098835362181001855 0.029607511630879903 0 0.010350415498608932 0.029733125073333904 0 0.0097739601347956815 0.029207068717170735 0 0.010350415498608932 0.029733125073333904 0 0.010630891209548198 0.029264116549499366 0 0.0097739601347956815 0.029207068717170735 0 0.011024363198174344 0.029998028905455658 0 0.010350415498608932 0.029733125073333904 0 0.010630891209548198 0.029264116549499366 0 0.012131948987476226 0.030228901558341542 0 0.011024363198174344 0.029998028905455658 0 0.010630891209548198 0.029264116549499366 0 0.011347675462798789 0.030221835181424517 0 0.011746062090857096 0.029635331279713111 0 0.010984234622570536 0.029713605740752026 0 0.011007586276711905 0.029768273636816455 0 0.010176318981357848 0.029619615590655561 0 0.011347675462798789 0.030221835181424517 0 0.010537641346960414 0.030013256998728921 0 0.010984234622570536 0.029713605740752026 0 0.010537641346960414 0.030013256998728921 0 0.010984234622570536 0.029713605740752026 0 0.010531242498404123 0.02957398662892563 0 0.010537641346960414 0.030013256998728921 0 0.010531242498404123 0.02957398662892563 0 0.010299084610301341 0.029638470724771167 0 0.010176318981357848 0.029619615590655561 0 0.0098226643502873703 0.029584087308784306 0 0.0098835362181001855 0.029607511630879903 0 0.0097739601347956815 0.029207068717170735 0 0.0095185707377371965 0.029400926176185862 0 0.0097739601347956815 0.029207068717170735 0 0.0095185707377371965 0.029400926176185862 0 0.0093479419886401665 0.02935943614709734 0 0.0095185707377371965 0.029400926176185862 0 0.0093479419886401665 0.02935943614709734 0 0.0093825760999925751 0.029353387740039635 0 0.010537641346960414 0.030013256998728921 0 0.01021995124340973 0.029810599259809591 0 0.010299084610301341 0.029638470724771167 0 0.01021995124340973 0.029810599259809591 0 0.01019526180034858 0.029624872458185153 0 0.010299084610301341 0.029638470724771167 0 0.01019526180034858 0.029624872458185153 0 0.010093459558868922 0.029630062717979983 0 0.010163374411357012 0.029596703890983737 0 0.01021995124340973 0.029810599259809591 0 0.010093459558868922 0.029630062717979983 0 0.0099135767187580465 0.02955863264213595 0 0.01021995124340973 0.029810599259809591 0 0.01019526180034858 0.029624872458185153 0 0.010093459558868922 0.029630062717979983 0 0.010093459558868922 0.029630062717979983 0 0.010070478042314897 0.029601765221921844 0 0.010163374411357012 0.029596703890983737 0 0.010070478042314897 0.029601765221921844 0 0.010163374411357012 0.029596703890983737 0 0.010185275611041184 0.029603539950253808 0 0.010070478042314897 0.029601765221921844 0 0.010120996326191945 0.029581788335122382 0 0.010185275611041184 0.029603539950253808 0 0.010070478042314897 0.029601765221921844 0 0.0099135767187580465 0.02955863264213595 0 0.010120996326191945 0.029581788335122382 0 0.010093459558868922 0.029630062717979983 0 0.010070478042314897 0.029601765221921844 0 0.0099135767187580465 0.02955863264213595 0 0.0099135767187580465 0.02955863264213595 0 0.009638510018491999 0.029423146752185259 0 0.010022488088912006 0.029319109797847003 0 0.0099135767187580465 0.02955863264213595 0 0.010120996326191945 0.029581788335122382 0 0.010098459468522204 0.029462960943520723 0 0.009597257597702755 0.029433038705621681 0 0.0095523023125128372 0.029353263477099899 0 0.0099135767187580465 0.02955863264213595 0 0.010098459468522204 0.029462960943520723 0 0.010022488088912006 0.029319109797847003 0 0.0093479419886401665 0.02935943614709734 0 0.0099135767187580465 0.02955863264213595 0 0.009638510018491999 0.029423146752185259 0 0.0098226643502873703 0.029584087308784306 0 0.0099259206612550971 0.029561714167497043 0 0.0093825760999925751 0.029353387740039635 0 0.009638510018491999 0.029423146752185259 0 0.0093280984716041949 0.029364367484986342 0 0.0093479419886401665 0.02935943614709734 0 0.0093825760999925751 0.029353387740039635 0 0.009638510018491999 0.029423146752185259 0 0.01022269596158574 0.029553765955394565 0 0.010295470626168342 0.029594223485638334 0 0.010347628183686428 0.029596776097065302 0 0.01022269596158574 0.029553765955394565 0 0.010245506229514497 0.029594233900453709 0 0.010347628183686428 0.029596776097065302 0 0.01022269596158574 0.029553765955394565 0 0.010245506229514497 0.029594233900453709 0 0.010120996326191945 0.029581788335122382 0 0.010245506229514497 0.029594233900453709 0 0.010120996326191945 0.029581788335122382 0 0.010185275611041184 0.029603539950253808 0 0.01022269596158574 0.029553765955394565 0 0.010120996326191945 0.029581788335122382 0 0.010098459468522204 0.029462960943520723 0 0.01022269596158574 0.029553765955394565 0 0.010189565324746377 0.029517170057382684 0 0.010295470626168342 0.029594223485638334 0 0.01022269596158574 0.029553765955394565 0 0.010098459468522204 0.029462960943520723 0 0.010189565324746377 0.029517170057382684 0 0.010189565324746377 0.029517170057382684 0 0.010018598591768195 0.029331530038601852 0 0.010288748676667061 0.029578098220169255 0 0.010014318432795764 0.029351004603332929 0 0.010073482612794785 0.029465233451829626 0 0.010098459468522204 0.029462960943520723 0 0.010018598591768195 0.029331530038601852 0 0.010022488088912006 0.029319109797847003 0 0.010098459468522204 0.029462960943520723 0 0.010189565324746377 0.029517170057382684 0 0.010018598591768195 0.029331530038601852 0 0.009072080588653695 0.02939684415696469 0 0.0090926102208943975 0.02934260915520483 0 0.0090333016815896984 0.029359340550657542 0 0.0095095141870736675 0.029326554047710122 0 0.0095523023125128372 0.029353263477099899 0 0.010018598591768195 0.029331530038601852 0 0.0099106949046700379 0.02931310786063715 0 0.010022488088912006 0.029319109797847003 0 0.009072080588653695 0.02939684415696469 0 0.0090333016815896984 0.029359340550657542 0 0.0089492371811455765 0.029275376586465011 0 0.010018598591768195 0.029331530038601852 0 0.0099106949046700379 0.02931310786063715 0 0.0098285567756317572 0.02929782283138269 0 0.0092745750061653653 0.029398752811067175 0 0.0093280984716041949 0.029364367484986342 0 0.0091440454970961559 0.029378751850299655 0 0.0093825760999925751 0.029353387740039635 0 0.0092745750061653653 0.029398752811067175 0 0.0093280984716041949 0.029364367484986342 0 0.009638510018491999 0.029423146752185259 0 0.0093280984716041949 0.029364367484986342 0 0.0090926102208943975 0.02934260915520483 0 0.0093280984716041949 0.029364367484986342 0 0.0090926102208943975 0.02934260915520483 0 0.0091440454970961559 0.029378751850299655 0 0.0090926102208943975 0.02934260915520483 0 0.0091440454970961559 0.029378751850299655 0 0.0090333016815896984 0.029359340550657542 0 0.0090333016815896984 0.029359340550657542 0 0.0089894338963116809 0.029324388481129414 0 0.0089492371811455765 0.029275376586465011 0 0.0091440454970961559 0.029378751850299655 0 0.0090333016815896984 0.029359340550657542 0 0.0089894338963116809 0.029324388481129414 0 0.0091440454970961559 0.029378751850299655 0 0.0089894338963116809 0.029324388481129414 0 0.0090965655238911657 0.029373049131920622 0 0.009168265155614197 0.029404343496793335 0 0.0092745750061653653 0.029398752811067175 0 0.0090965655238911657 0.029373049131920622 0 0.0092745750061653653 0.029398752811067175 0 0.0091440454970961559 0.029378751850299655 0 0.0090965655238911657 0.029373049131920622 0 0.009168265155614197 0.029404343496793335 0 0.0090965655238911657 0.029373049131920622 0 0.0087645286043502631 0.029161935950604262 0 0.0092863837067720528 0.029329384344673394 0 0.0089448884203804785 0.028918096469892407 0 0.0089894338963116809 0.029324388481129414 0 0.0090965655238911657 0.029373049131920622 0 0.0087645286043502631 0.029161935950604262 0 0.0090069114175622845 0.028717881635379715 0 0.0091507646746427952 0.028669736091785945 0 0.0089015001871250443 0.028351629618187012 0 0.0091507646746427952 0.028669736091785945 0 0.0089015001871250443 0.028351629618187012 0 0.0086343640943087 0.028136507416274631 0 0.0089448884203804785 0.028918096469892407 0 0.0084948370782906239 0.028372993423120892 0 0.0087955891400458303 0.029139750929078004 0 0.0088198183377977881 0.028975244366822445 0 0.0084100917496246902 0.028640986397259129 0 0.0087645286043502631 0.029161935950604262 0 0.0087955891400458303 0.029139750929078004 0 0.0084100917496246902 0.028640986397259129 0 0.0089894338963116809 0.029324388481129414 0 0.0087645286043502631 0.029161935950604262 0 0.0087955891400458303 0.029139750929078004 0 0.0089894338963116809 0.029324388481129414 0 0.0087955891400458303 0.029139750929078004 0 0.0089492371811455765 0.029275376586465011 0 0.0087955891400458303 0.029139750929078004 0 0.0089492371811455765 0.029275376586465011 0 0.0088198183377977881 0.028975244366822445 0 0.009072080588653695 0.02939684415696469 0 0.0089492371811455765 0.029275376586465011 0 0.0090942742725323225 0.029119872609344032 0 0.0089492371811455765 0.029275376586465011 0 0.0090942742725323225 0.029119872609344032 0 0.0088198183377977881 0.028975244366822445 0 0.0099106949046700379 0.02931310786063715 0 0.00963667125077982 0.029098124786685484 0 0.0098285567756317572 0.02929782283138269 0 0.0095095141870736675 0.029326554047710122 0 0.0096521644755261891 0.029100268754282687 0 0.009072080588653695 0.02939684415696469 0 0.0090942742725323225 0.029119872609344032 0 0.00963667125077982 0.029098124786685484 0 0.0090942742725323225 0.029119872609344032 0 0.0091958555664212686 0.028719738161243499 0 0.00963667125077982 0.029098124786685484 0 0.0090942742725323225 0.029119872609344032 0 0.0091958555664212686 0.028719738161243499 0 0.0088198183377977881 0.028975244366822445 0 0.0091958555664212686 0.028719738161243499 0 0.0088198183377977881 0.028975244366822445 0 0.0086952196143239065 0.028574562464612218 0 0.0088198183377977881 0.028975244366822445 0 0.0086952196143239065 0.028574562464612218 0 0.0084100917496246902 0.028640986397259129 0 0.0086952196143239065 0.028574562464612218 0 0.0084115228966572791 0.028174452726701084 0 0.0084100917496246902 0.028640986397259129 0 0.0086952196143239065 0.028574562464612218 0 0.0088827516210599946 0.028319351136186589 0 0.0084115228966572791 0.028174452726701084 0 0.0091958555664212686 0.028719738161243499 0 0.0086952196143239065 0.028574562464612218 0 0.0088827516210599946 0.028319351136186589 0 0.0091958555664212686 0.028719738161243499 0 0.0088827516210599946 0.028319351136186589 0 0.0093190388080663586 0.028174369210411589 0 0.0093190388080663586 0.028174369210411589 0 0.0088247623372324901 0.02778860967024557 0 0.0093078084929285945 0.027397398986590663 0 0.0088827516210599946 0.028319351136186589 0 0.0093190388080663586 0.028174369210411589 0 0.0088247623372324901 0.02778860967024557 0 0.0088827516210599946 0.028319351136186589 0 0.0088247623372324901 0.02778860967024557 0 0.0084115228966572791 0.028174452726701084 0 0.0087693950343061822 0.027000093515511456 0 0.0088247623372324901 0.02778860967024557 0 0.0083550424819267138 0.027515059787496556 0 0.0087693950343061822 0.027000093515511456 0 0.0088247623372324901 0.02778860967024557 0 0.0093078084929285945 0.027397398986590663 0 0.0084115228966572791 0.028174452726701084 0 0.0079235861680711679 0.027825349258823885 0 0.0084100917496246902 0.028640986397259129 0 0.0084115228966572791 0.028174452726701084 0 0.0083550424819267138 0.027515059787496556 0 0.0079235861680711679 0.027825349258823885 0 0.0088247623372324901 0.02778860967024557 0 0.0084115228966572791 0.028174452726701084 0 0.0083550424819267138 0.027515059787496556 0 0.007523278080604808 0.027281308362206155 0 0.0079235861680711679 0.027825349258823885 0 0.0078519675492728577 0.027975644806448468 0 0.0080640870443814232 0.027918254529162086 0 0.0084948370782906239 0.028372993423120892 0 0.0078519675492728577 0.027975644806448468 0 0.0083956847920636356 0.028078306255605041 0 0.0086343640943087 0.028136507416274631 0 0.0079235861680711679 0.027825349258823885 0 0.0078519675492728577 0.027975644806448468 0 0.0086343640943087 0.028136507416274631 0 0.0083956847920636356 0.028078306255605041 0 0.0086541879000404959 0.028111535056851798 0 0.0086343640943087 0.028136507416274631 0 0.0083956847920636356 0.028078306255605041 0 0.0085824982738578436 0.028210955007709319 0 0.0086541879000404959 0.028111535056851798 0 0.0083956847920636356 0.028078306255605041 0 0.0083865522430315222 0.028228417130004162 0 0.0085824982738578436 0.028210955007709319 0 0.0078519675492728577 0.027975644806448468 0 0.0083956847920636356 0.028078306255605041 0 0.0083865522430315222 0.028228417130004162 0 0.0088131060820476979 0.028756478328913978 0 0.0091965479461837123 0.02832214872624109 0 0.0092594488673916377 0.028747872041873693 0 0.0095442833288059952 0.028592112094349104 0 0.0096321020318260106 0.028435982513391928 0 0.0088070362916230424 0.028743871536461251 0 0.0085824982738578436 0.028210955007709319 0 0.0087632135324845553 0.028088867775973282 0 0.0085824982738578436 0.028210955007709319 0 0.0087632135324845553 0.028088867775973282 0 0.0086541879000404959 0.028111535056851798 0 0.0086541879000404959 0.028111535056851798 0 0.0089015001871250443 0.028351629618187012 0 0.0086343640943087 0.028136507416274631 0 0.0087632135324845553 0.028088867775973282 0 0.0086541879000404959 0.028111535056851798 0 0.0089015001871250443 0.028351629618187012 0 0.010321582376032978 0.028583590820245194 0 0.01044005156749008 0.028375772866088642 0 0.010372156829465708 0.02887462096855781 0 0.010321582376032978 0.028583590820245194 0 0.01044005156749008 0.028375772866088642 0 0.010443465323948284 0.028218789587138953 0 -0.003809251050576625 0.029524820674514254 0 -0.0036369734915376877 0.029574263890249079 0 -0.0037883755943215205 0.029415541228856652 0 -0.003809251050576625 0.029524820674514254 0 -0.0037883755943215205 0.029415541228856652 0 -0.0039066136975735438 0.029474971664118894 0 -0.003809251050576625 0.029524820674514254 0 -0.0036369734915376877 0.029574263890249079 0 -0.0039684708166634599 0.02957663065996128 0 0.0035218915934360391 0.027728790292607858 0 0.003296140471376489 0.029404487436449779 0 0.0035218915934360391 0.027728790292607858 0 -0.009897373293678154 0.025331283195916272 0 -0.0030248812043590918 0.024292459065712983 0 -0.0023626652777828001 0.023799194797206689 0 -0.0037949351641324669 0.023848317996600345 0 -0.0026249106151303545 0.024660657627006855 0 -0.0030248812043590918 0.024292459065712983 0 -0.0023626652777828001 0.023799194797206689 0 0.011236827705228995 0.026760168058221765 0 0.011559572904533905 0.028147463856728172 0 0.010554853156419826 0.027388453546998863 0 0.0035218915934360391 0.027728790292607858 0 0.012858667386071027 0.028114560409840575 0 -0.0026249106151303545 0.024660657627006855 0 -0.0019843581353148946 0.024736253041012842 0 -0.0023626652777828001 0.023799194797206689 0 0.0046265967577009534 0.025361246238468256 0 0.0035218915934360391 0.027728790292607858 0 0.011559572904533905 0.028147463856728172 0 0.010554853156419826 0.027388453546998863 0 0.010443465323948284 0.028218789587138953 0 0.0099351069471595947 0.027236582893730928 0 0.010554853156419826 0.027388453546998863 0 0.0098901570738293455 0.027994682372201561 0 0.010554853156419826 0.027388453546998863 0 0.010443465323948284 0.028218789587138953 0 0.0098901570738293455 0.027994682372201561 0 0.0099351069471595947 0.027236582893730928 0 0.0093078084929285945 0.027397398986590663 0 0.0098901570738293455 0.027994682372201561 0 0.0093190388080663586 0.028174369210411589 0 0.0093078084929285945 0.027397398986590663 0 0.0098901570738293455 0.027994682372201561 0 0.0091958555664212686 0.028719738161243499 0 0.0093190388080663586 0.028174369210411589 0 0.0099154133459087891 0.028597491612523184 0 0.0093190388080663586 0.028174369210411589 0 0.0098901570738293455 0.027994682372201561 0 0.0099154133459087891 0.028597491612523184 0 0.010321582376032978 0.028583590820245194 0 0.010443465323948284 0.028218789587138953 0 0.0099154133459087891 0.028597491612523184 0 0.010443465323948284 0.028218789587138953 0 0.0098901570738293455 0.027994682372201561 0 0.0099154133459087891 0.028597491612523184 0 0.0099154133459087891 0.028597491612523184 0 0.00963667125077982 0.029098124786685484 0 0.010140169198783688 0.028923956562418696 0 0.010321582376032978 0.028583590820245194 0 0.0099154133459087891 0.028597491612523184 0 0.010140169198783688 0.028923956562418696 0 0.0091958555664212686 0.028719738161243499 0 0.0099154133459087891 0.028597491612523184 0 0.00963667125077982 0.029098124786685484 0 0.00963667125077982 0.029098124786685484 0 0.010031791586595553 0.02926721572172581 0 0.0098285567756317572 0.02929782283138269 0 0.00963667125077982 0.029098124786685484 0 0.010140169198783688 0.028923956562418696 0 0.010031791586595553 0.02926721572172581 0 0.010140169198783688 0.028923956562418696 0 0.010185060088192194 0.02915994501515666 0 0.010031791586595553 0.02926721572172581 0 0.010321582376032978 0.028583590820245194 0 0.010140169198783688 0.028923956562418696 0 0.010372156829465708 0.02887462096855781 0 0.010140169198783688 0.028923956562418696 0 0.010372156829465708 0.02887462096855781 0 0.010185060088192194 0.02915994501515666 0 0.010372156829465708 0.02887462096855781 0 0.010185060088192194 0.02915994501515666 0 0.010183229046458075 0.029286488531165469 0 0.003296140471376489 0.029404487436449779 0 0.0032309483159943617 0.029229101166431199 0 0.010185060088192194 0.02915994501515666 0 0.010040780845730176 0.02945727568602444 0 0.010183229046458075 0.029286488531165469 0 0.010185060088192194 0.02915994501515666 0 0.010031791586595553 0.02926721572172581 0 0.010040780845730176 0.02945727568602444 0 0.010031791586595553 0.02926721572172581 0 0.0100296954274846 0.029441135697350605 0 0.010040780845730176 0.02945727568602444 0 0.0100296954274846 0.029441135697350605 0 0.010040780845730176 0.02945727568602444 0 0.0099165995848144797 0.029622919372089565 0 0.010031791586595553 0.02926721572172581 0 0.0098285567756317572 0.02929782283138269 0 0.0098745846218085912 0.02936352622372735 0 0.010031791586595553 0.02926721572172581 0 0.0100296954274846 0.029441135697350605 0 0.0098745846218085912 0.02936352622372735 0 0.010064959993655132 0.029576536121221811 0 0.010073482612794785 0.029465233451829626 0 0.010018598591768195 0.029331530038601852 0 0.0098285567756317572 0.02929782283138269 0 0.0098745846218085912 0.02936352622372735 0 0.010189565324746377 0.029517170057382684 0 0.010288748676667061 0.029578098220169255 0 0.010295470626168342 0.029594223485638334 0 0.010288748676667061 0.029578098220169255 0 0.01020878376594826 0.029634054837446529 0 0.010295470626168342 0.029594223485638334 0 0.010103552253777468 0.029713861155760777 0 0.010288748676667061 0.029578098220169255 0 0.01020878376594826 0.029634054837446529 0 0.01020878376594826 0.029634054837446529 0 0.010295470626168342 0.029594223485638334 0 0.010339657849965886 0.029604708554868894 0 0.010295470626168342 0.029594223485638334 0 0.010339657849965886 0.029604708554868894 0 0.010347628183686428 0.029596776097065302 0 0.010064959993655132 0.029576536121221811 0 0.0099405755106247891 0.029616526958263605 0 0.010103552253777468 0.029713861155760777 0 0.0099390927372948953 0.029661687493163311 0 0.0099165995848144797 0.029622919372089565 0 0.010103552253777468 0.029713861155760777 0 0.0099390927372948953 0.029661687493163311 0 0.010031051920279104 0.029641491209265524 0 0.010103552253777468 0.029713861155760777 0 0.01020878376594826 0.029634054837446529 0 0.010031051920279104 0.029641491209265524 0 0.01020878376594826 0.029634054837446529 0 0.010031051920279104 0.029641491209265524 0 0.010032281536068333 0.029548673106446724 0 0.0099390927372948953 0.029661687493163311 0 0.010031051920279104 0.029641491209265524 0 0.0098621332940396125 0.029622280638055148 0 0.010031051920279104 0.029641491209265524 0 0.0098621332940396125 0.029622280638055148 0 0.010032281536068333 0.029548673106446724 0 0.0098621332940396125 0.029622280638055148 0 0.0098235484274624973 0.029535570489135188 0 0.010032281536068333 0.029548673106446724 0 0.010032281536068333 0.029548673106446724 0 0.010335907039321848 0.029519624820617051 0 0.010231927685097036 0.029578257319785296 0 0.01020878376594826 0.029634054837446529 0 0.010032281536068333 0.029548673106446724 0 0.010231927685097036 0.029578257319785296 0 0.010032281536068333 0.029548673106446724 0 0.010021722378178256 0.029318690240481955 0 0.010335907039321848 0.029519624820617051 0 0.010032281536068333 0.029548673106446724 0 0.010021722378178256 0.029318690240481955 0 0.0097643753619862973 0.029399750839646539 0 0.0098235484274624973 0.029535570489135188 0 0.010032281536068333 0.029548673106446724 0 0.0097643753619862973 0.029399750839646539 0 0.0097692501995073084 0.029181151757206963 0 0.010021722378178256 0.029318690240481955 0 0.0097643753619862973 0.029399750839646539 0 0.0097692501995073084 0.029181151757206963 0 0.010021722378178256 0.029318690240481955 0 0.0099698693691582883 0.028988697665692141 0 0.010021722378178256 0.029318690240481955 0 0.010284301230518947 0.02929643435013092 0 0.010335907039321848 0.029519624820617051 0 0.010021722378178256 0.029318690240481955 0 0.0099698693691582883 0.028988697665692141 0 0.010284301230518947 0.02929643435013092 0 0.0099698693691582883 0.028988697665692141 0 0.010347353696186685 0.028984886619308252 0 0.010284301230518947 0.02929643435013092 0 0.0099698693691582883 0.028988697665692141 0 0.0097432618034952057 0.028969264919494076 0 0.0097027563728238776 0.028790115680377894 0 0.0097692501995073084 0.029181151757206963 0 0.0099698693691582883 0.028988697665692141 0 0.0097432618034952057 0.028969264919494076 0 0.010975049341555378 0.030405090889922104 0 0.01226602464751534 0.030204342589540963 0 0.010784230610486827 0.029539017332670111 0 0.011379484501249338 0.029523983514262893 0 0.010815946012246494 0.029544130606265345 0 0.010347353696186685 0.028984886619308252 0 0.010284301230518947 0.02929643435013092 0 0.010784230610486827 0.029539017332670111 0 0.010284301230518947 0.02929643435013092 0 0.010784230610486827 0.029539017332670111 0 0.010335907039321848 0.029519624820617051 0 0.010784230610486827 0.029539017332670111 0 0.010501698069950575 0.029590156181078742 0 0.010335907039321848 0.029519624820617051 0 0.01020878376594826 0.029634054837446529 0 0.010231927685097036 0.029578257319785296 0 0.010339657849965886 0.029604708554868894 0 0.010335907039321848 0.029519624820617051 0 0.010231927685097036 0.029578257319785296 0 0.010339657849965886 0.029604708554868894 0 0.010501698069950575 0.029590156181078742 0 0.010335907039321848 0.029519624820617051 0 0.010339657849965886 0.029604708554868894 0 0.010501698069950575 0.029590156181078742 0 0.010339657849965886 0.029604708554868894 0 0.010347628183686428 0.029596776097065302 0 0.010501698069950575 0.029590156181078742 0 0.010347628183686428 0.029596776097065302 0 0.01034726703363879 0.029612054801200612 0 0.010245506229514497 0.029594233900453709 0 0.010347628183686428 0.029596776097065302 0 0.01034726703363879 0.029612054801200612 0 0.010245506229514497 0.029594233900453709 0 0.01034726703363879 0.029612054801200612 0 0.010185275611041184 0.029603539950253808 0 0.01034726703363879 0.029612054801200612 0 0.010373988757242327 0.029660634406155469 0 0.010511661147632148 0.029642404514902847 0 0.01034726703363879 0.029612054801200612 0 0.010373988757242327 0.029660634406155469 0 0.01025815852940277 0.029610374836523859 0 0.010373988757242327 0.029660634406155469 0 0.010511661147632148 0.029642404514902847 0 0.010440159318808885 0.029770221156164275 0 0.010501698069950575 0.029590156181078742 0 0.01034726703363879 0.029612054801200612 0 0.010511661147632148 0.029642404514902847 0 0.010784230610486827 0.029539017332670111 0 0.010501698069950575 0.029590156181078742 0 0.010511661147632148 0.029642404514902847 0 0.01019526180034858 0.029624872458185153 0 0.010163374411357012 0.029596703890983737 0 0.01025614298782258 0.029538524815046326 0 0.010163374411357012 0.029596703890983737 0 0.01024265005874979 0.029585285899068805 0 0.01025614298782258 0.029538524815046326 0 0.010163374411357012 0.029596703890983737 0 0.01025815852940277 0.029610374836523859 0 0.01024265005874979 0.029585285899068805 0 0.01034726703363879 0.029612054801200612 0 0.010185275611041184 0.029603539950253808 0 0.01025815852940277 0.029610374836523859 0 0.010163374411357012 0.029596703890983737 0 0.010185275611041184 0.029603539950253808 0 0.01025815852940277 0.029610374836523859 0 0.01025815852940277 0.029610374836523859 0 0.010303252482368862 0.029624356237689792 0 0.01036926395644984 0.029744521173445195 0 0.010373988757242327 0.029660634406155469 0 0.01025815852940277 0.029610374836523859 0 0.01036926395644984 0.029744521173445195 0 0.010303252482368862 0.029624356237689792 0 0.01025614298782258 0.029538524815046326 0 0.010331462420208085 0.029488520148555724 0 0.01025815852940277 0.029610374836523859 0 0.01024265005874979 0.029585285899068805 0 0.010303252482368862 0.029624356237689792 0 0.01024265005874979 0.029585285899068805 0 0.010303252482368862 0.029624356237689792 0 0.01025614298782258 0.029538524815046326 0 0.010303252482368862 0.029624356237689792 0 0.010369452425463967 0.029739676266412378 0 0.01036926395644984 0.029744521173445195 0 0.010369452425463967 0.029739676266412378 0 0.01036926395644984 0.029744521173445195 0 0.0104631330156958 0.03009904974132073 0 0.010303252482368862 0.029624356237689792 0 0.010369452425463967 0.029739676266412378 0 0.010331462420208085 0.029488520148555724 0 0.010373988757242327 0.029660634406155469 0 0.01036926395644984 0.029744521173445195 0 0.010440159318808885 0.029770221156164275 0 0.01036926395644984 0.029744521173445195 0 0.010440159318808885 0.029770221156164275 0 0.01045543844585572 0.029974780004101531 0 0.01036926395644984 0.029744521173445195 0 0.0104631330156958 0.03009904974132073 0 0.01045543844585572 0.029974780004101531 0 0.0104631330156958 0.03009904974132073 0 0.01045543844585572 0.029974780004101531 0 0.010517302274668291 0.030336653673033388 0 0.010369452425463967 0.029739676266412378 0 0.0104631330156958 0.03009904974132073 0 0.010423154269058129 0.029949755137666741 0 0.010784230610486827 0.029539017332670111 0 0.010511661147632148 0.029642404514902847 0 0.010558729866697064 0.029954806199260435 0 0.010440159318808885 0.029770221156164275 0 0.01045543844585572 0.029974780004101531 0 0.010558729866697064 0.029954806199260435 0 0.010511661147632148 0.029642404514902847 0 0.010440159318808885 0.029770221156164275 0 0.010558729866697064 0.029954806199260435 0 0.010558729866697064 0.029954806199260435 0 0.010650511709908444 0.030447679387258942 0 0.010517302274668291 0.030336653673033388 0 0.01045543844585572 0.029974780004101531 0 0.010558729866697064 0.029954806199260435 0 0.010517302274668291 0.030336653673033388 0 0.010975049341555378 0.030405090889922104 0 0.010558729866697064 0.029954806199260435 0 0.010650511709908444 0.030447679387258942 0 0.010975049341555378 0.030405090889922104 0 0.010784230610486827 0.029539017332670111 0 0.010558729866697064 0.029954806199260435 0 0.010975049341555378 0.030405090889922104 0 0.010741800766374199 0.030842910974225902 0 0.011096636608690076 0.031127659491243295 0 0.010975049341555378 0.030405090889922104 0 0.010741800766374199 0.030842910974225902 0 0.010650511709908444 0.030447679387258942 0 0.010741800766374199 0.030842910974225902 0 0.010650511709908444 0.030447679387258942 0 0.010604060962926832 0.030699739620425697 0 0.010741800766374199 0.030842910974225902 0 0.010604060962926832 0.030699739620425697 0 0.01061096284972279 0.030929727911133881 0 0.010650511709908444 0.030447679387258942 0 0.010517302274668291 0.030336653673033388 0 0.010604060962926832 0.030699739620425697 0 0.010517302274668291 0.030336653673033388 0 0.010604060962926832 0.030699739620425697 0 0.010560084094386668 0.03070742208522189 0 0.010560084094386668 0.03070742208522189 0 0.01058694347216519 0.030852787720047924 0 0.010550444423601615 0.030738014294047954 0 0.010604060962926832 0.030699739620425697 0 0.010560084094386668 0.03070742208522189 0 0.01061096284972279 0.030929727911133881 0 0.010560084094386668 0.03070742208522189 0 0.01058694347216519 0.030852787720047924 0 0.01061096284972279 0.030929727911133881 0 0.0092497622797121683 0.031963649365698787 0 0.010734356379416461 0.031180766806419909 0 0.01058694347216519 0.030852787720047924 0 0.010712031240586525 0.031317326128159885 0 0.01061096284972279 0.030929727911133881 0 0.0092497622797121683 0.031963649365698787 0 0.0096207975731852947 0.031862957383564733 0 0.0085628249595025886 0.031952272823145146 0 0.010136442729021023 0.031818922146190164 0 0.010712031240586525 0.031317326128159885 0 0.010136442729021023 0.031818922146190164 0 0.010582661892515373 0.032803105449677947 0 0.010888809642136085 0.032089988383720902 0 0.010136442729021023 0.031818922146190164 0 0.010712031240586525 0.031317326128159885 0 0.010888809642136085 0.032089988383720902 0 0.010741800766374199 0.030842910974225902 0 0.010712031240586525 0.031317326128159885 0 0.01061096284972279 0.030929727911133881 0 0.010741800766374199 0.030842910974225902 0 0.010712031240586525 0.031317326128159885 0 0.011096636608690076 0.031127659491243295 0 0.0104631330156958 0.03009904974132073 0 0.010541702610146695 0.030525932755086395 0 0.010516725674879629 0.03052646084507896 0 0.0104631330156958 0.03009904974132073 0 0.010541702610146695 0.030525932755086395 0 0.010423154269058129 0.029949755137666741 0 0.0104631330156958 0.03009904974132073 0 0.010517302274668291 0.030336653673033388 0 0.010516725674879629 0.03052646084507896 0 0.010517302274668291 0.030336653673033388 0 0.010560084094386668 0.03070742208522189 0 0.010516725674879629 0.03052646084507896 0 0.0092497622797121683 0.031963649365698787 0 0.0094312034724159822 0.031821045353600259 0 0.010560084094386668 0.03070742208522189 0 0.010516725674879629 0.03052646084507896 0 0.010550444423601615 0.030738014294047954 0 0.010541702610146695 0.030525932755086395 0 0.010516725674879629 0.03052646084507896 0 0.010550444423601615 0.030738014294047954 0 0.010541702610146695 0.030525932755086395 0 0.010550444423601615 0.030738014294047954 0 0.010664385059281391 0.03085758159690238 0 0.0083213440839029987 0.032948568567726752 0 0.0083552373940659688 0.032999970433490781 0 0.0081665005096625727 0.033097413799619183 0 0.0094312034724159822 0.031821045353600259 0 0.0098433879704971725 0.032102396402359866 0 0.0054754151992809329 0.033268773475982706 0 0.0074478549968885937 0.036003520046555278 0 0.0086220501010163524 0.032839492090939011 0 0.0083213440839029987 0.032948568567726752 0 0.0083552373940659688 0.032999970433490781 0 0.0041556477430677976 0.03363567317231967 0 0.0054447981303082978 0.037159780160475234 0 0.0082580489904827883 0.034977517520708983 0 0.0054447981303082978 0.037159780160475234 0 0.0027367895725295393 0.036187942736924224 0 0.002561904969096859 0.039096935662822442 0 0.0041556477430677976 0.03363567317231967 0 0.0054447981303082978 0.037159780160475234 0 0.0027367895725295393 0.036187942736924224 0 0.0041556477430677976 0.03363567317231967 0 0.0027367895725295393 0.036187942736924224 0 8.8667422503828795e-05 0.035437420321298277 0 0.0027367895725295393 0.036187942736924224 0 8.8667422503828795e-05 0.035437420321298277 0 0.002561904969096859 0.039096935662822442 0 0.0074478549968885937 0.036003520046555278 0 0.0056179354749151447 0.042412766387335453 0 0.0094609480195126661 0.0333421808399154 0 0.0082580489904827883 0.034977517520708983 0 0.011358924267795042 0.034110058088690644 0 0.010582661892515373 0.032803105449677947 0 0.0094609480195126661 0.0333421808399154 0 0.011358924267795042 0.034110058088690644 0 0.010136442729021023 0.031818922146190164 0 0.010582661892515373 0.032803105449677947 0 0.0094609480195126661 0.0333421808399154 0 0.0082866130176341302 0.031915350516284011 0 0.010136442729021023 0.031818922146190164 0 0.0094609480195126661 0.0333421808399154 0 0.0082866130176341302 0.031915350516284011 0 0.0094609480195126661 0.0333421808399154 0 0.0082580489904827883 0.034977517520708983 0 0.0082866130176341302 0.031915350516284011 0 0.0041556477430677976 0.03363567317231967 0 0.0082580489904827883 0.034977517520708983 0 0.0092497622797121683 0.031963649365698787 0 0.0054754151992809329 0.033268773475982706 0 0.0054447981303082978 0.037159780160475234 0 0.0082580489904827883 0.034977517520708983 0 0.0081995179193110369 0.038402108137169738 0 0.0082580489904827883 0.034977517520708983 0 0.0096885462746585937 0.036836714324974228 0 0.0081995179193110369 0.038402108137169738 0 0.0096885462746585937 0.036836714324974228 0 0.011358924267795042 0.034110058088690644 0 0.011600130049565114 0.037839977422640836 0 0.0082580489904827883 0.034977517520708983 0 0.0096885462746585937 0.036836714324974228 0 0.011358924267795042 0.034110058088690644 0 0.013615089531700758 0.036795051344825247 0 0.011358924267795042 0.034110058088690644 0 0.015786552857216404 0.03547152419108289 0 0.013615089531700758 0.036795051344825247 0 0.011358924267795042 0.034110058088690644 0 0.011600130049565114 0.037839977422640836 0 0.011219134904475585 0.034034799771588943 0 0.014773414260455866 0.034511788332671767 0 0.011358924267795042 0.034110058088690644 0 0.012099113277553938 0.0326754049639277 0 0.012581873869882802 0.033512182645606535 0 0.011358924267795042 0.034110058088690644 0 0.011348363373695516 0.032616790647818576 0 0.012099113277553938 0.0326754049639277 0 0.010582661892515373 0.032803105449677947 0 0.011348363373695516 0.032616790647818576 0 0.010888809642136085 0.032089988383720902 0 0.010582661892515373 0.032803105449677947 0 0.011358924267795042 0.034110058088690644 0 0.011348363373695516 0.032616790647818576 0 0.012099113277553938 0.0326754049639277 0 0.012581873869882802 0.033512182645606535 0 0.012799092748342565 0.032457470493204445 0 0.013615089531700758 0.036795051344825247 0 0.015786552857216404 0.03547152419108289 0 0.016616393140037392 0.039330946402125665 0 0.014773414260455866 0.034511788332671767 0 0.013394353002003844 0.035743581229234427 0 0.015786552857216404 0.03547152419108289 0 0.01975140446817962 0.036554176055816207 0 0.016616393140037392 0.039330946402125665 0 0.012581873869882802 0.033512182645606535 0 0.013449026290489361 0.033478207176992736 0 0.013310283734095249 0.032813166851117286 0 0.013449026290489361 0.033478207176992736 0 0.013310283734095249 0.032813166851117286 0 0.013849398419834652 0.032948663371983863 0 0.0066611283932687514 0.03248688902916657 0 0.0079772814788189057 0.032828537791722762 0 0.0057062411664130864 0.033535627318647697 0 0.0061294362113872092 0.032351547179426114 0 0.0066611283932687514 0.03248688902916657 0 0.0057062411664130864 0.033535627318647697 0 0.0028488263315894838 0.037278387830465345 0 0.0067113100292502635 0.038825360105313747 0 0.0028488263315894838 0.037278387830465345 0 0.0065989232197268986 0.037681735549945868 0 0.010496545803396816 0.039182064482269831 0 0.01049757483280647 0.039057050824498736 0 0.010933781026295459 0.039296064912032691 0 0.0065989232197268986 0.037681735549945868 0 0.0067113100292502635 0.038825360105313747 0 0.0063262194795949142 0.037519930860843313 0 0.0061891544665879008 0.03748416033169269 0 0.0061893845552639373 0.037590025996410828 0 0.0065989232197268986 0.037681735549945868 0 0.013394353002003844 0.035743581229234427 0 0.013394353002003844 0.035743581229234427 0 0.0097031792462829777 0.033890097242131746 0 0.0079772814788189057 0.032828537791722762 0 0.0057062411664130864 0.033535627318647697 0 0.0054002105438212752 0.034944889000129577 0 0.013660794483234895 0.032545544739041025 0 0.013310283734095249 0.032813166851117286 0 0.013849398419834652 0.032948663371983863 0 0.013660794483234895 0.032545544739041025 0 0.013310283734095249 0.032813166851117286 0 0.013370096264851075 0.032208412246327707 0 0.012581873869882802 0.033512182645606535 0 0.013310283734095249 0.032813166851117286 0 0.012799092748342565 0.032457470493204445 0 0.013310283734095249 0.032813166851117286 0 0.012799092748342565 0.032457470493204445 0 0.013370096264851075 0.032208412246327707 0 0.012799092748342565 0.032457470493204445 0 0.013032531722742331 0.031754704465739254 0 0.013370096264851075 0.032208412246327707 0 0.013214553243694901 0.031179237938152009 0 0.011238702048097496 0.030710705022367231 0 0.013032531722742331 0.031754704465739254 0 0.013370096264851075 0.032208412246327707 0 0.013395063853966112 0.031649731092184975 0 0.012799092748342565 0.032457470493204445 0 0.013032531722742331 0.031754704465739254 0 0.012273360898553187 0.031633846243252092 0 0.013660794483234895 0.032545544739041025 0 0.013370096264851075 0.032208412246327707 0 0.013797920845059238 0.032125695217986729 0 0.013370096264851075 0.032208412246327707 0 0.013395063853966112 0.031649731092184975 0 0.013797920845059238 0.032125695217986729 0 0.011238702048097496 0.030710705022367231 0 0.010246558405107891 0.030618575250552248 0 0.0099698693691582883 0.028988697665692141 0 0.0099532943405226271 0.028667379771600367 0 0.0097027563728238776 0.028790115680377894 0 0.0086490214226511413 0.030794446110161199 0 0.006138297291944643 0.032178011816378277 0 0.0060834900886993946 0.028787056873495625 0 0.011238702048097496 0.030710705022367231 0 0.0080971946323076579 0.030358041772694529 0 0.01226602464751534 0.030204342589540963 0 0.013032531722742331 0.031754704465739254 0 0.013715611659463082 0.031357990189415208 0 0.0099698693691582883 0.028988697665692141 0 0.010347353696186685 0.028984886619308252 0 0.0099532943405226271 0.028667379771600367 0 0.011379484501249338 0.029523983514262893 0 0.011238702048097496 0.030710705022367231 0 0.01226602464751534 0.030204342589540963 0 0.011616725590786295 0.031000705963921925 0 0.012273360898553187 0.031633846243252092 0 0.01226602464751534 0.030204342589540963 0 0.013032531722742331 0.031754704465739254 0 0.012273360898553187 0.031633846243252092 0 0.010975049341555378 0.030405090889922104 0 0.011096636608690076 0.031127659491243295 0 0.011616725590786295 0.031000705963921925 0 0.010975049341555378 0.030405090889922104 0 0.01226602464751534 0.030204342589540963 0 0.011616725590786295 0.031000705963921925 0 0.011096636608690076 0.031127659491243295 0 0.011616725590786295 0.031000705963921925 0 0.011494976682862271 0.031726438926007912 0 0.011616725590786295 0.031000705963921925 0 0.011494976682862271 0.031726438926007912 0 0.012273360898553187 0.031633846243252092 0 0.010712031240586525 0.031317326128159885 0 0.011096636608690076 0.031127659491243295 0 0.011494976682862271 0.031726438926007912 0 0.011348363373695516 0.032616790647818576 0 0.011494976682862271 0.031726438926007912 0 0.010888809642136085 0.032089988383720902 0 0.010712031240586525 0.031317326128159885 0 0.011494976682862271 0.031726438926007912 0 0.010888809642136085 0.032089988383720902 0 0.011348363373695516 0.032616790647818576 0 0.012099113277553938 0.0326754049639277 0 0.011494976682862271 0.031726438926007912 0 0.012099113277553938 0.0326754049639277 0 0.011494976682862271 0.031726438926007912 0 0.012273360898553187 0.031633846243252092 0 0.012099113277553938 0.0326754049639277 0 0.012799092748342565 0.032457470493204445 0 0.012273360898553187 0.031633846243252092 0 0.019053259059865952 0.03272029363193793 0 0.018606777363560388 0.032639283536208819 0 0.018851423739500089 0.032550919964169089 0 0.016348126714356245 0.023692057126458287 0 0.014712333845599531 0.025464999114913588 0 0.012840544906559205 0.023239499011148104 0 0.017507203859893201 0.02812291817434948 0 0.015901622123436272 0.028503457000167664 0 0.014076089892360689 0.025548660602153966 0 0.015901622123436272 0.028503457000167664 0 0.014552999705952776 0.027117326572820375 0 0.014273317705560163 0.028261267079127683 0 0.013370848634362642 0.028026237934170601 0 0.014076089892360689 0.025548660602153966 0 0.016650189658395462 0.028272946708091308 0 0.017715101841043416 0.025867733584861878 0 0.016348126714356245 0.023692057126458287 0 0.014712333845599531 0.025464999114913588 0 0.017715101841043416 0.025867733584861878 0 0.014712333845599531 0.025464999114913588 0 0.01651455851670049 0.027984945726026257 0 0.018237987418572427 0.027546216293044684 0 0.017715101841043416 0.025867733584861878 0 0.01651455851670049 0.027984945726026257 0 0.01651455851670049 0.027984945726026257 0 0.016026633117682362 0.029206468400372332 0 0.015242658645324833 0.028735989189477507 0 0.018589951062112777 0.029293051803275232 0 0.01651455851670049 0.027984945726026257 0 0.016026633117682362 0.029206468400372332 0 0.018589951062112777 0.029293051803275232 0 0.016026633117682362 0.029206468400372332 0 0.015830937719444771 0.030441813480554941 0 0.016026633117682362 0.029206468400372332 0 0.015830937719444771 0.030441813480554941 0 0.014581800845849457 0.029426547606369109 0 0.018533735703426792 0.02923605552676092 0 0.016612444923208049 0.030869131473675596 0 0.018804356502305785 0.030873162574283255 0 0.018589951062112777 0.029293051803275232 0 0.017584226650765776 0.031080841786464121 0 0.015830937719444771 0.030441813480554941 0 0.013942288620345503 0.029926410249078359 0 0.014581800845849457 0.029426547606369109 0 0.013942288620345503 0.029926410249078359 0 0.014581800845849457 0.029426547606369109 0 0.01353380199202003 0.029286608143201585 0 0.016026633117682362 0.029206468400372332 0 0.014581800845849457 0.029426547606369109 0 0.015242658645324833 0.028735989189477507 0 0.014581800845849457 0.029426547606369109 0 0.014273317705560163 0.028261267079127683 0 0.01353380199202003 0.029286608143201585 0 0.014552999705952776 0.027117326572820375 0 0.01651455851670049 0.027984945726026257 0 0.014273317705560163 0.028261267079127683 0 0.01651455851670049 0.027984945726026257 0 0.015242658645324833 0.028735989189477507 0 0.014273317705560163 0.028261267079127683 0 0.014581800845849457 0.029426547606369109 0 0.015242658645324833 0.028735989189477507 0 0.014273317705560163 0.028261267079127683 0 0.014273317705560163 0.028261267079127683 0 0.013039049182811497 0.028771011472282438 0 0.013370848634362642 0.028026237934170601 0 0.014273317705560163 0.028261267079127683 0 0.013039049182811497 0.028771011472282438 0 0.01353380199202003 0.029286608143201585 0 0.013039049182811497 0.028771011472282438 0 0.012542900956905675 0.028476166232281084 0 0.013370848634362642 0.028026237934170601 0 0.013039049182811497 0.028771011472282438 0 0.01353380199202003 0.029286608143201585 0 0.012611948042565354 0.029410083949259574 0 0.01353380199202003 0.029286608143201585 0 0.013091599123070681 0.029772262694482788 0 0.012611948042565354 0.029410083949259574 0 0.012374913075866889 0.02978093577788998 0 0.013091599123070681 0.029772262694482788 0 0.012611948042565354 0.029410083949259574 0 0.013942288620345503 0.029926410249078359 0 0.01353380199202003 0.029286608143201585 0 0.013091599123070681 0.029772262694482788 0 0.012611948042565354 0.029410083949259574 0 0.012137440366736085 0.029080250480003761 0 0.011746062090857096 0.029635331279713111 0 0.012374913075866889 0.02978093577788998 0 0.012611948042565354 0.029410083949259574 0 0.011746062090857096 0.029635331279713111 0 0.013039049182811497 0.028771011472282438 0 0.012611948042565354 0.029410083949259574 0 0.012137440366736085 0.029080250480003761 0 0.012137440366736085 0.029080250480003761 0 0.012542900956905675 0.028476166232281084 0 0.01177743097905112 0.028681969101830584 0 0.013039049182811497 0.028771011472282438 0 0.012137440366736085 0.029080250480003761 0 0.012542900956905675 0.028476166232281084 0 0.012542900956905675 0.028476166232281084 0 0.012495944600174037 0.027797321655115413 0 0.01177743097905112 0.028681969101830584 0 0.012495944600174037 0.027797321655115413 0 0.01198417696205544 0.027196018741563067 0 0.011413899172506433 0.028137083159849315 0 0.012495944600174037 0.027797321655115413 0 0.011413899172506433 0.028137083159849315 0 0.01177743097905112 0.028681969101830584 0 0.012495944600174037 0.027797321655115413 0 0.01198417696205544 0.027196018741563067 0 0.012781237071663391 0.02695497255488068 0 0.012542900956905675 0.028476166232281084 0 0.012495944600174037 0.027797321655115413 0 0.013370848634362642 0.028026237934170601 0 0.012495944600174037 0.027797321655115413 0 0.013370848634362642 0.028026237934170601 0 0.013365434674680399 0.027219595925188907 0 0.014552999705952776 0.027117326572820375 0 0.013370848634362642 0.028026237934170601 0 0.013365434674680399 0.027219595925188907 0 0.012495944600174037 0.027797321655115413 0 0.013365434674680399 0.027219595925188907 0 0.012781237071663391 0.02695497255488068 0 0.013365434674680399 0.027219595925188907 0 0.01348350798855549 0.026361030602670935 0 0.012781237071663391 0.02695497255488068 0 0.01348350798855549 0.026361030602670935 0 0.012781237071663391 0.02695497255488068 0 0.012490336951415843 0.026256044061045744 0 0.014552999705952776 0.027117326572820375 0 0.013365434674680399 0.027219595925188907 0 0.01348350798855549 0.026361030602670935 0 0.015901622123436272 0.028503457000167664 0 0.015854244804651901 0.029125568798566741 0 0.01198417696205544 0.027196018741563067 0 0.011351669187439609 0.026101469511589582 0 0.012490336951415843 0.026256044061045744 0 0.01198417696205544 0.027196018741563067 0 0.012781237071663391 0.02695497255488068 0 0.012490336951415843 0.026256044061045744 0 0.01198417696205544 0.027196018741563067 0 0.010877434403589894 0.02717760591692002 0 0.011351669187439609 0.026101469511589582 0 0.010679153874065216 0.02811836754008358 0 0.012394623358523165 0.030222676670614936 0 0.010081569689696701 0.029392758735649359 0 0.010310931852420812 0.02985882826055241 0 0.0099775715093838573 0.029648322220793222 0 0.010081569689696701 0.029392758735649359 0 0.010383413695588848 0.02942696006468563 0 0.010310931852420812 0.02985882826055241 0 0.010484259827941255 0.028751579896402063 0 0.010404547276785619 0.029266798035762809 0 0.010383413695588848 0.02942696006468563 0 0.010679153874065216 0.02811836754008358 0 0.010426404907151443 0.028726319630535384 0 0.010081569689696701 0.029392758735649359 0 0.010484259827941255 0.028751579896402063 0 0.010383413695588848 0.02942696006468563 0 0.010484259827941255 0.028751579896402063 0 0.011413899172506433 0.028137083159849315 0 0.010940357233492312 0.02902331756421218 0 0.010877434403589894 0.02717760591692002 0 0.010484259827941255 0.028751579896402063 0 0.011413899172506433 0.028137083159849315 0 0.01198417696205544 0.027196018741563067 0 0.010877434403589894 0.02717760591692002 0 0.011413899172506433 0.028137083159849315 0 0.011413899172506433 0.028137083159849315 0 0.01177743097905112 0.028681969101830584 0 0.010940357233492312 0.02902331756421218 0 0.010940357233492312 0.02902331756421218 0 0.011331297210641645 0.029307640046153459 0 0.010798020102705511 0.029420172697033887 0 0.01177743097905112 0.028681969101830584 0 0.010940357233492312 0.02902331756421218 0 0.011331297210641645 0.029307640046153459 0 0.012137440366736085 0.029080250480003761 0 0.01177743097905112 0.028681969101830584 0 0.011331297210641645 0.029307640046153459 0 0.011331297210641645 0.029307640046153459 0 0.011746062090857096 0.029635331279713111 0 0.010984234622570536 0.029713605740752026 0 0.012137440366736085 0.029080250480003761 0 0.011331297210641645 0.029307640046153459 0 0.011746062090857096 0.029635331279713111 0 0.010798020102705511 0.029420172697033887 0 0.01052880286961475 0.029243721892039966 0 0.010531242498404123 0.02957398662892563 0 0.010984234622570536 0.029713605740752026 0 0.010798020102705511 0.029420172697033887 0 0.010531242498404123 0.02957398662892563 0 0.011331297210641645 0.029307640046153459 0 0.010984234622570536 0.029713605740752026 0 0.010798020102705511 0.029420172697033887 0 0.010484259827941255 0.028751579896402063 0 0.01052880286961475 0.029243721892039966 0 0.010404547276785619 0.029266798035762809 0 0.010940357233492312 0.02902331756421218 0 0.010798020102705511 0.029420172697033887 0 0.01052880286961475 0.029243721892039966 0 0.010484259827941255 0.028751579896402063 0 0.010940357233492312 0.02902331756421218 0 0.01052880286961475 0.029243721892039966 0 0.01052880286961475 0.029243721892039966 0 0.010359796942112148 0.029437196630879323 0 0.010404547276785619 0.029266798035762809 0 0.010359796942112148 0.029437196630879323 0 0.010331462420208085 0.029488520148555724 0 0.010404547276785619 0.029266798035762809 0 0.01052880286961475 0.029243721892039966 0 0.010359796942112148 0.029437196630879323 0 0.010531242498404123 0.02957398662892563 0 0.010359796942112148 0.029437196630879323 0 0.010531242498404123 0.02957398662892563 0 0.010299084610301341 0.029638470724771167 0 0.010359796942112148 0.029437196630879323 0 0.010299084610301341 0.029638470724771167 0 0.01025614298782258 0.029538524815046326 0 0.01019526180034858 0.029624872458185153 0 0.010299084610301341 0.029638470724771167 0 0.01025614298782258 0.029538524815046326 0 0.010359796942112148 0.029437196630879323 0 0.01025614298782258 0.029538524815046326 0 0.010331462420208085 0.029488520148555724 0 0.010369452425463967 0.029739676266412378 0 0.010331462420208085 0.029488520148555724 0 0.010380924479857001 0.029592920580414524 0 0.010404547276785619 0.029266798035762809 0 0.010383413695588848 0.02942696006468563 0 0.010380924479857001 0.029592920580414524 0 0.010331462420208085 0.029488520148555724 0 0.010404547276785619 0.029266798035762809 0 0.010380924479857001 0.029592920580414524 0 0.010383413695588848 0.02942696006468563 0 0.010380924479857001 0.029592920580414524 0 0.010310931852420812 0.02985882826055241 0 0.010380924479857001 0.029592920580414524 0 0.010423154269058129 0.029949755137666741 0 0.010310931852420812 0.02985882826055241 0 0.010369452425463967 0.029739676266412378 0 0.010380924479857001 0.029592920580414524 0 0.010423154269058129 0.029949755137666741 0 0.010541702610146695 0.030525932755086395 0 0.010713980170244259 0.030871396409028102 0 0.010741018134819579 0.030970931380942063 0 0.010541702610146695 0.030525932755086395 0 0.010423154269058129 0.029949755137666741 0 0.010310931852420812 0.02985882826055241 0 0.010840314960874531 0.030537393715419546 0 0.0099587648040076852 0.030325670255271261 0 0.010713980170244259 0.030871396409028102 0 0.010741018134819579 0.030970931380942063 0 0.010613706967011518 0.031093505400848143 0 0.010741018134819579 0.030970931380942063 0 0.010670269334627008 0.031280827139858546 0 0.010613706967011518 0.031093505400848143 0 0.010741018134819579 0.030970931380942063 0 0.010670269334627008 0.031280827139858546 0 0.010780968686582236 0.031290419635817683 0 0.010741018134819579 0.030970931380942063 0 0.01087723794860317 0.03112438763662408 0 0.010780968686582236 0.031290419635817683 0 0.010741018134819579 0.030970931380942063 0 0.010664385059281391 0.03085758159690238 0 0.01087723794860317 0.03112438763662408 0 0.010541702610146695 0.030525932755086395 0 0.010741018134819579 0.030970931380942063 0 0.010664385059281391 0.03085758159690238 0 0.0083213440839029987 0.032948568567726752 0 0.0081160079166715804 0.033006771358922757 0 0.0081665005096625727 0.033097413799619183 0 0.010550444423601615 0.030738014294047954 0 0.010664385059281391 0.03085758159690238 0 0.010757361070439763 0.030951373473057514 0 0.010664385059281391 0.03085758159690238 0 0.010757361070439763 0.030951373473057514 0 0.01087723794860317 0.03112438763662408 0 0.0098433879704971725 0.032102396402359866 0 0.0074478549968885937 0.036003520046555278 0 0.011240516414122326 0.0315514527124999 0 0.011550096540623628 0.032060818640089639 0 0.010977989119735077 0.031892737759235248 0 0.0083969417538862397 0.04402603283964944 0 0.0085788435650156671 0.043495884393209949 0 0.0081022048806647373 0.043910419795412048 0 0.0083969417538862397 0.04402603283964944 0 0.0085788435650156671 0.043495884393209949 0 0.0093749679962665082 0.044651880244134384 0 0.0074478549968885937 0.036003520046555278 0 0.0098337811150964686 0.038329380198329745 0 0.011550096540623628 0.032060818640089639 0 0.010839199025069565 0.032460124830215785 0 0.010977989119735077 0.031892737759235248 0 0.010839199025069565 0.032460124830215785 0 0.01079713508461836 0.032100792681114855 0 0.010646942290047957 0.032181732702792842 0 0.010839199025069565 0.032460124830215785 0 0.01079713508461836 0.032100792681114855 0 0.010977989119735077 0.031892737759235248 0 0.010733744377782489 0.031846247060241591 0 0.01082006338310053 0.031614736548031409 0 0.010977989119735077 0.031892737759235248 0 0.01079713508461836 0.032100792681114855 0 0.010733744377782489 0.031846247060241591 0 0.010977989119735077 0.031892737759235248 0 0.010733744377782489 0.031846247060241591 0 0.01082006338310053 0.031614736548031409 0 0.010653313837717063 0.031577044415163236 0 0.01082006338310053 0.031614736548031409 0 0.010977989119735077 0.031892737759235248 0 0.010959621369392053 0.031536658786703795 0 0.011240516414122326 0.0315514527124999 0 0.010977989119735077 0.031892737759235248 0 0.010959621369392053 0.031536658786703795 0 0.01118642935623357 0.031447923433550372 0 0.010959621369392053 0.031536658786703795 0 0.01087723794860317 0.03112438763662408 0 0.0098433879704971725 0.032102396402359866 0 0.010096929510224169 0.031802532999706215 0 0.0098433879704971725 0.032102396402359866 0 0.010657437958735309 0.031874389265848381 0 0.01082006338310053 0.031614736548031409 0 0.010959621369392053 0.031536658786703795 0 0.010780968686582236 0.031290419635817683 0 0.010959621369392053 0.031536658786703795 0 0.01087723794860317 0.03112438763662408 0 0.010780968686582236 0.031290419635817683 0 0.01082006338310053 0.031614736548031409 0 0.010780968686582236 0.031290419635817683 0 0.010653313837717063 0.031577044415163236 0 0.010670269334627008 0.031280827139858546 0 0.010780968686582236 0.031290419635817683 0 0.010653313837717063 0.031577044415163236 0 0.010670269334627008 0.031280827139858546 0 0.010532636222594255 0.03146811434978445 0 0.010653313837717063 0.031577044415163236 0 0.010532636222594255 0.03146811434978445 0 0.010653313837717063 0.031577044415163236 0 0.010508876049467977 0.031803747095095293 0 0.01034548278639612 0.031517735158014371 0 0.010508876049467977 0.031803747095095293 0 0.010233913596833458 0.031818344590376212 0 0.010532636222594255 0.03146811434978445 0 0.01034548278639612 0.031517735158014371 0 0.010508876049467977 0.031803747095095293 0 0.010508876049467977 0.031803747095095293 0 0.010646942290047957 0.032181732702792842 0 0.010394616767810429 0.032139500033789715 0 0.010508876049467977 0.031803747095095293 0 0.010394616767810429 0.032139500033789715 0 0.010233913596833458 0.031818344590376212 0 0.010733744377782489 0.031846247060241591 0 0.010508876049467977 0.031803747095095293 0 0.010646942290047957 0.032181732702792842 0 0.010733744377782489 0.031846247060241591 0 0.010653313837717063 0.031577044415163236 0 0.010508876049467977 0.031803747095095293 0 0.01079713508461836 0.032100792681114855 0 0.010733744377782489 0.031846247060241591 0 0.010646942290047957 0.032181732702792842 0 0.010394616767810429 0.032139500033789715 0 0.01051375055263081 0.032525845232754348 0 0.010266663825582103 0.032418338438566847 0 0.010646942290047957 0.032181732702792842 0 0.010394616767810429 0.032139500033789715 0 0.01051375055263081 0.032525845232754348 0 0.0098337811150964686 0.038329380198329745 0 0.010393170424678605 0.038218863584553377 0 0.010839199025069565 0.032460124830215785 0 0.010646942290047957 0.032181732702792842 0 0.01051375055263081 0.032525845232754348 0 0.010839199025069565 0.032460124830215785 0 0.01051375055263081 0.032525845232754348 0 0.010583247464450099 0.032866658684646721 0 0.0098674024849249378 0.032762990284933104 0 0.010124949546757784 0.033058518595220375 0 0.0097417481969947518 0.033227678584843226 0 0.010152771744655262 0.032705571847480547 0 0.0098674024849249378 0.032762990284933104 0 0.010124949546757784 0.033058518595220375 0 0.010152771744655262 0.032705571847480547 0 0.0098674024849249378 0.032762990284933104 0 0.0099864661977175483 0.032406341721038602 0 0.010152771744655262 0.032705571847480547 0 0.010124949546757784 0.033058518595220375 0 0.010322315546065343 0.032769419799459992 0 0.01051375055263081 0.032525845232754348 0 0.010322315546065343 0.032769419799459992 0 0.010478972311332529 0.033166819539336777 0 0.01051375055263081 0.032525845232754348 0 0.010322315546065343 0.032769419799459992 0 0.010266663825582103 0.032418338438566847 0 0.010152771744655262 0.032705571847480547 0 0.010322315546065343 0.032769419799459992 0 0.010266663825582103 0.032418338438566847 0 0.010394616767810429 0.032139500033789715 0 0.010266663825582103 0.032418338438566847 0 0.010125784656307483 0.032107088964330406 0 0.010266663825582103 0.032418338438566847 0 0.0099864661977175483 0.032406341721038602 0 0.010125784656307483 0.032107088964330406 0 0.0099864661977175483 0.032406341721038602 0 0.010125784656307483 0.032107088964330406 0 0.0097585547417678754 0.032091824879783959 0 0.010152771744655262 0.032705571847480547 0 0.010266663825582103 0.032418338438566847 0 0.0099864661977175483 0.032406341721038602 0 0.0098674024849249378 0.032762990284933104 0 0.0099864661977175483 0.032406341721038602 0 0.0096661109988427397 0.032412865243349576 0 0.0099864661977175483 0.032406341721038602 0 0.0097585547417678754 0.032091824879783959 0 0.0096661109988427397 0.032412865243349576 0 0.0099378296808185791 0.031842053082133275 0 0.010125784656307483 0.032107088964330406 0 0.0097585547417678754 0.032091824879783959 0 0.0099378296808185791 0.031842053082133275 0 0.010233913596833458 0.031818344590376212 0 0.010125784656307483 0.032107088964330406 0 0.010394616767810429 0.032139500033789715 0 0.010233913596833458 0.031818344590376212 0 0.010125784656307483 0.032107088964330406 0 0.01034548278639612 0.031517735158014371 0 0.010233913596833458 0.031818344590376212 0 0.010096446963600942 0.031529547676764497 0 0.0099378296808185791 0.031842053082133275 0 0.010233913596833458 0.031818344590376212 0 0.010096446963600942 0.031529547676764497 0 0.0099378296808185791 0.031842053082133275 0 0.009869864450152489 0.031547190293172565 0 0.0095988752271551694 0.031857868408881759 0 0.0099378296808185791 0.031842053082133275 0 0.010096446963600942 0.031529547676764497 0 0.009869864450152489 0.031547190293172565 0 0.010007194199644943 0.031327622101895408 0 0.010106118121897236 0.031051374387847087 0 0.0097202441687206566 0.031288439947381785 0 0.010106118121897236 0.031051374387847087 0 0.010104529801191227 0.030669436737059262 0 0.0097202441687206566 0.031288439947381785 0 0.009869864450152489 0.031547190293172565 0 0.010007194199644943 0.031327622101895408 0 0.0097202441687206566 0.031288439947381785 0 0.010096446963600942 0.031529547676764497 0 0.009869864450152489 0.031547190293172565 0 0.010007194199644943 0.031327622101895408 0 0.010106118121897236 0.031051374387847087 0 0.010224690708544745 0.031270713726183105 0 0.010400174631762881 0.031010143902133021 0 0.01034548278639612 0.031517735158014371 0 0.010096446963600942 0.031529547676764497 0 0.010224690708544745 0.031270713726183105 0 0.010007194199644943 0.031327622101895408 0 0.010106118121897236 0.031051374387847087 0 0.010224690708544745 0.031270713726183105 0 0.010096446963600942 0.031529547676764497 0 0.010007194199644943 0.031327622101895408 0 0.010224690708544745 0.031270713726183105 0 0.01034548278639612 0.031517735158014371 0 0.010224690708544745 0.031270713726183105 0 0.010447537612128972 0.031266479777498614 0 0.010532636222594255 0.03146811434978445 0 0.01034548278639612 0.031517735158014371 0 0.010447537612128972 0.031266479777498614 0 0.010447537612128972 0.031266479777498614 0 0.010571334676148734 0.031277280993847821 0 0.010613706967011518 0.031093505400848143 0 0.010670269334627008 0.031280827139858546 0 0.010571334676148734 0.031277280993847821 0 0.010613706967011518 0.031093505400848143 0 0.010670269334627008 0.031280827139858546 0 0.010532636222594255 0.03146811434978445 0 0.010571334676148734 0.031277280993847821 0 0.010532636222594255 0.03146811434978445 0 0.010447537612128972 0.031266479777498614 0 0.010571334676148734 0.031277280993847821 0 0.010447537612128972 0.031266479777498614 0 0.010613706967011518 0.031093505400848143 0 0.010400174631762881 0.031010143902133021 0 0.010224690708544745 0.031270713726183105 0 0.010447537612128972 0.031266479777498614 0 0.010400174631762881 0.031010143902133021 0 0.0099587648040076852 0.030325670255271261 0 0.012394623358523165 0.030222676670614936 0 0.010713980170244259 0.030871396409028102 0 0.010400174631762881 0.031010143902133021 0 0.010104529801191227 0.030669436737059262 0 0.010713980170244259 0.030871396409028102 0 0.010613706967011518 0.031093505400848143 0 0.010400174631762881 0.031010143902133021 0 0.012394623358523165 0.030222676670614936 0 0.014480405649279049 0.032210476014527839 0 0.01910475201403453 0.031997068289172613 0 0.018780166664806832 0.032320553895336342 0 0.018770241329190571 0.032851294395697582 0 0.010106118121897236 0.031051374387847087 0 0.010400174631762881 0.031010143902133021 0 0.010104529801191227 0.030669436737059262 0 0.012394623358523165 0.030222676670614936 0 0.015854244804651901 0.029125568798566741 0 0.017744475851783369 0.031688526480882641 0 0.018496717026413381 0.031826655012986843 0 0.018673621080460688 0.032659847318383554 0 0.018780166664806832 0.032320553895336342 0 0.018496717026413381 0.031826655012986843 0 0.018673621080460688 0.032659847318383554 0 0.01910475201403453 0.031997068289172613 0 0.018780166664806832 0.032320553895336342 0 0.018496717026413381 0.031826655012986843 0 0.018606777363560388 0.032639283536208819 0 0.018621239833008341 0.03262439490179328 0 0.018673621080460688 0.032659847318383554 0 0.015901622123436272 0.028503457000167664 0 0.01971251313273336 0.034163422262172428 0 0.018606777363560388 0.032639283536208819 0 0.018621239833008341 0.03262439490179328 0 0.018851423739500089 0.032550919964169089 0 0.018621239833008341 0.03262439490179328 0 0.01864557123843966 0.032758264566026686 0 0.018673621080460688 0.032659847318383554 0 0.018621239833008341 0.03262439490179328 0 0.01864557123843966 0.032758264566026686 0 0.018632179388427247 0.032838377878651327 0 0.01864557123843966 0.032758264566026686 0 0.018654106390830739 0.032855194443147225 0 0.01867261092501659 0.032818011088713198 0 0.01864557123843966 0.032758264566026686 0 0.018632179388427247 0.032838377878651327 0 0.018654106390830739 0.032855194443147225 0 0.01867261092501659 0.032818011088713198 0 0.018770241329190571 0.032851294395697582 0 0.018675741225418378 0.032922985846077564 0 0.01864557123843966 0.032758264566026686 0 0.01867261092501659 0.032818011088713198 0 0.018673621080460688 0.032659847318383554 0 0.018780166664806832 0.032320553895336342 0 0.018673621080460688 0.032659847318383554 0 0.018770241329190571 0.032851294395697582 0 0.01867261092501659 0.032818011088713198 0 0.018673621080460688 0.032659847318383554 0 0.018770241329190571 0.032851294395697582 0 0.018770241329190571 0.032851294395697582 0 0.018675741225418378 0.032922985846077564 0 0.018628353252277872 0.033029489308928218 0 0.0097202441687206566 0.031288439947381785 0 0.0095988752271551694 0.031857868408881759 0 0.009085601510291549 0.032277936018107987 0 0.009869864450152489 0.031547190293172565 0 0.0097202441687206566 0.031288439947381785 0 0.0095988752271551694 0.031857868408881759 0 0.014480405649279049 0.032210476014527839 0 0.013826463565455175 0.032645550018346965 0 0.018654106390830739 0.032855194443147225 0 0.01867261092501659 0.032818011088713198 0 0.018675741225418378 0.032922985846077564 0 0.018675741225418378 0.032922985846077564 0 0.018628353252277872 0.033029489308928218 0 0.01867704743821872 0.032978382716335609 0 0.0099378296808185791 0.031842053082133275 0 0.0095988752271551694 0.031857868408881759 0 0.0097585547417678754 0.032091824879783959 0 0.0095988752271551694 0.031857868408881759 0 0.0095037648649428062 0.032206603750547222 0 0.009085601510291549 0.032277936018107987 0 0.0095988752271551694 0.031857868408881759 0 0.0097585547417678754 0.032091824879783959 0 0.0095037648649428062 0.032206603750547222 0 0.0097585547417678754 0.032091824879783959 0 0.0096661109988427397 0.032412865243349576 0 0.0095037648649428062 0.032206603750547222 0 0.0096661109988427397 0.032412865243349576 0 0.0093830709583027187 0.032417568703330076 0 0.0093919211693227599 0.032815906200328072 0 0.0096661109988427397 0.032412865243349576 0 0.0095037648649428062 0.032206603750547222 0 0.0093830709583027187 0.032417568703330076 0 0.0095037648649428062 0.032206603750547222 0 0.009085601510291549 0.032277936018107987 0 0.0093830709583027187 0.032417568703330076 0 0.009085601510291549 0.032277936018107987 0 0.0093830709583027187 0.032417568703330076 0 0.0093919211693227599 0.032815906200328072 0 0.009085601510291549 0.032277936018107987 0 0.0093919211693227599 0.032815906200328072 0 0.0089527743461542356 0.033333023632580755 0 0.0093919211693227599 0.032815906200328072 0 0.0089527743461542356 0.033333023632580755 0 0.0093908386731784629 0.033380658763052413 0 0.0098674024849249378 0.032762990284933104 0 0.0093919211693227599 0.032815906200328072 0 0.0097417481969947518 0.033227678584843226 0 0.0093919211693227599 0.032815906200328072 0 0.0097417481969947518 0.033227678584843226 0 0.0093908386731784629 0.033380658763052413 0 0.0098674024849249378 0.032762990284933104 0 0.0096661109988427397 0.032412865243349576 0 0.0093919211693227599 0.032815906200328072 0 0.019081121518591274 0.032810841210171415 0 0.018714624439084358 0.033017021597106545 0 0.019936863299068488 0.033068423534140447 0 0.013826463565455175 0.032645550018346965 0 0.013542620133599156 0.033490339280474186 0 0.018628353252277872 0.033029489308928218 0 0.019081121518591274 0.032810841210171415 0 0.018900463589392204 0.032369409620132808 0 0.009085601510291549 0.032277936018107987 0 0.0089527743461542356 0.033333023632580755 0 0.0080372211719367728 0.034548956758521258 0 0.018628353252277872 0.033029489308928218 0 0.019081121518591274 0.032810841210171415 0 0.018714624439084358 0.033017021597106545 0 0.018628353252277872 0.033029489308928218 0 0.018714624439084358 0.033017021597106545 0 0.01867704743821872 0.032978382716335609 0 0.018714624439084358 0.033017021597106545 0 0.018664699227310351 0.032916244581395783 0 0.018649527017665674 0.032890603393556532 0 0.018675741225418378 0.032922985846077564 0 0.01867704743821872 0.032978382716335609 0 0.018664699227310351 0.032916244581395783 0 0.018714624439084358 0.033017021597106545 0 0.01867704743821872 0.032978382716335609 0 0.018664699227310351 0.032916244581395783 0 0.018654106390830739 0.032855194443147225 0 0.018675741225418378 0.032922985846077564 0 0.018664699227310351 0.032916244581395783 0 0.018632179388427247 0.032838377878651327 0 0.018654106390830739 0.032855194443147225 0 0.018664699227310351 0.032916244581395783 0 0.018632179388427247 0.032838377878651327 0 0.018664699227310351 0.032916244581395783 0 0.018649527017665674 0.032890603393556532 0 0.018649527017665674 0.032890603393556532 0 0.018754521828705614 0.032861770988223953 0 0.018638327807206444 0.032892432830056349 0 0.018649527017665674 0.032890603393556532 0 0.018668158458810542 0.032729709233554019 0 0.018754521828705614 0.032861770988223953 0 0.018768600591529815 0.033027205821950789 0 0.019396135369576285 0.032832764404032405 0 0.018714624439084358 0.033017021597106545 0 0.018649527017665674 0.032890603393556532 0 0.018668158458810542 0.032729709233554019 0 0.018994643612158354 0.032706626788701704 0 0.018668158458810542 0.032729709233554019 0 0.018754521828705614 0.032861770988223953 0 0.018920720833590129 0.032926874490928765 0 0.018754521828705614 0.032861770988223953 0 0.018638327807206444 0.032892432830056349 0 0.018920720833590129 0.032926874490928765 0 0.018994643612158354 0.032706626788701704 0 0.018754521828705614 0.032861770988223953 0 0.019379593403991622 0.032147260647355791 0 0.019337387951998394 0.031805111295170031 0 0.018918820313276963 0.032179050774867338 0 0.018736688141539427 0.0325650143782008 0 0.018883517060958994 0.03247323678681447 0 0.019379593403991622 0.032147260647355791 0 0.018918820313276963 0.032179050774867338 0 0.019234840377275936 0.032413289893237357 0 0.018632179388427247 0.032838377878651327 0 0.018649527017665674 0.032890603393556532 0 0.018638327807206444 0.032892432830056349 0 0.018611350336553412 0.032633687968881213 0 0.018883517060958994 0.03247323678681447 0 0.018621239833008341 0.03262439490179328 0 0.018632179388427247 0.032838377878651327 0 0.018638327807206444 0.032892432830056349 0 0.018621239833008341 0.03262439490179328 0 0.018918820313276963 0.032179050774867338 0 0.018851423739500089 0.032550919964169089 0 0.019396062005357748 0.032573327993842029 0 0.019053259059865952 0.03272029363193793 0 0.019234840377275936 0.032413289893237357 0 0.019053259059865952 0.03272029363193793 0 0.018851423739500089 0.032550919964169089 0 0.019234840377275936 0.032413289893237357 0 0.018918820313276963 0.032179050774867338 0 0.018851423739500089 0.032550919964169089 0 0.019234840377275936 0.032413289893237357 0 0.023011553803898445 0.028416607153736992 0 0.016740156000678231 0.036365798727025389 0 0.021698767576039689 0.028826350451452286 0 0.020091841196102654 0.029134374295240049 0 0.021058512768440247 0.030037945749869961 0 0.016740156000678231 0.036365798727025389 0 0.012663775727598201 0.045577339243446729 0 0.016740156000678231 0.036365798727025389 0 0.013010872713337507 0.034128672344113146 0 0.0068261154854691863 0.040179989865022497 0 0.0073250612749950813 0.037928790594708134 0 0.0085579041047250323 0.040013593354717776 0 0.020091841196102654 0.029134374295240049 0 0.019388794067132762 0.030890694380558106 0 0.021058512768440247 0.030037945749869961 0 0.022017520255070904 0.030636321712731538 0 0.021058512768440247 0.030037945749869961 0 0.021066194150008537 0.031285559971843298 0 0.019388794067132762 0.030890694380558106 0 0.021058512768440247 0.030037945749869961 0 0.021066194150008537 0.031285559971843298 0 0.021684904839886172 0.032540836011131197 0 0.021066194150008537 0.031285559971843298 0 0.019932894326979846 0.031984837312399046 0 0.020093218670498368 0.032668916007479877 0 0.019396135369576285 0.032832764404032405 0 0.021684904839886172 0.032540836011131197 0 0.019936863299068488 0.033068423534140447 0 0.019932894326979846 0.031984837312399046 0 0.018977635508235051 0.032428656588270835 0 0.018994643612158354 0.032706626788701704 0 0.018668158458810542 0.032729709233554019 0 0.019936863299068488 0.033068423534140447 0 0.019436489792781966 0.032573651215389916 0 0.019932894326979846 0.031984837312399046 0 0.019436489792781966 0.032573651215389916 0 0.019932894326979846 0.031984837312399046 0 0.018900463589392204 0.032369409620132808 0 0.019081121518591274 0.032810841210171415 0 0.019936863299068488 0.033068423534140447 0 0.019436489792781966 0.032573651215389916 0 0.019388794067132762 0.030890694380558106 0 0.019932894326979846 0.031984837312399046 0 0.018900463589392204 0.032369409620132808 0 0.019388794067132762 0.030890694380558106 0 0.021066194150008537 0.031285559971843298 0 0.019932894326979846 0.031984837312399046 0 0.0073250612749950813 0.037928790594708134 0 0.0088055104455812445 0.036280172677760604 0 0.0080372211719367728 0.034548956758521258 0 0.013010872713337507 0.034128672344113146 0 0.013542620133599156 0.033490339280474186 0 0.0088055104455812445 0.036280172677760604 0 0.010023337385676631 0.037944454046440632 0 0.0086621159675840144 0.038063485006633674 0 0.0088055104455812445 0.036280172677760604 0 0.0086853216455993337 0.035217283830430053 0 0.0080372211719367728 0.034548956758521258 0 0.0088055104455812445 0.036280172677760604 0 0.0086853216455993337 0.035217283830430053 0 0.0091638169133453282 0.034379644054076536 0 0.0086853216455993337 0.035217283830430053 0 0.0088140244987444192 0.034204603090806314 0 0.0080372211719367728 0.034548956758521258 0 0.0086853216455993337 0.035217283830430053 0 0.0088140244987444192 0.034204603090806314 0 0.0091638169133453282 0.034379644054076536 0 0.0089527743461542356 0.033333023632580755 0 0.0088140244987444192 0.034204603090806314 0 0.0080372211719367728 0.034548956758521258 0 0.019081121518591274 0.032810841210171415 0 0.019436489792781966 0.032573651215389916 0 0.018900463589392204 0.032369409620132808 0 0.0097417481969947518 0.033227678584843226 0 0.0095534821341682376 0.033854034563143134 0 0.0099210490687509072 0.033596892161726205 0 0.0097417481969947518 0.033227678584843226 0 0.0095534821341682376 0.033854034563143134 0 0.0093908386731784629 0.033380658763052413 0 0.0089527743461542356 0.033333023632580755 0 0.0088140244987444192 0.034204603090806314 0 0.0091911726640071523 0.033874510633314349 0 0.0089527743461542356 0.033333023632580755 0 0.0093908386731784629 0.033380658763052413 0 0.0091911726640071523 0.033874510633314349 0 0.0095534821341682376 0.033854034563143134 0 0.0091911726640071523 0.033874510633314349 0 0.0093733516538526216 0.034202480894354723 0 0.0095534821341682376 0.033854034563143134 0 0.0093908386731784629 0.033380658763052413 0 0.0091911726640071523 0.033874510633314349 0 0.0095534821341682376 0.033854034563143134 0 0.0093733516538526216 0.034202480894354723 0 0.009613746537243166 0.034739553746119603 0 0.0093733516538526216 0.034202480894354723 0 0.0091638169133453282 0.034379644054076536 0 0.009613746537243166 0.034739553746119603 0 0.0091911726640071523 0.033874510633314349 0 0.0093733516538526216 0.034202480894354723 0 0.0091638169133453282 0.034379644054076536 0 0.0088140244987444192 0.034204603090806314 0 0.0091911726640071523 0.033874510633314349 0 0.0091638169133453282 0.034379644054076536 0 0.0095534821341682376 0.033854034563143134 0 0.0099210490687509072 0.033596892161726205 0 0.009613746537243166 0.034739553746119603 0 0.0088055104455812445 0.036280172677760604 0 0.0091638169133453282 0.034379644054076536 0 0.012118493216281499 0.037833706561001781 0 0.0088055104455812445 0.036280172677760604 0 0.010023337385676631 0.037944454046440632 0 0.012118493216281499 0.037833706561001781 0 0.0091638169133453282 0.034379644054076536 0 0.009613746537243166 0.034739553746119603 0 0.010741695360477014 0.037027290914484298 0 0.0093102875678550429 0.034558015544026155 0 0.011380955607459182 0.037465741256938176 0 0.0094117019896003771 0.036833183724629591 0 0.01405782480953224 0.044102122785123481 0 0.009402100104317827 0.039081353985210961 0 0.010023337385676631 0.037944454046440632 0 0.010504267932940922 0.039796188511025746 0 0.011255091447250856 0.039724976472233706 0 0.010023337385676631 0.037944454046440632 0 0.011041732005895387 0.042016581477464211 0 0.011255091447250856 0.039724976472233706 0 0.010023337385676631 0.037944454046440632 0 0.012118493216281499 0.037833706561001781 0 0.009402100104317827 0.039081353985210961 0 0.010023337385676631 0.037944454046440632 0 0.0086621159675840144 0.038063485006633674 0 0.0073250612749950813 0.037928790594708134 0 0.0086621159675840144 0.038063485006633674 0 0.0085579041047250323 0.040013593354717776 0 0.009402100104317827 0.039081353985210961 0 0.0086621159675840144 0.038063485006633674 0 0.0085579041047250323 0.040013593354717776 0 0.0073250612749950813 0.037928790594708134 0 0.0088055104455812445 0.036280172677760604 0 0.0086621159675840144 0.038063485006633674 0 0.018454084928841489 0.050015979796157177 0 0.017085734910992481 0.050199890872220251 0 0.017607663825247671 0.04896237257082782 0 0.009402100104317827 0.039081353985210961 0 0.0085579041047250323 0.040013593354717776 0 0.010504267932940922 0.039796188511025746 0 0.012663775727598201 0.045577339243446729 0 0.01405782480953224 0.044102122785123481 0 0.011255091447250856 0.039724976472233706 0 0.011041732005895387 0.042016581477464211 0 0.01147950113697698 0.041145823066782078 0 0.012359812797458193 0.040859857572667586 0 0.013032723510167189 0.042279033212258503 0 0.014632596988461576 0.042261887886492329 0 0.011041732005895387 0.042016581477464211 0 0.012359812797458193 0.040859857572667586 0 0.013032723510167189 0.042279033212258503 0 0.011041732005895387 0.042016581477464211 0 0.01147950113697698 0.041145823066782078 0 0.012359812797458193 0.040859857572667586 0 0.011041732005895387 0.042016581477464211 0 0.013032723510167189 0.042279033212258503 0 0.013040717930925757 0.043480158703244544 0 0.013032723510167189 0.042279033212258503 0 0.014632596988461576 0.042261887886492329 0 0.013040717930925757 0.043480158703244544 0 0.01265654419594695 0.039811462548694866 0 0.014335929921938016 0.037852550857362083 0 0.015277760355466304 0.039589365998297932 0 0.01265654419594695 0.039811462548694866 0 0.012724620472925982 0.036854816950937321 0 0.014335929921938016 0.037852550857362083 0 0.012359812797458193 0.040859857572667586 0 0.014632596988461576 0.042261887886492329 0 0.012118493216281499 0.037833706561001781 0 0.013726230068079517 0.04077497504772698 0 0.011380955607459182 0.037465741256938176 0 0.01265654419594695 0.039811462548694866 0 0.010741695360477014 0.037027290914484298 0 0.012724620472925982 0.036854816950937321 0 0.011255091447250856 0.039724976472233706 0 0.012359812797458193 0.040859857572667586 0 0.012118493216281499 0.037833706561001781 0 0.011255091447250856 0.039724976472233706 0 0.01147950113697698 0.041145823066782078 0 0.012359812797458193 0.040859857572667586 0 0.009613746537243166 0.034739553746119603 0 0.011268415887219224 0.035580894392895204 0 0.011574222822746843 0.034806205914300885 0 0.009613746537243166 0.034739553746119603 0 0.010741695360477014 0.037027290914484298 0 0.011268415887219224 0.035580894392895204 0 0.010741695360477014 0.037027290914484298 0 0.011787439818502247 0.036228977136844344 0 0.012724620472925982 0.036854816950937321 0 0.010741695360477014 0.037027290914484298 0 0.011787439818502247 0.036228977136844344 0 0.011268415887219224 0.035580894392895204 0 0.011268415887219224 0.035580894392895204 0 0.011574222822746843 0.034806205914300885 0 0.012403566866226951 0.035476278450233448 0 0.011787439818502247 0.036228977136844344 0 0.011268415887219224 0.035580894392895204 0 0.012403566866226951 0.035476278450233448 0 0.0099210490687509072 0.033596892161726205 0 0.009613746537243166 0.034739553746119603 0 0.010478972311332529 0.033166819539336777 0 0.009613746537243166 0.034739553746119603 0 0.011574222822746843 0.034806205914300885 0 0.011992298784826131 0.033883010968634893 0 0.0095872665711816737 0.034419324248519075 0 0.011509778655854239 0.034611815361344354 0 0.011574222822746843 0.034806205914300885 0 0.011992298784826131 0.033883010968634893 0 0.012624166600647508 0.034558514602438715 0 0.011574222822746843 0.034806205914300885 0 0.012624166600647508 0.034558514602438715 0 0.012403566866226951 0.035476278450233448 0 0.010124949546757784 0.033058518595220375 0 0.010322315546065343 0.032769419799459992 0 0.010478972311332529 0.033166819539336777 0 0.010124949546757784 0.033058518595220375 0 0.0099210490687509072 0.033596892161726205 0 0.010478972311332529 0.033166819539336777 0 0.010124949546757784 0.033058518595220375 0 0.0097417481969947518 0.033227678584843226 0 0.0099210490687509072 0.033596892161726205 0 0.012624166600647508 0.034558514602438715 0 0.012403566866226951 0.035476278450233448 0 0.01433226341603212 0.035078834597378455 0 0.0081022048806647373 0.043910419795412048 0 0.0079821001679946432 0.04395109854696904 0 0.0081396547844023361 0.044151135861090839 0 0.011992298784826131 0.033883010968634893 0 0.012856070006713471 0.033515564145592043 0 0.012624166600647508 0.034558514602438715 0 0.01051375055263081 0.032525845232754348 0 0.010478972311332529 0.033166819539336777 0 0.010583247464450099 0.032866658684646721 0 0.011509778655854239 0.034611815361344354 0 0.010393170424678605 0.038218863584553377 0 0.010393170424678605 0.038218863584553377 0 0.011205716297246492 0.039534590386806498 0 0.012856070006713471 0.033515564145592043 0 0.012624166600647508 0.034558514602438715 0 0.01433226341603212 0.035078834597378455 0 0.012724620472925982 0.036854816950937321 0 0.01433226341603212 0.035078834597378455 0 0.014335929921938016 0.037852550857362083 0 0.012403566866226951 0.035476278450233448 0 0.012724620472925982 0.036854816950937321 0 0.01433226341603212 0.035078834597378455 0 0.011787439818502247 0.036228977136844344 0 0.012403566866226951 0.035476278450233448 0 0.012724620472925982 0.036854816950937321 0 0.015824819318576551 0.036703198802669659 0 0.01433226341603212 0.035078834597378455 0 0.014335929921938016 0.037852550857362083 0 0.0082775124188957053 0.044287693054042274 0 0.0081396547844023361 0.044151135861090839 0 0.0082384137610377953 0.044107074843673932 0 0.010304656961030056 0.043341265678366894 0 0.011205716297246492 0.039534590386806498 0 0.0083969417538862397 0.04402603283964944 0 0.0081022048806647373 0.043910419795412048 0 0.0082384137610377953 0.044107074843673932 0 0.0081022048806647373 0.043910419795412048 0 0.0081396547844023361 0.044151135861090839 0 0.0082384137610377953 0.044107074843673932 0 0.0083969417538862397 0.04402603283964944 0 0.0082775124188957053 0.044287693054042274 0 0.0082384137610377953 0.044107074843673932 0 0.0083969417538862397 0.04402603283964944 0 0.0081537579105760098 0.045589785482360763 0 0.0088146635728188292 0.044981540676919216 0 0.0077424423422401984 0.044810867227677041 0 0.010304656961030056 0.043341265678366894 0 0.0083969417538862397 0.04402603283964944 0 0.0088146635728188292 0.044981540676919216 0 0.0093749679962665082 0.044651880244134384 0 0.0081537579105760098 0.045589785482360763 0 0.0088146635728188292 0.044981540676919216 0 0.0091459001937955215 0.045645280852534928 0 0.0081537579105760098 0.045589785482360763 0 0.0089441345414339422 0.046216173791990944 0 0.0091459001937955215 0.045645280852534928 0 0.010909673509311225 0.047236893706974363 0 0.01051987780875893 0.046890124175856494 0 0.01107106620653907 0.046630118473454218 0 0.010304656961030056 0.043341265678366894 0 0.0098429743420988588 0.046879112437573187 0 0.015824819318576551 0.036703198802669659 0 0.014335929921938016 0.037852550857362083 0 0.015277760355466304 0.039589365998297932 0 0.010304656961030056 0.043341265678366894 0 0.013422615023417636 0.042595406210131803 0 0.01265654419594695 0.039811462548694866 0 0.015277760355466304 0.039589365998297932 0 0.014669493954660875 0.042581925294299459 0 0.01051987780875893 0.046890124175856494 0 0.01107106620653907 0.046630118473454218 0 0.010529646279810999 0.046256412636076508 0 0.010529646279810999 0.046256412636076508 0 0.010893880089737049 0.046139361449311397 0 0.010806636741517184 0.046018524981234848 0 0.01107106620653907 0.046630118473454218 0 0.010529646279810999 0.046256412636076508 0 0.010893880089737049 0.046139361449311397 0 0.01107106620653907 0.046630118473454218 0 0.010893880089737049 0.046139361449311397 0 0.011160928102755714 0.046106376699192535 0 0.013422615023417636 0.042595406210131803 0 0.013916030436554537 0.045352542291158864 0 0.013916030436554537 0.045352542291158864 0 0.014553386523176309 0.047094602043556776 0 0.01411139378254382 0.048803038717941186 0 0.014531461065701207 0.046672965966600088 0 0.012896252118815494 0.047298302941764202 0 0.013916030436554537 0.045352542291158864 0 0.012088949280666396 0.046709521674276028 0 0.010893880089737049 0.046139361449311397 0 0.011160928102755714 0.046106376699192535 0 0.011043657752903776 0.045987322631621363 0 0.014531461065701207 0.046672965966600088 0 0.012896252118815494 0.047298302941764202 0 0.013218211442799483 0.046164079480924179 0 0.011043657752903776 0.045987322631621363 0 0.010806636741517184 0.046018524981234848 0 0.011481734279766478 0.046066759137950095 0 0.010893880089737049 0.046139361449311397 0 0.011043657752903776 0.045987322631621363 0 0.010806636741517184 0.046018524981234848 0 0.012088949280666396 0.046709521674276028 0 0.011487730783881113 0.046044578361564191 0 0.012896252118815494 0.047298302941764202 0 0.011481734279766478 0.046066759137950095 0 0.013218211442799483 0.046164079480924179 0 0.011481734279766478 0.046066759137950095 0 0.012167085990273153 0.045649945823804078 0 0.013218211442799483 0.046164079480924179 0 0.011481734279766478 0.046066759137950095 0 0.012167085990273153 0.045649945823804078 0 0.01120594367427508 0.04545626075912141 0 0.012167085990273153 0.045649945823804078 0 0.011931771402223668 0.044999340826685823 0 0.01328820436201065 0.04561886877441923 0 0.012167085990273153 0.045649945823804078 0 0.011931771402223668 0.044999340826685823 0 0.01120594367427508 0.04545626075912141 0 0.011931771402223668 0.044999340826685823 0 0.01328820436201065 0.04561886877441923 0 0.01461433488391544 0.044999820041523468 0 0.01328820436201065 0.04561886877441923 0 0.013218211442799483 0.046164079480924179 0 0.014384914620463939 0.046232068220237267 0 0.012167085990273153 0.045649945823804078 0 0.01328820436201065 0.04561886877441923 0 0.013218211442799483 0.046164079480924179 0 0.014531461065701207 0.046672965966600088 0 0.013218211442799483 0.046164079480924179 0 0.014384914620463939 0.046232068220237267 0 0.014531461065701207 0.046672965966600088 0 0.014384914620463939 0.046232068220237267 0 0.014416295994999044 0.046371106117799682 0 0.014384914620463939 0.046232068220237267 0 0.015301284932282477 0.046196018333488305 0 0.014416295994999044 0.046371106117799682 0 0.01328820436201065 0.04561886877441923 0 0.014384914620463939 0.046232068220237267 0 0.01461433488391544 0.044999820041523468 0 0.014384914620463939 0.046232068220237267 0 0.01461433488391544 0.044999820041523468 0 0.015301284932282477 0.046196018333488305 0 0.015301284932282477 0.046196018333488305 0 0.017296645746553017 0.047215136590288004 0 0.017297952361010217 0.044999740966129478 0 0.01461433488391544 0.044999820041523468 0 0.015301284932282477 0.046196018333488305 0 0.017297952361010217 0.044999740966129478 0 0.015133610486474842 0.045976655461812156 0 0.014871354286137402 0.047506655210598103 0 0.015301284932282477 0.046196018333488305 0 0.01642146702818376 0.048353997666989702 0 0.017296645746553017 0.047215136590288004 0 0.015301284932282477 0.046196018333488305 0 0.013209460511414436 0.04599454941762017 0 0.014416295994999044 0.046371106117799682 0 0.013209460511414436 0.04599454941762017 0 0.014416295994999044 0.046371106117799682 0 0.014355345181641842 0.045313933611045541 0 0.015653785737448276 0.045208840565057667 0 0.014531461065701207 0.046672965966600088 0 0.014355345181641842 0.045313933611045541 0 0.014531461065701207 0.046672965966600088 0 0.014416295994999044 0.046371106117799682 0 0.014355345181641842 0.045313933611045541 0 0.014632596988461576 0.042261887886492329 0 0.015653785737448276 0.045208840565057667 0 0.014355345181641842 0.045313933611045541 0 0.013726230068079517 0.04077497504772698 0 0.013916030436554537 0.045352542291158864 0 0.011041732005895387 0.042016581477464211 0 0.013209460511414436 0.04599454941762017 0 0.013040717930925757 0.043480158703244544 0 0.014632596988461576 0.042261887886492329 0 0.014355345181641842 0.045313933611045541 0 0.013040717930925757 0.043480158703244544 0 0.013209460511414436 0.04599454941762017 0 0.014355345181641842 0.045313933611045541 0 0.013040717930925757 0.043480158703244544 0 0.01405782480953224 0.044102122785123481 0 0.014871354286137402 0.047506655210598103 0 0.017085734910992481 0.050199890872220251 0 0.01642146702818376 0.048353997666989702 0 0.017607663825247671 0.04896237257082782 0 0.018454084928841489 0.050015979796157177 0 0.017607663825247671 0.04896237257082782 0 0.018772244945965872 0.048128923438812941 0 0.018454084928841489 0.050015979796157177 0 0.018772244945965872 0.048128923438812941 0 0.019671686808031514 0.048667243682420244 0 0.018772244945965872 0.048128923438812941 0 0.01893410721445505 0.046605993321454264 0 0.019823620607413057 0.047582266147206835 0 0.01642146702818376 0.048353997666989702 0 0.017607663825247671 0.04896237257082782 0 0.017296645746553017 0.047215136590288004 0 0.017607663825247671 0.04896237257082782 0 0.018772244945965872 0.048128923438812941 0 0.017296645746553017 0.047215136590288004 0 0.017296645746553017 0.047215136590288004 0 0.017297952361010217 0.044999740966129478 0 0.01893410721445505 0.046605993321454264 0 0.017297952361010217 0.044999740966129478 0 0.01893410721445505 0.046605993321454264 0 0.01998015061630665 0.045000054786911027 0 0.018772244945965872 0.048128923438812941 0 0.017296645746553017 0.047215136590288004 0 0.01893410721445505 0.046605993321454264 0 0.01893410721445505 0.046605993321454264 0 0.020323242215717116 0.046563170586741774 0 0.019823620607413057 0.047582266147206835 0 0.02105510798371002 0.046509095575507045 0 0.019981848111777039 0.044999953955274209 0 0.021777031857519242 0.045858808843963199 0 0.01893410721445505 0.046605993321454264 0 0.020323242215717116 0.046563170586741774 0 0.01998015061630665 0.045000054786911027 0 0.020999462080410064 0.04797535390025174 0 0.019980516570334787 0.044998512263941505 0 0.023020212944875992 0.045302017046238902 0 0.021777031857519242 0.045858808843963199 0 0.022245962541472125 0.046761115160174116 0 0.023020212944875992 0.045302017046238902 0 0.022416716056591197 0.0449998110262083 0 0.021777031857519242 0.045858808843963199 0 0.019981848111777039 0.044999953955274209 0 0.022416716056591197 0.0449998110262083 0 0.021777031857519242 0.045858808843963199 0 0.02105510798371002 0.046509095575507045 0 0.021777494799483276 0.046751871724619407 0 0.021790780162141872 0.047530991900891835 0 0.021777031857519242 0.045858808843963199 0 0.021641799926423958 0.046410029119798704 0 0.022245962541472125 0.046761115160174116 0 0.021641799926423958 0.046410029119798704 0 0.022245962541472125 0.046761115160174116 0 0.021777494799483276 0.046751871724619407 0 0.020999462080410064 0.04797535390025174 0 0.022263207732357539 0.038954857192155551 0 0.02105510798371002 0.046509095575507045 0 0.021777031857519242 0.045858808843963199 0 0.021641799926423958 0.046410029119798704 0 0.02105510798371002 0.046509095575507045 0 0.021641799926423958 0.046410029119798704 0 0.021777494799483276 0.046751871724619407 0 0.022112672804252696 0.046710310900216441 0 0.021777494799483276 0.046751871724619407 0 0.021790780162141872 0.047530991900891835 0 0.023628279098498173 0.039793193035923859 0 0.022125172503215024 0.042037070762426833 0 0.022571745910582131 0.027606795060203256 0 0.022309154686441915 0.026788452731638473 0 0.021896999920897144 0.027694505235677323 0 0.023628279098498173 0.039793193035923859 0 0.022263207732357539 0.038954857192155551 0 0.022571745910582131 0.027606795060203256 0 0.021896999920897144 0.027694505235677323 0 0.022114652631634365 0.028144396117245358 0 0.022263207732357539 0.038954857192155551 0 0.019936965675260584 0.028824645236387923 0 0.020877188660022743 0.047926857637097919 0 0.019823620607413057 0.047582266147206835 0 0.019671686808031514 0.048667243682420244 0 0.020323242215717116 0.046563170586741774 0 0.020877188660022743 0.047926857637097919 0 0.019823620607413057 0.047582266147206835 0 0.018772244945965872 0.048128923438812941 0 0.019823620607413057 0.047582266147206835 0 0.019671686808031514 0.048667243682420244 0 0.019931689367417894 0.049747399787153833 0 0.018454084928841489 0.050015979796157177 0 0.019671686808031514 0.048667243682420244 0 0.019931689367417894 0.049747399787153833 0 0.020877188660022743 0.047926857637097919 0 0.019671686808031514 0.048667243682420244 0 0.022438023359844402 0.028995883539664927 0 0.021133481487451186 0.029284591328397034 0 0.022114652631634365 0.028144396117245358 0 0.021133481487451186 0.029284591328397034 0 0.021872265500367593 0.027689202564648255 0 0.022114652631634365 0.028144396117245358 0 0.016740156000678231 0.036365798727025389 0 0.022263207732357539 0.038954857192155551 0 0.010075380739005794 0.045169220008355299 0 0.010209637734743303 0.044692072570186356 0 0.0097304759204792386 0.044836121701608014 0 0.010075380739005794 0.045169220008355299 0 0.010526127396621806 0.045191149180651938 0 0.010209637734743303 0.044692072570186356 0 0.010209637734743303 0.044692072570186356 0 0.010713951134937305 0.044493696874035107 0 0.010329219907408694 0.044257288128900597 0 0.010526127396621806 0.045191149180651938 0 0.010209637734743303 0.044692072570186356 0 0.010713951134937305 0.044493696874035107 0 0.010209637734743303 0.044692072570186356 0 0.0097304759204792386 0.044836121701608014 0 0.0098463597790818848 0.0442552750607971 0 0.0097319903590812103 0.04440306703805743 0 0.0094881334240138181 0.044573141612844223 0 0.0097304759204792386 0.044836121701608014 0 0.0098463597790818848 0.0442552750607971 0 0.0092232273645250842 0.044786583866645406 0 0.0097304759204792386 0.044836121701608014 0 0.0093704258500897329 0.045499084299779204 0 0.0092232273645250842 0.044786583866645406 0 0.010075380739005794 0.045169220008355299 0 0.0097304759204792386 0.044836121701608014 0 0.0093704258500897329 0.045499084299779204 0 0.010075380739005794 0.045169220008355299 0 0.0093704258500897329 0.045499084299779204 0 0.010076671395558675 0.045627121702889926 0 0.0093704258500897329 0.045499084299779204 0 0.0089161216901327972 0.046191789560903203 0 0.0098118117832636451 0.046330976965131665 0 0.0093704258500897329 0.045499084299779204 0 0.010076671395558675 0.045627121702889926 0 0.0098118117832636451 0.046330976965131665 0 0.010076671395558675 0.045627121702889926 0 0.010755340732409375 0.045758517022649575 0 0.0098118117832636451 0.046330976965131665 0 0.010526127396621806 0.045191149180651938 0 0.010076671395558675 0.045627121702889926 0 0.010755340732409375 0.045758517022649575 0 0.0088479082501938949 0.047044629002132486 0 0.0080609471775195431 0.04687351560291405 0 0.010075380739005794 0.045169220008355299 0 0.010526127396621806 0.045191149180651938 0 0.010076671395558675 0.045627121702889926 0 0.010755340732409375 0.045758517022649575 0 0.011613677237034853 0.04540354819989971 0 0.011060797248528821 0.045045262656043847 0 0.0088479082501938949 0.047044629002132486 0 0.0030099334830171326 0.041977083537104436 0 0.010526127396621806 0.045191149180651938 0 0.010755340732409375 0.045758517022649575 0 0.011060797248528821 0.045045262656043847 0 0.0053457203118111082 0.047741038315396084 0 0.0040264675242278284 0.047807217729796181 0 0.004025990998456375 0.048060540248860431 0 -0.00058152139894185751 0.04759372701915783 0 -0.001053552896668111 0.047289872069377424 0 -0.00083693226907413285 0.047875254501074271 0 0.00068515084588727823 0.04600926492227899 0 0.0030099334830171326 0.041977083537104436 0 0.00068515084588727823 0.04600926492227899 0 -0.0010377532732219823 0.041735004695903487 0 0.0030099334830171326 0.041977083537104436 0 -0.0010377532732219823 0.041735004695903487 0 0.00069083595472701792 0.042807084202088695 0 0.00068892433642410466 0.042651269380110053 0 0.00086645634048065066 0.042590895882595431 0 -0.0030245233202087726 0.034580512285417343 0 -0.0030079523520394895 0.03521178998923695 0 -0.0031779877729172694 0.03460313956305431 0 0.0030099334830171326 0.041977083537104436 0 0.0041899866728487261 0.039451603980464406 0 0.011613677237034853 0.04540354819989971 0 0.011060797248528821 0.045045262656043847 0 0.011639730400548448 0.044203261468174174 0 0.011060797248528821 0.045045262656043847 0 0.010713951134937305 0.044493696874035107 0 0.011639730400548448 0.044203261468174174 0 0.010526127396621806 0.045191149180651938 0 0.011060797248528821 0.045045262656043847 0 0.010713951134937305 0.044493696874035107 0 0.010713951134937305 0.044493696874035107 0 0.011639730400548448 0.044203261468174174 0 0.01054934510335964 0.043578688087385999 0 -0.0028975362598601612 0.036160480802877419 0 -0.0030079523520394895 0.03521178998923695 0 -0.003268569325143281 0.035741267945501032 0 0.0067113100292502635 0.038825360105313747 0 0.0041899866728487261 0.039451603980464406 0 0.011618886317122013 0.042978352608581766 0 0.011639730400548448 0.044203261468174174 0 0.01054934510335964 0.043578688087385999 0 -0.0030087230813950574 0.036216038461842626 0 -0.0028975362598601612 0.036160480802877419 0 -0.003268569325143281 0.035741267945501032 0 0.0067113100292502635 0.038825360105313747 0 0.013368462910564509 0.041040820750895553 0 0.01049757483280647 0.039057050824498736 0 0.010933781026295459 0.039296064912032691 0 0.012136752084515057 0.03836866821678768 0 0.013394353002003844 0.035743581229234427 0 0.013368462910564509 0.041040820750895553 0 0.016616393140037392 0.039330946402125665 0 0.012238945573666843 0.041579640040790407 0 0.013006093511258438 0.039125394511469361 0 0.013615089531700758 0.036795051344825247 0 0.016616393140037392 0.039330946402125665 0 0.013006093511258438 0.039125394511469361 0 0.010713951134937305 0.044493696874035107 0 0.01054934510335964 0.043578688087385999 0 0.010329219907408694 0.044257288128900597 0 0.013368462910564509 0.041040820750895553 0 0.01117865763513874 0.042557616916725778 0 0.013368462910564509 0.041040820750895553 0 0.0097319903590812103 0.04440306703805743 0 0.011981074661420978 0.042491119347000422 0 0.0097830572491381211 0.043617433489897224 0 0.010562078316553234 0.043747598158324658 0 0.01054934510335964 0.043578688087385999 0 0.010329219907408694 0.044257288128900597 0 0.0098463597790818848 0.0442552750607971 0 0.010209637734743303 0.044692072570186356 0 0.010329219907408694 0.044257288128900597 0 0.0098463597790818848 0.0442552750607971 0 0.0097830572491381211 0.043617433489897224 0 0.010562078316553234 0.043747598158324658 0 0.0092232273645250842 0.044786583866645406 0 0.012238945573666843 0.041579640040790407 0 0.013006093511258438 0.039125394511469361 0 0.010852229361162778 0.039719206722480423 0 0.013006093511258438 0.039125394511469361 0 0.011600130049565114 0.037839977422640836 0 0.010852229361162778 0.039719206722480423 0 0.013615089531700758 0.036795051344825247 0 0.013006093511258438 0.039125394511469361 0 0.011600130049565114 0.037839977422640836 0 0.0096885462746585937 0.036836714324974228 0 0.011600130049565114 0.037839977422640836 0 0.010852229361162778 0.039719206722480423 0 0.010852229361162778 0.039719206722480423 0 0.0081995179193110369 0.038402108137169738 0 0.0092448773771547123 0.040997385603254943 0 0.0096885462746585937 0.036836714324974228 0 0.010852229361162778 0.039719206722480423 0 0.0081995179193110369 0.038402108137169738 0 0.0081995179193110369 0.038402108137169738 0 0.0064454788495708765 0.040458655861447174 0 0.0092448773771547123 0.040997385603254943 0 0.0054447981303082978 0.037159780160475234 0 0.0081995179193110369 0.038402108137169738 0 0.0064454788495708765 0.040458655861447174 0 0.0064454788495708765 0.040458655861447174 0 0.0052587529184980582 0.043140382326468475 0 0.0079576894063746843 0.044101066475822348 0 0.0064454788495708765 0.040458655861447174 0 0.0092448773771547123 0.040997385603254943 0 0.0079576894063746843 0.044101066475822348 0 0.012238945573666843 0.041579640040790407 0 0.010852229361162778 0.039719206722480423 0 0.0092448773771547123 0.040997385603254943 0 0.01117865763513874 0.042557616916725778 0 0.0079739051740313049 0.044076056656095923 0 0.012238945573666843 0.041579640040790407 0 0.0092448773771547123 0.040997385603254943 0 0.0079576894063746843 0.044101066475822348 0 0.0054447981303082978 0.037159780160475234 0 0.0064454788495708765 0.040458655861447174 0 0.002561904969096859 0.039096935662822442 0 0.0056179354749151447 0.042412766387335453 0 0.0074945967527783233 0.044433460596081699 0 0.0064454788495708765 0.040458655861447174 0 0.002561904969096859 0.039096935662822442 0 0.0052587529184980582 0.043140382326468475 0 0.0088146635728188292 0.044981540676919216 0 0.0093749679962665082 0.044651880244134384 0 0.0091459001937955215 0.045645280852534928 0 0.0093749679962665082 0.044651880244134384 0 0.009698351625024363 0.046041956059961461 0 0.0091459001937955215 0.045645280852534928 0 0.009698351625024363 0.046041956059961461 0 0.0091459001937955215 0.045645280852534928 0 0.0094709799553367984 0.046157533545151196 0 0.0089441345414339422 0.046216173791990944 0 0.0091459001937955215 0.045645280852534928 0 0.0094709799553367984 0.046157533545151196 0 0.009698351625024363 0.046041956059961461 0 0.0094547668088205 0.046202511483825662 0 0.0085427786665547602 0.046110407807210832 0 0.009698351625024363 0.046041956059961461 0 0.0094709799553367984 0.046157533545151196 0 0.0094547668088205 0.046202511483825662 0 0.0094547668088205 0.046202511483825662 0 0.0098175752705755744 0.046373669998888395 0 0.0093892464003688791 0.046097913768743046 0 0.0094547668088205 0.046202511483825662 0 0.0085427786665547602 0.046110407807210832 0 0.0093892464003688791 0.046097913768743046 0 0.0089441345414339422 0.046216173791990944 0 0.0094709799553367984 0.046157533545151196 0 0.0098175752705755744 0.046373669998888395 0 0.0094709799553367984 0.046157533545151196 0 0.0094547668088205 0.046202511483825662 0 0.0098175752705755744 0.046373669998888395 0 0.01051987780875893 0.046890124175856494 0 0.010529646279810999 0.046256412636076508 0 0.0098175752705755744 0.046373669998888395 0 0.0098429743420988588 0.046879112437573187 0 0.009678521811226231 0.046267537370294785 0 0.0086129248994948893 0.045285970600798753 0 0.0092232273645250842 0.044786583866645406 0 0.0079576894063746843 0.044101066475822348 0 0.0093704258500897329 0.045499084299779204 0 0.0086129248994948893 0.045285970600798753 0 0.0092232273645250842 0.044786583866645406 0 0.0097830572491381211 0.043617433489897224 0 0.0092232273645250842 0.044786583866645406 0 0.0079576894063746843 0.044101066475822348 0 0.0086129248994948893 0.045285970600798753 0 0.0079576894063746843 0.044101066475822348 0 0.0085427786665547602 0.046110407807210832 0 0.0052587529184980582 0.043140382326468475 0 0.0079576894063746843 0.044101066475822348 0 0.0085427786665547602 0.046110407807210832 0 0.0074945967527783233 0.044433460596081699 0 0.0084298713409661722 0.045990665478873774 0 0.0093704258500897329 0.045499084299779204 0 0.0086129248994948893 0.045285970600798753 0 0.0084322465632688057 0.046017835041096841 0 0.0086129248994948893 0.045285970600798753 0 0.0085427786665547602 0.046110407807210832 0 0.0084322465632688057 0.046017835041096841 0 0.0093704258500897329 0.045499084299779204 0 0.0089161216901327972 0.046191789560903203 0 0.0084322465632688057 0.046017835041096841 0 0.0084322465632688057 0.046017835041096841 0 0.0080783674837813235 0.046973718835019496 0 0.0077322478948571695 0.047298064365414783 0 0.0089161216901327972 0.046191789560903203 0 0.0084322465632688057 0.046017835041096841 0 0.0080783674837813235 0.046973718835019496 0 0.0075339443094419685 0.04710113582160412 0 0.0080783674837813235 0.046973718835019496 0 0.0074649720743511574 0.046917884187409407 0 0.0085427786665547602 0.046110407807210832 0 0.0091771731763348897 0.045829258487210998 0 0.0093892464003688791 0.046097913768743046 0 0.0085427786665547602 0.046110407807210832 0 0.0084322465632688057 0.046017835041096841 0 0.0091771731763348897 0.045829258487210998 0 0.0084469589407715727 0.046089055075533632 0 0.0085021584773118056 0.046551072633031217 0 0.0080783674837813235 0.046973718835019496 0 0.0077322478948571695 0.047298064365414783 0 0.0077222452672911163 0.047084836283215088 0 0.0077322478948571695 0.047298064365414783 0 0.0077993719555460939 0.046887498108202696 0 0.0092564329562547735 0.046887999338660752 0 0.0077322478948571695 0.047298064365414783 0 0.0077993719555460939 0.046887498108202696 0 0.0077222452672911163 0.047084836283215088 0 0.0077993719555460939 0.046887498108202696 0 0.0074620647977126624 0.046847088624747027 0 0.0077222452672911163 0.047084836283215088 0 0.0074620647977126624 0.046847088624747027 0 0.0074649720743511574 0.046917884187409407 0 0.0069489406127150035 0.046610489987099962 0 0.0074649720743511574 0.046917884187409407 0 0.0069489406127150035 0.046610489987099962 0 0.0068663173700078397 0.046786016981911746 0 0.0074620647977126624 0.046847088624747027 0 0.0074649720743511574 0.046917884187409407 0 0.0077222452672911163 0.047084836283215088 0 0.0080783674837813235 0.046973718835019496 0 0.0074649720743511574 0.046917884187409407 0 0.0077222452672911163 0.047084836283215088 0 0.010529646279810999 0.046256412636076508 0 0.0098175752705755744 0.046373669998888395 0 0.0099464718894232695 0.046032054930876032 0 0.010529646279810999 0.046256412636076508 0 0.010806636741517184 0.046018524981234848 0 0.0099464718894232695 0.046032054930876032 0 0.0091771731763348897 0.045829258487210998 0 0.0099464718894232695 0.046032054930876032 0 0.0093892464003688791 0.046097913768743046 0 0.0098175752705755744 0.046373669998888395 0 0.0099464718894232695 0.046032054930876032 0 0.0093892464003688791 0.046097913768743046 0 0.0085021584773118056 0.046551072633031217 0 0.0097250350542074909 0.046272847130303302 0 0.0091771731763348897 0.045829258487210998 0 0.0099464718894232695 0.046032054930876032 0 0.010168855350471746 0.045716667443446261 0 0.010806636741517184 0.046018524981234848 0 0.0099464718894232695 0.046032054930876032 0 0.010168855350471746 0.045716667443446261 0 0.0097250350542074909 0.046272847130303302 0 0.011071553611652294 0.045469190832748356 0 0.011481734279766478 0.046066759137950095 0 0.010168855350471746 0.045716667443446261 0 0.01120594367427508 0.04545626075912141 0 0.010806636741517184 0.046018524981234848 0 0.011481734279766478 0.046066759137950095 0 0.010168855350471746 0.045716667443446261 0 0.0092564329562547735 0.046887999338660752 0 0.0092481398169302325 0.044999753989743978 0 0.007875164575817795 0.04611760348833558 0 0.011931771402223668 0.044999340826685823 0 0.0092481398169302325 0.044999753989743978 0 0.01120594367427508 0.04545626075912141 0 0.0092564329562547735 0.046887999338660752 0 0.0092481398169302325 0.044999753989743978 0 0.01120594367427508 0.04545626075912141 0 0.0072169259924879771 0.04649340146274835 0 0.007875164575817795 0.04611760348833558 0 0.0068194320619917332 0.045874350408627397 0 0.006557415402537221 0.046282647006962593 0 0.0072169259924879771 0.04649340146274835 0 0.0068194320619917332 0.045874350408627397 0 0.006557415402537221 0.046282647006962593 0 0.0069489406127150035 0.046610489987099962 0 0.0072169259924879771 0.04649340146274835 0 0.0074620647977126624 0.046847088624747027 0 0.0069489406127150035 0.046610489987099962 0 0.0072169259924879771 0.04649340146274835 0 0.0077993719555460939 0.046887498108202696 0 0.0092564329562547735 0.046887999338660752 0 0.007875164575817795 0.04611760348833558 0 0.0077993719555460939 0.046887498108202696 0 0.0074620647977126624 0.046847088624747027 0 0.0072169259924879771 0.04649340146274835 0 0.0077993719555460939 0.046887498108202696 0 0.0072169259924879771 0.04649340146274835 0 0.007875164575817795 0.04611760348833558 0 0.0092481398169302325 0.044999753989743978 0 0.007875164575817795 0.04611760348833558 0 0.0065667473435912999 0.044999957501288365 0 0.006557415402537221 0.046282647006962593 0 0.0068194320619917332 0.045874350408627397 0 0.0059491452046548307 0.04528515485997188 0 0.007875164575817795 0.04611760348833558 0 0.0065667473435912999 0.044999957501288365 0 0.0068194320619917332 0.045874350408627397 0 0.0065667473435912999 0.044999957501288365 0 0.0068194320619917332 0.045874350408627397 0 0.0059491452046548307 0.04528515485997188 0 0.006557415402537221 0.046282647006962593 0 0.0059491452046548307 0.04528515485997188 0 0.0058125395852696334 0.046207825885685234 0 0.0047469497124372814 0.045895780300965416 0 0.0038821978203824503 0.044999980976962707 0 0.0044822410787794999 0.046637957959764831 0 0.0065667473435912999 0.044999957501288365 0 0.0059491452046548307 0.04528515485997188 0 0.0038821978203824503 0.044999980976962707 0 0.0059491452046548307 0.04528515485997188 0 0.0047469497124372814 0.045895780300965416 0 0.0038821978203824503 0.044999980976962707 0 0.0047469497124372814 0.045895780300965416 0 0.0046764041874916909 0.046658972272402503 0 0.0044822410787794999 0.046637957959764831 0 0.0059118684565090335 0.045476958484389374 0 0.0051567478635571361 0.045997500679909716 0 0.0059491452046548307 0.04528515485997188 0 0.0047469497124372814 0.045895780300965416 0 0.0046764041874916909 0.046658972272402503 0 0.0038827547710665214 0.045001066965533049 0 0.0043558115477223209 0.045880048102163999 0 0.0038823321557812582 0.044999999901566681 0 0.004425157692128515 0.04654615140838305 0 0.0023658290254874614 0.046335119358157796 0 0.0010546298851959062 0.045529658831336875 0 0.0016903750391353328 0.045256992567770944 0 0.00046579636973744334 0.045153899275897955 0 0.0043558115477223209 0.045880048102163999 0 0.0011534336854608562 0.045729893796127838 0 0.0049923533416659548 0.0459457795769945 0 0.0033148886274887279 0.045968667987627151 0 0.0010546298851959062 0.045529658831336875 0 0.0017245123675884619 0.045352555611084977 0 0.00091021241489921793 0.046168625945554945 0 0.0010546298851959062 0.045529658831336875 0 0.0016903750391353328 0.045256992567770944 0 0.0017245123675884619 0.045352555611084977 0 0.0010546298851959062 0.045529658831336875 0 0.00091021241489921793 0.046168625945554945 0 0.00032835488088514228 0.04576950425337234 0 0.0069489406127150035 0.046610489987099962 0 0.0063886663288233907 0.046302443360415474 0 0.0068663173700078397 0.046786016981911746 0 0.0066973530534478508 0.044982104217613492 0 0.0070991311494316579 0.046036160974810947 0 0.005804968175292081 0.045944171900427225 0 0.0049923533416659548 0.0459457795769945 0 0.0070530155398117406 0.046418865868248005 0 0.006557415402537221 0.046282647006962593 0 0.0069489406127150035 0.046610489987099962 0 0.0063886663288233907 0.046302443360415474 0 0.0066648408417750481 0.046258623281814133 0 0.0051567478635571361 0.045997500679909716 0 0.006557415402537221 0.046282647006962593 0 0.0064060269005229847 0.046281553143244433 0 0.0063886663288233907 0.046302443360415474 0 0.0045279659955620296 0.046424683300730352 0 0.0052382188065041857 0.04649572484526119 0 0.0050219734784987761 0.045889745143616698 0 0.0051567478635571361 0.045997500679909716 0 0.0043558115477223209 0.045880048102163999 0 0.0051567478635571361 0.045997500679909716 0 0.0049923533416659548 0.0459457795769945 0 0.0043558115477223209 0.045880048102163999 0 0.0049923533416659548 0.0459457795769945 0 0.0074053577163233318 0.047005189092094758 0 0.0070530155398117406 0.046418865868248005 0 0.0075339443094419685 0.04710113582160412 0 0.0074649720743511574 0.046917884187409407 0 0.0068663173700078397 0.046786016981911746 0 0.0075339443094419685 0.04710113582160412 0 0.0070991311494316579 0.046036160974810947 0 0.0065900314259803774 0.046692047594657324 0 0.005804968175292081 0.045944171900427225 0 0.0058570179223074682 0.04697913658023508 0 0.0065900314259803774 0.046692047594657324 0 0.0070991311494316579 0.046036160974810947 0 0.005804968175292081 0.045944171900427225 0 0.0065900314259803774 0.046692047594657324 0 0.0053457203118111082 0.047741038315396084 0 0.0058570179223074682 0.04697913658023508 0 0.0066838828345469467 0.047426448631167538 0 0.0058570179223074682 0.04697913658023508 0 0.0066838828345469467 0.047426448631167538 0 0.0065900314259803774 0.046692047594657324 0 0.0075339443094419685 0.04710113582160412 0 0.0080783674837813235 0.046973718835019496 0 0.0066838828345469467 0.047426448631167538 0 0.0089161216901327972 0.046191789560903203 0 0.0080783674837813235 0.046973718835019496 0 0.0098118117832636451 0.046330976965131665 0 0.0081446262804613749 0.046954081093575781 0 0.0080609471775195431 0.04687351560291405 0 0.0075339443094419685 0.04710113582160412 0 0.0066838828345469467 0.047426448631167538 0 0.0065900314259803774 0.046692047594657324 0 -0.00058152139894185751 0.04759372701915783 0 -0.00057390728648350458 0.046801770136890436 0 -0.001053552896668111 0.047289872069377424 0 -0.00055652512146412141 0.04762742926677456 0 -0.00057390728648350458 0.046801770136890436 0 0.00014634304608525283 0.046898464545982177 0 0.00068515084588727823 0.04600926492227899 0 0.0025624931801392632 0.047079361998635334 0 0.00068515084588727823 0.04600926492227899 0 -0.00059652370235121078 0.047432458608265379 0 0.0053457203118111082 0.047741038315396084 0 0.0040264675242278284 0.047807217729796181 0 0.0049135875423247845 0.046901439625794197 0 0.0053457203118111082 0.047741038315396084 0 0.0058570179223074682 0.04697913658023508 0 0.0049135875423247845 0.046901439625794197 0 0.00091021241489921793 0.046168625945554945 0 0.00014634304608525283 0.046898464545982177 0 0.00020559611464255551 0.046255309764113059 0 -0.00057390728648350458 0.046801770136890436 0 0.00014634304608525283 0.046898464545982177 0 0.00020559611464255551 0.046255309764113059 0 0.0033148886274887279 0.045968667987627151 0 0.0025624931801392632 0.047079361998635334 0 0.005804968175292081 0.045944171900427225 0 0.0058570179223074682 0.04697913658023508 0 0.0049135875423247845 0.046901439625794197 0 0.00091021241489921793 0.046168625945554945 0 0.00020559611464255551 0.046255309764113059 0 0.00032835488088514228 0.04576950425337234 0 0.00020559611464255551 0.046255309764113059 0 -0.00038272498703615141 0.045966766997678633 0 0.00032835488088514228 0.04576950425337234 0 -0.00057390728648350458 0.046801770136890436 0 0.00020559611464255551 0.046255309764113059 0 -0.00038272498703615141 0.045966766997678633 0 -0.00057390728648350458 0.046801770136890436 0 -0.00038272498703615141 0.045966766997678633 0 -0.00091044689170639978 0.04628246957247633 0 -0.00022469016551550952 0.045518806728890818 0 0.00046579636973744334 0.045153899275897955 0 -0.00069801714416438832 0.04512654398042093 0 -0.00038272498703615141 0.045966766997678633 0 -0.00079067575517087908 0.045610874805820191 0 -0.00091044689170639978 0.04628246957247633 0 -0.00038272498703615141 0.045966766997678633 0 -0.00022469016551550952 0.045518806728890818 0 0.00032835488088514228 0.04576950425337234 0 -0.00038272498703615141 0.045966766997678633 0 -0.00079067575517087908 0.045610874805820191 0 -0.00022469016551550952 0.045518806728890818 0 -0.00079067575517087908 0.045610874805820191 0 -0.00022469016551550952 0.045518806728890818 0 -0.00069801714416438832 0.04512654398042093 0 -0.00022469016551550952 0.045518806728890818 0 0.00032835488088514228 0.04576950425337234 0 0.00046579636973744334 0.045153899275897955 0 0.0010546298851959062 0.045529658831336875 0 0.00032835488088514228 0.04576950425337234 0 0.00046579636973744334 0.045153899275897955 0 0.0038823321557812582 0.044999999901566681 0 0.0019323734254411047 0.04499991514108672 0 0.0023658290254874614 0.046335119358157796 0 0.0019323734254411047 0.04499991514108672 0 0.0023658290254874614 0.046335119358157796 0 0.00079580586680447262 0.045323475322340115 0 0.00056656207680664975 0.045311610500248713 0 -0.00072720385427982803 0.04542416061739947 0 0.00079580586680447262 0.045323475322340115 0 0.00030259384247433463 0.045991520661341795 0 -0.00077870555126125375 0.045215435169291884 0 0.0019323734254411047 0.04499991514108672 0 0.00079580586680447262 0.045323475322340115 0 -1.7516519608218773e-05 0.044999918554744542 0 0.0023658290254874614 0.046335119358157796 0 0.00079580586680447262 0.045323475322340115 0 0.00030259384247433463 0.045991520661341795 0 0.0011534336854608562 0.045729893796127838 0 -0.00012443896644919058 0.045539841018407377 0 0.00079580586680447262 0.045323475322340115 0 -0.00080019274930343595 0.045653067812466676 0 -1.7516519608218773e-05 0.044999918554744542 0 0.00030259384247433463 0.045991520661341795 0 -0.00077870555126125375 0.045215435169291884 0 -0.0016145756049058305 0.045201333181220132 0 -0.00080019274930343595 0.045653067812466676 0 -1.7516519608218773e-05 0.044999918554744542 0 -0.0019674931014396317 0.045000030656362829 0 -0.00012443896644919058 0.045539841018407377 0 -0.0014957116802531872 0.045265245924490868 0 -0.00069801714416438832 0.04512654398042093 0 -0.0016145756049058305 0.045201333181220132 0 -0.0012162319273823915 0.045425339574367958 0 -0.00072720385427982803 0.04542416061739947 0 -0.0026433760979173711 0.045245924366633918 0 -0.00077870555126125375 0.045215435169291884 0 -0.002136320004568992 0.045067961459854769 0 -0.0016145756049058305 0.045201333181220132 0 -0.0019675226056682618 0.044999995736820009 0 -0.0024133002547538618 0.045924700856920811 0 -0.0035005547714901898 0.044999989905997059 0 -0.00080019274930343595 0.045653067812466676 0 -0.0019674931014396317 0.045000030656362829 0 -0.0024071535990455675 0.04592733685760083 0 -0.0019679828253072089 0.045000448832523875 0 -0.0026433760979173711 0.045245924366633918 0 -0.002136320004568992 0.045067961459854769 0 -0.0016145756049058305 0.045201333181220132 0 -0.0019131305231134519 0.045438217922703153 0 -0.0016145756049058305 0.045201333181220132 0 -0.0016114500364101069 0.045427154013355529 0 -0.0019131305231134519 0.045438217922703153 0 -0.0026433760979173711 0.045245924366633918 0 -0.0031853449387325688 0.045505387830888207 0 -0.002136320004568992 0.045067961459854769 0 -0.0019131305231134519 0.045438217922703153 0 -0.0024069699711354469 0.04575704024606405 0 -0.0016114500364101069 0.045427154013355529 0 -0.0019131305231134519 0.045438217922703153 0 -0.0017585240332725291 0.045720011892172729 0 -0.0019131305231134519 0.045438217922703153 0 -0.0017585240332725291 0.045720011892172729 0 -0.0024069699711354469 0.04575704024606405 0 -0.0017585240332725291 0.045720011892172729 0 -0.0024069699711354469 0.04575704024606405 0 -0.0022173624568966109 0.046063521416712598 0 -0.0017585240332725291 0.045720011892172729 0 -0.0017413105973684308 0.046075322765314008 0 -0.0022173624568966109 0.046063521416712598 0 -0.0017585240332725291 0.045720011892172729 0 -0.0013028652561163968 0.045972950294248749 0 -0.0017413105973684308 0.046075322765314008 0 -0.0017585240332725291 0.045720011892172729 0 -0.0012162319273823915 0.045425339574367958 0 -0.0013028652561163968 0.045972950294248749 0 -0.00079067575517087908 0.045610874805820191 0 -0.0012162319273823915 0.045425339574367958 0 -0.0013028652561163968 0.045972950294248749 0 -0.00079067575517087908 0.045610874805820191 0 -0.00069801714416438832 0.04512654398042093 0 -0.0012162319273823915 0.045425339574367958 0 -0.0016145756049058305 0.045201333181220132 0 -0.0016114500364101069 0.045427154013355529 0 -0.0012162319273823915 0.045425339574367958 0 -0.0016114500364101069 0.045427154013355529 0 -0.0017585240332725291 0.045720011892172729 0 -0.0012162319273823915 0.045425339574367958 0 -0.0047009838619095721 0.046325044758383442 0 -0.0058927738990059847 0.046532047387435639 0 -0.0056549084419737043 0.045714629721534721 0 -0.0046651849955800604 0.044999995109583246 0 -0.0047009838619095721 0.046325044758383442 0 -0.0056549084419737043 0.045714629721534721 0 -0.0046651849955800604 0.044999995109583246 0 -0.0047009838619095721 0.046325044758383442 0 -0.0035005822921410842 0.045000001286347957 0 -0.0026433760979173711 0.045245924366633918 0 -0.0049653727872078432 0.045670932026480746 0 -0.0024133002547538618 0.045924700856920811 0 -0.0046901708228161629 0.046310958757610897 0 -0.0035005547714901898 0.044999989905997059 0 -0.0049653727872078432 0.045670932026480746 0 -0.0036380842976907941 0.045233195708099604 0 -0.0036029823759130839 0.044577287820396209 0 -0.0048215751894804867 0.044781736648061454 0 -0.0043557452734755784 0.045185405594341907 0 -0.0036029823759130839 0.044577287820396209 0 -0.0039648847713734826 0.04532174680754833 0 -0.0043557452734755784 0.045185405594341907 0 -0.0045437476382117542 0.045468511526076921 0 -0.0043557452734755784 0.045185405594341907 0 -0.0044831786556463644 0.045675976961438429 0 -0.0039648847713734826 0.04532174680754833 0 -0.0043557452734755784 0.045185405594341907 0 -0.0044831786556463644 0.045675976961438429 0 -0.0045437476382117542 0.045468511526076921 0 -0.0043557452734755784 0.045185405594341907 0 -0.0046981273875864151 0.045305307825914902 0 -0.0048215751894804867 0.044781736648061454 0 -0.0043557452734755784 0.045185405594341907 0 -0.0046981273875864151 0.045305307825914902 0 -0.0048215751894804867 0.044781736648061454 0 -0.0046981273875864151 0.045305307825914902 0 -0.0051933817996453408 0.045166158336358675 0 -0.0045437476382117542 0.045468511526076921 0 -0.0046981273875864151 0.045305307825914902 0 -0.0045753409713325723 0.045798579739525364 0 -0.0046981273875864151 0.045305307825914902 0 -0.0051933817996453408 0.045166158336358675 0 -0.0045753409713325723 0.045798579739525364 0 -0.0069389916835867925 0.045237499420046276 0 -0.0052121741139814683 0.044630340929803412 0 -0.0049653727872078432 0.045670932026480746 0 -0.0069389916835867925 0.045237499420046276 0 -0.0055737359247619361 0.045642755991631791 0 -0.006025606826877139 0.04611570927705054 0 -0.0063479016903367196 0.045779194903163456 0 -0.0049653727872078432 0.045670932026480746 0 -0.0059930208609809505 0.046311557428618186 0 -0.009096765023604389 0.042477034180652969 0 -0.0081568751148498996 0.043446691566962063 0 -0.0093338084194447158 0.043461840285193093 0 -0.0032780357504826642 0.045485018490443035 0 -0.0029147889740656669 0.045861470346040975 0 -0.0042825214044126094 0.046880167157246362 0 -0.0052121741139814683 0.044630340929803412 0 -0.0068878271119166192 0.045831068197743491 0 -0.0081568751148498996 0.043446691566962063 0 -0.0093338084194447158 0.043461840285193093 0 -0.0093754356700324042 0.044024889390125665 0 -0.0081568751148498996 0.043446691566962063 0 -0.009297016824803505 0.044947222325006385 0 -0.0093754356700324042 0.044024889390125665 0 -0.0024069699711354469 0.04575704024606405 0 -0.0028149267225892243 0.046371435210113832 0 -0.0022173624568966109 0.046063521416712598 0 -0.0031853449387325688 0.045505387830888207 0 -0.0034714338716866863 0.046158393705779503 0 -0.0039648847713734826 0.04532174680754833 0 -0.0043190499957915752 0.046060094312749197 0 -0.0044831786556463644 0.045675976961438429 0 -0.0027521443518486156 0.046439942220885398 0 -0.0028292959304502597 0.046351603688180261 0 -0.0027352939271686563 0.046630207647584826 0 -0.0033623673918248822 0.046245146980623431 0 -0.0034714338716866863 0.046158393705779503 0 -0.0052121741139814683 0.044630340929803412 0 -0.0034714338716866863 0.046158393705779503 0 -0.0045716259894154603 0.045796369487479206 0 -0.0043190499957915752 0.046060094312749197 0 -0.0044831786556463644 0.045675976961438429 0 -0.0045437476382117542 0.045468511526076921 0 -0.0045753409713325723 0.045798579739525364 0 -0.0044831786556463644 0.045675976961438429 0 -0.0052121741139814683 0.044630340929803412 0 -0.0052064489053500231 0.044821829398978809 0 -0.0027521443518486156 0.046439942220885398 0 -0.0028149267225892243 0.046371435210113832 0 -0.0024131047511650426 0.046374872259611032 0 -0.0028149267225892243 0.046371435210113832 0 -0.0024131047511650426 0.046374872259611032 0 -0.0022173624568966109 0.046063521416712598 0 -0.0027521443518486156 0.046439942220885398 0 -0.0024131047511650426 0.046374872259611032 0 -0.002505620758168515 0.046586908139712842 0 -0.0027521443518486156 0.046439942220885398 0 -0.002505620758168515 0.046586908139712842 0 -0.0027352939271686563 0.046630207647584826 0 -0.0024131047511650426 0.046374872259611032 0 -0.002505620758168515 0.046586908139712842 0 -0.0021640801328782801 0.046518057986048633 0 -0.0034714338716866863 0.046158393705779503 0 -0.0033611024103057424 0.04714051969241137 0 -0.0028292959304502597 0.046351603688180261 0 -0.002961634035365735 0.047070094592086657 0 -0.0035415049250519292 0.047263651104926863 0 -0.0028292959304502597 0.046351603688180261 0 -0.002961634035365735 0.047070094592086657 0 -0.0027352939271686563 0.046630207647584826 0 -0.0026304287866932442 0.046855478672561575 0 -0.0025528777855645993 0.047203375288929587 0 -0.0023065433780058561 0.046751742647888804 0 -0.002505620758168515 0.046586908139712842 0 -0.0026304287866932442 0.046855478672561575 0 -0.0023065433780058561 0.046751742647888804 0 -0.002505620758168515 0.046586908139712842 0 -0.0026304287866932442 0.046855478672561575 0 -0.0027352939271686563 0.046630207647584826 0 -0.0026304287866932442 0.046855478672561575 0 -0.0025528777855645993 0.047203375288929587 0 -0.002961634035365735 0.047070094592086657 0 -0.0026304287866932442 0.046855478672561575 0 -0.002961634035365735 0.047070094592086657 0 -0.0027352939271686563 0.046630207647584826 0 -0.0029147889740656669 0.045861470346040975 0 -0.0042825214044126094 0.046880167157246362 0 -0.0035415049250519292 0.047263651104926863 0 -0.00057390728648350458 0.046801770136890436 0 -0.00091044689170639978 0.04628246957247633 0 -0.0011179708694668516 0.046763941325930862 0 -0.001485387207987925 0.046442300357858686 0 -0.00091044689170639978 0.04628246957247633 0 -0.0011179708694668516 0.046763941325930862 0 -0.00079067575517087908 0.045610874805820191 0 -0.00091044689170639978 0.04628246957247633 0 -0.0013028652561163968 0.045972950294248749 0 -0.001485387207987925 0.046442300357858686 0 -0.0013028652561163968 0.045972950294248749 0 -0.0017413105973684308 0.046075322765314008 0 -0.001485387207987925 0.046442300357858686 0 -0.00091044689170639978 0.04628246957247633 0 -0.0013028652561163968 0.045972950294248749 0 -0.001485387207987925 0.046442300357858686 0 -0.0017413105973684308 0.046075322765314008 0 -0.0019866697665151382 0.046311505514492951 0 -0.0024131047511650426 0.046374872259611032 0 -0.0022173624568966109 0.046063521416712598 0 -0.0019866697665151382 0.046311505514492951 0 -0.0017413105973684308 0.046075322765314008 0 -0.0022173624568966109 0.046063521416712598 0 -0.0019866697665151382 0.046311505514492951 0 -0.0019866697665151382 0.046311505514492951 0 -0.0021640801328782801 0.046518057986048633 0 -0.001898899834473377 0.046659130601345328 0 -0.0024131047511650426 0.046374872259611032 0 -0.0019866697665151382 0.046311505514492951 0 -0.0021640801328782801 0.046518057986048633 0 -0.001485387207987925 0.046442300357858686 0 -0.0019866697665151382 0.046311505514492951 0 -0.001898899834473377 0.046659130601345328 0 -0.001898899834473377 0.046659130601345328 0 -0.0020777490890739494 0.047108033872151962 0 -0.0015664855919425345 0.047006985923749182 0 -0.001485387207987925 0.046442300357858686 0 -0.001898899834473377 0.046659130601345328 0 -0.0015664855919425345 0.047006985923749182 0 -0.0021640801328782801 0.046518057986048633 0 -0.001898899834473377 0.046659130601345328 0 -0.0023065433780058561 0.046751742647888804 0 -0.001898899834473377 0.046659130601345328 0 -0.0023065433780058561 0.046751742647888804 0 -0.0020777490890739494 0.047108033872151962 0 -0.002505620758168515 0.046586908139712842 0 -0.0021640801328782801 0.046518057986048633 0 -0.0023065433780058561 0.046751742647888804 0 -0.0025528777855645993 0.047203375288929587 0 -0.0020777490890739494 0.047108033872151962 0 -0.0022491120211897194 0.047626893095196 0 -0.0025528777855645993 0.047203375288929587 0 -0.0023065433780058561 0.046751742647888804 0 -0.0020777490890739494 0.047108033872151962 0 -0.0020777490890739494 0.047108033872151962 0 -0.0015664855919425345 0.047006985923749182 0 -0.0016238587840857214 0.047538385869313145 0 -0.0015664855919425345 0.047006985923749182 0 -0.001053552896668111 0.047289872069377424 0 -0.0016238587840857214 0.047538385869313145 0 -0.0015664855919425345 0.047006985923749182 0 -0.0011179708694668516 0.046763941325930862 0 -0.001053552896668111 0.047289872069377424 0 -0.001485387207987925 0.046442300357858686 0 -0.0015664855919425345 0.047006985923749182 0 -0.0011179708694668516 0.046763941325930862 0 -0.00057390728648350458 0.046801770136890436 0 -0.0011179708694668516 0.046763941325930862 0 -0.001053552896668111 0.047289872069377424 0 -0.00083693226907413285 0.047875254501074271 0 -0.0019145014741680226 0.048230613835408095 0 -0.0016238587840857214 0.047538385869313145 0 -0.001053552896668111 0.047289872069377424 0 -0.00083693226907413285 0.047875254501074271 0 -0.0016238587840857214 0.047538385869313145 0 -0.0010377532732219823 0.041735004695903487 0 -0.0034288690292225876 0.043992205018162533 0 -0.0025317515324391063 0.03885581670297493 0 -0.0037126970710621527 0.040072775472568677 0 -0.0045982506708933408 0.039400135189019025 0 -0.0030079523520394895 0.03521178998923695 0 -0.0031779877729172694 0.03460313956305431 0 -0.0035881900922925128 0.03488711680299398 0 -0.0010377532732219823 0.041735004695903487 0 -0.0035255242252118756 0.037273369513324738 0 -0.0037126970710621527 0.040072775472568677 0 -0.0053984361288778142 0.040366450112001268 0 -0.0045982506708933408 0.039400135189019025 0 -0.0037126970710621527 0.040072775472568677 0 -0.0053984361288778142 0.040366450112001268 0 -0.0049047027534241212 0.041331314495930242 0 -0.0019145014741680226 0.048230613835408095 0 -0.0022491120211897194 0.047626893095196 0 -0.0029476594663469776 0.047854297516784515 0 -0.0019145014741680226 0.048230613835408095 0 -0.0016238587840857214 0.047538385869313145 0 -0.0022491120211897194 0.047626893095196 0 -0.0020777490890739494 0.047108033872151962 0 -0.0016238587840857214 0.047538385869313145 0 -0.0022491120211897194 0.047626893095196 0 -0.0025528777855645993 0.047203375288929587 0 -0.0022491120211897194 0.047626893095196 0 -0.0029476594663469776 0.047854297516784515 0 -0.002961634035365735 0.047070094592086657 0 -0.0029476594663469776 0.047854297516784515 0 -0.0035415049250519292 0.047263651104926863 0 -0.0025528777855645993 0.047203375288929587 0 -0.002961634035365735 0.047070094592086657 0 -0.0029476594663469776 0.047854297516784515 0 -0.0042825214044126094 0.046880167157246362 0 -0.0035415049250519292 0.047263651104926863 0 -0.0043539655095390182 0.047828029458865461 0 -0.0029476594663469776 0.047854297516784515 0 -0.0035415049250519292 0.047263651104926863 0 -0.0037115468283341556 0.048127388823120724 0 -0.0035415049250519292 0.047263651104926863 0 -0.0037115468283341556 0.048127388823120724 0 -0.0043539655095390182 0.047828029458865461 0 -0.0049996778729726908 0.044288912975935915 0 -0.0062365227689153736 0.045024432862039859 0 -0.0037115468283341556 0.048127388823120724 0 -0.0031557575125052821 0.048656285647098105 0 -0.0046039307238400565 0.049085185388552798 0 -0.0037115468283341556 0.048127388823120724 0 -0.0046039307238400565 0.049085185388552798 0 -0.0043539655095390182 0.047828029458865461 0 -0.0067142951134807052 0.039968369709127309 0 -0.006924683739716532 0.041299267689393002 0 -0.008902875248852981 0.040573809097839537 0 -0.0053984361288778142 0.040366450112001268 0 -0.0067142951134807052 0.039968369709127309 0 -0.006924683739716532 0.041299267689393002 0 -0.0053984361288778142 0.040366450112001268 0 -0.0045982506708933408 0.039400135189019025 0 -0.0067142951134807052 0.039968369709127309 0 -0.0034288690292225876 0.043992205018162533 0 -0.0049996778729726908 0.044288912975935915 0 -0.0019145014741680226 0.048230613835408095 0 -0.0029476594663469776 0.047854297516784515 0 -0.0031557575125052821 0.048656285647098105 0 -0.0029476594663469776 0.047854297516784515 0 -0.0037115468283341556 0.048127388823120724 0 -0.0031557575125052821 0.048656285647098105 0 -0.0088975833914937928 0.037023136950351407 0 -0.0057189498473509551 0.035710967697141882 0 -0.0053984361288778142 0.040366450112001268 0 -0.006924683739716532 0.041299267689393002 0 -0.0049047027534241212 0.041331314495930242 0 -0.010816626075108578 0.032545589319841417 0 -0.01008107207105158 0.035161949173575527 0 -0.007700040237918199 0.032665002311545531 0 -0.006924683739716532 0.041299267689393002 0 -0.0090142242750824528 0.041263950800960958 0 -0.008902875248852981 0.040573809097839537 0 -0.0088975833914937928 0.037023136950351407 0 -0.011919725239854066 0.036517347715894669 0 -0.010816626075108578 0.032545589319841417 0 -0.01231628606313768 0.034437868015246967 0 -0.013956114924691735 0.032454083568362921 0 -0.010816626075108578 0.032545589319841417 0 -0.01231628606313768 0.034437868015246967 0 -0.01008107207105158 0.035161949173575527 0 -0.01231628606313768 0.034437868015246967 0 -0.01450118586352739 0.035066547364463602 0 -0.012442003137035307 0.037643181431819973 0 -0.01231628606313768 0.034437868015246967 0 -0.01008107207105158 0.035161949173575527 0 -0.012442003137035307 0.037643181431819973 0 -0.0070823528579061178 0.035340471541157117 0 -0.0057189498473509551 0.035710967697141882 0 -0.0050465513338845787 0.035718830841073468 0 -0.0043391851732613521 0.035811916856353564 0 -0.0046816195795931614 0.036135928956348908 0 -0.0050465513338845787 0.035718830841073468 0 -0.0041618653322216858 0.035480328091184815 0 -0.0041701921759197021 0.03514207934005345 0 -0.0050465513338845787 0.035718830841073468 0 -0.0043391851732613521 0.035811916856353564 0 -0.0041618653322216858 0.035480328091184815 0 -0.0041618653322216858 0.035480328091184815 0 -0.0038496342035835309 0.035624116575740244 0 -0.0037733184921778773 0.035391043018380516 0 -0.0043391851732613521 0.035811916856353564 0 -0.0041618653322216858 0.035480328091184815 0 -0.0038496342035835309 0.035624116575740244 0 -0.0043391851732613521 0.035811916856353564 0 -0.0038496342035835309 0.035624116575740244 0 -0.0036391487950928935 0.036065966475347266 0 -0.0043391851732613521 0.035811916856353564 0 -0.0034757530634910551 0.035901363592043413 0 -0.0041990202543916739 0.036320746113803773 0 -0.0039541936144616664 0.035898729369359665 0 -0.0044190608056122538 0.035753918784226742 0 -0.0030087230813950574 0.036216038461842626 0 -0.0036391487950928935 0.036065966475347266 0 -0.003268569325143281 0.035741267945501032 0 -0.0038496342035835309 0.035624116575740244 0 -0.0036391487950928935 0.036065966475347266 0 -0.003268569325143281 0.035741267945501032 0 -0.0038496342035835309 0.035624116575740244 0 -0.003268569325143281 0.035741267945501032 0 -0.0034993383595328374 0.035406644915409624 0 -0.003556741214940551 0.035157223697390404 0 -0.0038818822661668504 0.03520998831784649 0 -0.0037733184921778773 0.035391043018380516 0 -0.0030079523520394895 0.03521178998923695 0 -0.0035881900922925128 0.03488711680299398 0 -0.003556741214940551 0.035157223697390404 0 -0.0038496342035835309 0.035624116575740244 0 -0.0034993383595328374 0.035406644915409624 0 -0.0037733184921778773 0.035391043018380516 0 -0.0030079523520394895 0.03521178998923695 0 -0.0034993383595328374 0.035406644915409624 0 -0.003556741214940551 0.035157223697390404 0 -0.0030079523520394895 0.03521178998923695 0 -0.003268569325143281 0.035741267945501032 0 -0.0034993383595328374 0.035406644915409624 0 -0.0034993383595328374 0.035406644915409624 0 -0.003556741214940551 0.035157223697390404 0 -0.0037733184921778773 0.035391043018380516 0 -0.0035881900922925128 0.03488711680299398 0 -0.003556741214940551 0.035157223697390404 0 -0.0038818822661668504 0.03520998831784649 0 -0.0035255242252118756 0.037273369513324738 0 -0.0057189498473509551 0.035710967697141882 0 -0.0035881900922925128 0.03488711680299398 0 -0.0038818822661668504 0.03520998831784649 0 -0.0040685520290444192 0.035198284419403633 0 -0.0044476550569919893 0.035586111242683072 0 -0.0057189498473509551 0.035710967697141882 0 -0.0041618653322216858 0.035480328091184815 0 -0.0038818822661668504 0.03520998831784649 0 -0.0037733184921778773 0.035391043018380516 0 -0.0041618653322216858 0.035480328091184815 0 -0.0038818822661668504 0.03520998831784649 0 -0.0041701921759197021 0.03514207934005345 0 -0.01319768865150784 0.04781690784366642 0 -0.012606003175374669 0.045000252225121357 0 -0.013524513052694268 0.047840404491387697 0 -0.012921725286698306 0.047875019495261364 0 -0.013710965971445783 0.048185425897891127 0 -0.013524513052694268 0.047840404491387697 0 -0.012921725286698306 0.047875019495261364 0 -0.012871557101655181 0.047802798519709623 0 -0.014536400925106619 0.042219396255380195 0 -0.017946046621283743 0.044651842774411726 0 -0.01297842112370441 0.047997235087337893 0 -0.011733502181507446 0.048063094397424101 0 -0.01231709366937586 0.04712310562638803 0 -0.020839143679248915 0.040489550647425585 0 -0.02153241692109226 0.040674381953095126 0 -0.021419969990754819 0.041041887826861287 0 -0.014226071288411309 0.047829807968282415 0 -0.013710965971445783 0.048185425897891127 0 -0.014682353719817801 0.048562514511209548 0 -0.013524513052694268 0.047840404491387697 0 -0.014226071288411309 0.047829807968282415 0 -0.013710965971445783 0.048185425897891127 0 -0.01319768865150784 0.04781690784366642 0 -0.014100455913289978 0.047849334640658554 0 -0.01297842112370441 0.047997235087337893 0 -0.014226071288411309 0.047829807968282415 0 -0.013573270933049247 0.047226344781602765 0 -0.017946046621283743 0.044651842774411726 0 -0.019493035004810297 0.043538322904652905 0 -0.02153241692109226 0.040674381953095126 0 -0.021773230173436235 0.040954153612313665 0 -0.021982948139619672 0.040929529747089015 0 -0.02153241692109226 0.040674381953095126 0 -0.021773230173436235 0.040954153612313665 0 -0.021419969990754819 0.041041887826861287 0 -0.021773230173436235 0.040954153612313665 0 -0.021788114332340014 0.041089221621289439 0 -0.021419969990754819 0.041041887826861287 0 -0.021773230173436235 0.040954153612313665 0 -0.021788114332340014 0.041089221621289439 0 -0.021876813194656838 0.041035179128888065 0 -0.016738776980550547 0.032481719534337108 0 -0.016698258024311879 0.032488163351561024 0 -0.016665922013824871 0.032535401610381195 0 -0.016742563703089148 0.032488537078049357 0 -0.016738776980550547 0.032481719534337108 0 -0.016665922013824871 0.032535401610381195 0 -0.014536400925106619 0.042219396255380195 0 -0.019314570186362196 0.03602809748348678 0 -0.016738776980550547 0.032481719534337108 0 -0.016698258024311879 0.032488163351561024 0 -0.016725308501532848 0.03243173394025281 0 -0.016698258024311879 0.032488163351561024 0 -0.016733092013457011 0.032502180600259958 0 -0.016729959960973376 0.032431956428940027 0 -0.016698258024311879 0.032488163351561024 0 -0.016733092013457011 0.032502180600259958 0 -0.016665922013824871 0.032535401610381195 0 -0.01231628606313768 0.034437868015246967 0 -0.01450118586352739 0.035066547364463602 0 -0.013956114924691735 0.032454083568362921 0 -0.01450118586352739 0.035066547364463602 0 -0.013956114924691735 0.032454083568362921 0 -0.01647891407393437 0.03253039280471836 0 -0.011809706233240036 0.042204984856231406 0 -0.0062365227689153736 0.045024432862039859 0 -0.0090142242750824528 0.041263950800960958 0 -0.011157155970005994 0.041226917078652635 0 -0.008902875248852981 0.040573809097839537 0 -0.013956114924691735 0.032454083568362921 0 -0.01647891407393437 0.03253039280471836 0 -0.016855620830259314 0.032414929825753405 0 -0.011919725239854066 0.036517347715894669 0 -0.011809706233240036 0.042204984856231406 0 -0.016733092013457011 0.032502180600259958 0 -0.016665922013824871 0.032535401610381195 0 -0.01647891407393437 0.03253039280471836 0 -0.01578798637683906 0.033729232014301523 0 -0.016391104682130644 0.032653204421583849 0 -0.016742563703089148 0.032488537078049357 0 -0.016665922013824871 0.032535401610381195 0 -0.016855620830259314 0.032414929825753405 0 -0.016665922013824871 0.032535401610381195 0 -0.01647891407393437 0.03253039280471836 0 -0.016855620830259314 0.032414929825753405 0 -0.014450317850362297 0.042471203058873593 0 -0.012114700789968942 0.041806137616076919 0 -0.013918859577766955 0.041749764310714373 0 -0.011809706233240036 0.042204984856231406 0 -0.012606003175374669 0.045000252225121357 0 -0.014536400925106619 0.042219396255380195 0 -0.011809706233240036 0.042204984856231406 0 -0.014536400925106619 0.042219396255380195 0 -0.012606003175374669 0.045000252225121357 0 -0.011733502181507446 0.048063094397424101 0 -0.010499821336788241 0.046498569846302004 0 -0.01231709366937586 0.04712310562638803 0 -0.010499821336788241 0.046498569846302004 0 -0.01179684913268334 0.046167200910611404 0 -0.01231709366937586 0.04712310562638803 0 -0.0061611585451160173 0.049471182138848671 0 -0.0064506659445907116 0.049453026792434067 0 -0.005328991839096936 0.048136852964499169 0 -0.012606003175374669 0.045000252225121357 0 -0.0075693514010127128 0.047827448794888441 0 -0.0061611585451160173 0.049471182138848671 0 -0.0046039307238400565 0.049085185388552798 0 -0.005328991839096936 0.048136852964499169 0 -0.0046039307238400565 0.049085185388552798 0 -0.005328991839096936 0.048136852964499169 0 -0.0043539655095390182 0.047828029458865461 0 -0.009297016824803505 0.044947222325006385 0 -0.010499821336788241 0.046498569846302004 0 -0.01080573215519658 0.045319601178190054 0 -0.0068878271119166192 0.045831068197743491 0 -0.0075693514010127128 0.047827448794888441 0 -0.0042825214044126094 0.046880167157246362 0 -0.005328991839096936 0.048136852964499169 0 -0.0043539655095390182 0.047828029458865461 0 -0.012094355800948536 0.045355019147259916 0 -0.01179684913268334 0.046167200910611404 0 -0.01080573215519658 0.045319601178190054 0 -0.010499821336788241 0.046498569846302004 0 -0.01179684913268334 0.046167200910611404 0 -0.01080573215519658 0.045319601178190054 0 -0.012094355800948536 0.045355019147259916 0 -0.01179684913268334 0.046167200910611404 0 -0.013171608279405708 0.046413557919388324 0 -0.012170572584435234 0.045361064497102289 0 -0.013073727917637157 0.046334608786454845 0 -0.012210926440575611 0.045460588066183638 0 -0.013171608279405708 0.046413557919388324 0 -0.012678483281870653 0.045358980055476936 0 -0.01297842112370441 0.047997235087337893 0 -0.01231709366937586 0.04712310562638803 0 -0.013573270933049247 0.047226344781602765 0 -0.01179684913268334 0.046167200910611404 0 -0.01231709366937586 0.04712310562638803 0 -0.013171608279405708 0.046413557919388324 0 -0.01231709366937586 0.04712310562638803 0 -0.013573270933049247 0.047226344781602765 0 -0.013171608279405708 0.046413557919388324 0 -0.014226071288411309 0.047829807968282415 0 -0.013573270933049247 0.047226344781602765 0 -0.014417349721713565 0.047071733587022865 0 -0.013573270933049247 0.047226344781602765 0 -0.014143370953398978 0.046233285188183371 0 -0.013171608279405708 0.046413557919388324 0 -0.013573270933049247 0.047226344781602765 0 -0.014143370953398978 0.046233285188183371 0 -0.014417349721713565 0.047071733587022865 0 -0.01150079967240111 0.052085282166164176 0 -0.0094998752361560822 0.050762399707834999 0 -0.01241156275912042 0.050148074094095628 0 -0.012387217318909937 0.049353092544842173 0 -0.011100410153659731 0.048188680540776505 0 -0.014143370953398978 0.046233285188183371 0 -0.013171608279405708 0.046413557919388324 0 -0.012678483281870653 0.045358980055476936 0 -0.0094998752361560822 0.050762399707834999 0 -0.010599588004050737 0.04889613887706791 0 -0.01241156275912042 0.050148074094095628 0 -0.0094998752361560822 0.050762399707834999 0 -0.0090399682761940214 0.048895016298431779 0 -0.0076520235503197984 0.049484104603919436 0 -0.0094998752361560822 0.050762399707834999 0 -0.0090399682761940214 0.048895016298431779 0 -0.010599588004050737 0.04889613887706791 0 -0.012210926440575611 0.045460588066183638 0 -0.012678483281870653 0.045358980055476936 0 -0.011258954783226575 0.044529639006379483 0 -0.011100410153659731 0.048188680540776505 0 -0.010247251262499949 0.045644199404990593 0 -0.0090399682761940214 0.048895016298431779 0 -0.0079068437161292204 0.047773984097553443 0 -0.0093703782393999534 0.047161116015248236 0 -0.0090399682761940214 0.048895016298431779 0 -0.010599588004050737 0.04889613887706791 0 -0.0093703782393999534 0.047161116015248236 0 -0.010599588004050737 0.04889613887706791 0 -0.011252124795685164 0.046700568514006245 0 -0.012527731266150749 0.048182300540772618 0 -0.009297016824803505 0.044947222325006385 0 -0.010099088746724898 0.044510217571739431 0 -0.01080573215519658 0.045319601178190054 0 -0.009297016824803505 0.044947222325006385 0 -0.010099088746724898 0.044510217571739431 0 -0.0093754356700324042 0.044024889390125665 0 -0.010099088746724898 0.044510217571739431 0 -0.011032212699859479 0.044337627788793126 0 -0.010001952848494857 0.043766685693884984 0 -0.012094355800948536 0.045355019147259916 0 -0.011032212699859479 0.044337627788793126 0 -0.01080573215519658 0.045319601178190054 0 -0.010099088746724898 0.044510217571739431 0 -0.011032212699859479 0.044337627788793126 0 -0.01080573215519658 0.045319601178190054 0 -0.012170572584435234 0.045361064497102289 0 -0.010247251262499949 0.045644199404990593 0 -0.0090399682761940214 0.048895016298431779 0 -0.0076520235503197984 0.049484104603919436 0 -0.0079068437161292204 0.047773984097553443 0 -0.0076520235503197984 0.049484104603919436 0 -0.0065261789860720579 0.048236584796177324 0 -0.0079068437161292204 0.047773984097553443 0 -0.010247251262499949 0.045644199404990593 0 -0.0082811509020077872 0.045862966698079516 0 -0.010247251262499949 0.045644199404990593 0 -0.010062385234966952 0.043933572411692698 0 -0.010905864219399503 0.044375536587520192 0 -0.010001952848494857 0.043766685693884984 0 -0.010033328809946306 0.043420021736080235 0 -0.010001952848494857 0.043766685693884984 0 -0.010033328809946306 0.043420021736080235 0 -0.0093338084194447158 0.043461840285193093 0 -0.009096765023604389 0.042477034180652969 0 -0.010033328809946306 0.043420021736080235 0 -0.0093338084194447158 0.043461840285193093 0 -0.010001952848494857 0.043766685693884984 0 -0.0093338084194447158 0.043461840285193093 0 -0.0093754356700324042 0.044024889390125665 0 -0.010099088746724898 0.044510217571739431 0 -0.010001952848494857 0.043766685693884984 0 -0.0093754356700324042 0.044024889390125665 0 -0.0054094147522843134 0.047031383296167711 0 -0.0065261789860720579 0.048236584796177324 0 -0.0067109076818054857 0.04665449111339158 0 -0.0059930208609809505 0.046311557428618186 0 -0.0064768903128036917 0.046511044083786236 0 -0.0054094147522843134 0.047031383296167711 0 -0.0059092766246787226 0.046510317216206881 0 -0.0067109076818054857 0.04665449111339158 0 -0.0069389916835867925 0.045237499420046276 0 -0.0059930208609809505 0.046311557428618186 0 -0.0069389916835867925 0.045237499420046276 0 -0.0082811509020077872 0.045862966698079516 0 -0.0067109076818054857 0.04665449111339158 0 -0.0079068437161292204 0.047773984097553443 0 -0.0081864616076999051 0.046271451115934566 0 -0.0065261789860720579 0.048236584796177324 0 -0.0067109076818054857 0.04665449111339158 0 -0.0079068437161292204 0.047773984097553443 0 -0.0073629163605510835 0.044999982560936992 0 -0.0081864616076999051 0.046271451115934566 0 -0.0097424485130265283 0.044999950309386021 0 -0.0067109076818054857 0.04665449111339158 0 -0.0073629163605510835 0.044999982560936992 0 -0.0081864616076999051 0.046271451115934566 0 -0.0046651849955800604 0.044999995109583246 0 -0.0073628597053135526 0.044999996158576028 0 -0.0056549084419737043 0.045714629721534721 0 -0.0058927738990059847 0.046532047387435639 0 -0.0073628597053135526 0.044999996158576028 0 -0.0056549084419737043 0.045714629721534721 0 -0.0059930208609809505 0.046311557428618186 0 -0.0073623846773658401 0.045000550890307627 0 -0.0059207590335341644 0.046517033244932178 0 -0.0067109076818054857 0.04665449111339158 0 -0.0073629163605510835 0.044999982560936992 0 -0.010599588004050737 0.04889613887706791 0 -0.011252124795685164 0.046700568514006245 0 -0.0093703782393999534 0.047161116015248236 0 -0.0079068437161292204 0.047773984097553443 0 -0.0081864616076999051 0.046271451115934566 0 -0.0093703782393999534 0.047161116015248236 0 -0.0081864616076999051 0.046271451115934566 0 -0.0093703782393999534 0.047161116015248236 0 -0.0097424485130265283 0.044999950309386021 0 -0.011252124795685164 0.046700568514006245 0 -0.0097424485130265283 0.044999950309386021 0 -0.012122210197972515 0.044999836614889648 0 -0.011252124795685164 0.046700568514006245 0 -0.0093703782393999534 0.047161116015248236 0 -0.0097424485130265283 0.044999950309386021 0 -0.011252124795685164 0.046700568514006245 0 -0.012122210197972515 0.044999836614889648 0 -0.013899896957273563 0.046638502380663131 0 -0.011252124795685164 0.046700568514006245 0 -0.013899896957273563 0.046638502380663131 0 -0.012527731266150749 0.048182300540772618 0 -0.012122210197972515 0.044999836614889648 0 -0.013899896957273563 0.046638502380663131 0 -0.014502250995597144 0.044999727285874584 0 -0.013899896957273563 0.046638502380663131 0 -0.014502250995597144 0.044999727285874584 0 -0.016093090703482374 0.046268530718137225 0 -0.017537358556369727 0.046734375642601945 0 -0.016881173628815842 0.045000235922351979 0 -0.014502250995597144 0.044999727285874584 0 -0.016093090703482374 0.046268530718137225 0 -0.016881451614078072 0.04500027713186263 0 -0.016093090703482374 0.046268530718137225 0 -0.017154933039429762 0.047383513632519463 0 -0.016881451614078072 0.04500027713186263 0 -0.016093090703482374 0.046268530718137225 0 -0.017154933039429762 0.047383513632519463 0 -0.016870401888896606 0.047650139724866349 0 -0.013899896957273563 0.046638502380663131 0 -0.016093090703482374 0.046268530718137225 0 -0.016870401888896606 0.047650139724866349 0 -0.016870401888896606 0.047650139724866349 0 -0.014937246038708952 0.050784437350915777 0 -0.014176028737858034 0.048695262018675842 0 -0.013899896957273563 0.046638502380663131 0 -0.016870401888896606 0.047650139724866349 0 -0.014176028737858034 0.048695262018675842 0 -0.017537358556369727 0.046734375642601945 0 -0.018023305406622416 0.046748656845286264 0 -0.017154933039429762 0.047383513632519463 0 -0.016870401888896606 0.047650139724866349 0 -0.018110874013666654 0.046680865837357859 0 -0.016870401888896606 0.047650139724866349 0 -0.018110874013666654 0.046680865837357859 0 -0.019644870412169294 0.046459495113109497 0 -0.017115941745769577 0.04743098327464168 0 -0.017082031731140594 0.049007170633596213 0 -0.014937246038708952 0.050784437350915777 0 -0.01241156275912042 0.050148074094095628 0 -0.014176028737858034 0.048695262018675842 0 -0.010599588004050737 0.04889613887706791 0 -0.01241156275912042 0.050148074094095628 0 -0.012527731266150749 0.048182300540772618 0 -0.01241156275912042 0.050148074094095628 0 -0.012527731266150749 0.048182300540772618 0 -0.014176028737858034 0.048695262018675842 0 -0.013899896957273563 0.046638502380663131 0 -0.012527731266150749 0.048182300540772618 0 -0.014176028737858034 0.048695262018675842 0 -0.020948022408571989 0.046013177370424457 0 -0.02204702990772819 0.044999544346211673 0 -0.022437785867748562 0.045960842010356474 0 -0.020948022408571989 0.046013177370424457 0 -0.02204702990772819 0.044999544346211673 0 -0.019464170179938706 0.044999509755808666 0 -0.020948022408571989 0.046013177370424457 0 -0.019254164961476684 0.046093290829145421 0 -0.019464170179938706 0.044999509755808666 0 -0.019254164961476684 0.046093290829145421 0 -0.019464170179938706 0.044999509755808666 0 -0.018356780477482442 0.04566889848949679 0 -0.017917705430651909 0.046196043997587172 0 -0.018356780477482442 0.04566889848949679 0 -0.01688311944560613 0.044999578870537647 0 -0.019464170179938706 0.044999509755808666 0 -0.018356780477482442 0.04566889848949679 0 -0.01688311944560613 0.044999578870537647 0 -0.017917705430651909 0.046196043997587172 0 -0.019254164961476684 0.046093290829145421 0 -0.018356780477482442 0.04566889848949679 0 -0.017917705430651909 0.046196043997587172 0 -0.018110874013666654 0.046680865837357859 0 -0.0187717824765751 0.046468231140438909 0 -0.017917705430651909 0.046196043997587172 0 -0.019254164961476684 0.046093290829145421 0 -0.0187717824765751 0.046468231140438909 0 -0.018110874013666654 0.046680865837357859 0 -0.0187717824765751 0.046468231140438909 0 -0.018844350369749369 0.046791940724211355 0 -0.019254164961476684 0.046093290829145421 0 -0.0187717824765751 0.046468231140438909 0 -0.02045663407102076 0.046266449778773887 0 -0.020948022408571989 0.046013177370424457 0 -0.019254164961476684 0.046093290829145421 0 -0.02045663407102076 0.046266449778773887 0 -0.020345997597965695 0.046184547246226455 0 -0.019809412836132006 0.045828427476383 0 -0.02045663407102076 0.046266449778773887 0 -0.020348967569349619 0.044664206043836398 0 -0.02077961171307675 0.044912803267117773 0 -0.0187717824765751 0.046468231140438909 0 -0.02045663407102076 0.046266449778773887 0 -0.018844350369749369 0.046791940724211355 0 -0.02045663407102076 0.046266449778773887 0 -0.020321497785715289 0.045468551645068141 0 -0.020348967569349619 0.044664206043836398 0 -0.02045663407102076 0.046266449778773887 0 -0.020321497785715289 0.045468551645068141 0 -0.021020100189573777 0.046222050177885964 0 -0.020948022408571989 0.046013177370424457 0 -0.02045663407102076 0.046266449778773887 0 -0.021020100189573777 0.046222050177885964 0 -0.019862976960202075 0.043847937843739686 0 -0.019892352073982114 0.04454980706249452 0 -0.020348967569349619 0.044664206043836398 0 -0.019862976960202075 0.043847937843739686 0 -0.019892352073982114 0.04454980706249452 0 -0.019387896714785448 0.043687248262400689 0 -0.019892352073982114 0.04454980706249452 0 -0.020321497785715289 0.045468551645068141 0 -0.020348967569349619 0.044664206043836398 0 -0.020348967569349619 0.044664206043836398 0 -0.020547848114120252 0.043910064956358963 0 -0.02077961171307675 0.044912803267117773 0 -0.019862976960202075 0.043847937843739686 0 -0.020348967569349619 0.044664206043836398 0 -0.02014597675141485 0.043523288076302923 0 -0.020348967569349619 0.044664206043836398 0 -0.02014597675141485 0.043523288076302923 0 -0.020547848114120252 0.043910064956358963 0 -0.02014597675141485 0.043523288076302923 0 -0.020547848114120252 0.043910064956358963 0 -0.020276403544867976 0.042889410279587238 0 -0.019809412836132006 0.045828427476383 0 -0.019478418058043959 0.044816182385993386 0 -0.020547848114120252 0.043910064956358963 0 -0.02077961171307675 0.044912803267117773 0 -0.020707477044216428 0.043703912141593491 0 -0.018110874013666654 0.046680865837357859 0 -0.018844350369749369 0.046791940724211355 0 -0.018138964434278457 0.045915537944914764 0 -0.020547848114120252 0.043910064956358963 0 -0.020707477044216428 0.043703912141593491 0 -0.020484091324341029 0.043309882239923582 0 -0.020707477044216428 0.043703912141593491 0 -0.020484091324341029 0.043309882239923582 0 -0.019895606958470993 0.043713991814458043 0 -0.020484091324341029 0.043309882239923582 0 -0.020638369382673358 0.042159733251527706 0 -0.020276403544867976 0.042889410279587238 0 -0.020638369382673358 0.042159733251527706 0 -0.020098226367142598 0.041776479124688994 0 -0.020100789447378999 0.040550528176488652 0 -0.020638369382673358 0.042159733251527706 0 -0.020098226367142598 0.041776479124688994 0 -0.020276403544867976 0.042889410279587238 0 -0.020098226367142598 0.041776479124688994 0 -0.020276403544867976 0.042889410279587238 0 -0.01990521049965556 0.042497283937088924 0 -0.020547848114120252 0.043910064956358963 0 -0.020484091324341029 0.043309882239923582 0 -0.020276403544867976 0.042889410279587238 0 -0.02014597675141485 0.043523288076302923 0 -0.01990521049965556 0.042497283937088924 0 -0.019707233561624075 0.042939779471852214 0 -0.02014597675141485 0.043523288076302923 0 -0.020276403544867976 0.042889410279587238 0 -0.01990521049965556 0.042497283937088924 0 -0.019862976960202075 0.043847937843739686 0 -0.02014597675141485 0.043523288076302923 0 -0.019707233561624075 0.042939779471852214 0 -0.01990521049965556 0.042497283937088924 0 -0.019472177274307483 0.042193698765389462 0 -0.019707233561624075 0.042939779471852214 0 -0.020098226367142598 0.041776479124688994 0 -0.01990521049965556 0.042497283937088924 0 -0.019664261513150684 0.041523447382370293 0 -0.019664261513150684 0.041523447382370293 0 -0.019472177274307483 0.042193698765389462 0 -0.019284898722817835 0.041568749784441181 0 -0.01990521049965556 0.042497283937088924 0 -0.019664261513150684 0.041523447382370293 0 -0.019472177274307483 0.042193698765389462 0 -0.019284898722817835 0.041568749784441181 0 -0.018914942247394644 0.041771660637288696 0 -0.019183619743075357 0.040844840858891486 0 -0.019664261513150684 0.041523447382370293 0 -0.019284898722817835 0.041568749784441181 0 -0.019183619743075357 0.040844840858891486 0 -0.019472177274307483 0.042193698765389462 0 -0.019284898722817835 0.041568749784441181 0 -0.018914942247394644 0.041771660637288696 0 -0.019472177274307483 0.042193698765389462 0 -0.018914942247394644 0.041771660637288696 0 -0.01917344368825329 0.042595681920513009 0 -0.018914942247394644 0.041771660637288696 0 -0.01917344368825329 0.042595681920513009 0 -0.018719964111560908 0.042594659170761766 0 -0.01917344368825329 0.042595681920513009 0 -0.01894681378888298 0.042925436724197012 0 -0.019197336706346657 0.043163302754583972 0 -0.01917344368825329 0.042595681920513009 0 -0.019467282511079011 0.043260603091252549 0 -0.019197336706346657 0.043163302754583972 0 -0.01917344368825329 0.042595681920513009 0 -0.019707233561624075 0.042939779471852214 0 -0.019467282511079011 0.043260603091252549 0 -0.019472177274307483 0.042193698765389462 0 -0.01917344368825329 0.042595681920513009 0 -0.019707233561624075 0.042939779471852214 0 -0.019862976960202075 0.043847937843739686 0 -0.019707233561624075 0.042939779471852214 0 -0.019467282511079011 0.043260603091252549 0 -0.019862976960202075 0.043847937843739686 0 -0.019467282511079011 0.043260603091252549 0 -0.019387896714785448 0.043687248262400689 0 -0.019467282511079011 0.043260603091252549 0 -0.019197336706346657 0.043163302754583972 0 -0.019387896714785448 0.043687248262400689 0 -0.01150079967240111 0.052085282166164176 0 -0.01241156275912042 0.050148074094095628 0 -0.01357470052968983 0.05338257633920776 0 -0.014937246038708952 0.050784437350915777 0 -0.01241156275912042 0.050148074094095628 0 -0.01357470052968983 0.05338257633920776 0 -0.014226071288411309 0.047829807968282415 0 -0.015477450784121393 0.047122459652960753 0 -0.014417349721713565 0.047071733587022865 0 -0.014143370953398978 0.046233285188183371 0 -0.015477450784121393 0.047122459652960753 0 -0.014417349721713565 0.047071733587022865 0 -0.012387217318909937 0.049353092544842173 0 -0.018026649880156526 0.047032680613635615 0 -0.017082031731140594 0.049007170633596213 0 -0.018026649880156526 0.047032680613635615 0 -0.019644870412169294 0.046459495113109497 0 -0.021113502185702245 0.044778634750700028 0 -0.019962757230803947 0.045252555012115572 0 -0.019644870412169294 0.046459495113109497 0 -0.019077539887379698 0.045439189687446382 0 -0.019962757230803947 0.045252555012115572 0 -0.018110874013666654 0.046680865837357859 0 -0.018138964434278457 0.045915537944914764 0 -0.019077539887379698 0.045439189687446382 0 -0.018110874013666654 0.046680865837357859 0 -0.019644870412169294 0.046459495113109497 0 -0.019077539887379698 0.045439189687446382 0 -0.018138964434278457 0.045915537944914764 0 -0.019077539887379698 0.045439189687446382 0 -0.019895606958470993 0.043713991814458043 0 -0.019077539887379698 0.045439189687446382 0 -0.019999761146870267 0.044509054305795465 0 -0.019895606958470993 0.043713991814458043 0 -0.019478418058043959 0.044816182385993386 0 -0.019900985204495143 0.04383086870009012 0 -0.021113502185702245 0.044778634750700028 0 -0.019999761146870267 0.044509054305795465 0 -0.020060569728878614 0.043663647042441522 0 -0.021113502185702245 0.044778634750700028 0 -0.019962757230803947 0.045252555012115572 0 -0.019999761146870267 0.044509054305795465 0 -0.019077539887379698 0.045439189687446382 0 -0.019962757230803947 0.045252555012115572 0 -0.019999761146870267 0.044509054305795465 0 -0.021723997040750894 0.04230612908834934 0 -0.021908063415654062 0.041898160968573732 0 -0.022417622620800617 0.042274213990866533 0 -0.019999761146870267 0.044509054305795465 0 -0.020060569728878614 0.043663647042441522 0 -0.019895606958470993 0.043713991814458043 0 -0.020638369382673358 0.042159733251527706 0 -0.020060569728878614 0.043663647042441522 0 -0.019895606958470993 0.043713991814458043 0 -0.020297155982238635 0.042245239069171485 0 -0.021516508524597237 0.042613651425874331 0 -0.020484091324341029 0.043309882239923582 0 -0.020638369382673358 0.042159733251527706 0 -0.019895606958470993 0.043713991814458043 0 -0.020638369382673358 0.042159733251527706 0 -0.021624608723293984 0.04171581470390584 0 -0.020978841089837091 0.040631010563682762 0 -0.020638369382673358 0.042159733251527706 0 -0.021723997040750894 0.04230612908834934 0 -0.021624608723293984 0.04171581470390584 0 -0.021723997040750894 0.04230612908834934 0 -0.021908063415654062 0.041898160968573732 0 -0.021624608723293984 0.04171581470390584 0 -0.021908063415654062 0.041898160968573732 0 -0.021624608723293984 0.04171581470390584 0 -0.022186321404463832 0.041425847400545418 0 -0.021624608723293984 0.04171581470390584 0 -0.022186321404463832 0.041425847400545418 0 -0.022111819993171276 0.041080176983166614 0 -0.022186321404463832 0.041425847400545418 0 -0.021975176624478045 0.040957734279596945 0 -0.022014101787930229 0.041123816513636093 0 -0.021908063415654062 0.041898160968573732 0 -0.022186321404463832 0.041425847400545418 0 -0.022417622620800617 0.042274213990866533 0 -0.022186321404463832 0.041425847400545418 0 -0.022014101787930229 0.041123816513636093 0 -0.022114557732089021 0.041196276276267145 0 -0.023298180648676722 0.041110140366431701 0 -0.019493035004810297 0.043538322904652905 0 -0.022186321404463832 0.041425847400545418 0 -0.022417622620800617 0.042274213990866533 0 -0.02325620727147128 0.041856754284608326 0 -0.022669974243717212 0.04298406588613455 0 -0.021723997040750894 0.04230612908834934 0 -0.022417622620800617 0.042274213990866533 0 -0.022669974243717212 0.04298406588613455 0 -0.022417622620800617 0.042274213990866533 0 -0.02325620727147128 0.041856754284608326 0 -0.018026649880156526 0.047032680613635615 0 -0.021516508524597237 0.042613651425874331 0 -0.014226071288411309 0.047829807968282415 0 -0.015477450784121393 0.047122459652960753 0 -0.014682353719817801 0.048562514511209548 0 -0.018026649880156526 0.047032680613635615 0 -0.019493035004810297 0.043538322904652905 0 -0.021975176624478045 0.040957734279596945 0 -0.021964326926244487 0.040968421041737403 0 -0.022014101787930229 0.041123816513636093 0 -0.021773230173436235 0.040954153612313665 0 -0.021982948139619672 0.040929529747089015 0 -0.021964326926244487 0.040968421041737403 0 -0.021773230173436235 0.040954153612313665 0 -0.021964326926244487 0.040968421041737403 0 -0.021876813194656838 0.041035179128888065 0 -0.019493035004810297 0.043538322904652905 0 -0.019719424746152139 0.043161807471156409 0 -0.021964326926244487 0.040968421041737403 0 -0.022014101787930229 0.041123816513636093 0 -0.021876813194656838 0.041035179128888065 0 -0.021788114332340014 0.041089221621289439 0 -0.022014101787930229 0.041123816513636093 0 -0.021876813194656838 0.041035179128888065 0 -0.022014101787930229 0.041123816513636093 0 -0.02204568292750991 0.041171020072450534 0 -0.02187499902310451 0.041220578077875644 0 -0.021788114332340014 0.041089221621289439 0 -0.022014101787930229 0.041123816513636093 0 -0.02187499902310451 0.041220578077875644 0 -0.02204568292750991 0.041171020072450534 0 -0.022025910394602582 0.041160846591622974 0 -0.02187499902310451 0.041220578077875644 0 -0.022025910394602582 0.041160846591622974 0 -0.022043814263137926 0.041096436415142837 0 -0.02187499902310451 0.041220578077875644 0 -0.019486194449985311 0.036869905084647041 0 -0.019349241284284738 0.036859010261022958 0 -0.022025910394602582 0.041160846591622974 0 -0.02198961901137593 0.041124775413553478 0 -0.022043814263137926 0.041096436415142837 0 -0.022025910394602582 0.041160846591622974 0 -0.02198961901137593 0.041124775413553478 0 -0.022058279309540907 0.041143079041051203 0 -0.02198961901137593 0.041124775413553478 0 -0.022058279309540907 0.041143079041051203 0 -0.022111819993171276 0.041080176983166614 0 -0.02204568292750991 0.041171020072450534 0 -0.022025910394602582 0.041160846591622974 0 -0.022058279309540907 0.041143079041051203 0 -0.02204568292750991 0.041171020072450534 0 -0.022058279309540907 0.041143079041051203 0 -0.022114557732089021 0.041196276276267145 0 -0.022014101787930229 0.041123816513636093 0 -0.02204568292750991 0.041171020072450534 0 -0.022114557732089021 0.041196276276267145 0 -0.022186321404463832 0.041425847400545418 0 -0.022114557732089021 0.041196276276267145 0 -0.022111819993171276 0.041080176983166614 0 -0.022058279309540907 0.041143079041051203 0 -0.022114557732089021 0.041196276276267145 0 -0.022111819993171276 0.041080176983166614 0 -0.021624608723293984 0.04171581470390584 0 -0.022111819993171276 0.041080176983166614 0 -0.020978841089837091 0.040631010563682762 0 -0.022111819993171276 0.041080176983166614 0 -0.020978841089837091 0.040631010563682762 0 -0.021209156232325756 0.03914741372030036 0 -0.020978841089837091 0.040631010563682762 0 -0.021209156232325756 0.03914741372030036 0 -0.02005279701751763 0.038475821516382618 0 -0.022830809322156906 0.038966226215654473 0 -0.022111819993171276 0.041080176983166614 0 -0.021209156232325756 0.03914741372030036 0 -0.022544574707002992 0.040712027301192014 0 -0.02214535068820887 0.040744679792042347 0 -0.022830809322156906 0.038966226215654473 0 -0.021074961330389653 0.036887482950535774 0 -0.023443167118247 0.036266935899218769 0 -0.022830809322156906 0.038966226215654473 0 -0.021209156232325756 0.03914741372030036 0 -0.021074961330389653 0.036887482950535774 0 -0.021209156232325756 0.03914741372030036 0 -0.021074961330389653 0.036887482950535774 0 -0.02005279701751763 0.038475821516382618 0 -0.021074961330389653 0.036887482950535774 0 -0.02005279701751763 0.038475821516382618 0 -0.01924269692392138 0.034721988637549148 0 -0.021074961330389653 0.036887482950535774 0 -0.020075818896165359 0.033068369294108405 0 -0.01924269692392138 0.034721988637549148 0 -0.021074961330389653 0.036887482950535774 0 -0.023443167118247 0.036266935899218769 0 -0.020075818896165359 0.033068369294108405 0 -0.020336028996775009 0.035099788007949301 0 -0.017858512279155494 0.031698688438358019 0 -0.017112938022252527 0.032186160351147283 0 -0.017080711935939748 0.032179794406993437 0 -0.017315552379161464 0.032048273493339927 0 -0.017080711935939748 0.032179794406993437 0 -0.017004603324360774 0.032277136352544519 0 -0.016826324288584823 0.032316533958385699 0 -0.017112938022252527 0.032186160351147283 0 -0.017080711935939748 0.032179794406993437 0 -0.017004603324360774 0.032277136352544519 0 -0.022544574707002992 0.040712027301192014 0 -0.020336028996775009 0.035099788007949301 0 -0.02198961901137593 0.041124775413553478 0 -0.02196647553086524 0.040883661530602348 0 -0.022043814263137926 0.041096436415142837 0 -0.020336028996775009 0.035099788007949301 0 -0.019486194449985311 0.036869905084647041 0 -0.018920152637763841 0.039829835906423756 0 -0.018494673715833215 0.038782898489175419 0 -0.018679477724362032 0.039660029869752679 0 -0.018920152637763841 0.039829835906423756 0 -0.019396574543883553 0.039831603920905533 0 -0.018494673715833215 0.038782898489175419 0 -0.018920152637763841 0.039829835906423756 0 -0.018812995868015873 0.040650388430332966 0 -0.019183619743075357 0.040844840858891486 0 -0.018920152637763841 0.039829835906423756 0 -0.018812995868015873 0.040650388430332966 0 -0.018679477724362032 0.039660029869752679 0 -0.018914942247394644 0.041771660637288696 0 -0.018812995868015873 0.040650388430332966 0 -0.019183619743075357 0.040844840858891486 0 -0.018920152637763841 0.039829835906423756 0 -0.019183619743075357 0.040844840858891486 0 -0.019396574543883553 0.039831603920905533 0 -0.019664261513150684 0.041523447382370293 0 -0.019396574543883553 0.039831603920905533 0 -0.020100789447378999 0.040550528176488652 0 -0.019664261513150684 0.041523447382370293 0 -0.019183619743075357 0.040844840858891486 0 -0.019396574543883553 0.039831603920905533 0 -0.019396574543883553 0.039831603920905533 0 -0.019918326803314575 0.039252868919802626 0 -0.019915225997967662 0.038314418148004549 0 -0.019396574543883553 0.039831603920905533 0 -0.019918326803314575 0.039252868919802626 0 -0.020100789447378999 0.040550528176488652 0 -0.020098226367142598 0.041776479124688994 0 -0.019664261513150684 0.041523447382370293 0 -0.020100789447378999 0.040550528176488652 0 -0.020638369382673358 0.042159733251527706 0 -0.020978841089837091 0.040631010563682762 0 -0.020100789447378999 0.040550528176488652 0 -0.020978841089837091 0.040631010563682762 0 -0.020100789447378999 0.040550528176488652 0 -0.02005279701751763 0.038475821516382618 0 -0.019918326803314575 0.039252868919802626 0 -0.020100789447378999 0.040550528176488652 0 -0.02005279701751763 0.038475821516382618 0 -0.02005279701751763 0.038475821516382618 0 -0.017508195761942538 0.035077822306312019 0 -0.01924269692392138 0.034721988637549148 0 -0.020090544400693574 0.03831661218496292 0 -0.018585872282897223 0.035986595311474315 0 -0.020277659200309054 0.036924432345465781 0 -0.019915225997967662 0.038314418148004549 0 -0.02022793738596175 0.036491738524036157 0 -0.019918326803314575 0.039252868919802626 0 -0.02005279701751763 0.038475821516382618 0 -0.019915225997967662 0.038314418148004549 0 -0.02005279701751763 0.038475821516382618 0 -0.020277659200309054 0.036924432345465781 0 -0.019915225997967662 0.038314418148004549 0 -0.019396574543883553 0.039831603920905533 0 -0.019915225997967662 0.038314418148004549 0 -0.018494673715833215 0.038782898489175419 0 -0.019915225997967662 0.038314418148004549 0 -0.02022793738596175 0.036491738524036157 0 -0.018494673715833215 0.038782898489175419 0 -0.020236294582999623 0.036375310634087415 0 -0.020893832788798642 0.035658600404734786 0 -0.02022793738596175 0.036491738524036157 0 -0.02265357425649395 0.035692810452647418 0 -0.023129843741720103 0.032234748539095658 0 -0.02265357425649395 0.035692810452647418 0 -0.023129843741720103 0.032234748539095658 0 -0.025119271263727906 0.034935282427170464 0 -0.022277183688829538 0.038302110996644281 0 -0.023230204725570087 0.036969987238874714 0 -0.024882030300458192 0.038744633376808342 0 -0.022277183688829538 0.038302110996644281 0 -0.021445213486755949 0.040211756187589605 0 -0.024882030300458192 0.038744633376808342 0 -0.02265357425649395 0.035692810452647418 0 -0.023230204725570087 0.036969987238874714 0 -0.025119271263727906 0.034935282427170464 0 -0.02265357425649395 0.035692810452647418 0 -0.023230204725570087 0.036969987238874714 0 -0.021375248452512471 0.037160654970950606 0 -0.022277183688829538 0.038302110996644281 0 -0.023230204725570087 0.036969987238874714 0 -0.021375248452512471 0.037160654970950606 0 -0.02022793738596175 0.036491738524036157 0 -0.021375248452512471 0.037160654970950606 0 -0.020520812523022701 0.037458209018509346 0 -0.02022793738596175 0.036491738524036157 0 -0.02265357425649395 0.035692810452647418 0 -0.021375248452512471 0.037160654970950606 0 -0.022277183688829538 0.038302110996644281 0 -0.020272718939575787 0.038392579305697776 0 -0.021445213486755949 0.040211756187589605 0 -0.022277183688829538 0.038302110996644281 0 -0.021375248452512471 0.037160654970950606 0 -0.020272718939575787 0.038392579305697776 0 -0.020690717391157101 0.037463317653336048 0 -0.020547503491878907 0.035269800305819256 0 -0.020547503491878907 0.035269800305819256 0 -0.025118174643016182 0.029578959927980084 0 -0.016834071425155403 0.033118231442131003 0 -0.017712698061359524 0.033069406294360497 0 -0.017875192324348033 0.033828333246618318 0 -0.020547503491878907 0.035269800305819256 0 -0.020244090086514215 0.031506068377157394 0 -0.016834071425155403 0.033118231442131003 0 -0.017712698061359524 0.033069406294360497 0 -0.017890649217049404 0.032394039052011228 0 -0.017508195761942538 0.035077822306312019 0 -0.016834071425155403 0.033118231442131003 0 -0.017875192324348033 0.033828333246618318 0 -0.020277659200309054 0.036924432345465781 0 -0.02022793738596175 0.036491738524036157 0 -0.020520812523022701 0.037458209018509346 0 -0.018585872282897223 0.035986595311474315 0 -0.020547503491878907 0.035269800305819256 0 -0.018500440982207111 0.033384823021024225 0 -0.01924269692392138 0.034721988637549148 0 -0.019209617222695069 0.03310164606184763 0 -0.017875192324348033 0.033828333246618318 0 -0.018500440982207111 0.033384823021024225 0 -0.01924269692392138 0.034721988637549148 0 -0.017508195761942538 0.035077822306312019 0 -0.017875192324348033 0.033828333246618318 0 -0.01924269692392138 0.034721988637549148 0 -0.018500440982207111 0.033384823021024225 0 -0.018541178160368474 0.032570986532511927 0 -0.019209617222695069 0.03310164606184763 0 -0.017712698061359524 0.033069406294360497 0 -0.018500440982207111 0.033384823021024225 0 -0.018541178160368474 0.032570986532511927 0 -0.017712698061359524 0.033069406294360497 0 -0.017875192324348033 0.033828333246618318 0 -0.018500440982207111 0.033384823021024225 0 -0.018541178160368474 0.032570986532511927 0 -0.018587805139211662 0.032159172554985203 0 -0.018763017626015194 0.03236029541054062 0 -0.018541178160368474 0.032570986532511927 0 -0.018587805139211662 0.032159172554985203 0 -0.017890649217049404 0.032394039052011228 0 -0.017712698061359524 0.033069406294360497 0 -0.018541178160368474 0.032570986532511927 0 -0.017890649217049404 0.032394039052011228 0 -0.022005174473709151 0.02953093448651866 0 -0.020244090086514215 0.031506068377157394 0 -0.022005174473709151 0.02953093448651866 0 -0.025095128312658269 0.026651937073830567 0 -0.022005174473709151 0.02953093448651866 0 -0.018033511278652187 0.032131977684109962 0 -0.026121760318587612 0.024456126194299977 0 -0.02628583898808351 0.023842656729198733 0 -0.026892580553181666 0.024280741739099203 0 -0.025443763468152008 0.024166808223498835 0 -0.026121760318587612 0.024456126194299977 0 -0.02628583898808351 0.023842656729198733 0 -0.022792377233244621 0.030423343167946506 0 -0.022949366652565029 0.030697323384794046 0 -0.022527540954457241 0.030794267383712395 0 -0.023455639145119198 0.030097610639615503 0 -0.022792377233244621 0.030423343167946506 0 -0.022949366652565029 0.030697323384794046 0 -0.022390987735355836 0.031331858652132734 0 -0.022949366652565029 0.030697323384794046 0 -0.022527540954457241 0.030794267383712395 0 -0.022792377233244621 0.030423343167946506 0 -0.022527540954457241 0.030794267383712395 0 -0.022071553418369704 0.030751323749719665 0 -0.02628583898808351 0.023842656729198733 0 -0.027100552177816355 0.023519526040555024 0 -0.026892580553181666 0.024280741739099203 0 -0.025095128312658269 0.026651937073830567 0 -0.025118174643016182 0.029578959927980084 0 -0.022390987735355836 0.031331858652132734 0 -0.022527540954457241 0.030794267383712395 0 -0.022071553418369704 0.030751323749719665 0 -0.027100552177816355 0.023519526040555024 0 -0.026892580553181666 0.024280741739099203 0 -0.027702942091610776 0.02440928651734766 0 -0.025118174643016182 0.029578959927980084 0 -0.028178075718705287 0.024381070873686198 0 -0.028406172758415647 0.026257011881805667 0 -0.028419202103221148 0.025917418190872742 0 -0.028295629508737177 0.026127450511451628 0 -0.028406172758415647 0.026257011881805667 0 -0.02823564258337842 0.026335402120501165 0 -0.028295629508737177 0.026127450511451628 0 -0.025118174643016182 0.029578959927980084 0 -0.024504384278223056 0.033386756598432696 0 -0.0186780206526122 0.032550868822191409 0 -0.020075818896165359 0.033068369294108405 0 -0.018898556232692196 0.032598097481747884 0 -0.0186780206526122 0.032550868822191409 0 -0.018898556232692196 0.032598097481747884 0 -0.017821906879019037 0.032321544700071959 0 -0.017315552379161464 0.032048273493339927 0 -0.017821906879019037 0.032321544700071959 0 -0.017245661641947834 0.0320846310367938 0 -0.017858512279155494 0.031698688438358019 0 -0.017820078644635418 0.032656415874076201 0 -0.017315552379161464 0.032048273493339927 0 -0.017245661641947834 0.0320846310367938 0 -0.017160692375120003 0.032068240585446099 0 -0.017080711935939748 0.032179794406993437 0 -0.017315552379161464 0.032048273493339927 0 -0.017160692375120003 0.032068240585446099 0 -0.019048397674208607 0.031359773599227481 0 -0.0186780206526122 0.032550868822191409 0 -0.020075818896165359 0.033068369294108405 0 -0.020336028996775009 0.035099788007949301 0 -0.020396068681969807 0.032678493114823182 0 -0.020075818896165359 0.033068369294108405 0 -0.01924269692392138 0.034721988637549148 0 -0.019209617222695069 0.03310164606184763 0 -0.018541178160368474 0.032570986532511927 0 -0.019209617222695069 0.03310164606184763 0 -0.0190780528323873 0.032612179966418992 0 -0.020075818896165359 0.033068369294108405 0 -0.019209617222695069 0.03310164606184763 0 -0.0190780528323873 0.032612179966418992 0 -0.020075818896165359 0.033068369294108405 0 -0.018898556232692196 0.032598097481747884 0 -0.0190780528323873 0.032612179966418992 0 -0.018898556232692196 0.032598097481747884 0 -0.018723533505195879 0.032409628390718336 0 -0.018280277525824503 0.032442390089939717 0 -0.018898556232692196 0.032598097481747884 0 -0.0190780528323873 0.032612179966418992 0 -0.018723533505195879 0.032409628390718336 0 -0.018541178160368474 0.032570986532511927 0 -0.0190780528323873 0.032612179966418992 0 -0.018763017626015194 0.03236029541054062 0 -0.0190780528323873 0.032612179966418992 0 -0.018763017626015194 0.03236029541054062 0 -0.018723533505195879 0.032409628390718336 0 -0.018728809768859711 0.03229465180550755 0 -0.01842291519312152 0.032426405619469155 0 -0.018723533505195879 0.032409628390718336 0 -0.018587805139211662 0.032159172554985203 0 -0.018763017626015194 0.03236029541054062 0 -0.018728809768859711 0.03229465180550755 0 -0.018763017626015194 0.03236029541054062 0 -0.018728809768859711 0.03229465180550755 0 -0.018723533505195879 0.032409628390718336 0 -0.01842291519312152 0.032426405619469155 0 -0.018723533505195879 0.032409628390718336 0 -0.018280277525824503 0.032442390089939717 0 -0.01842291519312152 0.032426405619469155 0 -0.018280277525824503 0.032442390089939717 0 -0.017750684025553184 0.032512705950071927 0 -0.018280277525824503 0.032442390089939717 0 -0.017586310743828399 0.032392194353291597 0 -0.017750684025553184 0.032512705950071927 0 -0.018898556232692196 0.032598097481747884 0 -0.018280277525824503 0.032442390089939717 0 -0.017821906879019037 0.032321544700071959 0 -0.018280277525824503 0.032442390089939717 0 -0.017821906879019037 0.032321544700071959 0 -0.017586310743828399 0.032392194353291597 0 -0.017821906879019037 0.032321544700071959 0 -0.017586310743828399 0.032392194353291597 0 -0.01715773738620004 0.032300036467216013 0 -0.017821906879019037 0.032321544700071959 0 -0.01715773738620004 0.032300036467216013 0 -0.017245661641947834 0.0320846310367938 0 -0.017586310743828399 0.032392194353291597 0 -0.01715773738620004 0.032300036467216013 0 -0.016923471298074116 0.032398587952800317 0 -0.016747937566584388 0.032312885562804289 0 -0.01715773738620004 0.032300036467216013 0 -0.01659890644510115 0.032183943297025938 0 -0.016747937566584388 0.032312885562804289 0 -0.01715773738620004 0.032300036467216013 0 -0.016923471298074116 0.032398587952800317 0 -0.016747937566584388 0.032312885562804289 0 -0.01659890644510115 0.032183943297025938 0 -0.01633927244823594 0.032344588269878682 0 -0.01659890644510115 0.032183943297025938 0 -0.016132847095363681 0.032252089938894363 0 -0.01633927244823594 0.032344588269878682 0 -0.016622456750918068 0.032210908579987617 0 -0.016738530274490761 0.0320941181691363 0 -0.01659890644510115 0.032183943297025938 0 -0.016375845023625671 0.032040885651772884 0 -0.016307693903561637 0.032158520697359486 0 -0.01715773738620004 0.032300036467216013 0 -0.01659890644510115 0.032183943297025938 0 -0.017245661641947834 0.0320846310367938 0 -0.017245661641947834 0.0320846310367938 0 -0.017053985992492308 0.03203486245443557 0 -0.017160692375120003 0.032068240585446099 0 -0.01659890644510115 0.032183943297025938 0 -0.017245661641947834 0.0320846310367938 0 -0.017053985992492308 0.03203486245443557 0 -0.016440570949697236 0.0321077278956911 0 -0.016434425303610046 0.032212657838431281 0 -0.016375845023625671 0.032040885651772884 0 -0.01659890644510115 0.032183943297025938 0 -0.016440570949697236 0.0321077278956911 0 -0.016375845023625671 0.032040885651772884 0 -0.016738530274490761 0.0320941181691363 0 -0.01682194577507256 0.032171056766094622 0 -0.016440570949697236 0.0321077278956911 0 -0.016540805876777774 0.032242933778086097 0 -0.016504359369357426 0.03221682369373606 0 -0.016440570949697236 0.0321077278956911 0 -0.016434425303610046 0.032212657838431281 0 -0.016504359369357426 0.03221682369373606 0 -0.017053985992492308 0.03203486245443557 0 -0.017160692375120003 0.032068240585446099 0 -0.017111988173504171 0.032134533390171888 0 -0.016354580686680272 0.032269629305343356 0 -0.016104217712235143 0.032289555907904249 0 -0.016329940928212442 0.032251435765416614 0 -0.016354580686680272 0.032269629305343356 0 -0.016434425303610046 0.032212657838431281 0 -0.016329940928212442 0.032251435765416614 0 -0.0160735748629426 0.031515145317260664 0 -0.016375845023625671 0.032040885651772884 0 -0.016085580036654158 0.032114667331374878 0 -0.016354580686680272 0.032269629305343356 0 -0.016434425303610046 0.032212657838431281 0 -0.016375845023625671 0.032040885651772884 0 -0.016032879815892128 0.031773787986044189 0 -0.016417074216170471 0.032066568351961033 0 -0.0160735748629426 0.031515145317260664 0 -0.015539325054271325 0.031686090913618049 0 -0.015718207994443581 0.032007846155366046 0 -0.0160735748629426 0.031515145317260664 0 -0.016085580036654158 0.032114667331374878 0 -0.015718207994443581 0.032007846155366046 0 -0.015850977113621004 0.032182021721604365 0 -0.016085580036654158 0.032114667331374878 0 -0.015718207994443581 0.032007846155366046 0 -0.015850977113621004 0.032182021721604365 0 -0.016085580036654158 0.032114667331374878 0 -0.016132847095363681 0.032252089938894363 0 -0.016085580036654158 0.032114667331374878 0 -0.016307693903561637 0.032158520697359486 0 -0.016132847095363681 0.032252089938894363 0 -0.016375845023625671 0.032040885651772884 0 -0.016085580036654158 0.032114667331374878 0 -0.016307693903561637 0.032158520697359486 0 -0.01659890644510115 0.032183943297025938 0 -0.016307693903561637 0.032158520697359486 0 -0.016132847095363681 0.032252089938894363 0 -0.015850977113621004 0.032182021721604365 0 -0.016132847095363681 0.032252089938894363 0 -0.015868729095606011 0.03223113846782253 0 -0.015691265652136254 0.032186867798878881 0 -0.015813554865074433 0.032181216902395865 0 -0.015868729095606011 0.03223113846782253 0 -0.015850977113621004 0.032182021721604365 0 -0.015691265652136254 0.032186867798878881 0 -0.015868729095606011 0.03223113846782253 0 -0.015522623927682527 0.032153908170118928 0 -0.015743654394993738 0.032131283159921677 0 -0.015711998468271975 0.0321640345931474 0 -0.015691265652136254 0.032186867798878881 0 -0.015711998468271975 0.0321640345931474 0 -0.015813554865074433 0.032181216902395865 0 -0.015691265652136254 0.032186867798878881 0 -0.015522623927682527 0.032153908170118928 0 -0.015711998468271975 0.0321640345931474 0 -0.0024477362004179863 0.03106916317180974 0 -0.0081747571977198036 0.030025651032996013 0 -0.015691265652136254 0.032186867798878881 0 -0.015522623927682527 0.032153908170118928 0 -0.015499364629639084 0.03207126349292249 0 -0.015522623927682527 0.032153908170118928 0 -0.015499364629639084 0.03207126349292249 0 -0.015161826540281904 0.03189148374476039 0 -0.015850977113621004 0.032182021721604365 0 -0.015691265652136254 0.032186867798878881 0 -0.015499364629639084 0.03207126349292249 0 -0.015850977113621004 0.032182021721604365 0 -0.015499364629639084 0.03207126349292249 0 -0.015718207994443581 0.032007846155366046 0 0.0098235484274624973 0.029535570489135188 0 0.0096416830733749449 0.029561555497262384 0 0.0097643753619862973 0.029399750839646539 0 0.0098621332940396125 0.029622280638055148 0 0.0098235484274624973 0.029535570489135188 0 0.0096416830733749449 0.029561555497262384 0 0.0091804627361669264 0.029503563024911746 0 0.0096416830733749449 0.029561555497262384 0 0.0095760939211266081 0.029685932317686944 0 -0.0024477362004179863 0.03106916317180974 0 -0.0032192792960020768 0.030746262092954668 0 0.0091804627361669264 0.029503563024911746 0 0.0094478651252725924 0.029258691564017832 0 0.0091599608908665142 0.029183978136016222 0 0.0091804627361669264 0.029503563024911746 0 0.0096416830733749449 0.029561555497262384 0 0.0094478651252725924 0.029258691564017832 0 0.0096416830733749449 0.029561555497262384 0 0.0097643753619862973 0.029399750839646539 0 0.0094478651252725924 0.029258691564017832 0 0.0097692501995073084 0.029181151757206963 0 0.0094478651252725924 0.029258691564017832 0 0.009593078682882358 0.029031483357959 0 0.0094478651252725924 0.029258691564017832 0 0.0093585687569233047 0.029042032296708993 0 0.009593078682882358 0.029031483357959 0 0.0097692501995073084 0.029181151757206963 0 0.0097643753619862973 0.029399750839646539 0 0.0094478651252725924 0.029258691564017832 0 0.0094478651252725924 0.029258691564017832 0 0.0091599608908665142 0.029183978136016222 0 0.0093585687569233047 0.029042032296708993 0 0.0091599608908665142 0.029183978136016222 0 0.0091190976665160104 0.028965852773589651 0 0.0093585687569233047 0.029042032296708993 0 -0.012442832778526008 0.031709339742426311 0 -0.010601525866868966 0.030835792742609808 0 -0.013176124926395716 0.030509585942193985 0 -0.0014585943490237549 0.030204976205864473 0 0.0030485845219950553 0.030373281754913699 0 0.0091190976665160104 0.028965852773589651 0 0.0093585687569233047 0.029042032296708993 0 0.0094179420144383536 0.028832645830607313 0 0.0097432618034952057 0.028969264919494076 0 0.0094534443297825625 0.028909115602486574 0 0.0097027563728238776 0.028790115680377894 0 0.0097432618034952057 0.028969264919494076 0 0.0094534443297825625 0.028909115602486574 0 0.009593078682882358 0.029031483357959 0 0.0093585687569233047 0.029042032296708993 0 0.0094179420144383536 0.028832645830607313 0 0.009593078682882358 0.029031483357959 0 0.0030485845219950553 0.030373281754913699 0 0.0085005981374960665 0.030450843906063393 0 0.0097692501995073084 0.029181151757206963 0 0.0097432618034952057 0.028969264919494076 0 0.009593078682882358 0.029031483357959 0 -0.015182166222343311 0.031916618003567668 0 -0.015169111480210554 0.03178287400515422 0 -0.015439545017469169 0.031967306770106237 0 -0.015169111480210554 0.03178287400515422 0 -0.015539325054271325 0.031686090913618049 0 -0.015439545017469169 0.031967306770106237 0 -0.014973911749343632 0.03176497270026267 0 -0.015169111480210554 0.03178287400515422 0 -0.014704882184984181 0.03159689758603515 0 -0.015182166222343311 0.031916618003567668 0 -0.014973911749343632 0.03176497270026267 0 -0.015169111480210554 0.03178287400515422 0 -0.015539325054271325 0.031686090913618049 0 -0.015718207994443581 0.032007846155366046 0 -0.015439545017469169 0.031967306770106237 0 -0.015499364629639084 0.03207126349292249 0 -0.015718207994443581 0.032007846155366046 0 -0.015439545017469169 0.031967306770106237 0 -0.015499364629639084 0.03207126349292249 0 -0.015182166222343311 0.031916618003567668 0 -0.015161826540281904 0.03189148374476039 0 -0.015499364629639084 0.03207126349292249 0 -0.015182166222343311 0.031916618003567668 0 -0.015439545017469169 0.031967306770106237 0 0.0091804627361669264 0.029503563024911746 0 0.0091599608908665142 0.029183978136016222 0 0.0087789137185596035 0.029115305085941474 0 0.0091599608908665142 0.029183978136016222 0 0.0091190976665160104 0.028965852773589651 0 0.0087789137185596035 0.029115305085941474 0 -0.011248292527319598 0.031431165413507413 0 -0.0081747571977198036 0.030025651032996013 0 -0.0081747571977198036 0.030025651032996013 0 -0.011097335356787381 0.030394563574572604 0 -0.014973911749343632 0.03176497270026267 0 -0.014910776491408786 0.031844893361005482 0 -0.014704882184984181 0.03159689758603515 0 -0.015182166222343311 0.031916618003567668 0 -0.014973911749343632 0.03176497270026267 0 -0.014910776491408786 0.031844893361005482 0 -0.014704882184984181 0.03159689758603515 0 -0.013176124926395716 0.030509585942193985 0 -0.015073959597966313 0.03013195990636023 0 -0.012442832778526008 0.031709339742426311 0 -0.014316821378938579 0.032528080684410293 0 -0.014704882184984181 0.03159689758603515 0 -0.012442832778526008 0.031709339742426311 0 -0.014704882184984181 0.03159689758603515 0 -0.013176124926395716 0.030509585942193985 0 -0.0014585943490237549 0.030204976205864473 0 -0.0081747571977198036 0.030025651032996013 0 -0.0160735748629426 0.031515145317260664 0 -0.015539325054271325 0.031686090913618049 0 -0.015073959597966313 0.03013195990636023 0 -0.016032879815892128 0.031773787986044189 0 -0.016375153762221279 0.031406360526244223 0 -0.015539325054271325 0.031686090913618049 0 -0.014704882184984181 0.03159689758603515 0 -0.015073959597966313 0.03013195990636023 0 -0.015169111480210554 0.03178287400515422 0 -0.015539325054271325 0.031686090913618049 0 -0.014704882184984181 0.03159689758603515 0 -0.016104217712235143 0.032289555907904249 0 -0.016034136793846271 0.032197458391463651 0 -0.016163837435379788 0.032203447836516887 0 -0.016375153762221279 0.031406360526244223 0 -0.0093500295899743655 0.030695147222777421 0 -0.013176124926395716 0.030509585942193985 0 -0.015073959597966313 0.03013195990636023 0 -0.012862525087441462 0.028199458038210518 0 -0.015889495580048582 0.032208070609588947 0 -0.016034136793846271 0.032197458391463651 0 -0.015986424370753149 0.032147259320956752 0 -0.016104217712235143 0.032289555907904249 0 -0.015889495580048582 0.032208070609588947 0 -0.016034136793846271 0.032197458391463651 0 -0.0093500295899743655 0.030695147222777421 0 -0.010363815956470365 0.033271523129512322 0 -0.016034136793846271 0.032197458391463651 0 -0.016020393662110114 0.032172699695724498 0 -0.016163837435379788 0.032203447836516887 0 -0.016106953449589106 0.032156243802313349 0 -0.016020393662110114 0.032172699695724498 0 -0.016163837435379788 0.032203447836516887 0 0.006138297291944643 0.032178011816378277 0 0.003907592343802971 0.030130219679620433 0 0.0060834900886993946 0.028787056873495625 0 0.0035918598935130602 0.033543318770134882 0 0.006138297291944643 0.032178011816378277 0 0.003907592343802971 0.030130219679620433 0 0.0030485845219950553 0.030373281754913699 0 0.0080971946323076579 0.030358041772694529 0 0.0035918598935130602 0.033543318770134882 0 0.00020964618935211536 0.029383059148660587 0 0.003907592343802971 0.030130219679620433 0 -0.010601525866868966 0.030835792742609808 0 -0.013176124926395716 0.030509585942193985 0 -0.012862525087441462 0.028199458038210518 0 0.0030485845219950553 0.030373281754913699 0 -0.0093500295899743655 0.030695147222777421 0 0.00020964618935211536 0.029383059148660587 0 0.003907592343802971 0.030130219679620433 0 0.0035016277908295843 0.026780267549522594 0 -0.0093500295899743655 0.030695147222777421 0 0.0046721875243996075 0.031851546635012135 0 0.003907592343802971 0.030130219679620433 0 0.0060834900886993946 0.028787056873495625 0 0.0035016277908295843 0.026780267549522594 0 0.010246558405107891 0.030618575250552248 0 0.0046721875243996075 0.031851546635012135 0 0.013660794483234895 0.032545544739041025 0 0.013797920845059238 0.032125695217986729 0 0.01413466277319347 0.032488304231257925 0 0.013660794483234895 0.032545544739041025 0 0.013849398419834652 0.032948663371983863 0 0.01413466277319347 0.032488304231257925 0 0.0054002105438212752 0.034944889000129577 0 0.0028453762201145556 0.037072324836791237 0 0.0032006079646775937 0.033705449212712936 0 0.0097031792462829777 0.033890097242131746 0 0.0046721875243996075 0.031851546635012135 0 0.0028453762201145556 0.037072324836791237 0 0.00027743172181747251 0.035069864845381438 0 0.0032006079646775937 0.033705449212712936 0 -0.0053111077422727327 0.035052573404638424 0 -0.0017643909166089871 0.032096270905553032 0 -0.0044825188390792761 0.029977436958365317 0 0.0046721875243996075 0.031851546635012135 0 -0.0032775863447585345 0.034591043106837235 0 -0.0043977915109029153 0.036922356180118826 0 -0.0041990202543916739 0.036320746113803773 0 -0.0047692782173998421 0.036604947141078169 0 -0.0041990202543916739 0.036320746113803773 0 -0.0047692782173998421 0.036604947141078169 0 -0.0046816195795931614 0.036135928956348908 0 -0.0043391851732613521 0.035811916856353564 0 -0.0041990202543916739 0.036320746113803773 0 -0.0046816195795931614 0.036135928956348908 0 -0.0034757530634910551 0.035901363592043413 0 -0.0041990202543916739 0.036320746113803773 0 -0.0034862861325068053 0.036571326828546864 0 -0.0043977915109029153 0.036922356180118826 0 -0.0041990202543916739 0.036320746113803773 0 -0.0034862861325068053 0.036571326828546864 0 -0.0032775863447585345 0.034591043106837235 0 -1.3390352777539529e-06 0.035076944080348241 0 -0.0024471513934598054 0.036139873544128717 0 -0.0034757530634910551 0.035901363592043413 0 -0.0034862861325068053 0.036571326828546864 0 0.0061294362113872092 0.032351547179426114 0 0.0057062411664130864 0.033535627318647697 0 0.0032006079646775937 0.033705449212712936 0 0.0028488263315894838 0.037278387830465345 0 -1.3390352777539529e-06 0.035076944080348241 0 0.0028488263315894838 0.037278387830465345 0 -0.0044190608056122538 0.035753918784226742 0 0.0057062411664130864 0.033535627318647697 0 0.0054002105438212752 0.034944889000129577 0 0.0032006079646775937 0.033705449212712936 0 -0.016106953449589106 0.032156243802313349 0 -0.016020393662110114 0.032172699695724498 0 -0.015991452287784019 0.032162529432080943 0 -0.016020393662110114 0.032172699695724498 0 -0.015956024950579351 0.03220178215704185 0 -0.015991452287784019 0.032162529432080943 0 -0.010363815956470365 0.033271523129512322 0 -0.013149564550163315 0.034630059124019924 0 -0.0054302744262050362 0.037188469503581498 0 -0.0054049663073420491 0.036636495659855682 0 -0.0060399096035502467 0.036455794245436927 0 -0.016034136793846271 0.032197458391463651 0 -0.016020393662110114 0.032172699695724498 0 -0.015986424370753149 0.032147259320956752 0 -0.014321379123187331 0.033824405778276105 0 -0.010363815956470365 0.033271523129512322 0 -0.0053111077422727327 0.035052573404638424 0 -0.0044825188390792761 0.029977436958365317 0 -0.0080328678618705688 0.031653607596159532 0 -0.0032775863447585345 0.034591043106837235 0 -0.010363815956470365 0.033271523129512322 0 -0.0044642020337114438 0.036838080682162183 0 -0.0054302744262050362 0.037188469503581498 0 -0.0047692782173998421 0.036604947141078169 0 -0.0054302744262050362 0.037188469503581498 0 -0.0054049663073420491 0.036636495659855682 0 -0.0047692782173998421 0.036604947141078169 0 -0.0054049663073420491 0.036636495659855682 0 -0.0047692782173998421 0.036604947141078169 0 -0.0051840084912260359 0.036309115980805454 0 -0.0032775863447585345 0.034591043106837235 0 -0.003801743238190324 0.035602439750528847 0 -0.0047692782173998421 0.036604947141078169 0 -0.0046816195795931614 0.036135928956348908 0 -0.0051840084912260359 0.036309115980805454 0 -0.0050465513338845787 0.035718830841073468 0 -0.0046816195795931614 0.036135928956348908 0 -0.0051840084912260359 0.036309115980805454 0 -0.0050465513338845787 0.035718830841073468 0 -0.0051840084912260359 0.036309115980805454 0 -0.0060399096035502467 0.036455794245436927 0 -0.0070823528579061178 0.035340471541157117 0 -0.013149564550163315 0.034630059124019924 0 -0.0054049663073420491 0.036636495659855682 0 -0.0051840084912260359 0.036309115980805454 0 -0.0060399096035502467 0.036455794245436927 0 -0.016733092013457011 0.032502180600259958 0 -0.016776014925250854 0.032440326534204027 0 -0.016729959960973376 0.032431956428940027 0 -0.01578798637683906 0.033729232014301523 0 -0.013149564550163315 0.034630059124019924 0 -0.013149564550163315 0.034630059124019924 0 -0.016958821141169311 0.031981010994889217 0 -0.016106953449589106 0.032156243802313349 0 -0.015991452287784019 0.032162529432080943 0 -0.016250921276497743 0.032120621667491779 0 -0.016776014925250854 0.032440326534204027 0 -0.016750415973970919 0.0323451823010324 0 -0.016729959960973376 0.032431956428940027 0 -0.016750415973970919 0.0323451823010324 0 -0.016729959960973376 0.032431956428940027 0 -0.016718510635801757 0.032377072530000106 0 -0.016750415973970919 0.0323451823010324 0 -0.016718510635801757 0.032377072530000106 0 -0.016681394614406281 0.032319231532476414 0 -0.016729959960973376 0.032431956428940027 0 -0.016725308501532848 0.03243173394025281 0 -0.016718510635801757 0.032377072530000106 0 -0.016698258024311879 0.032488163351561024 0 -0.016729959960973376 0.032431956428940027 0 -0.016725308501532848 0.03243173394025281 0 -0.016738776980550547 0.032481719534337108 0 -0.016725308501532848 0.03243173394025281 0 -0.016767395410826117 0.032387391727078954 0 -0.016725308501532848 0.03243173394025281 0 -0.016767395410826117 0.032387391727078954 0 -0.016718510635801757 0.032377072530000106 0 -0.016738776980550547 0.032481719534337108 0 -0.016767395410826117 0.032387391727078954 0 -0.016827526090095756 0.03235594964107863 0 -0.021788114332340014 0.041089221621289439 0 -0.021419969990754819 0.041041887826861287 0 -0.02187499902310451 0.041220578077875644 0 -0.019314570186362196 0.03602809748348678 0 -0.019349241284284738 0.036859010261022958 0 -0.017004603324360774 0.032277136352544519 0 -0.016827526090095756 0.03235594964107863 0 -0.016826324288584823 0.032316533958385699 0 -0.016767395410826117 0.032387391727078954 0 -0.016827526090095756 0.03235594964107863 0 -0.016826324288584823 0.032316533958385699 0 -0.016767395410826117 0.032387391727078954 0 -0.016826324288584823 0.032316533958385699 0 -0.016718510635801757 0.032377072530000106 0 -0.016826324288584823 0.032316533958385699 0 -0.016718510635801757 0.032377072530000106 0 -0.016681394614406281 0.032319231532476414 0 -0.016826324288584823 0.032316533958385699 0 -0.016681394614406281 0.032319231532476414 0 -0.016549612856921355 0.032240625955687968 0 -0.016826324288584823 0.032316533958385699 0 -0.016540805876777774 0.032242933778086097 0 -0.016549612856921355 0.032240625955687968 0 -0.017080711935939748 0.032179794406993437 0 -0.016826324288584823 0.032316533958385699 0 -0.017111988173504171 0.032134533390171888 0 -0.016829172876112748 0.032279276323346838 0 -0.01682194577507256 0.032171056766094622 0 -0.017080711935939748 0.032179794406993437 0 -0.017160692375120003 0.032068240585446099 0 -0.017111988173504171 0.032134533390171888 0 -0.016434425303610046 0.032212657838431281 0 -0.016549612856921355 0.032240625955687968 0 -0.016504359369357426 0.03221682369373606 0 -0.016540805876777774 0.032242933778086097 0 -0.016549612856921355 0.032240625955687968 0 -0.016504359369357426 0.03221682369373606 0 -0.016434425303610046 0.032212657838431281 0 -0.016549612856921355 0.032240625955687968 0 -0.016329940928212442 0.032251435765416614 0 -0.016104217712235143 0.032289555907904249 0 -0.016329940928212442 0.032251435765416614 0 -0.016163837435379788 0.032203447836516887 0 -0.016250921276497743 0.032120621667491779 0 -0.016329940928212442 0.032251435765416614 0 -0.016163837435379788 0.032203447836516887 0 -0.016106953449589106 0.032156243802313349 0 -0.016250921276497743 0.032120621667491779 0 -0.016163837435379788 0.032203447836516887 0 -0.016958821141169311 0.031981010994889217 0 -0.016423346218909059 0.032300105687329952 0 -0.016750415973970919 0.0323451823010324 0 -0.016681394614406281 0.032319231532476414 0 -0.016549612856921355 0.032240625955687968 0 -0.016250921276497743 0.032120621667491779 0 -0.016549612856921355 0.032240625955687968 0 -0.016329940928212442 0.032251435765416614 0 -0.04499898457923393 0.035805377023256639 0 -0.045285666061511701 0.036628020575270565 0 -0.044651132397859304 0.039419888726504614 0 -0.045285666061511701 0.036628020575270565 0 -0.044536339283508961 0.039894449322623024 0 -0.044651132397859304 0.039419888726504614 0 -0.044536339283508961 0.039894449322623024 0 -0.042193395884336439 0.040979846905004155 0 -0.041450381008902734 0.04213980135017182 0 -0.044536339283508961 0.039894449322623024 0 -0.042193395884336439 0.040979846905004155 0 -0.044651132397859304 0.039419888726504614 0 -0.044651132397859304 0.039419888726504614 0 -0.043743310528027893 0.039435099550401975 0 -0.04036802167416851 0.041758952217103198 0 -0.042193395884336439 0.040979846905004155 0 -0.044651132397859304 0.039419888726504614 0 -0.04036802167416851 0.041758952217103198 0 -0.044651132397859304 0.039419888726504614 0 -0.043743310528027893 0.039435099550401975 0 -0.045266496545055643 0.039339034584574654 0 -0.04499898457923393 0.035805377023256639 0 -0.045266496545055643 0.039339034584574654 0 -0.044997436957721695 0.039799496896570495 0 -0.04499898457923393 0.035805377023256639 0 -0.044651132397859304 0.039419888726504614 0 -0.045266496545055643 0.039339034584574654 0 -0.045266496545055643 0.039339034584574654 0 -0.044965860533681574 0.041812897539087637 0 -0.04531591473669596 0.040299239316246266 0 -0.045266496545055643 0.039339034584574654 0 -0.044997436957721695 0.039799496896570495 0 -0.044965860533681574 0.041812897539087637 0 -0.044997436957721695 0.039799496896570495 0 -0.044965860533681574 0.041812897539087637 0 -0.044998875673467685 0.04499861194223382 0 -0.044965860533681574 0.041812897539087637 0 -0.044998875673467685 0.04499861194223382 0 -0.043734037324823442 0.044751764809187425 0 -0.044998875673467685 0.04499861194223382 0 -0.043734037324823442 0.044751764809187425 0 -0.039408931542995712 0.044997678762188985 0 -0.04346770801269649 0.044067064169849651 0 -0.043718149802257973 0.04461001016442516 0 -0.044965860533681574 0.041812897539087637 0 -0.045540444467957908 0.042413054714183877 0 -0.043734037324823442 0.044751764809187425 0 -0.04152834766542584 0.045888376426036 0 -0.043734037324823442 0.044751764809187425 0 -0.039408931542995712 0.044997678762188985 0 -0.04152834766542584 0.045888376426036 0 -0.039408931542995712 0.044997678762188985 0 -0.039417027712332096 0.045649157850416539 0 -0.039417027712332096 0.045649157850416539 0 -0.039536372483511113 0.045834810099558546 0 -0.038799752006476423 0.045463771187850256 0 -0.04152834766542584 0.045888376426036 0 -0.039417027712332096 0.045649157850416539 0 -0.039536372483511113 0.045834810099558546 0 -0.044965860533681574 0.041812897539087637 0 -0.045540444467957908 0.042413054714183877 0 -0.04531591473669596 0.040299239316246266 0 -0.04346770801269649 0.044067064169849651 0 -0.042415326761079224 0.043056852750989152 0 -0.043743310528027893 0.039435099550401975 0 -0.045266496545055643 0.039339034584574654 0 -0.04531591473669596 0.040299239316246266 0 -0.038510259736215885 0.044569858905366064 0 -0.039536372483511113 0.045834810099558546 0 -0.038799752006476423 0.045463771187850256 0 -0.041166870112503542 0.042100230028198356 0 -0.042415326761079224 0.043056852750989152 0 -0.038510259736215885 0.044569858905366064 0 -0.039017421365275022 0.044460937533218017 0 -0.038799752006476423 0.045463771187850256 0 -0.039017421365275022 0.044460937533218017 0 -0.037869510861008426 0.045081868632545 0 -0.038799752006476423 0.045463771187850256 0 -0.039017421365275022 0.044460937533218017 0 -0.037869510861008426 0.045081868632545 0 -0.038347337786110616 0.044148228959161893 0 -0.037869510861008426 0.045081868632545 0 -0.03788360910202164 0.045466754114940305 0 -0.036264888169521468 0.045332351196838101 0 -0.037869510861008426 0.045081868632545 0 -0.038799752006476423 0.045463771187850256 0 -0.03788360910202164 0.045466754114940305 0 -0.039408931542995712 0.044997678762188985 0 -0.039417027712332096 0.045649157850416539 0 -0.03788360910202164 0.045466754114940305 0 -0.039417027712332096 0.045649157850416539 0 -0.038799752006476423 0.045463771187850256 0 -0.03788360910202164 0.045466754114940305 0 -0.039408931542995712 0.044997678762188985 0 -0.03788360910202164 0.045466754114940305 0 -0.035342305224955399 0.044999159877592988 0 -0.03788360910202164 0.045466754114940305 0 -0.035342305224955399 0.044999159877592988 0 -0.036264888169521468 0.045332351196838101 0 -0.036264888169521468 0.045332351196838101 0 -0.035864180100830298 0.045205531744937584 0 -0.034416906762831274 0.045520566396183432 0 -0.035342305224955399 0.044999159877592988 0 -0.036264888169521468 0.045332351196838101 0 -0.034416906762831274 0.045520566396183432 0 -0.036264888169521468 0.045332351196838101 0 -0.036794149482162822 0.044858686235592096 0 -0.035864180100830298 0.045205531744937584 0 -0.037869510861008426 0.045081868632545 0 -0.036264888169521468 0.045332351196838101 0 -0.036794149482162822 0.044858686235592096 0 -0.037869510861008426 0.045081868632545 0 -0.036794149482162822 0.044858686235592096 0 -0.038347337786110616 0.044148228959161893 0 -0.036794149482162822 0.044858686235592096 0 -0.035890459234336827 0.044738499833168799 0 -0.038347337786110616 0.044148228959161893 0 -0.036794149482162822 0.044858686235592096 0 -0.035890459234336827 0.044738499833168799 0 -0.035864180100830298 0.045205531744937584 0 -0.035654158624266692 0.044932930664904787 0 -0.034691027879200038 0.044935383082534468 0 -0.035890459234336827 0.044738499833168799 0 -0.036955872447416452 0.0448071767259344 0 -0.035231219502256897 0.04578834828648045 0 -0.035890459234336827 0.044738499833168799 0 -0.036955872447416452 0.0448071767259344 0 -0.038347337786110616 0.044148228959161893 0 -0.037740521117605765 0.043487466377080293 0 -0.035300855254990167 0.044694894624279176 0 -0.037427355891947102 0.042636430014376447 0 -0.036192101704533033 0.043617657945010289 0 -0.035368904147654673 0.043645568875447821 0 -0.036955872447416452 0.0448071767259344 0 -0.038087573702333941 0.0444662045798008 0 -0.035231219502256897 0.04578834828648045 0 -0.036955872447416452 0.0448071767259344 0 -0.038087573702333941 0.0444662045798008 0 -0.038347337786110616 0.044148228959161893 0 -0.038087573702333941 0.0444662045798008 0 -0.038347337786110616 0.044148228959161893 0 -0.039206783209168698 0.043121486221997678 0 -0.039017421365275022 0.044460937533218017 0 -0.038347337786110616 0.044148228959161893 0 -0.04036802167416851 0.041758952217103198 0 -0.038510259736215885 0.044569858905366064 0 -0.039017421365275022 0.044460937533218017 0 -0.04036802167416851 0.041758952217103198 0 -0.041166870112503542 0.042100230028198356 0 -0.040458749042010057 0.041892851975583865 0 -0.038347337786110616 0.044148228959161893 0 -0.04036802167416851 0.041758952217103198 0 -0.039206783209168698 0.043121486221997678 0 -0.04036802167416851 0.041758952217103198 0 -0.039206783209168698 0.043121486221997678 0 -0.039997916588361916 0.042177983546405021 0 -0.037740521117605765 0.043487466377080293 0 -0.039708528608425386 0.042470931210282892 0 -0.038087573702333941 0.0444662045798008 0 -0.039206783209168698 0.043121486221997678 0 -0.039997916588361916 0.042177983546405021 0 -0.042193395884336439 0.040979846905004155 0 -0.04036802167416851 0.041758952217103198 0 -0.039997916588361916 0.042177983546405021 0 -0.042193395884336439 0.040979846905004155 0 -0.039997916588361916 0.042177983546405021 0 -0.041450381008902734 0.04213980135017182 0 -0.039997916588361916 0.042177983546405021 0 -0.041450381008902734 0.04213980135017182 0 -0.039496682114651079 0.043184816152949335 0 -0.039997916588361916 0.042177983546405021 0 -0.039496682114651079 0.043184816152949335 0 -0.038218989630770327 0.043306842659468638 0 -0.038218989630770327 0.043306842659468638 0 -0.03643021989128379 0.043899727596512922 0 -0.037760888843945267 0.044902815008659669 0 -0.037427355891947102 0.042636430014376447 0 -0.03643021989128379 0.043899727596512922 0 -0.036192101704533033 0.043617657945010289 0 -0.037427355891947102 0.042636430014376447 0 -0.038218989630770327 0.043306842659468638 0 -0.03643021989128379 0.043899727596512922 0 -0.037427355891947102 0.042636430014376447 0 -0.039997916588361916 0.042177983546405021 0 -0.038218989630770327 0.043306842659468638 0 -0.035071346320342728 0.044582742907750432 0 -0.032167158386963601 0.046523921545910472 0 -0.033246898461181874 0.045166600283378308 0 -0.035071346320342728 0.044582742907750432 0 -0.035483116390094861 0.044351411314922325 0 -0.035392103719012538 0.044404788074357576 0 -0.034736060904558545 0.044874481438451685 0 -0.034211672857252295 0.04489989401683258 0 -0.03643021989128379 0.043899727596512922 0 -0.036192101704533033 0.043617657945010289 0 -0.035071346320342728 0.044582742907750432 0 -0.03643021989128379 0.043899727596512922 0 -0.035071346320342728 0.044582742907750432 0 -0.035483116390094861 0.044351411314922325 0 -0.03643021989128379 0.043899727596512922 0 -0.035483116390094861 0.044351411314922325 0 -0.035981812125382893 0.044858728556878141 0 -0.035483116390094861 0.044351411314922325 0 -0.035392103719012538 0.044404788074357576 0 -0.035352909347001506 0.044487046056923378 0 -0.034211672857252295 0.04489989401683258 0 -0.043136083983817228 0.035079744539197877 0 -0.038197279476552479 0.039047893089576728 0 -0.039118065922311915 0.037752225721171637 0 -0.039899037019326976 0.039381283177933997 0 -0.038197279476552479 0.039047893089576728 0 -0.039118065922311915 0.037752225721171637 0 -0.03765948641289623 0.037971410294825349 0 -0.034211672857252295 0.04489989401683258 0 -0.034359111823329611 0.042674377442091453 0 -0.031776795772617314 0.04718828469466229 0 -0.030469537043605915 0.046542547956230827 0 -0.030315621090806336 0.047372719024737817 0 -0.034211672857252295 0.04489989401683258 0 -0.030932409644647493 0.04631303326562116 0 -0.032167158386963601 0.046523921545910472 0 -0.031207764428330897 0.045753151333871388 0 -0.033246898461181874 0.045166600283378308 0 -0.031207764428330897 0.045753151333871388 0 -0.032686418553521231 0.04513354481458378 0 -0.033246898461181874 0.045166600283378308 0 -0.031776795772617314 0.04718828469466229 0 -0.031207764428330897 0.045753151333871388 0 -0.030469537043605915 0.046542547956230827 0 -0.031207764428330897 0.045753151333871388 0 -0.030469537043605915 0.046542547956230827 0 -0.030077342542902969 0.045897266700202548 0 -0.031135553314834169 0.045293494731183943 0 -0.029630536248194651 0.045552001913375106 0 -0.030077342542902969 0.045897266700202548 0 -0.031207764428330897 0.045753151333871388 0 -0.031135553314834169 0.045293494731183943 0 -0.030077342542902969 0.045897266700202548 0 -0.031207764428330897 0.045753151333871388 0 -0.032686418553521231 0.04513354481458378 0 -0.031135553314834169 0.045293494731183943 0 -0.032686418553521231 0.04513354481458378 0 -0.035231219502256897 0.04578834828648045 0 -0.033358574471820182 0.044777582248378849 0 -0.033008107032458517 0.04501242690409249 0 -0.035300855254990167 0.044694894624279176 0 -0.032686418553521231 0.04513354481458378 0 -0.033358574471820182 0.044777582248378849 0 -0.031135553314834169 0.045293494731183943 0 -0.032686418553521231 0.04513354481458378 0 -0.033246898461181874 0.045166600283378308 0 -0.035368904147654673 0.043645568875447821 0 -0.036192101704533033 0.043617657945010289 0 -0.035071346320342728 0.044582742907750432 0 -0.035368904147654673 0.043645568875447821 0 -0.035071346320342728 0.044582742907750432 0 -0.033246898461181874 0.045166600283378308 0 -0.035368904147654673 0.043645568875447821 0 -0.035890459234336827 0.044738499833168799 0 -0.035231219502256897 0.04578834828648045 0 -0.033358574471820182 0.044777582248378849 0 -0.033358574471820182 0.044777582248378849 0 -0.03183848086163861 0.044938450045137801 0 -0.031135553314834169 0.045293494731183943 0 -0.035890459234336827 0.044738499833168799 0 -0.033358574471820182 0.044777582248378849 0 -0.033464108086615013 0.044526716876259198 0 -0.033358574471820182 0.044777582248378849 0 -0.03183848086163861 0.044938450045137801 0 -0.033464108086615013 0.044526716876259198 0 -0.034691027879200038 0.044935383082534468 0 -0.033401827234109893 0.045067525439453866 0 -0.03183848086163861 0.044938450045137801 0 -0.033464108086615013 0.044526716876259198 0 -0.032361368464210789 0.04485430338667943 0 -0.035342305224955399 0.044999159877592988 0 -0.034416906762831274 0.045520566396183432 0 -0.03238493976840754 0.044999108185260296 0 -0.03183848086163861 0.044938450045137801 0 -0.032361368464210789 0.04485430338667943 0 -0.031367951484046586 0.045106291589990896 0 -0.031367951484046586 0.045106291589990896 0 -0.03237969876826248 0.044998835935976388 0 -0.029799478977889999 0.04499895867965454 0 -0.032361368464210789 0.04485430338667943 0 -0.031367951484046586 0.045106291589990896 0 -0.03237969876826248 0.044998835935976388 0 -0.033401827234109893 0.045067525439453866 0 -0.03238203270990108 0.044999692204283334 0 -0.028691013377032434 0.045237801661425478 0 -0.029799478977889999 0.04499895867965454 0 -0.027216663687213632 0.044999163878820032 0 -0.028691013377032434 0.045237801661425478 0 -0.029799478977889999 0.04499895867965454 0 -0.030110992305352698 0.045219786983467181 0 -0.031367951484046586 0.045106291589990896 0 -0.029799478977889999 0.04499895867965454 0 -0.030110992305352698 0.045219786983467181 0 -0.03183848086163861 0.044938450045137801 0 -0.031367951484046586 0.045106291589990896 0 -0.030110992305352698 0.045219786983467181 0 -0.028691013377032434 0.045237801661425478 0 -0.030110992305352698 0.045219786983467181 0 -0.028705918228141079 0.045410430064823357 0 -0.030110992305352698 0.045219786983467181 0 -0.03007950321932857 0.045297707075885665 0 -0.028705918228141079 0.045410430064823357 0 -0.03183848086163861 0.044938450045137801 0 -0.030110992305352698 0.045219786983467181 0 -0.03007950321932857 0.045297707075885665 0 -0.03183848086163861 0.044938450045137801 0 -0.03007950321932857 0.045297707075885665 0 -0.031135553314834169 0.045293494731183943 0 -0.03007950321932857 0.045297707075885665 0 -0.031135553314834169 0.045293494731183943 0 -0.029630536248194651 0.045552001913375106 0 -0.029630536248194651 0.045552001913375106 0 -0.0288951670225919 0.045580403478946652 0 -0.029039420360990574 0.045422144198170394 0 -0.03007950321932857 0.045297707075885665 0 -0.029630536248194651 0.045552001913375106 0 -0.029039420360990574 0.045422144198170394 0 -0.029039420360990574 0.045422144198170394 0 -0.028705918228141079 0.045410430064823357 0 -0.028237989354218389 0.045461299033421054 0 -0.0288951670225919 0.045580403478946652 0 -0.029039420360990574 0.045422144198170394 0 -0.028237989354218389 0.045461299033421054 0 -0.03007950321932857 0.045297707075885665 0 -0.029039420360990574 0.045422144198170394 0 -0.028705918228141079 0.045410430064823357 0 -0.028691013377032434 0.045237801661425478 0 -0.028705918228141079 0.045410430064823357 0 -0.027666463573817985 0.045423886511210015 0 -0.028705918228141079 0.045410430064823357 0 -0.027666463573817985 0.045423886511210015 0 -0.028237989354218389 0.045461299033421054 0 -0.026200063941252179 0.045288603938191389 0 -0.023871800923514309 0.045768525067854844 0 -0.022996885898964949 0.046433719945424688 0 -0.027666463573817985 0.045423886511210015 0 -0.026200063941252179 0.045288603938191389 0 -0.028237989354218389 0.045461299033421054 0 -0.026197588546286274 0.045083310735941524 0 -0.02563421071870076 0.045759935707740312 0 -0.027666463573817985 0.045423886511210015 0 -0.026200063941252179 0.045288603938191389 0 -0.027216663687213632 0.044999163878820032 0 -0.026200063941252179 0.045288603938191389 0 -0.027216663687213632 0.044999163878820032 0 -0.024629889191764107 0.04499919704504135 0 -0.028691013377032434 0.045237801661425478 0 -0.027666463573817985 0.045423886511210015 0 -0.027216663687213632 0.044999163878820032 0 -0.02204702990772819 0.044999544346211673 0 -0.024629889191764107 0.04499919704504135 0 -0.022437785867748562 0.045960842010356474 0 -0.026200063941252179 0.045288603938191389 0 -0.024629889191764107 0.04499919704504135 0 -0.023871800923514309 0.045768525067854844 0 -0.024629889191764107 0.04499919704504135 0 -0.023871800923514309 0.045768525067854844 0 -0.022437785867748562 0.045960842010356474 0 -0.023871800923514309 0.045768525067854844 0 -0.022437785867748562 0.045960842010356474 0 -0.022996885898964949 0.046433719945424688 0 -0.022437785867748562 0.045960842010356474 0 -0.022996885898964949 0.046433719945424688 0 -0.021020100189573777 0.046222050177885964 0 -0.020948022408571989 0.046013177370424457 0 -0.022437785867748562 0.045960842010356474 0 -0.021020100189573777 0.046222050177885964 0 -0.02563421071870076 0.045759935707740312 0 -0.024715189800954673 0.045637718565216825 0 -0.022996885898964949 0.046433719945424688 0 -0.020757641823425026 0.045985895784376972 0 -0.021020100189573777 0.046222050177885964 0 -0.0288951670225919 0.045580403478946652 0 -0.028237989354218389 0.045461299033421054 0 -0.028649451145133616 0.045627706071730958 0 -0.020757641823425026 0.045985895784376972 0 -0.021020100189573777 0.046222050177885964 0 -0.020070910790285328 0.045229478038644834 0 -0.020321497785715289 0.045468551645068141 0 -0.021020100189573777 0.046222050177885964 0 -0.020070910790285328 0.045229478038644834 0 -0.019892352073982114 0.04454980706249452 0 -0.020321497785715289 0.045468551645068141 0 -0.020070910790285328 0.045229478038644834 0 -0.019892352073982114 0.04454980706249452 0 -0.019673962361261975 0.044609690255088902 0 -0.019450957249915826 0.044201126495621287 0 -0.019892352073982114 0.04454980706249452 0 -0.020070910790285328 0.045229478038644834 0 -0.019673962361261975 0.044609690255088902 0 -0.019673962361261975 0.044609690255088902 0 -0.019450957249915826 0.044201126495621287 0 -0.019188844311688231 0.044440124072274302 0 -0.020070910790285328 0.045229478038644834 0 -0.019673962361261975 0.044609690255088902 0 -0.019188844311688231 0.044440124072274302 0 -0.019450957249915826 0.044201126495621287 0 -0.019188844311688231 0.044440124072274302 0 -0.019017574725219075 0.043548704086357332 0 -0.019892352073982114 0.04454980706249452 0 -0.019450957249915826 0.044201126495621287 0 -0.019387896714785448 0.043687248262400689 0 -0.019450957249915826 0.044201126495621287 0 -0.019387896714785448 0.043687248262400689 0 -0.019017574725219075 0.043548704086357332 0 -0.028488544377769674 0.04592946620282342 0 -0.028573167046297501 0.046107751380506011 0 -0.02831635431380922 0.045701231455146138 0 -0.028514891591880184 0.045904740690682122 0 -0.028523221723465067 0.046110632713072121 0 -0.028562478298819596 0.045763613794488033 0 -0.028488544377769674 0.04592946620282342 0 -0.028573167046297501 0.046107751380506011 0 -0.028523221723465067 0.046110632713072121 0 -0.028488544377769674 0.04592946620282342 0 -0.028514891591880184 0.045904740690682122 0 -0.028523221723465067 0.046110632713072121 0 -0.028573167046297501 0.046107751380506011 0 -0.028523221723465067 0.046110632713072121 0 -0.02872274048549632 0.04585150916839232 0 -0.028573167046297501 0.046107751380506011 0 -0.02872274048549632 0.04585150916839232 0 -0.028871326050484029 0.046044989530778548 0 -0.028573167046297501 0.046107751380506011 0 -0.028871326050484029 0.046044989530778548 0 -0.029052414832057494 0.046328943289223733 0 -0.020757641823425026 0.045985895784376972 0 -0.020070910790285328 0.045229478038644834 0 -0.019188844311688231 0.044440124072274302 0 -0.028649451145133616 0.045627706071730958 0 -0.028523221723465067 0.046110632713072121 0 -0.02872274048549632 0.04585150916839232 0 -0.024715189800954673 0.045637718565216825 0 -0.024070809039458282 0.045546565507917948 0 -0.0288951670225919 0.045580403478946652 0 -0.028649451145133616 0.045627706071730958 0 -0.02872274048549632 0.04585150916839232 0 -0.029630536248194651 0.045552001913375106 0 -0.0288951670225919 0.045580403478946652 0 -0.029163113224407181 0.045929168635142376 0 -0.0288951670225919 0.045580403478946652 0 -0.02872274048549632 0.04585150916839232 0 -0.029163113224407181 0.045929168635142376 0 -0.02872274048549632 0.04585150916839232 0 -0.029163113224407181 0.045929168635142376 0 -0.028871326050484029 0.046044989530778548 0 -0.029630536248194651 0.045552001913375106 0 -0.029163113224407181 0.045929168635142376 0 -0.030077342542902969 0.045897266700202548 0 -0.029163113224407181 0.045929168635142376 0 -0.030077342542902969 0.045897266700202548 0 -0.029618416664326432 0.046484451238119749 0 -0.030469537043605915 0.046542547956230827 0 -0.030077342542902969 0.045897266700202548 0 -0.029618416664326432 0.046484451238119749 0 -0.028573167046297501 0.046107751380506011 0 -0.029052414832057494 0.046328943289223733 0 -0.029044474792569854 0.047151893188671627 0 -0.029163113224407181 0.045929168635142376 0 -0.028871326050484029 0.046044989530778548 0 -0.029052414832057494 0.046328943289223733 0 -0.029163113224407181 0.045929168635142376 0 -0.029618416664326432 0.046484451238119749 0 -0.029052414832057494 0.046328943289223733 0 -0.029618416664326432 0.046484451238119749 0 -0.029007246519432227 0.047308946631852825 0 -0.029115563803304299 0.047515823518506708 0 -0.029130593214518861 0.047332608370197725 0 -0.029569176108182545 0.044676645666328459 0 -0.029618416664326432 0.046484451238119749 0 -0.029052414832057494 0.046328943289223733 0 -0.029044474792569854 0.047151893188671627 0 -0.028025807386105266 0.045515188073261215 0 -0.028159799337427658 0.045327186556342942 0 -0.028191170206762022 0.045491908360787418 0 -0.030469537043605915 0.046542547956230827 0 -0.029618416664326432 0.046484451238119749 0 -0.030315621090806336 0.047372719024737817 0 -0.029618416664326432 0.046484451238119749 0 -0.030315621090806336 0.047372719024737817 0 -0.029115563803304299 0.047515823518506708 0 -0.045255681829664759 0.034283552586474864 0 -0.037031884423321615 0.031553827971105765 0 -0.034359111823329611 0.042674377442091453 0 -0.031961237948095619 0.039993446247563728 0 -0.038197279476552479 0.039047893089576728 0 -0.03765948641289623 0.037971410294825349 0 -0.036383279781361397 0.038682809729170591 0 -0.03765948641289623 0.037971410294825349 0 -0.036119478879795885 0.038210697063237001 0 -0.036383279781361397 0.038682809729170591 0 -0.030741807501927617 0.033814905209721191 0 -0.032793642127748525 0.033446524838064602 0 -0.034041775671313106 0.035829447614843329 0 -0.030741807501927617 0.033814905209721191 0 -0.034041775671313106 0.035829447614843329 0 -0.029843414444790588 0.034962848889891512 0 -0.028872548971928515 0.039059745557412387 0 -0.031961237948095619 0.039993446247563728 0 -0.029569176108182545 0.044676645666328459 0 -0.028872548971928515 0.039059745557412387 0 -0.02993505302345437 0.040108861397494804 0 -0.029758639249788631 0.04032114111186428 0 -0.030027187717351959 0.040278293177459901 0 -0.029569176108182545 0.044676645666328459 0 -0.031961237948095619 0.039993446247563728 0 -0.031961237948095619 0.039993446247563728 0 -0.037031884423321615 0.031553827971105765 0 -0.029150038726842242 0.027622299072138 0 -0.027686290889558197 0.027517525935014362 0 -0.028088099647697422 0.028591988962236983 0 -0.037031884423321615 0.031553827971105765 0 -0.027620277027832183 0.03434865863631633 0 -0.023698777131505904 0.034838618832063808 0 -0.021970857965813901 0.034548835116849731 0 -0.019256337646136292 0.039673830775135109 0 -0.028159799337427658 0.045327186556342942 0 -0.028438435674288828 0.04527376518108988 0 -0.028323594065111039 0.045475900980362492 0 -0.028837014393799175 0.037263681210764017 0 -0.027943454237400796 0.038405711224959123 0 -0.025418896756543217 0.037871440824479817 0 -0.028872548971928515 0.039059745557412387 0 -0.024762971250716474 0.037608570861294169 0 -0.028872548971928515 0.039059745557412387 0 -0.027620277027832183 0.03434865863631633 0 -0.027620277027832183 0.03434865863631633 0 -0.024762971250716474 0.037608570861294169 0 -0.028159799337427658 0.045327186556342942 0 -0.028191170206762022 0.045491908360787418 0 -0.028323594065111039 0.045475900980362492 0 -0.024762971250716474 0.037608570861294169 0 -0.020036575801772861 0.036066355242098412 0 -0.028559429866685283 0.045415785264267441 0 -0.028438435674288828 0.04527376518108988 0 -0.028767714514732274 0.045350564313404298 0 -0.028438435674288828 0.04527376518108988 0 -0.028323594065111039 0.045475900980362492 0 -0.028474399655180501 0.045471924888825926 0 -0.028559429866685283 0.045415785264267441 0 -0.028438435674288828 0.04527376518108988 0 -0.028474399655180501 0.045471924888825926 0 -0.021970857965813901 0.034548835116849731 0 -0.019602681905337753 0.035045591283318023 0 -0.018539709813870455 0.037260857147133952 0 -0.019602681905337753 0.035045591283318023 0 -0.019433787111188393 0.034072355948856853 0 -0.018539709813870455 0.037260857147133952 0 -0.022144700757839742 0.042132794724336078 0 -0.018795931841766578 0.038766074179462338 0 -0.018914942247394644 0.041771660637288696 0 -0.018195936610521754 0.04245447372177464 0 -0.018198025424901239 0.041109191984202181 0 -0.018914942247394644 0.041771660637288696 0 -0.018719964111560908 0.042594659170761766 0 -0.018195936610521754 0.04245447372177464 0 -0.019810293359236716 0.041952422288417321 0 -0.022144700757839742 0.042132794724336078 0 -0.018719964111560908 0.042594659170761766 0 -0.018539810474319355 0.042581999900325622 0 -0.018751857398256935 0.042779489194301731 0 -0.024762971250716474 0.037608570861294169 0 -0.022144700757839742 0.042132794724336078 0 -0.02209230043448784 0.034642053278856978 0 -0.019602681905337753 0.035045591283318023 0 -0.019433787111188393 0.034072355948856853 0 -0.018539810474319355 0.042581999900325622 0 -0.018843675677975586 0.043036516149260441 0 -0.019017574725219075 0.043548704086357332 0 -0.024070809039458282 0.045546565507917948 0 -0.022144700757839742 0.042132794724336078 0 -0.019188844311688231 0.044440124072274302 0 -0.018539810474319355 0.042581999900325622 0 -0.019017574725219075 0.043548704086357332 0 -0.028523221723465067 0.046110632713072121 0 -0.028767714514732274 0.045350564313404298 0 -0.028562478298819596 0.045763613794488033 0 -0.028559429866685283 0.045415785264267441 0 -0.028767714514732274 0.045350564313404298 0 -0.028557675793494521 0.045563465950432799 0 -0.028767714514732274 0.045350564313404298 0 -0.028562478298819596 0.045763613794488033 0 -0.028557675793494521 0.045563465950432799 0 -0.01917344368825329 0.042595681920513009 0 -0.018719964111560908 0.042594659170761766 0 -0.01894681378888298 0.042925436724197012 0 -0.018719964111560908 0.042594659170761766 0 -0.01894681378888298 0.042925436724197012 0 -0.018751857398256935 0.042779489194301731 0 -0.01894681378888298 0.042925436724197012 0 -0.018751857398256935 0.042779489194301731 0 -0.018843675677975586 0.043036516149260441 0 -0.018539810474319355 0.042581999900325622 0 -0.018751857398256935 0.042779489194301731 0 -0.018843675677975586 0.043036516149260441 0 -0.01894681378888298 0.042925436724197012 0 -0.018843675677975586 0.043036516149260441 0 -0.019092761016848793 0.043333638875845112 0 -0.01894681378888298 0.042925436724197012 0 -0.019197336706346657 0.043163302754583972 0 -0.019092761016848793 0.043333638875845112 0 -0.019092761016848793 0.043333638875845112 0 -0.019387896714785448 0.043687248262400689 0 -0.019017574725219075 0.043548704086357332 0 -0.019197336706346657 0.043163302754583972 0 -0.019092761016848793 0.043333638875845112 0 -0.019387896714785448 0.043687248262400689 0 -0.018843675677975586 0.043036516149260441 0 -0.019092761016848793 0.043333638875845112 0 -0.019017574725219075 0.043548704086357332 0 -0.028573167046297501 0.046107751380506011 0 -0.028025807386105266 0.045515188073261215 0 -0.02831635431380922 0.045701231455146138 0 -0.028382241842487707 0.046684421628390503 0 -0.029569176108182545 0.044676645666328459 0 -0.028514891591880184 0.045904740690682122 0 -0.028562478298819596 0.045763613794488033 0 -0.028486952513753324 0.045809897945041651 0 -0.028562478298819596 0.045763613794488033 0 -0.02850781584002127 0.045704106419200106 0 -0.028557675793494521 0.045563465950432799 0 -0.028562478298819596 0.045763613794488033 0 -0.02850781584002127 0.045704106419200106 0 -0.028486952513753324 0.045809897945041651 0 -0.028486952513753324 0.045809897945041651 0 -0.028414359474936007 0.045776834012986004 0 -0.028439871639678052 0.045639014273510664 0 -0.02850781584002127 0.045704106419200106 0 -0.028486952513753324 0.045809897945041651 0 -0.028439871639678052 0.045639014273510664 0 -0.028488544377769674 0.04592946620282342 0 -0.028486952513753324 0.045809897945041651 0 -0.028414359474936007 0.045776834012986004 0 -0.028488544377769674 0.04592946620282342 0 -0.028514891591880184 0.045904740690682122 0 -0.028486952513753324 0.045809897945041651 0 -0.028488544377769674 0.04592946620282342 0 -0.028414359474936007 0.045776834012986004 0 -0.02831635431380922 0.045701231455146138 0 -0.028414359474936007 0.045776834012986004 0 -0.02831635431380922 0.045701231455146138 0 -0.028439871639678052 0.045639014273510664 0 -0.02831635431380922 0.045701231455146138 0 -0.028323594065111039 0.045475900980362492 0 -0.028439871639678052 0.045639014273510664 0 -0.028025807386105266 0.045515188073261215 0 -0.02831635431380922 0.045701231455146138 0 -0.028191170206762022 0.045491908360787418 0 -0.02831635431380922 0.045701231455146138 0 -0.028191170206762022 0.045491908360787418 0 -0.028323594065111039 0.045475900980362492 0 -0.028323594065111039 0.045475900980362492 0 -0.028474399655180501 0.045471924888825926 0 -0.028439871639678052 0.045639014273510664 0 -0.028559429866685283 0.045415785264267441 0 -0.028474399655180501 0.045471924888825926 0 -0.028557675793494521 0.045563465950432799 0 -0.02850781584002127 0.045704106419200106 0 -0.028557675793494521 0.045563465950432799 0 -0.028439871639678052 0.045639014273510664 0 -0.028474399655180501 0.045471924888825926 0 -0.028557675793494521 0.045563465950432799 0 -0.028439871639678052 0.045639014273510664 0 -0.026414275607819664 0.030598992275958387 0 -0.027558190872332158 0.030989404153387842 0 -0.025552484932084576 0.031683708112826656 0 -0.026414275607819664 0.030598992275958387 0 -0.026870616036775135 0.029996788986194803 0 -0.02568013623931575 0.029757012800527845 0 -0.026414275607819664 0.030598992275958387 0 -0.026870616036775135 0.029996788986194803 0 -0.027558190872332158 0.030989404153387842 0 -0.027558190872332158 0.030989404153387842 0 -0.027849041233665616 0.029730753189266417 0 -0.028609194078246102 0.030471708839117213 0 -0.026870616036775135 0.029996788986194803 0 -0.027558190872332158 0.030989404153387842 0 -0.027849041233665616 0.029730753189266417 0 -0.020893832788798642 0.035658600404734786 0 -0.022279680216007455 0.03406497389387645 0 -0.018494673715833215 0.038782898489175419 0 -0.018679477724362032 0.039660029869752679 0 -0.019256337646136292 0.039673830775135109 0 -0.023129843741720103 0.032234748539095658 0 -0.02568013623931575 0.029757012800527845 0 -0.025552484932084576 0.031683708112826656 0 -0.026414275607819664 0.030598992275958387 0 -0.02568013623931575 0.029757012800527845 0 -0.025552484932084576 0.031683708112826656 0 -0.021970857965813901 0.034548835116849731 0 -0.019256337646136292 0.039673830775135109 0 -0.018539709813870455 0.037260857147133952 0 -0.018812995868015873 0.040650388430332966 0 -0.018679477724362032 0.039660029869752679 0 -0.018198025424901239 0.041109191984202181 0 -0.018537381374805619 0.039647260090477442 0 -0.018795931841766578 0.038766074179462338 0 -0.018679477724362032 0.039660029869752679 0 -0.019256337646136292 0.039673830775135109 0 -0.018539709813870455 0.037260857147133952 0 -0.018914942247394644 0.041771660637288696 0 -0.018812995868015873 0.040650388430332966 0 -0.018198025424901239 0.041109191984202181 0 -0.027620277027832183 0.03434865863631633 0 -0.022279680216007455 0.03406497389387645 0 -0.027686290889558197 0.027517525935014362 0 -0.027218760351966687 0.029041715729468662 0 -0.028088099647697422 0.028591988962236983 0 -0.027686290889558197 0.027517525935014362 0 -0.02568013623931575 0.029757012800527845 0 -0.027218760351966687 0.029041715729468662 0 -0.026870616036775135 0.029996788986194803 0 -0.02568013623931575 0.029757012800527845 0 -0.027218760351966687 0.029041715729468662 0 -0.026870616036775135 0.029996788986194803 0 -0.027849041233665616 0.029730753189266417 0 -0.027218760351966687 0.029041715729468662 0 -0.027849041233665616 0.029730753189266417 0 -0.027218760351966687 0.029041715729468662 0 -0.028088099647697422 0.028591988962236983 0 -0.029150038726842242 0.027622299072138 0 -0.028088099647697422 0.028591988962236983 0 -0.028727427824000621 0.029229737198754355 0 -0.029150038726842242 0.027622299072138 0 -0.028727427824000621 0.029229737198754355 0 -0.030827248109479458 0.030337069755925067 0 -0.027849041233665616 0.029730753189266417 0 -0.028727427824000621 0.029229737198754355 0 -0.028609194078246102 0.030471708839117213 0 -0.027849041233665616 0.029730753189266417 0 -0.028088099647697422 0.028591988962236983 0 -0.028727427824000621 0.029229737198754355 0 -0.049465650756108343 0.028875858498435207 0 -0.049513750104962388 0.028775277823738229 0 -0.049507449123682094 0.028755842885606203 0 -0.037031884423321615 0.031553827971105765 0 -0.045209381203104609 0.029402725841035454 0 -0.049350008699874187 0.028935396620433179 0 -0.049465650756108343 0.028875858498435207 0 -0.049513750104962388 0.028775277823738229 0 -0.049513750104962388 0.028775277823738229 0 -0.049694950115963046 0.028567182136257072 0 -0.04944603988663987 0.028554431839839866 0 -0.047533927968627598 0.028110738755005395 0 -0.045209381203104609 0.029402725841035454 0 -0.048335395549255381 0.032404855194912215 0 -0.048434471471508402 0.032180552561915717 0 -0.048109964058405653 0.03184963820003249 0 -0.045209381203104609 0.029402725841035454 0 -0.049455095264322492 0.030139666383726883 0 -0.049694950115963046 0.028567182136257072 0 -0.049674230119239562 0.027728647497750458 0 -0.049456623412097944 0.028239575868082768 0 -0.028727427824000621 0.029229737198754355 0 -0.030827248109479458 0.030337069755925067 0 -0.0303976610589997 0.03167929793213952 0 -0.049694950115963046 0.028567182136257072 0 -0.049456623412097944 0.028239575868082768 0 -0.04944603988663987 0.028554431839839866 0 -0.045209381203104609 0.029402725841035454 0 -0.04024371969725983 0.032468569662489857 0 -0.028727427824000621 0.029229737198754355 0 -0.029950407201424438 0.031053584815776976 0 -0.028609194078246102 0.030471708839117213 0 -0.02641275619620188 0.027932853640485995 0 -0.04024371969725983 0.032468569662489857 0 -0.029950407201424438 0.031053584815776976 0 -0.028609194078246102 0.030471708839117213 0 -0.028611335913561943 0.031746746099052391 0 -0.027558190872332158 0.030989404153387842 0 -0.028609194078246102 0.030471708839117213 0 -0.028611335913561943 0.031746746099052391 0 -0.028611335913561943 0.031746746099052391 0 -0.02941213079128845 0.033394550045548171 0 -0.027334651049402373 0.032889297903202303 0 -0.04024371969725983 0.032468569662489857 0 -0.03997704414307475 0.033633054294356445 0 -0.029950407201424438 0.031053584815776976 0 -0.028611335913561943 0.031746746099052391 0 -0.02941213079128845 0.033394550045548171 0 -0.02941213079128845 0.033394550045548171 0 -0.027334651049402373 0.032889297903202303 0 -0.028523189415684661 0.036576672625240274 0 -0.04024371969725983 0.032468569662489857 0 -0.049885931090385201 0.032659596600331964 0 -0.04966977499420841 0.034317624697639541 0 -0.049591388950955655 0.033011903941999723 0 -0.048723739137459358 0.032767648306236713 0 -0.04966977499420841 0.034317624697639541 0 -0.049591388950955655 0.033011903941999723 0 -0.050335850090416266 0.03272151141330977 0 -0.048434471471508402 0.032180552561915717 0 -0.048184509288472281 0.031496568393276005 0 -0.048109964058405653 0.03184963820003249 0 -0.049591388950955655 0.033011903941999723 0 -0.049596278599928802 0.032128920572551879 0 -0.048723739137459358 0.032767648306236713 0 -0.049591388950955655 0.033011903941999723 0 -0.049596278599928802 0.032128920572551879 0 -0.050335850090416266 0.03272151141330977 0 -0.049596278599928802 0.032128920572551879 0 -0.048998860456266523 0.03176479998812802 0 -0.048723739137459358 0.032767648306236713 0 -0.049596278599928802 0.032128920572551879 0 -0.050335850090416266 0.03272151141330977 0 -0.050262203550316444 0.03176912917786269 0 -0.027334651049402373 0.032889297903202303 0 -0.025119271263727906 0.034935282427170464 0 -0.028523189415684661 0.036576672625240274 0 -0.027558190872332158 0.030989404153387842 0 -0.027334651049402373 0.032889297903202303 0 -0.025552484932084576 0.031683708112826656 0 -0.027558190872332158 0.030989404153387842 0 -0.028611335913561943 0.031746746099052391 0 -0.027334651049402373 0.032889297903202303 0 -0.023129843741720103 0.032234748539095658 0 -0.025552484932084576 0.031683708112826656 0 -0.025119271263727906 0.034935282427170464 0 -0.027334651049402373 0.032889297903202303 0 -0.025552484932084576 0.031683708112826656 0 -0.025119271263727906 0.034935282427170464 0 -0.023230204725570087 0.036969987238874714 0 -0.025119271263727906 0.034935282427170464 0 -0.024882030300458192 0.038744633376808342 0 -0.025119271263727906 0.034935282427170464 0 -0.024882030300458192 0.038744633376808342 0 -0.028523189415684661 0.036576672625240274 0 -0.024504384278223056 0.033386756598432696 0 -0.037688717102798308 0.031226384248910433 0 -0.02823564258337842 0.026335402120501165 0 -0.028180525301856423 0.026222432865387814 0 -0.028257492543404279 0.026408130102428311 0 -0.040608698249830315 0.026251620029306713 0 -0.037688717102798308 0.031226384248910433 0 -0.02823564258337842 0.026335402120501165 0 -0.028295629508737177 0.026127450511451628 0 -0.028180525301856423 0.026222432865387814 0 -0.052371629268728952 0.027529714466617766 0 -0.051420652281085395 0.026616848890652609 0 -0.052584431444578424 0.02558318987709526 0 -0.040608698249830315 0.026251620029306713 0 -0.040649292068159884 0.025767518478927491 0 -0.051420652281085395 0.026616848890652609 0 -0.051458003498362742 0.02558535948686172 0 -0.052584431444578424 0.02558318987709526 0 -0.028295629508737177 0.026127450511451628 0 -0.028180525301856423 0.026222432865387814 0 -0.028195952498283803 0.025786364039971067 0 -0.028419202103221148 0.025917418190872742 0 -0.028295629508737177 0.026127450511451628 0 -0.028195952498283803 0.025786364039971067 0 -0.049463405608537986 0.025625360220065788 0 -0.050655250063697095 0.025889094069433478 0 -0.05015062196482048 0.026966892471303475 0 -0.049463405608537986 0.025625360220065788 0 -0.05015062196482048 0.026966892471303475 0 -0.048972445385802317 0.026930788024622059 0 -0.050655250063697095 0.025889094069433478 0 -0.051420652281085395 0.026616848890652609 0 -0.05015062196482048 0.026966892471303475 0 -0.050655250063697095 0.025889094069433478 0 -0.051420652281085395 0.026616848890652609 0 -0.051458003498362742 0.02558535948686172 0 -0.051420652281085395 0.026616848890652609 0 -0.05015062196482048 0.026966892471303475 0 -0.050723759288620697 0.028648345314698759 0 -0.052371629268728952 0.027529714466617766 0 -0.051420652281085395 0.026616848890652609 0 -0.050723759288620697 0.028648345314698759 0 -0.05015062196482048 0.026966892471303475 0 -0.04942717306352154 0.028331341021186795 0 -0.048972445385802317 0.026930788024622059 0 -0.05015062196482048 0.026966892471303475 0 -0.04942717306352154 0.028331341021186795 0 -0.050723759288620697 0.028648345314698759 0 -0.04942717306352154 0.028331341021186795 0 -0.049673504275304675 0.029952217088151573 0 -0.050723759288620697 0.028648345314698759 0 -0.04942717306352154 0.028331341021186795 0 -0.049673504275304675 0.029952217088151573 0 -0.048798342148939737 0.029528358405876101 0 -0.049673504275304675 0.029952217088151573 0 -0.050723759288620697 0.028648345314698759 0 -0.050472796429128691 0.031083833833085033 0 -0.050723759288620697 0.028648345314698759 0 -0.051795754436400387 0.030311476506171362 0 -0.050472796429128691 0.031083833833085033 0 -0.052371629268728952 0.027529714466617766 0 -0.050723759288620697 0.028648345314698759 0 -0.051795754436400387 0.030311476506171362 0 -0.050335850090416266 0.03272151141330977 0 -0.050834884429453282 0.031331611097752822 0 -0.050262203550316444 0.03176912917786269 0 -0.03997704414307475 0.033633054294356445 0 -0.037688717102798308 0.031226384248910433 0 -0.037688717102798308 0.031226384248910433 0 -0.051878535019209977 0.028834445620811836 0 -0.050834884429453282 0.031331611097752822 0 -0.050472796429128691 0.031083833833085033 0 -0.050262203550316444 0.03176912917786269 0 -0.050472796429128691 0.031083833833085033 0 -0.050262203550316444 0.03176912917786269 0 -0.049822699108207739 0.031161624128264377 0 -0.049673504275304675 0.029952217088151573 0 -0.049097803996410089 0.030990206397749881 0 -0.048798342148939737 0.029528358405876101 0 -0.049673504275304675 0.029952217088151573 0 -0.049822699108207739 0.031161624128264377 0 -0.049097803996410089 0.030990206397749881 0 -0.049673504275304675 0.029952217088151573 0 -0.050472796429128691 0.031083833833085033 0 -0.049822699108207739 0.031161624128264377 0 -0.049596278599928802 0.032128920572551879 0 -0.050262203550316444 0.03176912917786269 0 -0.049822699108207739 0.031161624128264377 0 -0.049596278599928802 0.032128920572551879 0 -0.048998860456266523 0.03176479998812802 0 -0.049097803996410089 0.030990206397749881 0 -0.049596278599928802 0.032128920572551879 0 -0.049822699108207739 0.031161624128264377 0 -0.049097803996410089 0.030990206397749881 0 -0.048998860456266523 0.03176479998812802 0 -0.049097803996410089 0.030990206397749881 0 -0.048580559935204499 0.03118099687369438 0 -0.047619689634184906 0.030815692578662207 0 -0.04764785970056503 0.030130570481226943 0 -0.048184509288472281 0.031496568393276005 0 -0.048580559935204499 0.03118099687369438 0 -0.04764785970056503 0.030130570481226943 0 -0.048723739137459358 0.032767648306236713 0 -0.049097803996410089 0.030990206397749881 0 -0.048580559935204499 0.03118099687369438 0 -0.04840840964676496 0.030266650259718697 0 -0.048580559935204499 0.03118099687369438 0 -0.04840840964676496 0.030266650259718697 0 -0.04764785970056503 0.030130570481226943 0 -0.04840840964676496 0.030266650259718697 0 -0.04764785970056503 0.030130570481226943 0 -0.047957525803380585 0.02923486292681432 0 -0.049097803996410089 0.030990206397749881 0 -0.04840840964676496 0.030266650259718697 0 -0.048798342148939737 0.029528358405876101 0 -0.049439785595697332 0.026493966543245626 0 -0.048768894824335662 0.02609208861022436 0 -0.048915143342326314 0.02522358006904938 0 -0.048429412880251765 0.028540778465723195 0 -0.04802839111573292 0.027070784149546771 0 -0.047619689634184906 0.030815692578662207 0 -0.04764785970056503 0.030130570481226943 0 -0.047048359647039018 0.028835229740970914 0 -0.049439785595697332 0.026493966543245626 0 -0.048768894824335662 0.02609208861022436 0 -0.048879003770793079 0.026763262267630931 0 -0.04764785970056503 0.030130570481226943 0 -0.047048359647039018 0.028835229740970914 0 -0.047957525803380585 0.02923486292681432 0 -0.047048359647039018 0.028835229740970914 0 -0.047957525803380585 0.02923486292681432 0 -0.048312739468744599 0.02823803874385471 0 -0.04840840964676496 0.030266650259718697 0 -0.048798342148939737 0.029528358405876101 0 -0.047957525803380585 0.02923486292681432 0 -0.048798342148939737 0.029528358405876101 0 -0.047957525803380585 0.02923486292681432 0 -0.048312739468744599 0.02823803874385471 0 -0.04942717306352154 0.028331341021186795 0 -0.048798342148939737 0.029528358405876101 0 -0.048312739468744599 0.02823803874385471 0 -0.04942717306352154 0.028331341021186795 0 -0.048312739468744599 0.02823803874385471 0 -0.048972445385802317 0.026930788024622059 0 -0.048312739468744599 0.02823803874385471 0 -0.048972445385802317 0.026930788024622059 0 -0.047983560879624264 0.027062656225024774 0 -0.047048359647039018 0.028835229740970914 0 -0.047983560879624264 0.027062656225024774 0 -0.046819384035957888 0.026049950448508531 0 -0.047048359647039018 0.028835229740970914 0 -0.048312739468744599 0.02823803874385471 0 -0.047983560879624264 0.027062656225024774 0 -0.048457681222316348 0.025586087965464008 0 -0.046819384035957888 0.026049950448508531 0 -0.047988132936234967 0.024311263005631092 0 -0.047983560879624264 0.027062656225024774 0 -0.048457681222316348 0.025586087965464008 0 -0.046819384035957888 0.026049950448508531 0 -0.048972445385802317 0.026930788024622059 0 -0.047983560879624264 0.027062656225024774 0 -0.048457681222316348 0.025586087965464008 0 -0.049463405608537986 0.025625360220065788 0 -0.048972445385802317 0.026930788024622059 0 -0.048457681222316348 0.025586087965464008 0 -0.048214377228279537 0.024103548603973231 0 -0.047484026172316833 0.024050349680843415 0 -0.047369940433010779 0.023607722269418752 0 -0.047564426550773031 0.025137507076888825 0 -0.04736475474304748 0.023815487233452656 0 -0.04802839111573292 0.027070784149546771 0 -0.047564426550773031 0.025137507076888825 0 -0.048214377228279537 0.024103548603973231 0 -0.047484026172316833 0.024050349680843415 0 -0.047667578447400105 0.025121240280860258 0 -0.047667578447400105 0.025121240280860258 0 -0.04825819966480014 0.025548739536830314 0 -0.04769451378531861 0.026049974155824208 0 -0.048915143342326314 0.02522358006904938 0 -0.048214377228279537 0.024103548603973231 0 -0.04825819966480014 0.025548739536830314 0 -0.048214377228279537 0.024103548603973231 0 -0.047667578447400105 0.025121240280860258 0 -0.04825819966480014 0.025548739536830314 0 -0.048768894824335662 0.02609208861022436 0 -0.048915143342326314 0.02522358006904938 0 -0.04825819966480014 0.025548739536830314 0 -0.048768894824335662 0.02609208861022436 0 -0.04825819966480014 0.025548739536830314 0 -0.048371846434831514 0.026436010695616227 0 -0.04825819966480014 0.025548739536830314 0 -0.048371846434831514 0.026436010695616227 0 -0.04769451378531861 0.026049974155824208 0 -0.048768894824335662 0.02609208861022436 0 -0.048371846434831514 0.026436010695616227 0 -0.048879003770793079 0.026763262267630931 0 -0.047410629636191207 0.026823176774266651 0 -0.048268708939232845 0.027961083666594597 0 -0.048051894745147539 0.026885732042728962 0 -0.048371846434831514 0.026436010695616227 0 -0.04769451378531861 0.026049974155824208 0 -0.048051894745147539 0.026885732042728962 0 -0.04769451378531861 0.026049974155824208 0 -0.047410629636191207 0.026823176774266651 0 -0.048051894745147539 0.026885732042728962 0 -0.04784898837574756 0.027827535085936494 0 -0.047957508659526221 0.028136943720068266 0 -0.047639948823930856 0.028336106652851575 0 -0.04784898837574756 0.027827535085936494 0 -0.047957508659526221 0.028136943720068266 0 -0.048268708939232845 0.027961083666594597 0 -0.047669236157296256 0.027339346274044087 0 -0.048255109733499703 0.027933271251032295 0 -0.048268708939232845 0.027961083666594597 0 -0.048051894745147539 0.026885732042728962 0 -0.048535228314208034 0.027288002500276912 0 -0.04855765222637512 0.027791293521062292 0 -0.048741290799728096 0.027893806432426584 0 -0.048514638541550685 0.02821406225011466 0 -0.04855765222637512 0.027791293521062292 0 -0.048268708939232845 0.027961083666594597 0 -0.048514638541550685 0.02821406225011466 0 -0.048268708939232845 0.027961083666594597 0 -0.048191069152889364 0.028169370492094208 0 -0.048514638541550685 0.02821406225011466 0 -0.047957508659526221 0.028136943720068266 0 -0.048268708939232845 0.027961083666594597 0 -0.048191069152889364 0.028169370492094208 0 -0.04855765222637512 0.027791293521062292 0 -0.048535228314208034 0.027288002500276912 0 -0.048780911240244751 0.027563510932930711 0 -0.04855765222637512 0.027791293521062292 0 -0.048268708939232845 0.027961083666594597 0 -0.048535228314208034 0.027288002500276912 0 -0.048371846434831514 0.026436010695616227 0 -0.048051894745147539 0.026885732042728962 0 -0.048535228314208034 0.027288002500276912 0 -0.048371846434831514 0.026436010695616227 0 -0.048535228314208034 0.027288002500276912 0 -0.048879003770793079 0.026763262267630931 0 -0.049439785595697332 0.026493966543245626 0 -0.048879003770793079 0.026763262267630931 0 -0.049227023662411877 0.027156478055916831 0 -0.049227023662411877 0.027156478055916831 0 -0.04889326044100558 0.027239099796169054 0 -0.049043316051001311 0.027421339905987888 0 -0.048879003770793079 0.026763262267630931 0 -0.049227023662411877 0.027156478055916831 0 -0.04889326044100558 0.027239099796169054 0 -0.048535228314208034 0.027288002500276912 0 -0.048879003770793079 0.026763262267630931 0 -0.04889326044100558 0.027239099796169054 0 -0.047619689634184906 0.030815692578662207 0 -0.048184509288472281 0.031496568393276005 0 -0.048109964058405653 0.03184963820003249 0 -0.049439785595697332 0.026493966543245626 0 -0.049227023662411877 0.027156478055916831 0 -0.049674230119239562 0.027728647497750458 0 -0.047186717984098604 0.02994727002947566 0 -0.049885931090385201 0.032659596600331964 0 -0.048429412880251765 0.028540778465723195 0 -0.049455095264322492 0.030139666383726883 0 -0.048998860456266523 0.03176479998812802 0 -0.048580559935204499 0.03118099687369438 0 -0.048723739137459358 0.032767648306236713 0 -0.049227023662411877 0.027156478055916831 0 -0.049674230119239562 0.027728647497750458 0 -0.049250609416378092 0.027579478271521823 0 -0.049674230119239562 0.027728647497750458 0 -0.049253427122337455 0.027944820999471896 0 -0.049250609416378092 0.027579478271521823 0 -0.049674230119239562 0.027728647497750458 0 -0.049253427122337455 0.027944820999471896 0 -0.049456623412097944 0.028239575868082768 0 -0.048535228314208034 0.027288002500276912 0 -0.04889326044100558 0.027239099796169054 0 -0.048780911240244751 0.027563510932930711 0 -0.048780911240244751 0.027563510932930711 0 -0.049043316051001311 0.027421339905987888 0 -0.049008282114324342 0.027750613713264878 0 -0.04889326044100558 0.027239099796169054 0 -0.048780911240244751 0.027563510932930711 0 -0.049043316051001311 0.027421339905987888 0 -0.049227023662411877 0.027156478055916831 0 -0.049043316051001311 0.027421339905987888 0 -0.049250609416378092 0.027579478271521823 0 -0.049043316051001311 0.027421339905987888 0 -0.049250609416378092 0.027579478271521823 0 -0.049008282114324342 0.027750613713264878 0 -0.049253427122337455 0.027944820999471896 0 -0.049250609416378092 0.027579478271521823 0 -0.049008282114324342 0.027750613713264878 0 -0.049253427122337455 0.027944820999471896 0 -0.049008282114324342 0.027750613713264878 0 -0.048994773404923038 0.028073664890819822 0 -0.049008282114324342 0.027750613713264878 0 -0.048741290799728096 0.027893806432426584 0 -0.048994773404923038 0.028073664890819822 0 -0.048780911240244751 0.027563510932930711 0 -0.049008282114324342 0.027750613713264878 0 -0.048741290799728096 0.027893806432426584 0 -0.04855765222637512 0.027791293521062292 0 -0.048780911240244751 0.027563510932930711 0 -0.048741290799728096 0.027893806432426584 0 -0.048741290799728096 0.027893806432426584 0 -0.048994773404923038 0.028073664890819822 0 -0.0487987951248832 0.028375650048364429 0 -0.048741290799728096 0.027893806432426584 0 -0.0487987951248832 0.028375650048364429 0 -0.048514638541550685 0.02821406225011466 0 -0.049253427122337455 0.027944820999471896 0 -0.048994773404923038 0.028073664890819822 0 -0.049154928478052286 0.02836599229688953 0 -0.048994773404923038 0.028073664890819822 0 -0.0487987951248832 0.028375650048364429 0 -0.049154928478052286 0.02836599229688953 0 -0.0487987951248832 0.028375650048364429 0 -0.049154928478052286 0.02836599229688953 0 -0.049006689689550353 0.028671816328063853 0 -0.049253427122337455 0.027944820999471896 0 -0.049456623412097944 0.028239575868082768 0 -0.049154928478052286 0.02836599229688953 0 -0.049154928478052286 0.02836599229688953 0 -0.04944603988663987 0.028554431839839866 0 -0.049291658191700831 0.028683956957413752 0 -0.049456623412097944 0.028239575868082768 0 -0.049154928478052286 0.02836599229688953 0 -0.04944603988663987 0.028554431839839866 0 -0.049513750104962388 0.028775277823738229 0 -0.04944603988663987 0.028554431839839866 0 -0.049291658191700831 0.028683956957413752 0 -0.049154928478052286 0.02836599229688953 0 -0.049291658191700831 0.028683956957413752 0 -0.049006689689550353 0.028671816328063853 0 -0.049350008699874187 0.028935396620433179 0 -0.049291658191700831 0.028683956957413752 0 -0.049006689689550353 0.028671816328063853 0 -0.049350008699874187 0.028935396620433179 0 -0.049513750104962388 0.028775277823738229 0 -0.049291658191700831 0.028683956957413752 0 -0.0487987951248832 0.028375650048364429 0 -0.049006689689550353 0.028671816328063853 0 -0.048594923664613682 0.02892052165652893 0 -0.049350008699874187 0.028935396620433179 0 -0.049006689689550353 0.028671816328063853 0 -0.048594923664613682 0.02892052165652893 0 -0.045255681829664759 0.034283552586474864 0 -0.043136083983817228 0.035079744539197877 0 -0.043136083983817228 0.035079744539197877 0 -0.041668612159201916 0.036993344489234366 0 -0.035483116390094861 0.044351411314922325 0 -0.035352909347001506 0.044487046056923378 0 -0.035981812125382893 0.044858728556878141 0 -0.048442807166486794 0.029030826189775306 0 -0.047767486503077758 0.028813917698899915 0 -0.04788074483500844 0.028450863912509016 0 -0.047767486503077758 0.028813917698899915 0 -0.04788074483500844 0.028450863912509016 0 -0.047639948823930856 0.028336106652851575 0 -0.047957508659526221 0.028136943720068266 0 -0.04788074483500844 0.028450863912509016 0 -0.047639948823930856 0.028336106652851575 0 -0.047957508659526221 0.028136943720068266 0 -0.04788074483500844 0.028450863912509016 0 -0.048191069152889364 0.028169370492094208 0 -0.043136083983817228 0.035079744539197877 0 -0.049333194811041023 0.026081821951278287 0 -0.048442807166486794 0.029030826189775306 0 -0.04788074483500844 0.028450863912509016 0 -0.048191069152889364 0.028169370492094208 0 -0.0487987951248832 0.028375650048364429 0 -0.048594923664613682 0.02892052165652893 0 -0.048514638541550685 0.02821406225011466 0 -0.048594923664613682 0.02892052165652893 0 -0.048191069152889364 0.028169370492094208 0 -0.048514638541550685 0.02821406225011466 0 -0.047249391033638774 0.028690450842398435 0 -0.047639948823930856 0.028336106652851575 0 -0.04725136376742109 0.028190646269526786 0 -0.047249391033638774 0.028690450842398435 0 -0.046824714780351807 0.028601050884260699 0 -0.04725136376742109 0.028190646269526786 0 -0.047767486503077758 0.028813917698899915 0 -0.047249391033638774 0.028690450842398435 0 -0.047639948823930856 0.028336106652851575 0 -0.03643021989128379 0.043899727596512922 0 -0.035981812125382893 0.044858728556878141 0 -0.037760888843945267 0.044902815008659669 0 -0.041668612159201916 0.036993344489234366 0 -0.042527598456312217 0.036766526046688564 0 -0.039496682114651079 0.043184816152949335 0 -0.038218989630770327 0.043306842659468638 0 -0.037760888843945267 0.044902815008659669 0 -0.039496682114651079 0.043184816152949335 0 -0.037760888843945267 0.044902815008659669 0 -0.04016275966932098 0.044828089817954983 0 -0.041450381008902734 0.04213980135017182 0 -0.04016275966932098 0.044828089817954983 0 -0.043198283295926128 0.044868721092826636 0 -0.041450381008902734 0.04213980135017182 0 -0.039496682114651079 0.043184816152949335 0 -0.04016275966932098 0.044828089817954983 0 -0.046824714780351807 0.028601050884260699 0 -0.046841376768711813 0.028402921142316965 0 -0.046950377594649984 0.028734821348746085 0 -0.043485630466431564 0.036725196072792975 0 -0.044968162418148487 0.036741165094435688 0 -0.042527598456312217 0.036766526046688564 0 -0.043485630466431564 0.036725196072792975 0 -0.046824714780351807 0.028601050884260699 0 -0.046812244150759387 0.028204862554251392 0 -0.04725136376742109 0.028190646269526786 0 -0.046824714780351807 0.028601050884260699 0 -0.046812244150759387 0.028204862554251392 0 -0.046841376768711813 0.028402921142316965 0 -0.046841376768711813 0.028402921142316965 0 -0.046739997938400543 0.028196012252298539 0 -0.047075994973160007 0.028454841238710091 0 -0.046812244150759387 0.028204862554251392 0 -0.046841376768711813 0.028402921142316965 0 -0.046739997938400543 0.028196012252298539 0 -0.046739997938400543 0.028196012252298539 0 -0.046736131169007163 0.028222768636290953 0 -0.047075994973160007 0.028454841238710091 0 -0.046461404446292751 0.027741104607840898 0 -0.046842179486594041 0.026842549468110769 0 -0.046739997938400543 0.028196012252298539 0 -0.046535752650111853 0.027914620014613412 0 -0.046736131169007163 0.028222768636290953 0 -0.046812244150759387 0.028204862554251392 0 -0.046535752650111853 0.027914620014613412 0 -0.046912912416648245 0.027467007195547514 0 -0.046812244150759387 0.028204862554251392 0 -0.04725136376742109 0.028190646269526786 0 -0.046912912416648245 0.027467007195547514 0 -0.046812244150759387 0.028204862554251392 0 -0.046739997938400543 0.028196012252298539 0 -0.046535752650111853 0.027914620014613412 0 -0.04725136376742109 0.028190646269526786 0 -0.047566185394560638 0.027307727285916683 0 -0.046912912416648245 0.027467007195547514 0 -0.04784898837574756 0.027827535085936494 0 -0.047639948823930856 0.028336106652851575 0 -0.04725136376742109 0.028190646269526786 0 -0.04784898837574756 0.027827535085936494 0 -0.04725136376742109 0.028190646269526786 0 -0.047566185394560638 0.027307727285916683 0 -0.047669236157296256 0.027339346274044087 0 -0.047144951649429966 0.026580466210688099 0 -0.04769451378531861 0.026049974155824208 0 -0.047410629636191207 0.026823176774266651 0 -0.046800544881827472 0.025921443628076211 0 -0.047667578447400105 0.025121240280860258 0 -0.04769451378531861 0.026049974155824208 0 -0.046800544881827472 0.025921443628076211 0 -0.047144951649429966 0.026580466210688099 0 -0.046276222529627743 0.025610479678009456 0 -0.047566185394560638 0.027307727285916683 0 -0.046264650649020175 0.025542409457715486 0 -0.046912912416648245 0.027467007195547514 0 -0.046800544881827472 0.025921443628076211 0 -0.046719970618700993 0.025194110472071797 0 -0.046264650649020175 0.025542409457715486 0 -0.046800544881827472 0.025921443628076211 0 -0.046719970618700993 0.025194110472071797 0 -0.047166914989641512 0.024821945685485271 0 -0.047667578447400105 0.025121240280860258 0 -0.046800544881827472 0.025921443628076211 0 -0.047166914989641512 0.024821945685485271 0 -0.047484026172316833 0.024050349680843415 0 -0.047166914989641512 0.024821945685485271 0 -0.046909046217450838 0.023700270406241723 0 -0.047484026172316833 0.024050349680843415 0 -0.047667578447400105 0.025121240280860258 0 -0.047166914989641512 0.024821945685485271 0 -0.046719970618700993 0.025194110472071797 0 -0.046909046217450838 0.023700270406241723 0 -0.046261480738273221 0.025316395861144588 0 -0.046719970618700993 0.025194110472071797 0 -0.047166914989641512 0.024821945685485271 0 -0.046909046217450838 0.023700270406241723 0 -0.047484026172316833 0.024050349680843415 0 -0.046909046217450838 0.023700270406241723 0 -0.047162402937802043 0.023122400729895808 0 -0.046856176239070201 0.023179095229276015 0 -0.046779073650432497 0.022866171240442761 0 -0.04685029010558911 0.022702894943983285 0 -0.046925305367882947 0.023265042512945953 0 -0.046856176239070201 0.023179095229276015 0 -0.04685029010558911 0.022702894943983285 0 -0.046909046217450838 0.023700270406241723 0 -0.046925305367882947 0.023265042512945953 0 -0.046904222828705815 0.022879751558765451 0 -0.046925305367882947 0.023265042512945953 0 -0.046904222828705815 0.022879751558765451 0 -0.04685029010558911 0.022702894943983285 0 -0.046925305367882947 0.023265042512945953 0 -0.046974258801419401 0.023459068742025999 0 -0.04693010404295609 0.023452629326013608 0 -0.046909046217450838 0.023700270406241723 0 -0.046925305367882947 0.023265042512945953 0 -0.046974258801419401 0.023459068742025999 0 -0.046933595878760455 0.023793764806419589 0 -0.046576228996034579 0.024179068056580912 0 -0.046909046217450838 0.023700270406241723 0 -0.046974258801419401 0.023459068742025999 0 -0.047002436196588913 0.023470695055712358 0 -0.046974258801419401 0.023459068742025999 0 -0.04693010404295609 0.023452629326013608 0 -0.046967051736069965 0.02347528623155384 0 -0.046925305367882947 0.023265042512945953 0 -0.04693010404295609 0.023452629326013608 0 -0.046856176239070201 0.023179095229276015 0 -0.04693010404295609 0.023452629326013608 0 -0.046856176239070201 0.023179095229276015 0 -0.04680819659090029 0.023449973647436347 0 -0.04693010404295609 0.023452629326013608 0 -0.046865498580831402 0.023550204035651195 0 -0.04680819659090029 0.023449973647436347 0 -0.046865498580831402 0.023550204035651195 0 -0.046747476738094089 0.023673281079478973 0 -0.04680819659090029 0.023449973647436347 0 -0.046929632043674757 0.023565190587986048 0 -0.047002436196588913 0.023470695055712358 0 -0.046888803418133243 0.023873234327181626 0 -0.04693010404295609 0.023452629326013608 0 -0.046929632043674757 0.023565190587986048 0 -0.046967051736069965 0.02347528623155384 0 -0.04693010404295609 0.023452629326013608 0 -0.046865498580831402 0.023550204035651195 0 -0.046929632043674757 0.023565190587986048 0 -0.046865498580831402 0.023550204035651195 0 -0.046929632043674757 0.023565190587986048 0 -0.046866893435535302 0.023658841621278529 0 -0.046865498580831402 0.023550204035651195 0 -0.046866893435535302 0.023658841621278529 0 -0.046747476738094089 0.023673281079478973 0 -0.046261480738273221 0.025316395861144588 0 -0.046264650649020175 0.025542409457715486 0 -0.045279279096196771 0.027364076695235537 0 -0.046719970618700993 0.025194110472071797 0 -0.046261480738273221 0.025316395861144588 0 -0.046264650649020175 0.025542409457715486 0 -0.046929632043674757 0.023565190587986048 0 -0.046967051736069965 0.02347528623155384 0 -0.047002436196588913 0.023470695055712358 0 -0.046974258801419401 0.023459068742025999 0 -0.046967051736069965 0.02347528623155384 0 -0.047002436196588913 0.023470695055712358 0 -0.046264650649020175 0.025542409457715486 0 -0.046279707748223549 0.027067965391440848 0 -0.046912912416648245 0.027467007195547514 0 -0.046264650649020175 0.025542409457715486 0 -0.046279707748223549 0.027067965391440848 0 -0.045279279096196771 0.027364076695235537 0 -0.046535752650111853 0.027914620014613412 0 -0.046279707748223549 0.027067965391440848 0 -0.046912912416648245 0.027467007195547514 0 -0.046929632043674757 0.023565190587986048 0 -0.046866893435535302 0.023658841621278529 0 -0.046888803418133243 0.023873234327181626 0 -0.046576228996034579 0.024179068056580912 0 -0.046842179486594041 0.026842549468110769 0 -0.046866893435535302 0.023658841621278529 0 -0.046888803418133243 0.023873234327181626 0 -0.046747476738094089 0.023673281079478973 0 -0.046535752650111853 0.027914620014613412 0 -0.046279707748223549 0.027067965391440848 0 -0.045279279096196771 0.027364076695235537 0 -0.047831004470678215 0.027850259323970516 0 -0.047264354903324909 0.027210369461739024 0 -0.047214724463408728 0.028000079237431141 0 -0.046888803418133243 0.023873234327181626 0 -0.046578691294785882 0.023791544713537609 0 -0.046747476738094089 0.023673281079478973 0 -0.046842179486594041 0.026842549468110769 0 -0.046955050429955111 0.025366054435064463 0 -0.047264354903324909 0.027210369461739024 0 -0.04670626486070658 0.028019351115685789 0 -0.047214724463408728 0.028000079237431141 0 -0.046955050429955111 0.025366054435064463 0 -0.046151773026812552 0.024970084108521376 0 -0.046578691294785882 0.023791544713537609 0 -0.046482940131087946 0.02348310007112285 0 -0.046069628795281314 0.023907906179036455 0 -0.046578691294785882 0.023791544713537609 0 -0.046667028520608077 0.023543356916907478 0 -0.046482940131087946 0.02348310007112285 0 -0.046578691294785882 0.023791544713537609 0 -0.046747476738094089 0.023673281079478973 0 -0.046667028520608077 0.023543356916907478 0 -0.046747476738094089 0.023673281079478973 0 -0.046667028520608077 0.023543356916907478 0 -0.04680819659090029 0.023449973647436347 0 -0.046667028520608077 0.023543356916907478 0 -0.04680819659090029 0.023449973647436347 0 -0.046716922348346887 0.023254483029304669 0 -0.046856176239070201 0.023179095229276015 0 -0.04680819659090029 0.023449973647436347 0 -0.046716922348346887 0.023254483029304669 0 -0.046667028520608077 0.023543356916907478 0 -0.046716922348346887 0.023254483029304669 0 -0.046482940131087946 0.02348310007112285 0 -0.046482940131087946 0.02348310007112285 0 -0.046592971501996469 0.022976682081911035 0 -0.04618555177132324 0.023293556423758747 0 -0.046716922348346887 0.023254483029304669 0 -0.046482940131087946 0.02348310007112285 0 -0.046592971501996469 0.022976682081911035 0 -0.046592971501996469 0.022976682081911035 0 -0.04618555177132324 0.023293556423758747 0 -0.04644344877495183 0.022311220843802538 0 -0.046592971501996469 0.022976682081911035 0 -0.046684701683156145 0.02249669323727789 0 -0.04644344877495183 0.022311220843802538 0 -0.046779073650432497 0.022866171240442761 0 -0.046774378074360794 0.022382997276539422 0 -0.046684701683156145 0.02249669323727789 0 -0.046592971501996469 0.022976682081911035 0 -0.046779073650432497 0.022866171240442761 0 -0.046684701683156145 0.02249669323727789 0 -0.046779073650432497 0.022866171240442761 0 -0.046774378074360794 0.022382997276539422 0 -0.04685029010558911 0.022702894943983285 0 -0.046856176239070201 0.023179095229276015 0 -0.046716922348346887 0.023254483029304669 0 -0.046779073650432497 0.022866171240442761 0 -0.046716922348346887 0.023254483029304669 0 -0.046592971501996469 0.022976682081911035 0 -0.046779073650432497 0.022866171240442761 0 -0.045802036363755121 0.022625413295455966 0 -0.04618555177132324 0.023293556423758747 0 -0.045000160132384615 0.024422582505963044 0 -0.045802036363755121 0.022625413295455966 0 -0.045000160132384615 0.024422582505963044 0 -0.044999457631282685 0.022005858443132562 0 -0.045802036363755121 0.022625413295455966 0 -0.04618555177132324 0.023293556423758747 0 -0.04644344877495183 0.022311220843802538 0 -0.04618555177132324 0.023293556423758747 0 -0.045000160132384615 0.024422582505963044 0 -0.046069628795281314 0.023907906179036455 0 -0.046482940131087946 0.02348310007112285 0 -0.04618555177132324 0.023293556423758747 0 -0.046069628795281314 0.023907906179036455 0 -0.045000015742825833 0.024425145202548817 0 -0.046151773026812552 0.024970084108521376 0 -0.044999784608039793 0.026350158810447111 0 -0.046440105899085961 0.026060004478599338 0 -0.045931303671104345 0.02737500199991157 0 -0.047264354903324909 0.027210369461739024 0 -0.046440105899085961 0.026060004478599338 0 -0.045931303671104345 0.02737500199991157 0 -0.047264354903324909 0.027210369461739024 0 -0.045931303671104345 0.02737500199991157 0 -0.04670626486070658 0.028019351115685789 0 -0.044999924869945737 0.024425858814057531 0 -0.044999784608039793 0.026350158810447111 0 -0.046440105899085961 0.026060004478599338 0 -0.044999784608039793 0.026350158810447111 0 -0.045931303671104345 0.02737500199991157 0 -0.044999760468799797 0.028274856532874169 0 -0.044999760468799797 0.028274856532874169 0 -0.045829135493932735 0.028958091506611983 0 -0.045000149162737049 0.030197431526099321 0 -0.045931303671104345 0.02737500199991157 0 -0.044999760468799797 0.028274856532874169 0 -0.045829135493932735 0.028958091506611983 0 -0.045829135493932735 0.028958091506611983 0 -0.045149360737317214 0.030157549355726072 0 -0.046530902774895543 0.029350638576749175 0 -0.046414251421139495 0.033626181047663239 0 -0.046718698160744268 0.037571178021517465 0 -0.045829135493932735 0.028958091506611983 0 -0.045000149162737049 0.030197431526099321 0 -0.045149360737317214 0.030157549355726072 0 -0.045001512939678745 0.030365430336532509 0 -0.046414251421139495 0.033626181047663239 0 -0.045000230442727919 0.030206006214717245 0 -0.046414251421139495 0.033626181047663239 0 -0.044999995094415206 0.030199438098273978 0 -0.045000004564228493 0.030352392708539101 0 -0.045202646839197863 0.030399837768383627 0 -0.045829135493932735 0.028958091506611983 0 -0.046530902774895543 0.029350638576749175 0 -0.046827121532068951 0.028710203792412146 0 -0.045829135493932735 0.028958091506611983 0 -0.04670626486070658 0.028019351115685789 0 -0.046827121532068951 0.028710203792412146 0 -0.045931303671104345 0.02737500199991157 0 -0.045829135493932735 0.028958091506611983 0 -0.04670626486070658 0.028019351115685789 0 -0.04670626486070658 0.028019351115685789 0 -0.047214724463408728 0.028000079237431141 0 -0.046827121532068951 0.028710203792412146 0 -0.047214724463408728 0.028000079237431141 0 -0.047075994973160007 0.028454841238710091 0 -0.046827121532068951 0.028710203792412146 0 -0.047831004470678215 0.027850259323970516 0 -0.047214724463408728 0.028000079237431141 0 -0.047075994973160007 0.028454841238710091 0 -0.046842179486594041 0.026842549468110769 0 -0.047088165918325112 0.02871090423227968 0 -0.046841376768711813 0.028402921142316965 0 -0.047075994973160007 0.028454841238710091 0 -0.046950377594649984 0.028734821348746085 0 -0.047075994973160007 0.028454841238710091 0 -0.046827121532068951 0.028710203792412146 0 -0.046950377594649984 0.028734821348746085 0 -0.046530902774895543 0.029350638576749175 0 -0.046827121532068951 0.028710203792412146 0 -0.046950377594649984 0.028734821348746085 0 -0.046718698160744268 0.037571178021517465 0 -0.044968162418148487 0.036741165094435688 0 -0.046699712418583499 0.044791230542597468 0 -0.045323875331473494 0.043612009368796022 0 -0.043198283295926128 0.044868721092826636 0 -0.044536339283508961 0.039894449322623024 0 -0.041450381008902734 0.04213980135017182 0 -0.043198283295926128 0.044868721092826636 0 -0.044450860828254397 0.039154613408091614 0 -0.0466110126868199 0.039480733717661774 0 -0.044536339283508961 0.039894449322623024 0 -0.045323875331473494 0.043612009368796022 0 -0.043198283295926128 0.044868721092826636 0 -0.044536339283508961 0.039894449322623024 0 -0.045323875331473494 0.043612009368796022 0 -0.047178371320136726 0.04317945525173629 0 -0.045285666061511701 0.036628020575270565 0 -0.044998591382075688 0.030355733831868428 0 -0.045884612914035283 0.034212933263484679 0 -0.045285666061511701 0.036628020575270565 0 -0.044536339283508961 0.039894449322623024 0 -0.045884612914035283 0.034212933263484679 0 -0.04499898457923393 0.035805377023256639 0 -0.045285666061511701 0.036628020575270565 0 -0.044998591382075688 0.030355733831868428 0 -0.046414251421139495 0.033626181047663239 0 -0.0466110126868199 0.039480733717661774 0 -0.044998591382075688 0.030355733831868428 0 -0.045134467709686182 0.030514503630492216 0 -0.045884612914035283 0.034212933263484679 0 -0.048968059120505114 0.044990405437854264 0 -0.046699712418583499 0.044791230542597468 0 -0.047178371320136726 0.04317945525173629 0 -0.046699712418583499 0.044791230542597468 0 -0.045323875331473494 0.043612009368796022 0 -0.047178371320136726 0.04317945525173629 0 -0.045998939498751577 0.015722132757158183 0 -0.04688976353894702 0.015986593555006093 0 -0.045830041695403292 0.019881285643585159 0 -0.045369003773866788 0.019748951225540951 0 -0.045969772911126798 0.019038629826827254 0 -0.04554247661526642 0.013599066004686472 0 -0.04500016785249137 0.01258609585803592 0 -0.044998974464788982 0.014746249217810301 0 -0.045998939498751577 0.015722132757158183 0 -0.045669650469867033 0.011790660152381326 0 -0.046523819123740533 0.01380535958856596 0 -0.04554247661526642 0.013599066004686472 0 -0.045553397111083423 0.014784347553067474 0 -0.04554247661526642 0.013599066004686472 0 -0.04500016785249137 0.01258609585803592 0 -0.045755768901003177 0.012075390028883389 0 -0.046523819123740533 0.01380535958856596 0 -0.04554247661526642 0.013599066004686472 0 -0.045755768901003177 0.012075390028883389 0 -0.045669650469867033 0.011790660152381326 0 -0.045000301176480004 0.010427931550707276 0 -0.04500016785249137 0.01258609585803592 0 -0.045755768901003177 0.012075390028883389 0 -0.044999907179816147 0.010427299484567354 0 -0.045712952029828079 0.012079593944072334 0 -0.046854884975716195 0.011956602826224266 0 -0.046547502952586348 0.010864414943219929 0 -0.046465480066587191 0.013747967418634864 0 -0.046854884975716195 0.011956602826224266 0 -0.048077118047147128 0.011993077279485044 0 -0.046465480066587191 0.013747967418634864 0 -0.045712952029828079 0.012079593944072334 0 -0.046854884975716195 0.011956602826224266 0 -0.046854884975716195 0.011956602826224266 0 -0.047466686762808387 0.011111310737141411 0 -0.046547502952586348 0.010864414943219929 0 -0.046854884975716195 0.011956602826224266 0 -0.048077118047147128 0.011993077279485044 0 -0.047466686762808387 0.011111310737141411 0 -0.045969772911126798 0.019038629826827254 0 -0.046621458438164308 0.018854422453398141 0 -0.046587965650829233 0.019478994847353499 0 -0.045865389428796637 0.019872192615824711 0 -0.046339436023943727 0.019697683624237759 0 -0.045830041695403292 0.019881285643585159 0 -0.045969772911126798 0.019038629826827254 0 -0.046587965650829233 0.019478994847353499 0 -0.045830041695403292 0.019881285643585159 0 -0.046226596121835252 0.019917480101340736 0 -0.046018638259337788 0.020189131143807867 0 -0.046018638259337788 0.020189131143807867 0 -0.046080143222665418 0.020515501058131595 0 -0.045700923806509537 0.020340243548998632 0 -0.045830041695403292 0.019881285643585159 0 -0.046018638259337788 0.020189131143807867 0 -0.045700923806509537 0.020340243548998632 0 -0.046226596121835252 0.019917480101340736 0 -0.046207802619928032 0.020388122085986796 0 -0.046334120443479121 0.020374498315679244 0 -0.046226596121835252 0.019917480101340736 0 -0.046018638259337788 0.020189131143807867 0 -0.046207802619928032 0.020388122085986796 0 -0.046207802619928032 0.020388122085986796 0 -0.046432027804943619 0.020781452178844206 0 -0.046334120443479121 0.020374498315679244 0 -0.046207802619928032 0.020388122085986796 0 -0.04637367619894503 0.020855444103520859 0 -0.046432027804943619 0.020781452178844206 0 -0.046080143222665418 0.020515501058131595 0 -0.046131596330350466 0.020779274613696511 0 -0.04637367619894503 0.020855444103520859 0 -0.046080143222665418 0.020515501058131595 0 -0.045700923806509537 0.020340243548998632 0 -0.046131596330350466 0.020779274613696511 0 -0.046207802619928032 0.020388122085986796 0 -0.046080143222665418 0.020515501058131595 0 -0.04637367619894503 0.020855444103520859 0 -0.046018638259337788 0.020189131143807867 0 -0.046207802619928032 0.020388122085986796 0 -0.046080143222665418 0.020515501058131595 0 -0.046905473587623224 0.015961823714947469 0 -0.045556195519752603 0.017288993881130549 0 -0.047333425639976223 0.018630731216979488 0 -0.046320945178495748 0.018329674584992774 0 -0.046651028634013283 0.019586972924700886 0 -0.046905473587623224 0.015961823714947469 0 -0.045855235308568498 0.015581069421035376 0 -0.045556195519752603 0.017288993881130549 0 -0.045998939498751577 0.015722132757158183 0 -0.046320945178495748 0.018329674584992774 0 -0.04623758832135514 0.014020160330159303 0 -0.046905473587623224 0.015961823714947469 0 -0.045855235308568498 0.015581069421035376 0 -0.045830041695403292 0.019881285643585159 0 -0.045369003773866788 0.019748951225540951 0 -0.045700923806509537 0.020340243548998632 0 -0.044998974464788982 0.014746249217810301 0 -0.045855235308568498 0.015581069421035376 0 -0.045556195519752603 0.017288993881130549 0 -0.04623758832135514 0.014020160330159303 0 -0.045553397111083423 0.014784347553067474 0 -0.045855235308568498 0.015581069421035376 0 -0.04554247661526642 0.013599066004686472 0 -0.044998974464788982 0.014746249217810301 0 -0.045553397111083423 0.014784347553067474 0 -0.045998939498751577 0.015722132757158183 0 -0.046098863140752414 0.014491077324375304 0 -0.044998974464788982 0.014746249217810301 0 -0.045553397111083423 0.014784347553067474 0 -0.045855235308568498 0.015581069421035376 0 -0.045000114629728818 0.014745218264219368 0 -0.046121574813443034 0.016568940069241637 0 -0.044999620652953112 0.017165803112288981 0 -0.045000156286141034 0.014745913893123314 0 -0.045867027757827049 0.016977410591385644 0 -0.044999620652953112 0.017165803112288981 0 -0.045904407989547008 0.018119301705660871 0 -0.04499968192112877 0.019585894332591676 0 -0.046121574813443034 0.016568940069241637 0 -0.044999620652953112 0.017165803112288981 0 -0.045904407989547008 0.018119301705660871 0 -0.045556195519752603 0.017288993881130549 0 -0.046525264967710214 0.019952795669753894 0 -0.047333425639976223 0.018630731216979488 0 -0.046121574813443034 0.016568940069241637 0 -0.045904407989547008 0.018119301705660871 0 -0.046930957865590456 0.018736592202003625 0 -0.045867027757827049 0.016977410591385644 0 -0.04666694591627505 0.019333121768106455 0 -0.045904407989547008 0.018119301705660871 0 -0.046930957865590456 0.018736592202003625 0 -0.046138251726971162 0.019369550028520217 0 -0.046930957865590456 0.018736592202003625 0 -0.046138251726971162 0.019369550028520217 0 -0.04656436639417362 0.020247951590772102 0 -0.046138251726971162 0.019369550028520217 0 -0.04656436639417362 0.020247951590772102 0 -0.046196710261374084 0.02044612321603767 0 -0.046138251726971162 0.019369550028520217 0 -0.04499968192112877 0.019585894332591676 0 -0.046196710261374084 0.02044612321603767 0 -0.045904407989547008 0.018119301705660871 0 -0.046138251726971162 0.019369550028520217 0 -0.04499968192112877 0.019585894332591676 0 -0.04499968192112877 0.019585894332591676 0 -0.046196710261374084 0.02044612321603767 0 -0.045940853871067368 0.021432680726884305 0 -0.04499968192112877 0.019585894332591676 0 -0.045940853871067368 0.021432680726884305 0 -0.044999457631282685 0.022005858443132562 0 -0.046196710261374084 0.02044612321603767 0 -0.045940853871067368 0.021432680726884305 0 -0.046557103886118521 0.021295945810068939 0 -0.04656436639417362 0.020247951590772102 0 -0.046196710261374084 0.02044612321603767 0 -0.046557103886118521 0.021295945810068939 0 -0.045802036363755121 0.022625413295455966 0 -0.045940853871067368 0.021432680726884305 0 -0.04644344877495183 0.022311220843802538 0 -0.045940853871067368 0.021432680726884305 0 -0.04644344877495183 0.022311220843802538 0 -0.046557103886118521 0.021295945810068939 0 -0.045802036363755121 0.022625413295455966 0 -0.045940853871067368 0.021432680726884305 0 -0.044999457631282685 0.022005858443132562 0 -0.046774378074360794 0.022382997276539422 0 -0.046727966246557846 0.021919354963632488 0 -0.046776055090852961 0.022070732920152478 0 -0.046774378074360794 0.022382997276539422 0 -0.046684701683156145 0.02249669323727789 0 -0.046727966246557846 0.021919354963632488 0 -0.046684701683156145 0.02249669323727789 0 -0.04644344877495183 0.022311220843802538 0 -0.046727966246557846 0.021919354963632488 0 -0.04644344877495183 0.022311220843802538 0 -0.046727966246557846 0.021919354963632488 0 -0.046557103886118521 0.021295945810068939 0 -0.046727966246557846 0.021919354963632488 0 -0.046557103886118521 0.021295945810068939 0 -0.046821569526969239 0.021072134770351428 0 -0.04656436639417362 0.020247951590772102 0 -0.046557103886118521 0.021295945810068939 0 -0.046821569526969239 0.021072134770351428 0 -0.046727966246557846 0.021919354963632488 0 -0.046821569526969239 0.021072134770351428 0 -0.046735072715816645 0.021548785670884932 0 -0.046821569526969239 0.021072134770351428 0 -0.046735072715816645 0.021548785670884932 0 -0.046692301075052692 0.021152282431713503 0 -0.046727966246557846 0.021919354963632488 0 -0.046735072715816645 0.021548785670884932 0 -0.046776055090852961 0.022070732920152478 0 -0.046735072715816645 0.021548785670884932 0 -0.046692301075052692 0.021152282431713503 0 -0.046638531282441047 0.021408273982629639 0 -0.046692301075052692 0.021152282431713503 0 -0.046562961111980987 0.021065196840037128 0 -0.046638531282441047 0.021408273982629639 0 -0.046692301075052692 0.021152282431713503 0 -0.046562961111980987 0.021065196840037128 0 -0.046770795886226804 0.020801808573866251 0 -0.046562961111980987 0.021065196840037128 0 -0.046535643204093299 0.021160631190419724 0 -0.046638531282441047 0.021408273982629639 0 -0.046930957865590456 0.018736592202003625 0 -0.04656436639417362 0.020247951590772102 0 -0.046821569526969239 0.021072134770351428 0 -0.046525264967710214 0.019952795669753894 0 -0.046821569526969239 0.021072134770351428 0 -0.046770795886226804 0.020801808573866251 0 -0.04666694591627505 0.019333121768106455 0 -0.046900731887939896 0.020821831058252093 0 -0.046821569526969239 0.021072134770351428 0 -0.046692301075052692 0.021152282431713503 0 -0.046770795886226804 0.020801808573866251 0 -0.046525264967710214 0.019952795669753894 0 -0.046770795886226804 0.020801808573866251 0 -0.047333425639976223 0.018630731216979488 0 -0.046770795886226804 0.020801808573866251 0 -0.046131596330350466 0.020779274613696511 0 -0.04637367619894503 0.020855444103520859 0 -0.04679200672833294 0.020576849985218072 0 -0.046651028634013283 0.019586972924700886 0 -0.046562961111980987 0.021065196840037128 0 -0.046770795886226804 0.020801808573866251 0 -0.04637367619894503 0.020855444103520859 0 -0.046562961111980987 0.021065196840037128 0 -0.04637367619894503 0.020855444103520859 0 -0.046535643204093299 0.021160631190419724 0 -0.04637367619894503 0.020855444103520859 0 -0.046535643204093299 0.021160631190419724 0 -0.046432027804943619 0.020781452178844206 0 -0.046535643204093299 0.021160631190419724 0 -0.046627023471415022 0.021108195154898226 0 -0.046432027804943619 0.020781452178844206 0 -0.046535643204093299 0.021160631190419724 0 -0.046627023471415022 0.021108195154898226 0 -0.046706665064856892 0.021695232532288698 0 -0.046706665064856892 0.021695232532288698 0 -0.046921943333045814 0.022359296916205744 0 -0.046893227001620227 0.021760851621796598 0 -0.046627023471415022 0.021108195154898226 0 -0.046706665064856892 0.021695232532288698 0 -0.046893227001620227 0.021760851621796598 0 -0.046706665064856892 0.021695232532288698 0 -0.046638531282441047 0.021408273982629639 0 -0.046721893073494662 0.021801916127532295 0 -0.046535643204093299 0.021160631190419724 0 -0.046706665064856892 0.021695232532288698 0 -0.046638531282441047 0.021408273982629639 0 -0.046735072715816645 0.021548785670884932 0 -0.046638531282441047 0.021408273982629639 0 -0.046721893073494662 0.021801916127532295 0 -0.046706665064856892 0.021695232532288698 0 -0.046721893073494662 0.021801916127532295 0 -0.046800808656722849 0.022209826349765916 0 -0.046735072715816645 0.021548785670884932 0 -0.046721893073494662 0.021801916127532295 0 -0.046776055090852961 0.022070732920152478 0 -0.046721893073494662 0.021801916127532295 0 -0.046776055090852961 0.022070732920152478 0 -0.046800808656722849 0.022209826349765916 0 -0.046706665064856892 0.021695232532288698 0 -0.046800808656722849 0.022209826349765916 0 -0.046921943333045814 0.022359296916205744 0 -0.046800808656722849 0.022209826349765916 0 -0.046904222828705815 0.022879751558765451 0 -0.046921943333045814 0.022359296916205744 0 -0.046800808656722849 0.022209826349765916 0 -0.046904222828705815 0.022879751558765451 0 -0.04685029010558911 0.022702894943983285 0 -0.046776055090852961 0.022070732920152478 0 -0.046800808656722849 0.022209826349765916 0 -0.04685029010558911 0.022702894943983285 0 -0.046774378074360794 0.022382997276539422 0 -0.046776055090852961 0.022070732920152478 0 -0.04685029010558911 0.022702894943983285 0 -0.047484026172316833 0.024050349680843415 0 -0.047162402937802043 0.023122400729895808 0 -0.047369940433010779 0.023607722269418752 0 -0.047162402937802043 0.023122400729895808 0 -0.047332828440304849 0.022806352808566896 0 -0.047369940433010779 0.023607722269418752 0 -0.046909046217450838 0.023700270406241723 0 -0.046904222828705815 0.022879751558765451 0 -0.047162402937802043 0.023122400729895808 0 -0.046904222828705815 0.022879751558765451 0 -0.047162402937802043 0.023122400729895808 0 -0.046921943333045814 0.022359296916205744 0 -0.047162402937802043 0.023122400729895808 0 -0.046921943333045814 0.022359296916205744 0 -0.047117779126078986 0.022443427634855732 0 -0.047162402937802043 0.023122400729895808 0 -0.047117779126078986 0.022443427634855732 0 -0.047332828440304849 0.022806352808566896 0 -0.047117779126078986 0.022443427634855732 0 -0.047327386842859136 0.021975294892037676 0 -0.047332828440304849 0.022806352808566896 0 -0.047117779126078986 0.022443427634855732 0 -0.047327386842859136 0.021975294892037676 0 -0.046893227001620227 0.021760851621796598 0 -0.046921943333045814 0.022359296916205744 0 -0.047117779126078986 0.022443427634855732 0 -0.046893227001620227 0.021760851621796598 0 -0.046627023471415022 0.021108195154898226 0 -0.046893227001620227 0.021760851621796598 0 -0.046912222616321268 0.020907813988376836 0 -0.047327386842859136 0.021975294892037676 0 -0.046893227001620227 0.021760851621796598 0 -0.046912222616321268 0.020907813988376836 0 -0.047327386842859136 0.021975294892037676 0 -0.046912222616321268 0.020907813988376836 0 -0.047527611845448507 0.021329510630118533 0 -0.046912222616321268 0.020907813988376836 0 -0.047331200748982796 0.020110749624193971 0 -0.047478372246724326 0.020829354684166478 0 -0.046848773405152554 0.020162650349760225 0 -0.046912222616321268 0.020907813988376836 0 -0.047331200748982796 0.020110749624193971 0 -0.04691831582167752 0.020934537456170722 0 -0.047488833313974473 0.021068111180435597 0 -0.046872486302357748 0.01956277934651748 0 -0.04744994899600307 0.019358287892611764 0 -0.047331200748982796 0.020110749624193971 0 -0.046848773405152554 0.020162650349760225 0 -0.046872486302357748 0.01956277934651748 0 -0.047331200748982796 0.020110749624193971 0 -0.046640832037163384 0.019876980625223035 0 -0.04651503571148858 0.020006193818708499 0 -0.046529412445533505 0.019581912693842757 0 -0.046640832037163384 0.019876980625223035 0 -0.046848773405152554 0.020162650349760225 0 -0.046872486302357748 0.01956277934651748 0 -0.046640832037163384 0.019876980625223035 0 -0.046848773405152554 0.020162650349760225 0 -0.046609586621893968 0.020394015972917096 0 -0.046640832037163384 0.019876980625223035 0 -0.046609586621893968 0.020394015972917096 0 -0.04651503571148858 0.020006193818708499 0 -0.046848773405152554 0.020162650349760225 0 -0.046912222616321268 0.020907813988376836 0 -0.046609586621893968 0.020394015972917096 0 -0.046627023471415022 0.021108195154898226 0 -0.046912222616321268 0.020907813988376836 0 -0.046609586621893968 0.020394015972917096 0 -0.046627023471415022 0.021108195154898226 0 -0.04648984002538737 0.020596589201976451 0 -0.046609586621893968 0.020394015972917096 0 -0.04648984002538737 0.020596589201976451 0 -0.046609586621893968 0.020394015972917096 0 -0.046414808774637335 0.020187864650037173 0 -0.046627023471415022 0.021108195154898226 0 -0.04648984002538737 0.020596589201976451 0 -0.046432027804943619 0.020781452178844206 0 -0.04648984002538737 0.020596589201976451 0 -0.046432027804943619 0.020781452178844206 0 -0.046334120443479121 0.020374498315679244 0 -0.046226596121835252 0.019917480101340736 0 -0.046334120443479121 0.020374498315679244 0 -0.046414808774637335 0.020187864650037173 0 -0.04648984002538737 0.020596589201976451 0 -0.046334120443479121 0.020374498315679244 0 -0.046414808774637335 0.020187864650037173 0 -0.046609586621893968 0.020394015972917096 0 -0.046414808774637335 0.020187864650037173 0 -0.04651503571148858 0.020006193818708499 0 -0.046414808774637335 0.020187864650037173 0 -0.04651503571148858 0.020006193818708499 0 -0.046415785814871331 0.019889499472100999 0 -0.04651503571148858 0.020006193818708499 0 -0.046415785814871331 0.019889499472100999 0 -0.046529412445533505 0.019581912693842757 0 -0.046415785814871331 0.019889499472100999 0 -0.046405733083508462 0.019661957702762387 0 -0.046529412445533505 0.019581912693842757 0 -0.046226596121835252 0.019917480101340736 0 -0.046414808774637335 0.020187864650037173 0 -0.046415785814871331 0.019889499472100999 0 -0.046226596121835252 0.019917480101340736 0 -0.046415785814871331 0.019889499472100999 0 -0.046405733083508462 0.019661957702762387 0 -0.046339436023943727 0.019697683624237759 0 -0.046984119190443915 0.019417605048248725 0 -0.046587965650829233 0.019478994847353499 0 -0.047134609151829286 0.019187742133191497 0 -0.047044493959810474 0.018943012900353814 0 -0.046621458438164308 0.018854422453398141 0 -0.046587965650829233 0.019478994847353499 0 -0.047044493959810474 0.018943012900353814 0 -0.046621458438164308 0.018854422453398141 0 -0.047044493959810474 0.018943012900353814 0 -0.047029429922749624 0.0187262701497454 0 -0.046001655682794969 0.018927314990169357 0 -0.044833017718052648 0.016846491967879094 0 -0.047044493959810474 0.018943012900353814 0 -0.047265490592933557 0.018938591272316355 0 -0.047017812754822079 0.018805429008659197 0 -0.047134609151829286 0.019187742133191497 0 -0.047044493959810474 0.018943012900353814 0 -0.047265490592933557 0.018938591272316355 0 -0.041824241549041512 0.017469198741781475 0 -0.043802095446476494 0.018454758982007175 0 -0.042952753235816481 0.01653721001384599 0 -0.046984119190443915 0.019417605048248725 0 -0.04607889816086707 0.018772289461215542 0 -0.04435291136696131 0.018123076560832542 0 -0.04607889816086707 0.018772289461215542 0 -0.047134609151829286 0.019187742133191497 0 -0.047265490592933557 0.018938591272316355 0 -0.047481930317637311 0.019027028015894204 0 -0.043802095446476494 0.018454758982007175 0 -0.044733051163169772 0.016413213643516736 0 -0.042952753235816481 0.01653721001384599 0 -0.043802095446476494 0.018454758982007175 0 -0.046441424941298666 0.018013345513984695 0 -0.044733051163169772 0.016413213643516736 0 -0.04607889816086707 0.018772289461215542 0 -0.046134729819199624 0.018201798594555132 0 -0.046455269941347944 0.018938053735091331 0 -0.046441424941298666 0.018013345513984695 0 -0.04652070073162138 0.018837357564963395 0 -0.046441424941298666 0.018013345513984695 0 -0.046623458345795482 0.018640401774936765 0 -0.046965588282158216 0.018939250080167263 0 -0.046441424941298666 0.018013345513984695 0 -0.046623458345795482 0.018640401774936765 0 -0.04652070073162138 0.018837357564963395 0 -0.046566581280300445 0.019052844266960262 0 -0.04652070073162138 0.018837357564963395 0 -0.04658239882846129 0.019210060268552515 0 -0.04607889816086707 0.018772289461215542 0 -0.04642358596247978 0.018892352027890039 0 -0.046623458345795482 0.018640401774936765 0 -0.04652070073162138 0.018837357564963395 0 -0.046665600368682413 0.019114287383991228 0 -0.04652070073162138 0.018837357564963395 0 -0.046665600368682413 0.019114287383991228 0 -0.04658239882846129 0.019210060268552515 0 -0.046665600368682413 0.019114287383991228 0 -0.046635405153388369 0.019467735812755876 0 -0.04658239882846129 0.019210060268552515 0 -0.046872486302357748 0.01956277934651748 0 -0.04744994899600307 0.019358287892611764 0 -0.046965588282158216 0.018939250080167263 0 -0.046623458345795482 0.018640401774936765 0 -0.046665600368682413 0.019114287383991228 0 -0.046965588282158216 0.018939250080167263 0 -0.046665600368682413 0.019114287383991228 0 -0.046872486302357748 0.01956277934651748 0 -0.046965588282158216 0.018939250080167263 0 -0.046665600368682413 0.019114287383991228 0 -0.046872486302357748 0.01956277934651748 0 -0.046635405153388369 0.019467735812755876 0 -0.046405733083508462 0.019661957702762387 0 -0.046566581280300445 0.019052844266960262 0 -0.046529412445533505 0.019581912693842757 0 -0.046640832037163384 0.019876980625223035 0 -0.046872486302357748 0.01956277934651748 0 -0.046635405153388369 0.019467735812755876 0 -0.046640832037163384 0.019876980625223035 0 -0.046635405153388369 0.019467735812755876 0 -0.046529412445533505 0.019581912693842757 0 -0.046635405153388369 0.019467735812755876 0 -0.046529412445533505 0.019581912693842757 0 -0.04658239882846129 0.019210060268552515 0 -0.046566581280300445 0.019052844266960262 0 -0.046529412445533505 0.019581912693842757 0 -0.04658239882846129 0.019210060268552515 0 -0.048204403954722516 0.019121053557916164 0 -0.047763255168771633 0.018484712703760838 0 -0.048505301392898256 0.018413476270290011 0 -0.048204403954722516 0.019121053557916164 0 -0.048505301392898256 0.018413476270290011 0 -0.048893070600860657 0.018999853836378172 0 -0.048204403954722516 0.019121053557916164 0 -0.048893070600860657 0.018999853836378172 0 -0.048652055701349305 0.019683209833369658 0 -0.048204403954722516 0.019121053557916164 0 -0.04744994899600307 0.019358287892611764 0 -0.047909795032822861 0.019732414504384309 0 -0.04744994899600307 0.019358287892611764 0 -0.046965588282158216 0.018939250080167263 0 -0.047763255168771633 0.018484712703760838 0 -0.048204403954722516 0.019121053557916164 0 -0.04744994899600307 0.019358287892611764 0 -0.047763255168771633 0.018484712703760838 0 -0.046441424941298666 0.018013345513984695 0 -0.046965588282158216 0.018939250080167263 0 -0.047763255168771633 0.018484712703760838 0 -0.046441424941298666 0.018013345513984695 0 -0.047763255168771633 0.018484712703760838 0 -0.04762834524142958 0.01765018830804822 0 -0.047763255168771633 0.018484712703760838 0 -0.04762834524142958 0.01765018830804822 0 -0.048251866141013088 0.017585057085090401 0 -0.047763255168771633 0.018484712703760838 0 -0.048251866141013088 0.017585057085090401 0 -0.048505301392898256 0.018413476270290011 0 -0.048251866141013088 0.017585057085090401 0 -0.048810106283888877 0.017683248642114513 0 -0.048737236856588526 0.017164198510486835 0 -0.048251866141013088 0.017585057085090401 0 -0.048505301392898256 0.018413476270290011 0 -0.048810106283888877 0.017683248642114513 0 -0.048810106283888877 0.017683248642114513 0 -0.049262979887073302 0.018200555519565918 0 -0.049359930496943871 0.017317603842176323 0 -0.048505301392898256 0.018413476270290011 0 -0.048810106283888877 0.017683248642114513 0 -0.049262979887073302 0.018200555519565918 0 -0.050019952245269561 0.017965631843346805 0 -0.050940921439307146 0.017505918214435642 0 -0.050019401252369151 0.017315231131259316 0 -0.050019952245269561 0.017965631843346805 0 -0.050019401252369151 0.017315231131259316 0 -0.049359930496943871 0.017317603842176323 0 -0.049262979887073302 0.018200555519565918 0 -0.050019952245269561 0.017965631843346805 0 -0.049359930496943871 0.017317603842176323 0 -0.049262979887073302 0.018200555519565918 0 -0.050019952245269561 0.017965631843346805 0 -0.049864469239334352 0.01880162332694877 0 -0.049864469239334352 0.01880162332694877 0 -0.050385506269225354 0.019593994284116078 0 -0.050722360042189427 0.018562998825059372 0 -0.050019952245269561 0.017965631843346805 0 -0.049864469239334352 0.01880162332694877 0 -0.050722360042189427 0.018562998825059372 0 -0.049262979887073302 0.018200555519565918 0 -0.049864469239334352 0.01880162332694877 0 -0.048893070600860657 0.018999853836378172 0 -0.049864469239334352 0.01880162332694877 0 -0.048893070600860657 0.018999853836378172 0 -0.049514497995930849 0.019560205699150079 0 -0.048505301392898256 0.018413476270290011 0 -0.049262979887073302 0.018200555519565918 0 -0.048893070600860657 0.018999853836378172 0 -0.049514497995930849 0.019560205699150079 0 -0.049228480679954563 0.020179690310838935 0 -0.048652055701349305 0.019683209833369658 0 -0.048893070600860657 0.018999853836378172 0 -0.049514497995930849 0.019560205699150079 0 -0.048652055701349305 0.019683209833369658 0 -0.049228480679954563 0.020179690310838935 0 -0.048641413726223992 0.020374008439352626 0 -0.048652055701349305 0.019683209833369658 0 -0.049514497995930849 0.019560205699150079 0 -0.049914123379783348 0.020135842353934348 0 -0.050385506269225354 0.019593994284116078 0 -0.049864469239334352 0.01880162332694877 0 -0.049514497995930849 0.019560205699150079 0 -0.050385506269225354 0.019593994284116078 0 -0.049514497995930849 0.019560205699150079 0 -0.049914123379783348 0.020135842353934348 0 -0.049228480679954563 0.020179690310838935 0 -0.049914123379783348 0.020135842353934348 0 -0.050133063977322756 0.020612866360636129 0 -0.050781048262264789 0.020196947675345966 0 -0.049914123379783348 0.020135842353934348 0 -0.049563796488782466 0.020551163981364941 0 -0.049228480679954563 0.020179690310838935 0 -0.049914123379783348 0.020135842353934348 0 -0.049563796488782466 0.020551163981364941 0 -0.050133063977322756 0.020612866360636129 0 -0.049563796488782466 0.020551163981364941 0 -0.050133063977322756 0.020612866360636129 0 -0.049620607996705701 0.021063837657817112 0 -0.049228480679954563 0.020179690310838935 0 -0.049087944684797026 0.020637542026838533 0 -0.048641413726223992 0.020374008439352626 0 -0.049563796488782466 0.020551163981364941 0 -0.049087944684797026 0.020637542026838533 0 -0.049620607996705701 0.021063837657817112 0 -0.049563796488782466 0.020551163981364941 0 -0.049228480679954563 0.020179690310838935 0 -0.049087944684797026 0.020637542026838533 0 -0.049087944684797026 0.020637542026838533 0 -0.048641413726223992 0.020374008439352626 0 -0.048455947761869352 0.020961956084809167 0 -0.048035839469727837 0.020295097730408065 0 -0.048641413726223992 0.020374008439352626 0 -0.048455947761869352 0.020961956084809167 0 -0.048035839469727837 0.020295097730408065 0 -0.047478372246724326 0.020829354684166478 0 -0.048455947761869352 0.020961956084809167 0 -0.048035839469727837 0.020295097730408065 0 -0.048641413726223992 0.020374008439352626 0 -0.048652055701349305 0.019683209833369658 0 -0.048035839469727837 0.020295097730408065 0 -0.048652055701349305 0.019683209833369658 0 -0.047909795032822861 0.019732414504384309 0 -0.048204403954722516 0.019121053557916164 0 -0.048652055701349305 0.019683209833369658 0 -0.047909795032822861 0.019732414504384309 0 -0.04744994899600307 0.019358287892611764 0 -0.047331200748982796 0.020110749624193971 0 -0.047909795032822861 0.019732414504384309 0 -0.048035839469727837 0.020295097730408065 0 -0.047331200748982796 0.020110749624193971 0 -0.047909795032822861 0.019732414504384309 0 -0.048035839469727837 0.020295097730408065 0 -0.047331200748982796 0.020110749624193971 0 -0.047478372246724326 0.020829354684166478 0 -0.047327386842859136 0.021975294892037676 0 -0.047849695078592998 0.021821765582609235 0 -0.047527611845448507 0.021329510630118533 0 -0.047488833313974473 0.021068111180435597 0 -0.048430159470817559 0.021213742733103547 0 -0.047849695078592998 0.021821765582609235 0 -0.047527611845448507 0.021329510630118533 0 -0.048361034253318426 0.021464714425595818 0 -0.047849695078592998 0.021821765582609235 0 -0.048361034253318426 0.021464714425595818 0 -0.048694339344875985 0.022216606224601698 0 -0.047849695078592998 0.021821765582609235 0 -0.047743081406273681 0.022543736668640763 0 -0.048694339344875985 0.022216606224601698 0 -0.047743081406273681 0.022543736668640763 0 -0.048007318600176596 0.0232287628779193 0 -0.048146405683928369 0.022605684141999503 0 -0.047781922758288575 0.022554123836729102 0 -0.048433539418273587 0.02239550819690992 0 -0.047327386842859136 0.021975294892037676 0 -0.047743081406273681 0.022543736668640763 0 -0.047332828440304849 0.022806352808566896 0 -0.047327386842859136 0.021975294892037676 0 -0.047849695078592998 0.021821765582609235 0 -0.047743081406273681 0.022543736668640763 0 -0.047743081406273681 0.022543736668640763 0 -0.047332828440304849 0.022806352808566896 0 -0.047369940433010779 0.023607722269418752 0 -0.047743081406273681 0.022543736668640763 0 -0.048007318600176596 0.0232287628779193 0 -0.047369940433010779 0.023607722269418752 0 -0.048007318600176596 0.0232287628779193 0 -0.047369940433010779 0.023607722269418752 0 -0.047988132936234967 0.024311263005631092 0 -0.046819384035957888 0.026049950448508531 0 -0.047369940433010779 0.023607722269418752 0 -0.047988132936234967 0.024311263005631092 0 -0.049463405608537986 0.025625360220065788 0 -0.048841368848275508 0.024317248759054087 0 -0.049584970001934438 0.024084579841927231 0 -0.049463405608537986 0.025625360220065788 0 -0.048457681222316348 0.025586087965464008 0 -0.048841368848275508 0.024317248759054087 0 -0.048841368848275508 0.024317248759054087 0 -0.047988132936234967 0.024311263005631092 0 -0.048519956634344309 0.023603263617052075 0 -0.048457681222316348 0.025586087965464008 0 -0.048841368848275508 0.024317248759054087 0 -0.047988132936234967 0.024311263005631092 0 -0.048007318600176596 0.0232287628779193 0 -0.047988132936234967 0.024311263005631092 0 -0.048519956634344309 0.023603263617052075 0 -0.048007318600176596 0.0232287628779193 0 -0.048519956634344309 0.023603263617052075 0 -0.048676866934186762 0.022933835718898191 0 -0.048519956634344309 0.023603263617052075 0 -0.049152660340000896 0.02336712141861037 0 -0.048676866934186762 0.022933835718898191 0 -0.048841368848275508 0.024317248759054087 0 -0.049152660340000896 0.02336712141861037 0 -0.049584970001934438 0.024084579841927231 0 -0.048841368848275508 0.024317248759054087 0 -0.048519956634344309 0.023603263617052075 0 -0.049152660340000896 0.02336712141861037 0 -0.049152660340000896 0.02336712141861037 0 -0.049096972448948506 0.022788523240033002 0 -0.049566580077262369 0.022809678660457872 0 -0.049152660340000896 0.02336712141861037 0 -0.049096972448948506 0.022788523240033002 0 -0.048676866934186762 0.022933835718898191 0 -0.049096972448948506 0.022788523240033002 0 -0.048676866934186762 0.022933835718898191 0 -0.049001487397274494 0.022337557100859294 0 -0.049096972448948506 0.022788523240033002 0 -0.049001487397274494 0.022337557100859294 0 -0.049566580077262369 0.022809678660457872 0 -0.048146405683928369 0.022605684141999503 0 -0.048676866934186762 0.022933835718898191 0 -0.049001487397274494 0.022337557100859294 0 -0.048433539418273587 0.02239550819690992 0 -0.049162447914772964 0.022179515359263813 0 -0.048007318600176596 0.0232287628779193 0 -0.048146405683928369 0.022605684141999503 0 -0.048676866934186762 0.022933835718898191 0 -0.048430159470817559 0.021213742733103547 0 -0.049446012291530325 0.021272467238803924 0 -0.049087944684797026 0.020637542026838533 0 -0.048455947761869352 0.020961956084809167 0 -0.049620607996705701 0.021063837657817112 0 -0.048361034253318426 0.021464714425595818 0 -0.048694339344875985 0.022216606224601698 0 -0.049397238621309798 0.021567758613096726 0 -0.048694339344875985 0.022216606224601698 0 -0.049560668120593614 0.021949293583117868 0 -0.049397238621309798 0.021567758613096726 0 -0.049446012291530325 0.021272467238803924 0 -0.050868256111739445 0.021834231819146743 0 -0.050133063977322756 0.020612866360636129 0 -0.049620607996705701 0.021063837657817112 0 -0.050781077479681191 0.021116722283273798 0 -0.049560668120593614 0.021949293583117868 0 -0.049397238621309798 0.021567758613096726 0 -0.050446174387857319 0.021674930684630538 0 -0.049162447914772964 0.022179515359263813 0 -0.050868256111739445 0.021834231819146743 0 -0.049001487397274494 0.022337557100859294 0 -0.049974858278583625 0.022112631349048992 0 -0.049566580077262369 0.022809678660457872 0 -0.049974858278583625 0.022112631349048992 0 -0.050279528590122767 0.022873289927465547 0 -0.050974732367472596 0.022336770125591304 0 -0.052901853348842502 0.022340238239699065 0 -0.04975043715612857 0.023353529005795199 0 -0.049470242392041106 0.021979057174430976 0 -0.050868256111739445 0.021834231819146743 0 -0.05094804782206671 0.022056745039840033 0 -0.050868256111739445 0.021834231819146743 0 -0.050732855445934394 0.022052936082345303 0 -0.050279528590122767 0.022873289927465547 0 -0.05075487585403967 0.023129966062238529 0 -0.050974732367472596 0.022336770125591304 0 -0.050279528590122767 0.022873289927465547 0 -0.05075487585403967 0.023129966062238529 0 -0.050370093024464997 0.02349594366008757 0 -0.049974858278583625 0.022112631349048992 0 -0.050279528590122767 0.022873289927465547 0 -0.049566580077262369 0.022809678660457872 0 -0.050279528590122767 0.022873289927465547 0 -0.049566580077262369 0.022809678660457872 0 -0.049863367804431243 0.0234350214227756 0 -0.049152660340000896 0.02336712141861037 0 -0.049566580077262369 0.022809678660457872 0 -0.049863367804431243 0.0234350214227756 0 -0.049863367804431243 0.0234350214227756 0 -0.050039542272602322 0.023890033498364539 0 -0.049584970001934438 0.024084579841927231 0 -0.049152660340000896 0.02336712141861037 0 -0.049863367804431243 0.0234350214227756 0 -0.049584970001934438 0.024084579841927231 0 -0.050039542272602322 0.023890033498364539 0 -0.050370093024464997 0.02349594366008757 0 -0.050454309680791176 0.023881951929340658 0 -0.050279528590122767 0.022873289927465547 0 -0.049863367804431243 0.0234350214227756 0 -0.050370093024464997 0.02349594366008757 0 -0.049863367804431243 0.0234350214227756 0 -0.050039542272602322 0.023890033498364539 0 -0.050370093024464997 0.02349594366008757 0 -0.05075487585403967 0.023129966062238529 0 -0.050676934306178818 0.023771402555793509 0 -0.051230569618170109 0.023033123976175841 0 -0.05075487585403967 0.023129966062238529 0 -0.050370093024464997 0.02349594366008757 0 -0.050676934306178818 0.023771402555793509 0 -0.050370093024464997 0.02349594366008757 0 -0.050676934306178818 0.023771402555793509 0 -0.050454309680791176 0.023881951929340658 0 -0.050368603654459117 0.023119088283683531 0 -0.05043580193464884 0.023339992489759088 0 -0.051090183147612905 0.024477728450587884 0 -0.051018513635357886 0.02516373203277418 0 -0.050295946736646058 0.025116703027028866 0 -0.050368603654459117 0.023119088283683531 0 -0.050164895625227093 0.024906583295724878 0 -0.050784511785650924 0.023780371525858397 0 -0.050454309680791176 0.023881951929340658 0 -0.050236861261973235 0.024592016750121126 0 -0.051090183147612905 0.024477728450587884 0 -0.051018513635357886 0.02516373203277418 0 -0.051657331301266152 0.024957765281405097 0 -0.051018513635357886 0.02516373203277418 0 -0.051458003498362742 0.02558535948686172 0 -0.051657331301266152 0.024957765281405097 0 -0.050655250063697095 0.025889094069433478 0 -0.051018513635357886 0.02516373203277418 0 -0.050295946736646058 0.025116703027028866 0 -0.050655250063697095 0.025889094069433478 0 -0.051018513635357886 0.02516373203277418 0 -0.051458003498362742 0.02558535948686172 0 -0.049463405608537986 0.025625360220065788 0 -0.049584970001934438 0.024084579841927231 0 -0.050236861261973235 0.024592016750121126 0 -0.049463405608537986 0.025625360220065788 0 -0.050655250063697095 0.025889094069433478 0 -0.050295946736646058 0.025116703027028866 0 -0.049555382497366553 0.025534587302591529 0 -0.050164895625227093 0.024906583295724878 0 -0.050039542272602322 0.023890033498364539 0 -0.049584970001934438 0.024084579841927231 0 -0.050236861261973235 0.024592016750121126 0 -0.050039542272602322 0.023890033498364539 0 -0.050454309680791176 0.023881951929340658 0 -0.050236861261973235 0.024592016750121126 0 -0.028419202103221148 0.025917418190872742 0 -0.028195952498283803 0.025786364039971067 0 -0.028239460302033025 0.025523935926291642 0 -0.028195952498283803 0.025786364039971067 0 -0.028239460302033025 0.025523935926291642 0 -0.028244147375813641 0.025464346145505596 0 -0.040649292068159884 0.025767518478927491 0 -0.037928923826467786 0.024841525721013832 0 -0.028178075718705287 0.024381070873686198 0 -0.028265240441224471 0.025765610724848485 0 -0.051458003498362742 0.02558535948686172 0 -0.052584431444578424 0.02558318987709526 0 -0.051657331301266152 0.024957765281405097 0 -0.052584431444578424 0.02558318987709526 0 -0.051657331301266152 0.024957765281405097 0 -0.052034963283271736 0.024359443475528191 0 -0.050482775699309118 0.020878666911199002 0 -0.046709588565455498 0.021581421547218139 0 -0.046707702788515527 0.024442271404885151 0 -0.050368603654459117 0.023119088283683531 0 -0.051009229341880818 0.022654600354362685 0 -0.051090183147612905 0.024477728450587884 0 -0.051657331301266152 0.024957765281405097 0 -0.052034963283271736 0.024359443475528191 0 -0.046709588565455498 0.021581421547218139 0 -0.042913073802561916 0.022301639023314564 0 -0.046707702788515527 0.024442271404885151 0 -0.050368603654459117 0.023119088283683531 0 -0.049213558206065343 0.023685911796885603 0 -0.051009229341880818 0.022654600354362685 0 -0.037928923826467786 0.024841525721013832 0 -0.052584431444578424 0.02558318987709526 0 -0.052034963283271736 0.024359443475528191 0 -0.052804035397033065 0.024221365732376311 0 -0.028239460302033025 0.025523935926291642 0 -0.028244147375813641 0.025464346145505596 0 -0.027731033025339243 0.025322075761776228 0 -0.037928923826467786 0.024841525721013832 0 -0.034073547736978703 0.026288730492732271 0 -0.042913073802561916 0.022301639023314564 0 -0.043671953921203183 0.025272857563605786 0 -0.046707702788515527 0.024442271404885151 0 -0.049213558206065343 0.023685911796885603 0 -0.045580361506176913 0.024018042707900381 0 -0.042913073802561916 0.022301639023314564 0 -0.043671953921203183 0.025272857563605786 0 -0.040939077645869466 0.027786798640254871 0 -0.043671953921203183 0.025272857563605786 0 -0.046707702788515527 0.024442271404885151 0 -0.042924213901809984 0.027991374707579803 0 -0.043671953921203183 0.025272857563605786 0 -0.042924213901809984 0.027991374707579803 0 -0.040939077645869466 0.027786798640254871 0 -0.05075487585403967 0.023129966062238529 0 -0.051230569618170109 0.023033123976175841 0 -0.050974732367472596 0.022336770125591304 0 -0.051230569618170109 0.023033123976175841 0 -0.050974732367472596 0.022336770125591304 0 -0.051713519055047882 0.022481567148710163 0 -0.04975043715612857 0.023353529005795199 0 -0.049470242392041106 0.021979057174430976 0 -0.046462864492526977 0.024409063327994852 0 -0.05094804782206671 0.022056745039840033 0 -0.045580361506176913 0.024018042707900381 0 -0.049470242392041106 0.021979057174430976 0 -0.045870992346926036 0.021601874022530335 0 -0.046462864492526977 0.024409063327994852 0 -0.045870992346926036 0.021601874022530335 0 -0.046462864492526977 0.024409063327994852 0 -0.043762042105509116 0.023572797445088882 0 -0.045580361506176913 0.024018042707900381 0 -0.034073547736978703 0.026288730492732271 0 -0.05275649602073005 0.020326040030016257 0 -0.052889255220477029 0.019575725506409312 0 -0.05374396917908892 0.019999516722029223 0 -0.052889255220477029 0.019575725506409312 0 -0.052642477571643226 0.018913447098677229 0 -0.053509838155012625 0.019387626036951971 0 -0.052583693784119284 0.018650855480802708 0 -0.053469208653329825 0.019334532533203722 0 -0.05275649602073005 0.020326040030016257 0 -0.052889255220477029 0.019575725506409312 0 -0.052257366972570218 0.019439415753578451 0 -0.052889255220477029 0.019575725506409312 0 -0.052257366972570218 0.019439415753578451 0 -0.052642477571643226 0.018913447098677229 0 -0.051809380546681681 0.020711742039514897 0 -0.052257366972570218 0.019439415753578451 0 -0.051590069547835418 0.01954032299736283 0 -0.050732855445934394 0.022052936082345303 0 -0.050747387549986797 0.022133016811384763 0 -0.051809380546681681 0.020711742039514897 0 -0.05275649602073005 0.020326040030016257 0 -0.052257366972570218 0.019439415753578451 0 -0.051809380546681681 0.020711742039514897 0 -0.050781048262264789 0.020196947675345966 0 -0.051590069547835418 0.01954032299736283 0 -0.050781077479681191 0.021116722283273798 0 -0.051809380546681681 0.020711742039514897 0 -0.050781048262264789 0.020196947675345966 0 -0.050133063977322756 0.020612866360636129 0 -0.050781077479681191 0.021116722283273798 0 -0.050781048262264789 0.020196947675345966 0 -0.049914123379783348 0.020135842353934348 0 -0.050781048262264789 0.020196947675345966 0 -0.050385506269225354 0.019593994284116078 0 -0.050781048262264789 0.020196947675345966 0 -0.050385506269225354 0.019593994284116078 0 -0.051035503279111293 0.019229571702266218 0 -0.050781048262264789 0.020196947675345966 0 -0.051035503279111293 0.019229571702266218 0 -0.051590069547835418 0.01954032299736283 0 -0.051035503279111293 0.019229571702266218 0 -0.051590069547835418 0.01954032299736283 0 -0.051818392048734133 0.018275111656089228 0 -0.051035503279111293 0.019229571702266218 0 -0.050722360042189427 0.018562998825059372 0 -0.051818392048734133 0.018275111656089228 0 -0.050385506269225354 0.019593994284116078 0 -0.051035503279111293 0.019229571702266218 0 -0.050722360042189427 0.018562998825059372 0 -0.050019952245269561 0.017965631843346805 0 -0.050722360042189427 0.018562998825059372 0 -0.050940921439307146 0.017505918214435642 0 -0.05076345385394114 0.017150102124902821 0 -0.051676517746948175 0.01789598237653969 0 -0.050722360042189427 0.018562998825059372 0 -0.050940921439307146 0.017505918214435642 0 -0.051818392048734133 0.018275111656089228 0 -0.050652101335139858 0.016815578658613155 0 -0.051530473700280424 0.01751561983526367 0 -0.05135798357653542 0.016583763205696479 0 -0.051530473700280424 0.01751561983526367 0 -0.052581930781446268 0.017118893859406445 0 -0.052469964928622242 0.018354049303993047 0 -0.051530473700280424 0.01751561983526367 0 -0.052581930781446268 0.017118893859406445 0 -0.05135798357653542 0.016583763205696479 0 -0.049407807023313315 0.015459183305503815 0 -0.050888212380648612 0.016570540081135478 0 -0.046375928485439526 0.013855109715539899 0 -0.046780865550864068 0.012979237066476999 0 -0.047096205805559947 0.014184492973161253 0 -0.046375928485439526 0.013855109715539899 0 -0.047096205805559947 0.014184492973161253 0 -0.047100279935703766 0.015049374901456239 0 -0.052469964928622242 0.018354049303993047 0 -0.053509838155012625 0.019387626036951971 0 -0.053267553959825575 0.018321946289331124 0 -0.052581930781446268 0.017118893859406445 0 -0.052469964928622242 0.018354049303993047 0 -0.053267553959825575 0.018321946289331124 0 -0.051676517746948175 0.01789598237653969 0 -0.052583693784119284 0.018650855480802708 0 -0.052257366972570218 0.019439415753578451 0 -0.051590069547835418 0.01954032299736283 0 -0.051818392048734133 0.018275111656089228 0 -0.052257366972570218 0.019439415753578451 0 -0.051818392048734133 0.018275111656089228 0 -0.052642477571643226 0.018913447098677229 0 -0.04600920993876411 0.011989129518134139 0 -0.045799525562506868 0.012694622308400013 0 -0.045594622560393282 0.011692896875487288 0 -0.045799525562506868 0.012694622308400013 0 -0.045594622560393282 0.011692896875487288 0 -0.045328733256698207 0.011736371837560074 0 -0.048862350516925009 0.014478648772844332 0 -0.048994055320930791 0.012810457258266055 0 -0.04600920993876411 0.011989129518134139 0 -0.046503288039591098 0.012164123016410866 0 -0.045799525562506868 0.012694622308400013 0 -0.04600920993876411 0.011989129518134139 0 -0.046503288039591098 0.012164123016410866 0 -0.04614322806499728 0.011451147146615371 0 -0.046503288039591098 0.012164123016410866 0 -0.046780865550864068 0.012979237066476999 0 -0.047410686989231073 0.011856265320458855 0 -0.046503288039591098 0.012164123016410866 0 -0.04614322806499728 0.011451147146615371 0 -0.047410686989231073 0.011856265320458855 0 -0.046375928485439526 0.013855109715539899 0 -0.046780865550864068 0.012979237066476999 0 -0.045799525562506868 0.012694622308400013 0 -0.046503288039591098 0.012164123016410866 0 -0.046780865550864068 0.012979237066476999 0 -0.045799525562506868 0.012694622308400013 0 -0.049407807023313315 0.015459183305503815 0 -0.048862350516925009 0.014478648772844332 0 -0.052581930781446268 0.017118893859406445 0 -0.05198389535526779 0.016092877968767315 0 -0.05135798357653542 0.016583763205696479 0 -0.05198389535526779 0.016092877968767315 0 -0.05135798357653542 0.016583763205696479 0 -0.051213785392956145 0.015781367770811176 0 -0.050652101335139858 0.016815578658613155 0 -0.05135798357653542 0.016583763205696479 0 -0.050875598734855303 0.016122228929701343 0 -0.05135798357653542 0.016583763205696479 0 -0.050875598734855303 0.016122228929701343 0 -0.051213785392956145 0.015781367770811176 0 -0.050652101335139858 0.016815578658613155 0 -0.050875598734855303 0.016122228929701343 0 -0.050392502119860211 0.015831803212409252 0 -0.050652101335139858 0.016815578658613155 0 -0.050392502119860211 0.015831803212409252 0 -0.049794268994819174 0.016453394720140228 0 -0.05076345385394114 0.017150102124902821 0 -0.049841898750211812 0.016492333026470029 0 -0.051496613225802679 0.013294903957120898 0 -0.051144929676399373 0.01397561579003268 0 -0.05075996200155785 0.015571081594791147 0 -0.05126373306525607 0.015122776779933985 0 -0.050022892762685289 0.01512646041797561 0 -0.050392502119860211 0.015831803212409252 0 -0.05075996200155785 0.015571081594791147 0 -0.050022892762685289 0.01512646041797561 0 -0.050875598734855303 0.016122228929701343 0 -0.050392502119860211 0.015831803212409252 0 -0.05075996200155785 0.015571081594791147 0 -0.05198389535526779 0.016092877968767315 0 -0.051213785392956145 0.015781367770811176 0 -0.051380658983277448 0.015103437142431456 0 -0.050875598734855303 0.016122228929701343 0 -0.05075996200155785 0.015571081594791147 0 -0.051213785392956145 0.015781367770811176 0 -0.051296119385987167 0.016039064983002237 0 -0.051496613225802679 0.013294903957120898 0 -0.05075996200155785 0.015571081594791147 0 -0.051213785392956145 0.015781367770811176 0 -0.05126373306525607 0.015122776779933985 0 -0.051213785392956145 0.015781367770811176 0 -0.051380658983277448 0.015103437142431456 0 -0.051189104269657622 0.015130816648363511 0 -0.045594622560393282 0.011692896875487288 0 -0.045506421102072189 0.011519547333775545 0 -0.045399371945749271 0.011715221528671778 0 -0.045486710138148576 0.01135404755373875 0 -0.045247700599870447 0.011060759354866393 0 -0.04614322806499728 0.011451147146615371 0 -0.046537417054824615 0.01270463572728186 0 -0.048994055320930791 0.012810457258266055 0 -0.045506421102072189 0.011519547333775545 0 -0.045399371945749271 0.011715221528671778 0 -0.045262007256811058 0.011496269132114675 0 -0.051155258158283597 0.013178846194820347 0 -0.05060080507324128 0.013263127019420045 0 -0.050588138596341377 0.012318406832591529 0 -0.053783435894612659 0.011873408394691769 0 -0.054379524339920646 0.011661358588008305 0 -0.053362365015240776 0.011394725301294793 0 -0.048994055320930791 0.012810457258266055 0 -0.051496613225802679 0.013294903957120898 0 -0.054388678708152741 0.012381225190180353 0 -0.053783435894612659 0.011873408394691769 0 -0.054379524339920646 0.011661358588008305 0 -0.051496613225802679 0.013294903957120898 0 -0.05095905126667976 0.011848673200123977 0 -0.048994055320930791 0.012810457258266055 0 -0.05095905126667976 0.011848673200123977 0 -0.05095905126667976 0.011848673200123977 0 -0.048431901960737656 0.0098601470552246231 0 -0.054336298854650474 0.011621650627940206 0 -0.053836230840930206 0.01082918547765024 0 -0.054353032770812451 0.010349188188463539 0 -0.054379524339920646 0.011661358588008305 0 -0.053836230840930206 0.01082918547765024 0 -0.053362365015240776 0.011394725301294793 0 -0.045262007256811058 0.011496269132114675 0 -0.045486710138148576 0.01135404755373875 0 -0.045247700599870447 0.011060759354866393 0 -0.05095905126667976 0.011848673200123977 0 -0.052811132274555334 0.01191341407288792 0 -0.045506421102072189 0.011519547333775545 0 -0.045262007256811058 0.011496269132114675 0 -0.045486710138148576 0.01135404755373875 0 -0.054388678708152741 0.012381225190180353 0 -0.052999187878650093 0.012054642748897688 0 -0.051762353732111084 0.012818497120835173 0 -0.052999187878650093 0.012054642748897688 0 -0.05146609711654393 0.011646498730993273 0 -0.051762353732111084 0.012818497120835173 0 -0.054388678708152741 0.012381225190180353 0 -0.053783435894612659 0.011873408394691769 0 -0.052999187878650093 0.012054642748897688 0 -0.053783435894612659 0.011873408394691769 0 -0.052999187878650093 0.012054642748897688 0 -0.053362365015240776 0.011394725301294793 0 -0.052999187878650093 0.012054642748897688 0 -0.053362365015240776 0.011394725301294793 0 -0.05234411391272787 0.010659296120910574 0 -0.053836230840930206 0.01082918547765024 0 -0.053362365015240776 0.011394725301294793 0 -0.05234411391272787 0.010659296120910574 0 -0.052999187878650093 0.012054642748897688 0 -0.05234411391272787 0.010659296120910574 0 -0.05146609711654393 0.011646498730993273 0 -0.048431901960737656 0.0098601470552246231 0 -0.050082705213812369 0.0074519573859823411 0 -0.053836230840930206 0.01082918547765024 0 -0.05234411391272787 0.010659296120910574 0 -0.054353032770812451 0.010349188188463539 0 -0.05234411391272787 0.010659296120910574 0 -0.054353032770812451 0.010349188188463539 0 -0.051432991710400201 0.0087421554685977402 0 -0.045863660089668565 0.010666974392803135 0 -0.046267291265276476 0.0098568651110294211 0 -0.045738848124693476 0.0087045438411817583 0 -0.046368712477162607 0.010521037771342955 0 -0.045863660089668565 0.010666974392803135 0 -0.046267291265276476 0.0098568651110294211 0 -0.046368712477162607 0.010521037771342955 0 -0.046267291265276476 0.0098568651110294211 0 -0.046743129034828766 0.010210519267672266 0 -0.046368712477162607 0.010521037771342955 0 -0.045863660089668565 0.010666974392803135 0 -0.046836885171008098 0.011086277284996586 0 -0.046743129034828766 0.010210519267672266 0 -0.046979911498518954 0.01056403410056748 0 -0.046884143099311673 0.010081453452483289 0 -0.046743129034828766 0.010210519267672266 0 -0.046745506733392485 0.010598980848041716 0 -0.046979911498518954 0.01056403410056748 0 -0.046745506733392485 0.010598980848041716 0 -0.046836885171008098 0.011086277284996586 0 -0.046979911498518954 0.01056403410056748 0 -0.046368712477162607 0.010521037771342955 0 -0.046743129034828766 0.010210519267672266 0 -0.046745506733392485 0.010598980848041716 0 -0.046368712477162607 0.010521037771342955 0 -0.046745506733392485 0.010598980848041716 0 -0.046836885171008098 0.011086277284996586 0 -0.048431901960737656 0.0098601470552246231 0 -0.045950126374904615 0.011308729177675871 0 -0.045506421102072189 0.011519547333775545 0 -0.045486710138148576 0.01135404755373875 0 -0.04614322806499728 0.011451147146615371 0 -0.045594622560393282 0.011692896875487288 0 -0.045506421102072189 0.011519547333775545 0 -0.04614322806499728 0.011451147146615371 0 -0.04600920993876411 0.011989129518134139 0 -0.045594622560393282 0.011692896875487288 0 -0.04614322806499728 0.011451147146615371 0 -0.045950126374904615 0.011308729177675871 0 -0.047612846724343183 0.011860648082703698 0 -0.046836885171008098 0.011086277284996586 0 -0.047174065063658809 0.011060211976119684 0 -0.047410686989231073 0.011856265320458855 0 -0.046836885171008098 0.011086277284996586 0 -0.047174065063658809 0.011060211976119684 0 -0.046979911498518954 0.01056403410056748 0 -0.046979911498518954 0.01056403410056748 0 -0.047084321423603533 0.010246972640009629 0 -0.047515099778229389 0.010780910216487171 0 -0.047174065063658809 0.011060211976119684 0 -0.046979911498518954 0.01056403410056748 0 -0.047515099778229389 0.010780910216487171 0 -0.046979911498518954 0.01056403410056748 0 -0.047209940217640065 0.01007747407896408 0 -0.046884143099311673 0.010081453452483289 0 -0.046147794141183383 0.0098641441233739101 0 -0.043243975277282971 0.0098890567146497563 0 -0.043243975277282971 0.0098890567146497563 0 -0.038110922740913294 0.010139037378440718 0 -0.043243975277282971 0.0098890567146497563 0 -0.037858246616528791 0.011543024672891122 0 -0.046970948794409946 0.010000017622552759 0 -0.046693396755644434 0.00966196792134957 0 -0.046844291549443869 0.0094280529162366119 0 -0.043243975277282971 0.0098890567146497563 0 -0.047326337914260677 0.01040619901992256 0 -0.046743129034828766 0.010210519267672266 0 -0.046884143099311673 0.010081453452483289 0 -0.046693396755644434 0.00966196792134957 0 -0.046811435967323928 0.010053909883612896 0 -0.047053118363235481 0.0087610226140169487 0 -0.046743129034828766 0.010210519267672266 0 -0.047610981934417144 0.0080891804869583864 0 -0.046566684106032555 0.0090143658477082628 0 -0.046743129034828766 0.010210519267672266 0 -0.046693396755644434 0.00966196792134957 0 -0.04655205876332439 0.0094757771815354476 0 -0.046267291265276476 0.0098568651110294211 0 -0.046743129034828766 0.010210519267672266 0 -0.046566684106032555 0.0090143658477082628 0 -0.047209940217640065 0.01007747407896408 0 -0.046884143099311673 0.010081453452483289 0 -0.046693396755644434 0.00966196792134957 0 -0.04655205876332439 0.0094757771815354476 0 -0.046678098753617572 0.0091621840957026544 0 -0.046403501305455036 0.008640769073622153 0 -0.047053118363235481 0.0087610226140169487 0 -0.047202122207779112 0.0071273932407076275 0 -0.047610981934417144 0.0080891804869583864 0 -0.046591504715708561 0.0077292263786232253 0 -0.046566684106032555 0.0090143658477082628 0 -0.046693396755644434 0.00966196792134957 0 -0.04655205876332439 0.0094757771815354476 0 -0.046844291549443869 0.0094280529162366119 0 -0.04655205876332439 0.0094757771815354476 0 -0.046678098753617572 0.0091621840957026544 0 -0.046844291549443869 0.0094280529162366119 0 -0.047610981934417144 0.0080891804869583864 0 -0.046957450124641684 0.0067774110726390646 0 -0.046591504715708561 0.0077292263786232253 0 -0.047610981934417144 0.0080891804869583864 0 -0.047407405928239624 0.0065727087864814408 0 -0.046957450124641684 0.0067774110726390646 0 -0.046844291549443869 0.0094280529162366119 0 -0.046879292542508 0.0090724444609287837 0 -0.047292851592209709 0.0091731067877245092 0 -0.046970948794409946 0.010000017622552759 0 -0.046844291549443869 0.0094280529162366119 0 -0.047292851592209709 0.0091731067877245092 0 -0.046678098753617572 0.0091621840957026544 0 -0.046844291549443869 0.0094280529162366119 0 -0.046879292542508 0.0090724444609287837 0 -0.046879292542508 0.0090724444609287837 0 -0.047035554605101303 0.008667212744368661 0 -0.047292851592209709 0.0091731067877245092 0 -0.047035554605101303 0.008667212744368661 0 -0.047207557366467319 0.0084316538751424367 0 -0.047292851592209709 0.0091731067877245092 0 -0.047035554605101303 0.008667212744368661 0 -0.046885726290992524 0.0079091692925490273 0 -0.047207557366467319 0.0084316538751424367 0 -0.046879292542508 0.0090724444609287837 0 -0.047035554605101303 0.008667212744368661 0 -0.046403501305455036 0.008640769073622153 0 -0.046678098753617572 0.0091621840957026544 0 -0.046879292542508 0.0090724444609287837 0 -0.046403501305455036 0.008640769073622153 0 -0.047610981934417144 0.0080891804869583864 0 -0.047407405928239624 0.0065727087864814408 0 -0.048003373982970499 0.0056827801041070252 0 -0.047407405928239624 0.0065727087864814408 0 -0.048003373982970499 0.0056827801041070252 0 -0.047080864676427657 0.0057720780884635238 0 -0.047407405928239624 0.0065727087864814408 0 -0.047080864676427657 0.0057720780884635238 0 -0.046957450124641684 0.0067774110726390646 0 -0.048003373982970499 0.0056827801041070252 0 -0.047445888073497963 0.0052121826399634608 0 -0.047080864676427657 0.0057720780884635238 0 -0.047035554605101303 0.008667212744368661 0 -0.046403501305455036 0.008640769073622153 0 -0.046885726290992524 0.0079091692925490273 0 -0.046885726290992524 0.0079091692925490273 0 -0.047902933623594046 0.0064290450010722009 0 -0.046721260331529582 0.005679290228632468 0 -0.048003373982970499 0.0056827801041070252 0 -0.047576415740126721 0.004682537991101814 0 -0.047981318037569068 0.0039127462227069925 0 -0.047202122207779112 0.0071273932407076275 0 -0.04738674079146063 0.0048324906729347687 0 -0.046403501305455036 0.008640769073622153 0 -0.046885726290992524 0.0079091692925490273 0 -0.046721260331529582 0.005679290228632468 0 -0.048003373982970499 0.0056827801041070252 0 -0.047445888073497963 0.0052121826399634608 0 -0.047576415740126721 0.004682537991101814 0 -0.047445888073497963 0.0052121826399634608 0 -0.047576415740126721 0.004682537991101814 0 -0.047101595035110841 0.0048745193678287656 0 -0.047576415740126721 0.004682537991101814 0 -0.047981318037569068 0.0039127462227069925 0 -0.047369050475611144 0.0040207806842265086 0 -0.047576415740126721 0.004682537991101814 0 -0.047101595035110841 0.0048745193678287656 0 -0.047369050475611144 0.0040207806842265086 0 -0.047902933623594046 0.0064290450010722009 0 -0.048833366098010346 0.0072597314516293903 0 -0.049409330150865197 0.0058579440697908896 0 -0.046885726290992524 0.0079091692925490273 0 -0.047902933623594046 0.0064290450010722009 0 -0.048833366098010346 0.0072597314516293903 0 -0.046526412371723641 0.008014949293840036 0 -0.049428309613640448 0.0074449856961206892 0 -0.047242890429029523 0.0044934759786957913 0 -0.046944384367259638 0.0039298065907488128 0 -0.046753325897171592 0.0036623397673737823 0 -0.047345860012784236 0.0044429474583607296 0 -0.047215283531828779 0.0043060432794156866 0 -0.047242890429029523 0.0044934759786957913 0 -0.046796347037541167 0.0032334047819884541 0 -0.046753325897171592 0.0036623397673737823 0 -0.047242890429029523 0.0044934759786957913 0 -0.047740452941652203 0.0052710100291368123 0 -0.046944384367259638 0.0039298065907488128 0 -0.047101595035110841 0.0048745193678287656 0 -0.046079883174706841 0.0059746486221047643 0 -0.046944384367259638 0.0039298065907488128 0 -0.046930744738049118 0.0057302103177157863 0 -0.046931493327442467 0.0040936663768078819 0 -0.047101595035110841 0.0048745193678287656 0 -0.046944384367259638 0.0039298065907488128 0 -0.047369050475611144 0.0040207806842265086 0 -0.047445888073497963 0.0052121826399634608 0 -0.047101595035110841 0.0048745193678287656 0 -0.047080864676427657 0.0057720780884635238 0 -0.047101595035110841 0.0048745193678287656 0 -0.047080864676427657 0.0057720780884635238 0 -0.046079883174706841 0.0059746486221047643 0 -0.047080864676427657 0.0057720780884635238 0 -0.046079883174706841 0.0059746486221047643 0 -0.046957450124641684 0.0067774110726390646 0 -0.047242890429029523 0.0044934759786957913 0 -0.047740452941652203 0.0052710100291368123 0 -0.047490883620896922 0.0054272324510240876 0 -0.047740452941652203 0.0052710100291368123 0 -0.047669227091780952 0.0058771281486355532 0 -0.047490883620896922 0.0054272324510240876 0 -0.047740452941652203 0.0052710100291368123 0 -0.047669227091780952 0.0058771281486355532 0 -0.04803837443464027 0.0061247515691420533 0 -0.046079883174706841 0.0059746486221047643 0 -0.046591504715708561 0.0077292263786232253 0 -0.045738848124693476 0.0087045438411817583 0 -0.046079883174706841 0.0059746486221047643 0 -0.046957450124641684 0.0067774110726390646 0 -0.046591504715708561 0.0077292263786232253 0 -0.046930744738049118 0.0057302103177157863 0 -0.046735927413083342 0.0071401915613527826 0 -0.048431901960737656 0.0098601470552246231 0 -0.046735927413083342 0.0071401915613527826 0 -0.046591504715708561 0.0077292263786232253 0 -0.046566684106032555 0.0090143658477082628 0 -0.045738848124693476 0.0087045438411817583 0 -0.046267291265276476 0.0098568651110294211 0 -0.046566684106032555 0.0090143658477082628 0 -0.045738848124693476 0.0087045438411817583 0 -0.047669227091780952 0.0058771281486355532 0 -0.04803837443464027 0.0061247515691420533 0 -0.047674837998252437 0.0063871074490651179 0 -0.048083690487880484 0.0066098107866969817 0 -0.04803837443464027 0.0061247515691420533 0 -0.047674837998252437 0.0063871074490651179 0 -0.047674837998252437 0.0063871074490651179 0 -0.047646200585617603 0.0061089074071069014 0 -0.047717025344211877 0.0068804851451096678 0 -0.050082705213812369 0.0074519573859823411 0 -0.04756760464702859 0.0068800207567330162 0 -0.051432991710400201 0.0087421554685977402 0 -0.047717025344211877 0.0068804851451096678 0 -0.048385849749205095 0.0097997345561583026 0 -0.047646200585617603 0.0061089074071069014 0 -0.047139882806238632 0.0054850640043448418 0 -0.047717025344211877 0.0068804851451096678 0 -0.047669227091780952 0.0058771281486355532 0 -0.047674837998252437 0.0063871074490651179 0 -0.047646200585617603 0.0061089074071069014 0 -0.047669227091780952 0.0058771281486355532 0 -0.047646200585617603 0.0061089074071069014 0 -0.047490883620896922 0.0054272324510240876 0 -0.047215283531828779 0.0043060432794156866 0 -0.047372592955502515 0.003944457215621781 0 -0.047646200585617603 0.0061089074071069014 0 -0.047490883620896922 0.0054272324510240876 0 -0.047139882806238632 0.0054850640043448418 0 -0.047076519676065735 0.0033276716676453092 0 -0.046796347037541167 0.0032334047819884541 0 -0.047587598521568207 0.002408998553441918 0 -0.047076519676065735 0.0033276716676453092 0 -0.046796347037541167 0.0032334047819884541 0 -0.046753325897171592 0.0036623397673737823 0 -0.048318984468675982 0.0025555298642427953 0 -0.048636221660177802 0.0030955396580951266 0 -0.047764009908596083 0.003153056270319957 0 -0.048318984468675982 0.0025555298642427953 0 -0.047587598521568207 0.002408998553441918 0 -0.047764009908596083 0.003153056270319957 0 -0.047076519676065735 0.0033276716676453092 0 -0.047587598521568207 0.002408998553441918 0 -0.047764009908596083 0.003153056270319957 0 -0.047139882806238632 0.0054850640043448418 0 -0.046035546332898129 0.0068241562559374852 0 -0.045207885590617433 0.0056610605971759084 0 -0.047372592955502515 0.003944457215621781 0 -0.046856795298121964 0.003750415434011297 0 -0.048318984468675982 0.0025555298642427953 0 -0.047587598521568207 0.002408998553441918 0 -0.048648231063531652 0.001772593355129545 0 -0.046035546332898129 0.0068241562559374852 0 -0.044797297621235813 0.0066094809144724353 0 -0.045207885590617433 0.0056610605971759084 0 -0.047139882806238632 0.0054850640043448418 0 -0.046035546332898129 0.0068241562559374852 0 -0.047717025344211877 0.0068804851451096678 0 -0.046035546332898129 0.0068241562559374852 0 -0.047717025344211877 0.0068804851451096678 0 -0.046332136253092106 0.0096300718162171811 0 -0.046410820759176297 0.0095343331534161729 0 -0.043817096808842895 0.0080554538771229096 0 -0.046035546332898129 0.0068241562559374852 0 -0.046332136253092106 0.0096300718162171811 0 -0.044453721173235608 0.0077283918401538972 0 -0.046332136253092106 0.0096300718162171811 0 -0.045841951092161846 0.01157734856070307 0 -0.044382069756807183 0.0099891381258298308 0 -0.046332136253092106 0.0096300718162171811 0 -0.045841951092161846 0.01157734856070307 0 -0.047469759459906079 0.011875069348091807 0 -0.045841951092161846 0.01157734856070307 0 -0.046401206933813242 0.012779071780868817 0 -0.047469759459906079 0.011875069348091807 0 -0.045841951092161846 0.01157734856070307 0 -0.045566537518387316 0.013488340389252163 0 -0.044306936293128991 0.011973675426898913 0 -0.045841951092161846 0.01157734856070307 0 -0.046401206933813242 0.012779071780868817 0 -0.045566537518387316 0.013488340389252163 0 -0.047469759459906079 0.011875069348091807 0 -0.048385849749205095 0.0097997345561583026 0 -0.049152531715309151 0.011618136301611891 0 -0.047717025344211877 0.0068804851451096678 0 -0.046332136253092106 0.0096300718162171811 0 -0.048385849749205095 0.0097997345561583026 0 -0.046332136253092106 0.0096300718162171811 0 -0.047469759459906079 0.011875069348091807 0 -0.048385849749205095 0.0097997345561583026 0 -0.051432991710400201 0.0087421554685977402 0 -0.048385849749205095 0.0097997345561583026 0 -0.050453855794040298 0.010847522831754518 0 -0.05234411391272787 0.010659296120910574 0 -0.051432991710400201 0.0087421554685977402 0 -0.050453855794040298 0.010847522831754518 0 -0.05234411391272787 0.010659296120910574 0 -0.050453855794040298 0.010847522831754518 0 -0.05146609711654393 0.011646498730993273 0 -0.050453855794040298 0.010847522831754518 0 -0.050372138728934486 0.012115645794832743 0 -0.05146609711654393 0.011646498730993273 0 -0.050372138728934486 0.012115645794832743 0 -0.05146609711654393 0.011646498730993273 0 -0.051762353732111084 0.012818497120835173 0 -0.048385849749205095 0.0097997345561583026 0 -0.050453855794040298 0.010847522831754518 0 -0.049152531715309151 0.011618136301611891 0 -0.047469759459906079 0.011875069348091807 0 -0.049152531715309151 0.011618136301611891 0 -0.049160696859162752 0.013327466128179626 0 -0.050453855794040298 0.010847522831754518 0 -0.050372138728934486 0.012115645794832743 0 -0.049152531715309151 0.011618136301611891 0 -0.050372138728934486 0.012115645794832743 0 -0.049152531715309151 0.011618136301611891 0 -0.049160696859162752 0.013327466128179626 0 -0.048694294816936205 0.014692401478541749 0 -0.050022892762685289 0.01512646041797561 0 -0.048966277036497051 0.015406420273374532 0 -0.048694294816936205 0.014692401478541749 0 -0.048966277036497051 0.015406420273374532 0 -0.047878141815527651 0.014931481008405837 0 -0.050375878758277474 0.015822890509227652 0 -0.049153004466662702 0.015961262319449936 0 -0.050372138728934486 0.012115645794832743 0 -0.049160696859162752 0.013327466128179626 0 -0.051762353732111084 0.012818497120835173 0 -0.050392502119860211 0.015831803212409252 0 -0.050022892762685289 0.01512646041797561 0 -0.048966277036497051 0.015406420273374532 0 -0.048776232229715999 0.014035237177156224 0 -0.051144929676399373 0.01397561579003268 0 -0.050940921439307146 0.017505918214435642 0 -0.049794268994819174 0.016453394720140228 0 -0.050019401252369151 0.017315231131259316 0 -0.050392502119860211 0.015831803212409252 0 -0.049794268994819174 0.016453394720140228 0 -0.049216801874079535 0.01656351177445092 0 -0.049794268994819174 0.016453394720140228 0 -0.050019401252369151 0.017315231131259316 0 -0.049359930496943871 0.017317603842176323 0 -0.049794268994819174 0.016453394720140228 0 -0.049216801874079535 0.01656351177445092 0 -0.049359930496943871 0.017317603842176323 0 -0.049216801874079535 0.01656351177445092 0 -0.049359930496943871 0.017317603842176323 0 -0.048737236856588526 0.017164198510486835 0 -0.048810106283888877 0.017683248642114513 0 -0.049359930496943871 0.017317603842176323 0 -0.048737236856588526 0.017164198510486835 0 -0.049153004466662702 0.015961262319449936 0 -0.047368394259718519 0.016076232251052883 0 -0.048251866141013088 0.017585057085090401 0 -0.048737236856588526 0.017164198510486835 0 -0.047956596921026259 0.016676880699281822 0 -0.049216801874079535 0.01656351177445092 0 -0.048737236856588526 0.017164198510486835 0 -0.047956596921026259 0.016676880699281822 0 -0.048966277036497051 0.015406420273374532 0 -0.04697963993482366 0.015424573735377886 0 -0.047878141815527651 0.014931481008405837 0 -0.04762834524142958 0.01765018830804822 0 -0.048251866141013088 0.017585057085090401 0 -0.047956596921026259 0.016676880699281822 0 -0.046441424941298666 0.018013345513984695 0 -0.04762834524142958 0.01765018830804822 0 -0.047956596921026259 0.016676880699281822 0 -0.046441424941298666 0.018013345513984695 0 -0.047956596921026259 0.016676880699281822 0 -0.044733051163169772 0.016413213643516736 0 -0.045623785003068296 0.015132469969130511 0 -0.04697963993482366 0.015424573735377886 0 -0.044733051163169772 0.016413213643516736 0 -0.047368394259718519 0.016076232251052883 0 -0.044826192838416601 0.016418523688177856 0 -0.045623785003068296 0.015132469969130511 0 -0.04697963993482366 0.015424573735377886 0 -0.046751237567056514 0.014170162079637762 0 -0.046401206933813242 0.012779071780868817 0 -0.047469759459906079 0.011875069348091807 0 -0.046751237567056514 0.014170162079637762 0 -0.045623785003068296 0.015132469969130511 0 -0.046751237567056514 0.014170162079637762 0 -0.045566537518387316 0.013488340389252163 0 -0.046401206933813242 0.012779071780868817 0 -0.046751237567056514 0.014170162079637762 0 -0.045566537518387316 0.013488340389252163 0 -0.048694294816936205 0.014692401478541749 0 -0.046751237567056514 0.014170162079637762 0 -0.047878141815527651 0.014931481008405837 0 -0.048776232229715999 0.014035237177156224 0 -0.046858173551811988 0.014188906124898995 0 -0.047469759459906079 0.011875069348091807 0 -0.049160696859162752 0.013327466128179626 0 -0.046751237567056514 0.014170162079637762 0 -0.04697963993482366 0.015424573735377886 0 -0.046751237567056514 0.014170162079637762 0 -0.047878141815527651 0.014931481008405837 0 -0.042610633837064135 0.013705156512390411 0 -0.041482314953974468 0.012173210256173204 0 -0.042757035651827105 0.012122429616514142 0 -0.045623785003068296 0.015132469969130511 0 -0.045566537518387316 0.013488340389252163 0 -0.042970619133097292 0.014421530744544433 0 -0.045695063861911092 0.013458770794369771 0 -0.042288796503565089 0.014185277168772553 0 -0.045566537518387316 0.013488340389252163 0 -0.042610633837064135 0.013705156512390411 0 -0.044306936293128991 0.011973675426898913 0 -0.045623785003068296 0.015132469969130511 0 -0.042970619133097292 0.014421530744544433 0 -0.044733051163169772 0.016413213643516736 0 -0.042970619133097292 0.014421530744544433 0 -0.042952753235816481 0.01653721001384599 0 -0.041524969736492411 0.016103053374012188 0 -0.042970619133097292 0.014421530744544433 0 -0.044733051163169772 0.016413213643516736 0 -0.042952753235816481 0.01653721001384599 0 -0.041824241549041512 0.017469198741781475 0 -0.042952753235816481 0.01653721001384599 0 -0.041524969736492411 0.016103053374012188 0 -0.04435291136696131 0.018123076560832542 0 -0.044833017718052648 0.016846491967879094 0 -0.041824241549041512 0.017469198741781475 0 -0.041524969736492411 0.016103053374012188 0 -0.039927419377669547 0.016645671797214889 0 -0.042970619133097292 0.014421530744544433 0 -0.041524969736492411 0.016103053374012188 0 -0.039729751757922475 0.015128779262211288 0 -0.041524969736492411 0.016103053374012188 0 -0.039927419377669547 0.016645671797214889 0 -0.039729751757922475 0.015128779262211288 0 -0.044478720642994733 0.013506037867721789 0 -0.046196163564584683 0.01431555387787331 0 -0.046128119598240667 0.014464374138326597 0 -0.046621458438164308 0.018854422453398141 0 -0.047029429922749624 0.0187262701497454 0 -0.04652900635374381 0.018465660837295575 0 -0.044478720642994733 0.013506037867721789 0 -0.046196163564584683 0.01431555387787331 0 -0.046659283480623738 0.014350302946323203 0 -0.044833017718052648 0.016846491967879094 0 -0.048191522708062998 0.012478142466706777 0 -0.044478720642994733 0.013506037867721789 0 -0.044639152338396562 0.014777959787577583 0 -0.046128119598240667 0.014464374138326597 0 -0.044833017718052648 0.016846491967879094 0 -0.042293135812511172 0.013963702554103187 0 -0.042293135812511172 0.013963702554103187 0 -0.046520302735397284 0.012838743485287345 0 -0.040176573603139171 0.014111492365223086 0 -0.04105854271398425 0.013151434731628005 0 -0.039975922107525534 0.012605073271158422 0 -0.045041930642898589 0.012248088838834863 0 -0.045094480540680673 0.012281990220802083 0 -0.045055003897740586 0.012314312715613637 0 -0.042293135812511172 0.013963702554103187 0 -0.044474837888557071 0.01163804654479076 0 -0.045041930642898589 0.012248088838834863 0 -0.045094480540680673 0.012281990220802083 0 -0.045126346497278591 0.012232226638770355 0 -0.047624090146273716 0.010324574210718179 0 -0.046520302735397284 0.012838743485287345 0 -0.047624090146273716 0.010324574210718179 0 -0.045890694624059654 0.010061032622850258 0 -0.046529510650694911 0.010341711934737851 0 -0.046165537731590822 0.011107387399464675 0 -0.046123409608823995 0.010759459317412085 0 -0.047624090146273716 0.010324574210718179 0 -0.044474837888557071 0.01163804654479076 0 -0.042610633837064135 0.013705156512390411 0 -0.040176573603139171 0.014111492365223086 0 -0.04105854271398425 0.013151434731628005 0 -0.042610633837064135 0.013705156512390411 0 -0.04105854271398425 0.013151434731628005 0 -0.041482314953974468 0.012173210256173204 0 -0.042288796503565089 0.014185277168772553 0 -0.042293135812511172 0.013963702554103187 0 -0.041482314953974468 0.012173210256173204 0 -0.039898711620847904 0.011995103870683489 0 -0.041279278243282161 0.011044618543725685 0 -0.04105854271398425 0.013151434731628005 0 -0.041482314953974468 0.012173210256173204 0 -0.039975922107525534 0.012605073271158422 0 -0.041482314953974468 0.012173210256173204 0 -0.041279278243282161 0.011044618543725685 0 -0.042657032872843753 0.010672306121154074 0 -0.051134870879722377 0.0078387961925392713 0 -0.050913656134564139 0.0059826233892181467 0 -0.049788009992355067 0.0074957502080442674 0 -0.041482314953974468 0.012173210256173204 0 -0.039898711620847904 0.011995103870683489 0 -0.039975922107525534 0.012605073271158422 0 -0.050601978634063148 0.0090251386002498848 0 -0.051134870879722377 0.0078387961925392713 0 -0.049788009992355067 0.0074957502080442674 0 -0.045890694624059654 0.010061032622850258 0 -0.044474837888557071 0.01163804654479076 0 -0.045890694624059654 0.010061032622850258 0 -0.04885672156510968 0.0064745250676894435 0 -0.046748473036511778 0.0090752798625171466 0 -0.046538256946689394 0.0073321310631762442 0 -0.047760875583028876 0.0068069142104878006 0 -0.045890694624059654 0.010061032622850258 0 -0.044501747646716272 0.0071904263738789258 0 -0.041279278243282161 0.011044618543725685 0 -0.042657032872843753 0.010672306121154074 0 -0.041087171672865873 0.0093381344519763345 0 -0.039898711620847904 0.011995103870683489 0 -0.041279278243282161 0.011044618543725685 0 -0.041087171672865873 0.0093381344519763345 0 -0.042144304515993401 0.010452836955869306 0 -0.044501747646716272 0.0071904263738789258 0 -0.042409486868808986 0.010206411415556097 0 -0.042249085610272102 0.0082085277921879977 0 -0.040687973689830452 0.0086975268820174388 0 -0.042657032872843753 0.010672306121154074 0 -0.042757035651827105 0.012122429616514142 0 -0.044306936293128991 0.011973675426898913 0 -0.042610633837064135 0.013705156512390411 0 -0.042757035651827105 0.012122429616514142 0 -0.044306936293128991 0.011973675426898913 0 -0.041482314953974468 0.012173210256173204 0 -0.042657032872843753 0.010672306121154074 0 -0.042757035651827105 0.012122429616514142 0 -0.042144304515993401 0.010452836955869306 0 -0.044303900883308774 0.011908539775211344 0 -0.045841951092161846 0.01157734856070307 0 -0.044306936293128991 0.011973675426898913 0 -0.044382069756807183 0.0099891381258298308 0 -0.042409486868808986 0.010206411415556097 0 -0.044306936293128991 0.011973675426898913 0 -0.044382069756807183 0.0099891381258298308 0 -0.046332136253092106 0.0096300718162171811 0 -0.044382069756807183 0.0099891381258298308 0 -0.044068825836594092 0.0080328993895421759 0 -0.042409486868808986 0.010206411415556097 0 -0.044382069756807183 0.0099891381258298308 0 -0.044068825836594092 0.0080328993895421759 0 -0.042409486868808986 0.010206411415556097 0 -0.044068825836594092 0.0080328993895421759 0 -0.042249085610272102 0.0082085277921879977 0 -0.044068825836594092 0.0080328993895421759 0 -0.042249085610272102 0.0082085277921879977 0 -0.04177960983616729 0.0062707828730658704 0 -0.043508159998199743 0.0062682184014182353 0 -0.043023777302069799 0.0060636513135571965 0 -0.045207885590617433 0.0056610605971759084 0 -0.043817096808842895 0.0080554538771229096 0 -0.045313917701741147 0.0045372649509839227 0 -0.044453721173235608 0.0077283918401538972 0 -0.043508159998199743 0.0062682184014182353 0 -0.042938832154915028 0.0063370226458778559 0 -0.044632378580483127 0.0041217186325401278 0 -0.046783935376659459 0.0036449557227047993 0 -0.043508159998199743 0.0062682184014182353 0 -0.043060896420581106 0.0060763808521672614 0 -0.042938832154915028 0.0063370226458778559 0 -0.046783935376659459 0.0036449557227047993 0 -0.045313917701741147 0.0045372649509839227 0 -0.043508159998199743 0.0062682184014182353 0 -0.044797297621235813 0.0066094809144724353 0 -0.045207885590617433 0.0056610605971759084 0 -0.046035546332898129 0.0068241562559374852 0 -0.044453721173235608 0.0077283918401538972 0 -0.044797297621235813 0.0066094809144724353 0 -0.044453721173235608 0.0077283918401538972 0 -0.043508159998199743 0.0062682184014182353 0 -0.044797297621235813 0.0066094809144724353 0 -0.048318984468675982 0.0025555298642427953 0 -0.048648231063531652 0.001772593355129545 0 -0.049059713412960039 0.0023059219032424941 0 -0.046783935376659459 0.0036449557227047993 0 -0.046856795298121964 0.003750415434011297 0 -0.048648231063531652 0.001772593355129545 0 -0.049633700582229448 0.0018551455704773742 0 -0.049059713412960039 0.0023059219032424941 0 -0.049834219565615907 0.0013812071705231121 0 -0.048648231063531652 0.001772593355129545 0 -0.049633700582229448 0.0018551455704773742 0 -0.046783935376659459 0.0036449557227047993 0 -0.049554934554925177 0.0010025285582092218 0 -0.049891199496885981 0.0015925378279740361 0 -0.049633700582229448 0.0018551455704773742 0 -0.049943976250583166 0.0017753763984835575 0 -0.049633700582229448 0.0018551455704773742 0 -0.049805940813343177 0.0020402732538219569 0 -0.049943976250583166 0.0017753763984835575 0 -0.049633700582229448 0.0018551455704773742 0 -0.049805940813343177 0.0020402732538219569 0 -0.049059713412960039 0.0023059219032424941 0 -0.049336696669957304 0.0027043426446520672 0 -0.049805940813343177 0.0020402732538219569 0 -0.049059713412960039 0.0023059219032424941 0 -0.049336696669957304 0.0027043426446520672 0 -0.049805940813343177 0.0020402732538219569 0 -0.050035472387623167 0.0030309884898073172 0 -0.048318984468675982 0.0025555298642427953 0 -0.049059713412960039 0.0023059219032424941 0 -0.048636221660177802 0.0030955396580951266 0 -0.049336696669957304 0.0027043426446520672 0 -0.049059713412960039 0.0023059219032424941 0 -0.048636221660177802 0.0030955396580951266 0 -0.049490477529962947 0.0017646096416476082 0 -0.050347723469779386 0.0017119334816121526 0 -0.050195627656533605 0.0017793347405395841 0 -0.049490477529962947 0.0017646096416476082 0 -0.050347723469779386 0.0017119334816121526 0 -0.049624354997058105 7.3709535193186679e-05 0 -0.050393938881704729 0.0017207446623478824 0 -0.05061424073687959 0.0013531543969240529 0 -0.049805940813343177 0.0020402732538219569 0 -0.050347723469779386 0.0017119334816121526 0 -0.050035472387623167 0.0030309884898073172 0 -0.049805940813343177 0.0020402732538219569 0 -0.050347723469779386 0.0017119334816121526 0 -0.050195627656533605 0.0017793347405395841 0 -0.049490477529962947 0.0017646096416476082 0 -0.050195627656533605 0.0017793347405395841 0 -0.050176446840992234 0.0018291134042061573 0 -0.049805940813343177 0.0020402732538219569 0 -0.050195627656533605 0.0017793347405395841 0 -0.049943976250583166 0.0017753763984835575 0 -0.049891199496885981 0.0015925378279740361 0 -0.049943976250583166 0.0017753763984835575 0 -0.050176446840992234 0.0018291134042061573 0 -0.050195627656533605 0.0017793347405395841 0 -0.049943976250583166 0.0017753763984835575 0 -0.050176446840992234 0.0018291134042061573 0 -0.051360567029532324 0.0030008489766137824 0 -0.050763235346117139 0.003065231828602178 0 -0.049964969138032278 0.0024405499943310955 0 -0.050403670602171505 0.0029355566421744601 0 -0.050083005258322225 0.0019833063747548541 0 -0.050102353906198875 0.0010158509870268281 0 -0.051494657934283927 0.0021184086476930116 0 -0.04981773630943228 0.0015525366201007587 0 -0.049773812852242132 0.0012348390402069078 0 -0.050403670602171505 0.0029355566421744601 0 -0.050295445880646925 0.0030727526170460148 0 -0.050763235346117139 0.003065231828602178 0 -0.049964969138032278 0.0024405499943310955 0 -0.050295445880646925 0.0030727526170460148 0 -0.049937237596892121 0.0030715578439653927 0 -0.049964969138032278 0.0024405499943310955 0 -0.050637673552759922 0.0032408174083136121 0 -0.050262806344461092 0.0035345136342191277 0 -0.05167186874678148 0.0032311725169905706 0 -0.050254407121398566 0.0033077874733438446 0 -0.050295445880646925 0.0030727526170460148 0 -0.049937237596892121 0.0030715578439653927 0 -0.050254407121398566 0.0033077874733438446 0 -0.050254094925121701 0.0035201252876365732 0 -0.049937237596892121 0.0030715578439653927 0 -0.050254407121398566 0.0033077874733438446 0 -0.050637673552759922 0.0032408174083136121 0 -0.050262806344461092 0.0035345136342191277 0 -0.050254407121398566 0.0033077874733438446 0 -0.050254094925121701 0.0035201252876365732 0 -0.050262806344461092 0.0035345136342191277 0 -0.050254407121398566 0.0033077874733438446 0 -0.050295445880646925 0.0030727526170460148 0 -0.050637673552759922 0.0032408174083136121 0 -0.050295445880646925 0.0030727526170460148 0 -0.050763235346117139 0.003065231828602178 0 -0.050637673552759922 0.0032408174083136121 0 -0.050324976657007588 0.003215908614410316 0 -0.050262806344461092 0.0035345136342191277 0 -0.049296496384122417 0.0033468151654153289 0 -0.049219898547071393 0.0044216732027696657 0 -0.049421832704431561 0.0038938701994492807 0 -0.050324976657007588 0.003215908614410316 0 -0.050254094925121701 0.0035201252876365732 0 -0.050262806344461092 0.0035345136342191277 0 -0.04829444811596488 0.0038089570768493316 0 -0.049296496384122417 0.0033468151654153289 0 -0.049025608661028161 0.0021983570137371696 0 -0.050924375981577528 0.0034332063409956118 0 -0.048426827516998526 0.003790620788843476 0 -0.050763235346117139 0.003065231828602178 0 -0.050637673552759922 0.0032408174083136121 0 -0.05167186874678148 0.0032311725169905706 0 -0.050262806344461092 0.0035345136342191277 0 -0.048536416556005726 0.0039943623693605226 0 -0.049296496384122417 0.0033468151654153289 0 -0.047526069918097165 0.0031194820812906602 0 -0.049714508202274063 0.0037346907995615508 0 -0.048582261500335955 0.0028836783461876846 0 -0.04829444811596488 0.0038089570768493316 0 -0.048536416556005726 0.0039943623693605226 0 -0.049296496384122417 0.0033468151654153289 0 -0.046783935376659459 0.0036449557227047993 0 -0.050403670602171505 0.0029355566421744601 0 -0.045313917701741147 0.0045372649509839227 0 -0.048426827516998526 0.003790620788843476 0 -0.046285716101032055 0.0039254998228962189 0 -0.046345597134924615 0.0037926588333742971 0 -0.046472713980528067 0.003886447253511741 0 -0.046783935376659459 0.0036449557227047993 0 -0.048426827516998526 0.003790620788843476 0 -0.050403670602171505 0.0029355566421744601 0 -0.048426827516998526 0.003790620788843476 0 -0.051360567029532324 0.0030008489766137824 0 -0.050763235346117139 0.003065231828602178 0 -0.05167186874678148 0.0032311725169905706 0 -0.042249085610272102 0.0082085277921879977 0 -0.04177960983616729 0.0062707828730658704 0 -0.040687973689830452 0.0086975268820174388 0 -0.045313917701741147 0.0045372649509839227 0 -0.044501747646716272 0.0071904263738789258 0 -0.04885672156510968 0.0064745250676894435 0 -0.049219898547071393 0.0044216732027696657 0 -0.050324976657007588 0.003215908614410316 0 -0.049296496384122417 0.0033468151654153289 0 -0.049025608661028161 0.0021983570137371696 0 -0.050913656134564139 0.0059826233892181467 0 -0.050666969025913437 0.0041157180935352021 0 -0.049809568523296432 0.0043723971183882932 0 -0.046538256946689394 0.0073321310631762442 0 -0.046340449111336814 0.0055987915945105186 0 -0.047760875583028876 0.0068069142104878006 0 -0.049219898547071393 0.0044216732027696657 0 -0.044501747646716272 0.0071904263738789258 0 -0.050913656134564139 0.0059826233892181467 0 -0.049149852926910188 0.005033213985743165 0 -0.049809568523296432 0.0043723971183882932 0 -0.049149852926910188 0.005033213985743165 0 -0.049809568523296432 0.0043723971183882932 0 -0.048734847744403099 0.0037399638350951378 0 -0.049149852926910188 0.005033213985743165 0 -0.047732497284385486 0.0044990615585906142 0 -0.048058805739304614 0.0058376973266354272 0 -0.049149852926910188 0.005033213985743165 0 -0.047732497284385486 0.0044990615585906142 0 -0.048734847744403099 0.0037399638350951378 0 -0.048734847744403099 0.0037399638350951378 0 -0.048971185340877063 0.0026030028064717059 0 -0.047370965823563822 0.0029235662539950987 0 -0.047732497284385486 0.0044990615585906142 0 -0.048734847744403099 0.0037399638350951378 0 -0.047370965823563822 0.0029235662539950987 0 -0.050291946735309394 0.0038138158020437803 0 -0.050254094925121701 0.0035201252876365732 0 -0.049666501102110822 0.0033316677820061061 0 -0.050666969025913437 0.0041157180935352021 0 -0.049809568523296432 0.0043723971183882932 0 -0.049666501102110822 0.0033316677820061061 0 -0.049219898547071393 0.0044216732027696657 0 -0.049826497732729111 0.0036755214589608725 0 -0.049809568523296432 0.0043723971183882932 0 -0.048734847744403099 0.0037399638350951378 0 -0.049666501102110822 0.0033316677820061061 0 -0.049666501102110822 0.0033316677820061061 0 -0.049937237596892121 0.0030715578439653927 0 -0.048971185340877063 0.0026030028064717059 0 -0.048734847744403099 0.0037399638350951378 0 -0.049666501102110822 0.0033316677820061061 0 -0.048971185340877063 0.0026030028064717059 0 -0.050254094925121701 0.0035201252876365732 0 -0.049666501102110822 0.0033316677820061061 0 -0.049937237596892121 0.0030715578439653927 0 -0.04981773630943228 0.0015525366201007587 0 -0.047987649904592346 0.00098913576514750496 0 -0.04935253894583605 0.00095087897230263288 0 -0.049964969138032278 0.0024405499943310955 0 -0.048971185340877063 0.0026030028064717059 0 -0.048362373446543094 0.0018010490679916491 0 -0.049937237596892121 0.0030715578439653927 0 -0.049964969138032278 0.0024405499943310955 0 -0.048971185340877063 0.0026030028064717059 0 -0.050083005258322225 0.0019833063747548541 0 -0.048131370687165213 0.0013641535517262559 0 -0.050102353906198875 0.0010158509870268281 0 -0.04981773630943228 0.0015525366201007587 0 -0.04935253894583605 0.00095087897230263288 0 -0.048971185340877063 0.0026030028064717059 0 -0.048187805883674481 0.0014754529524175588 0 -0.047370965823563822 0.0029235662539950987 0 -0.04893685203072954 0.0025199964310462218 0 -0.048131370687165213 0.0013641535517262559 0 -0.047987649904592346 0.00098913576514750496 0 -0.048899031315982777 0.00032639377204273092 0 -0.04935253894583605 0.00095087897230263288 0 -0.047987649904592346 0.00098913576514750496 0 -0.04653036572886779 -0.00086533927077688086 0 -0.04861643084389982 -0.00019160962826419103 0 -0.047987649904592346 0.00098913576514750496 0 -0.048899031315982777 0.00032639377204273092 0 -0.04861643084389982 -0.00019160962826419103 0 -0.04871521177213569 0.00017830381937770275 0 -0.04852328058880833 -2.3059273837801919e-05 0 -0.050102353906198875 0.0010158509870268281 0 -0.048899031315982777 0.00032639377204273092 0 -0.04935253894583605 0.00095087897230263288 0 -0.049773812852242132 0.0012348390402069078 0 -0.04852328058880833 -2.3059273837801919e-05 0 -0.050102353906198875 0.0010158509870268281 0 -0.048899031315982777 0.00032639377204273092 0 -0.048619904208085464 -0.00016632808678307745 0 -0.049490477529962947 0.0017646096416476082 0 -0.047891620178786995 0.00035406412407091583 0 -0.049624354997058105 7.3709535193186679e-05 0 -0.044999970970664105 0.00026723450074390612 0 -0.046605622696114297 0.00087445251069311286 0 -0.0449999725183447 0.0028072179118245658 0 -0.04500000598767287 0.000267082468835456 0 -0.046639162282943167 0.00078896706809168334 0 -0.046641448770276213 -0.00076775898390030043 0 -0.045000384891892391 0.0002672508409498252 0 -0.04663157794584008 0.00083556715631444495 0 -0.048131370687165213 0.0013641535517262559 0 -0.046577464694882234 -0.00085885139549250983 0 -0.048131370687165213 0.0013641535517262559 0 -0.04663157794584008 0.00083556715631444495 0 -0.048267702798305868 0.0013177713460059801 0 -0.046639162282943167 0.00078896706809168334 0 -0.046641448770276213 -0.00076775898390030043 0 -0.048187805883674481 0.0014754529524175588 0 -0.046605622696114297 0.00087445251069311286 0 -0.047370965823563822 0.0029235662539950987 0 -0.046605622696114297 0.00087445251069311286 0 -0.0449999725183447 0.0028072179118245658 0 -0.047370965823563822 0.0029235662539950987 0 -0.0449999725183447 0.0028072179118245658 0 -0.046234087769638686 0.0041231648181590391 0 -0.047370965823563822 0.0029235662539950987 0 -0.0449999725183447 0.0028072179118245658 0 -0.046234087769638686 0.0041231648181590391 0 -0.044999957859461544 0.005347188873889931 0 -0.047732497284385486 0.0044990615585906142 0 -0.046234087769638686 0.0041231648181590391 0 -0.047370965823563822 0.0029235662539950987 0 -0.047732497284385486 0.0044990615585906142 0 -0.046234087769638686 0.0041231648181590391 0 -0.046820200174348542 0.0053337137649367801 0 -0.047732497284385486 0.0044990615585906142 0 -0.046820200174348542 0.0053337137649367801 0 -0.048058805739304614 0.0058376973266354272 0 -0.046234087769638686 0.0041231648181590391 0 -0.046820200174348542 0.0053337137649367801 0 -0.044999957859461544 0.005347188873889931 0 -0.046820200174348542 0.0053337137649367801 0 -0.044999957859461544 0.005347188873889931 0 -0.046764764201527857 0.007038455740029986 0 -0.044999957859461544 0.005347188873889931 0 -0.044999971967808181 0.007887181248845512 0 -0.046764764201527857 0.007038455740029986 0 -0.044999971967808181 0.007887181248845512 0 -0.046764764201527857 0.007038455740029986 0 -0.046947422349671621 0.0089879265360125245 0 -0.046764764201527857 0.007038455740029986 0 -0.048226236187070164 0.0082043323598079768 0 -0.046947422349671621 0.0089879265360125245 0 -0.046820200174348542 0.0053337137649367801 0 -0.046764764201527857 0.007038455740029986 0 -0.048058805739304614 0.0058376973266354272 0 -0.046764764201527857 0.007038455740029986 0 -0.048058805739304614 0.0058376973266354272 0 -0.048530083393567201 0.0069169034149972669 0 -0.048058805739304614 0.0058376973266354272 0 -0.048530083393567201 0.0069169034149972669 0 -0.049342776833321618 0.0062200134586252905 0 -0.049149852926910188 0.005033213985743165 0 -0.048058805739304614 0.0058376973266354272 0 -0.049342776833321618 0.0062200134586252905 0 -0.050913656134564139 0.0059826233892181467 0 -0.049342776833321618 0.0062200134586252905 0 -0.049788009992355067 0.0074957502080442674 0 -0.050913656134564139 0.0059826233892181467 0 -0.049149852926910188 0.005033213985743165 0 -0.049342776833321618 0.0062200134586252905 0 -0.048530083393567201 0.0069169034149972669 0 -0.049342776833321618 0.0062200134586252905 0 -0.049788009992355067 0.0074957502080442674 0 -0.049788009992355067 0.0074957502080442674 0 -0.048226236187070164 0.0082043323598079768 0 -0.049342534702462276 0.0088201212324319368 0 -0.046764764201527857 0.007038455740029986 0 -0.048530083393567201 0.0069169034149972669 0 -0.048226236187070164 0.0082043323598079768 0 -0.048530083393567201 0.0069169034149972669 0 -0.049788009992355067 0.0074957502080442674 0 -0.048226236187070164 0.0082043323598079768 0 -0.048226236187070164 0.0082043323598079768 0 -0.048293035912645471 0.0095014819478255064 0 -0.046947422349671621 0.0089879265360125245 0 -0.048226236187070164 0.0082043323598079768 0 -0.048293035912645471 0.0095014819478255064 0 -0.049342534702462276 0.0088201212324319368 0 -0.048293035912645471 0.0095014819478255064 0 -0.049342534702462276 0.0088201212324319368 0 -0.049727794531209353 0.010095748212850373 0 -0.050601978634063148 0.0090251386002498848 0 -0.049788009992355067 0.0074957502080442674 0 -0.049342534702462276 0.0088201212324319368 0 -0.047983952998414452 0.010971609635205076 0 -0.047420604748556028 0.01225347298865625 0 -0.046864919690383318 0.01237046269248125 0 -0.050601978634063148 0.0090251386002498848 0 -0.049342534702462276 0.0088201212324319368 0 -0.049727794531209353 0.010095748212850373 0 -0.047624090146273716 0.010324574210718179 0 -0.048191522708062998 0.012478142466706777 0 -0.045969772911126798 0.019038629826827254 0 -0.046621458438164308 0.018854422453398141 0 -0.046478681912020064 0.018473170624759179 0 -0.048345865315360337 0.0096289828560625311 0 -0.049805875174801201 0.010266119338897957 0 -0.04964688602905825 0.01029493420485531 0 -0.046469800431757545 0.012969073295640022 0 -0.046520302735397284 0.012838743485287345 0 -0.046196163564584683 0.01431555387787331 0 -0.046129816434583013 0.01446216456504331 0 -0.046659283480623738 0.014350302946323203 0 -0.046520302735397284 0.012838743485287345 0 -0.048191522708062998 0.012478142466706777 0 -0.048191522708062998 0.012478142466706777 0 -0.04799784557658468 0.012644960044335079 0 -0.046621458438164308 0.018854422453398141 0 -0.04652900635374381 0.018465660837295575 0 -0.046478681912020064 0.018473170624759179 0 -0.048077118047147128 0.011993077279485044 0 -0.049631309893264655 0.010297555323875947 0 -0.048417513828098765 0.010535320803404717 0 -0.048411584258568639 0.0095484447314670862 0 -0.048191522708062998 0.012478142466706777 0 -0.048077118047147128 0.011993077279485044 0 -0.048417513828098765 0.010535320803404717 0 -0.047466686762808387 0.011111310737141411 0 -0.04688976353894702 0.015986593555006093 0 -0.04799784557658468 0.012644960044335079 0 -0.048345865315360337 0.0096289828560625311 0 -0.048417513828098765 0.010535320803404717 0 -0.04738107732415784 0.010147420031964579 0 -0.048345865315360337 0.0096289828560625311 0 -0.04964688602905825 0.01029493420485531 0 -0.048417513828098765 0.010535320803404717 0 -0.04799784557658468 0.012644960044335079 0 -0.049208186096324893 0.01062674411399521 0 -0.048417513828098765 0.010535320803404717 0 -0.047466686762808387 0.011111310737141411 0 -0.04738107732415784 0.010147420031964579 0 -0.047466686762808387 0.011111310737141411 0 -0.04738107732415784 0.010147420031964579 0 -0.046547502952586348 0.010864414943219929 0 -0.04738107732415784 0.010147420031964579 0 -0.046547502952586348 0.010864414943219929 0 -0.046042719513411726 0.0097311061262102608 0 -0.045712952029828079 0.012079593944072334 0 -0.046547502952586348 0.010864414943219929 0 -0.04499987246386819 0.010427217510732412 0 -0.046547502952586348 0.010864414943219929 0 -0.04499987246386819 0.010427217510732412 0 -0.046042719513411726 0.0097311061262102608 0 -0.044999971967808181 0.007887181248845512 0 -0.046042719513411726 0.0097311061262102608 0 -0.046947422349671621 0.0089879265360125245 0 -0.044999971967808181 0.007887181248845512 0 -0.04499987246386819 0.010427217510732412 0 -0.046042719513411726 0.0097311061262102608 0 -0.048345865315360337 0.0096289828560625311 0 -0.04738107732415784 0.010147420031964579 0 -0.046947422349671621 0.0089879265360125245 0 -0.048411584258568639 0.0095484447314670862 0 -0.047067692408110491 0.0090438130424583037 0 -0.04738107732415784 0.010147420031964579 0 -0.046042719513411726 0.0097311061262102608 0 -0.046947422349671621 0.0089879265360125245 0 -0.014201578201332438 0.027828884126532068 0 -0.01472917679898508 0.029674606390208035 0 -0.01223573532057347 0.02826164502903647 0 -0.01472917679898508 0.029674606390208035 0 -0.015203141372898013 0.03058370425597394 0 -0.015261908132207127 0.030714032248615374 0 -0.014201578201332438 0.027828884126532068 0 -0.01223573532057347 0.02826164502903647 0 -0.013500948457452979 0.0264441921459183 0 -0.014822655190251971 0.029736598526778072 0 -0.01354425214414943 0.029478096708158791 0 -0.014201578201332438 0.027828884126532068 0 -0.015130650896336337 0.028470592504831457 0 -0.014700240462273593 0.028681229395960489 0 -0.014201578201332438 0.027828884126532068 0 -0.015130650896336337 0.028470592504831457 0 -0.014864738384351549 0.026773053013209366 0 -0.015130650896336337 0.028470592504831457 0 -0.014979075993682891 0.029344466772722774 0 -0.015417779402269446 0.029596853748036781 0 -0.015130650896336337 0.028470592504831457 0 -0.014979075993682891 0.029344466772722774 0 -0.014700240462273593 0.028681229395960489 0 -0.014201578201332438 0.027828884126532068 0 -0.014700240462273593 0.028681229395960489 0 -0.01472917679898508 0.029674606390208035 0 -0.014979075993682891 0.029344466772722774 0 -0.014700240462273593 0.028681229395960489 0 -0.01472917679898508 0.029674606390208035 0 -0.01496880281400379 0.030010530470469202 0 -0.015417779402269446 0.029596853748036781 0 -0.015566941844422534 0.030256517157699888 0 -0.01496880281400379 0.030010530470469202 0 -0.016116284333134726 0.031267890351991914 0 -0.01553682517002242 0.031323566508666745 0 -0.015061599015652113 0.030083970696609775 0 -0.015693458137584028 0.030676447183902916 0 -0.014979075993682891 0.029344466772722774 0 -0.01472917679898508 0.029674606390208035 0 -0.01496880281400379 0.030010530470469202 0 -0.014979075993682891 0.029344466772722774 0 -0.01496880281400379 0.030010530470469202 0 -0.015417779402269446 0.029596853748036781 0 -0.01496880281400379 0.030010530470469202 0 -0.015261177057184765 0.030788618596921131 0 -0.01553682517002242 0.031323566508666745 0 -0.01496880281400379 0.030010530470469202 0 -0.015261177057184765 0.030788618596921131 0 -0.015203141372898013 0.03058370425597394 0 -0.01472917679898508 0.029674606390208035 0 -0.01496880281400379 0.030010530470469202 0 -0.015203141372898013 0.03058370425597394 0 -0.015261177057184765 0.030788618596921131 0 -0.015203141372898013 0.03058370425597394 0 -0.015436757233359324 0.031267047895340079 0 -0.015203141372898013 0.03058370425597394 0 -0.015369845542121525 0.031123567797165352 0 -0.015295632480309051 0.030778389297229702 0 -0.015203141372898013 0.03058370425597394 0 -0.015369845542121525 0.031123567797165352 0 -0.015436757233359324 0.031267047895340079 0 -0.015369845542121525 0.031123567797165352 0 -0.015203672044019552 0.030852456444685875 0 -0.015295632480309051 0.030778389297229702 0 -0.015369845542121525 0.031123567797165352 0 -0.015148062767558023 0.030965546271506852 0 -0.01541662107251777 0.031695222161183673 0 -0.015369845542121525 0.031123567797165352 0 -0.015203672044019552 0.030852456444685875 0 -0.015148062767558023 0.030965546271506852 0 -0.016640598817672388 0.03124392563395903 0 -0.017593055032739169 0.030735281199939884 0 -0.017593055032739169 0.030735281199939884 0 -0.014672046831967251 0.027939309412958815 0 -0.015203672044019552 0.030852456444685875 0 -0.015170908920256101 0.030887458801870837 0 -0.015215778632280696 0.030678816968684686 0 -0.021581473370856533 0.027653585896685588 0 -0.02138701530475464 0.028656794707229944 0 -0.022095139484819649 0.028180847990059221 0 -0.015203672044019552 0.030852456444685875 0 -0.015215778632280696 0.030678816968684686 0 -0.015295632480309051 0.030778389297229702 0 -0.02138701530475464 0.028656794707229944 0 -0.022095139484819649 0.028180847990059221 0 -0.022186094531961083 0.028897544772075331 0 -0.015215778632280696 0.030678816968684686 0 -0.015261908132207127 0.030714032248615374 0 -0.015295632480309051 0.030778389297229702 0 -0.014672046831967251 0.027939309412958815 0 -0.01354425214414943 0.029478096708158791 0 -0.015203141372898013 0.03058370425597394 0 -0.015261908132207127 0.030714032248615374 0 -0.015295632480309051 0.030778389297229702 0 -0.010634802749463665 0.02748530545831733 0 -0.01223573532057347 0.02826164502903647 0 -0.012160874691463461 0.026381120630793571 0 -0.010634802749463665 0.02748530545831733 0 -0.012160874691463461 0.026381120630793571 0 -0.011334341415648678 0.025005960817005256 0 -0.012207807279699306 0.025125029152815018 0 -0.012267846327406625 0.024262258029274768 0 -0.011747667096559024 0.024954233146184474 0 -0.014672046831967251 0.027939309412958815 0 -0.01140182345410868 0.024324460080049525 0 -0.014672046831967251 0.027939309412958815 0 -0.016997505213521388 0.026948906187605356 0 -0.012267846327406625 0.024262258029274768 0 -0.011643268174837785 0.024299006301831402 0 -0.011949787164017548 0.023796183490213348 0 -0.012267846327406625 0.024262258029274768 0 -0.011747667096559024 0.024954233146184474 0 -0.011643268174837785 0.024299006301831402 0 -0.012160874691463461 0.026381120630793571 0 -0.011334341415648678 0.025005960817005256 0 -0.012999450693833172 0.02495245089850847 0 -0.012999450693833172 0.02495245089850847 0 -0.013500948457452979 0.0264441921459183 0 -0.013969236303114824 0.024932343720384449 0 -0.012160874691463461 0.026381120630793571 0 -0.012999450693833172 0.02495245089850847 0 -0.013500948457452979 0.0264441921459183 0 -0.01223573532057347 0.02826164502903647 0 -0.012160874691463461 0.026381120630793571 0 -0.013500948457452979 0.0264441921459183 0 -0.014201578201332438 0.027828884126532068 0 -0.013500948457452979 0.0264441921459183 0 -0.014864738384351549 0.026773053013209366 0 -0.013500948457452979 0.0264441921459183 0 -0.013969236303114824 0.024932343720384449 0 -0.014864738384351549 0.026773053013209366 0 -0.013969236303114824 0.024932343720384449 0 -0.014807132639153254 0.024943121111857067 0 -0.013985012444538819 0.023991653616044342 0 -0.013969236303114824 0.024932343720384449 0 -0.014807132639153254 0.024943121111857067 0 -0.014864738384351549 0.026773053013209366 0 -0.013999209646414702 0.024067108162510256 0 -0.013776266821874819 0.023921040659771835 0 -0.014003415217659656 0.023967770519272881 0 -0.014244917122241836 0.024865244837166428 0 -0.017170220282146986 0.024772739563346486 0 -0.014807132639153254 0.024943121111857067 0 -0.017550703738859925 0.025422455710565905 0 -0.01603536871888777 0.026629991190416129 0 -0.014807132639153254 0.024943121111857067 0 -0.013999209646414702 0.024067108162510256 0 -0.014003415217659656 0.023967770519272881 0 -0.017550703738859925 0.025422455710565905 0 -0.017103696029656442 0.027463508218970169 0 -0.01603536871888777 0.026629991190416129 0 -0.017550703738859925 0.025422455710565905 0 -0.017103696029656442 0.027463508218970169 0 -0.018059251086679662 0.027214702895170209 0 -0.017103696029656442 0.027463508218970169 0 -0.01603536871888777 0.026629991190416129 0 -0.016043006909359083 0.028205595191908808 0 -0.014864738384351549 0.026773053013209366 0 -0.01603536871888777 0.026629991190416129 0 -0.016043006909359083 0.028205595191908808 0 -0.014807132639153254 0.024943121111857067 0 -0.014864738384351549 0.026773053013209366 0 -0.01603536871888777 0.026629991190416129 0 -0.0030248812043590918 0.024292459065712983 0 -0.0037949351641324669 0.023848317996600345 0 -0.0032382239045522041 0.024955270508990476 0 -0.009897373293678154 0.025331283195916272 0 -0.0090285798394131155 0.023548662050884739 0 -0.013768744196480942 0.023936332903128979 0 -0.01372244823535133 0.023795774296698633 0 -0.013776266821874819 0.023921040659771835 0 -0.009897373293678154 0.025331283195916272 0 -0.0027586223366818608 0.024467271034924812 0 -0.012368453752042955 0.026949764009614768 0 -0.009897373293678154 0.025331283195916272 0 -0.013999209646414702 0.024067108162510256 0 -0.013768744196480942 0.023936332903128979 0 -0.013776266821874819 0.023921040659771835 0 -0.017550703738859925 0.025422455710565905 0 -0.019647668292379822 0.025618136912134177 0 -0.01870659264856946 0.026355318140726329 0 -0.017170220282146986 0.024772739563346486 0 -0.009897373293678154 0.025331283195916272 0 -0.018072822370339574 0.027900933313072831 0 -0.018115251080052894 0.028970756483701076 0 -0.017919602824625944 0.028646302534443082 0 -0.019557149197073943 0.025828892585176361 0 -0.01870659264856946 0.026355318140726329 0 -0.018745465228286799 0.02772071056059932 0 -0.012368453752042955 0.026949764009614768 0 -0.018775311072266411 0.02779321624003438 0 -0.017550703738859925 0.025422455710565905 0 -0.018059251086679662 0.027214702895170209 0 -0.01870659264856946 0.026355318140726329 0 -0.018059251086679662 0.027214702895170209 0 -0.01870659264856946 0.026355318140726329 0 -0.018745465228286799 0.02772071056059932 0 -0.012368453752042955 0.026949764009614768 0 -0.010878983689197035 0.029629841210590233 0 -0.0039751746645798171 0.029554076975061159 0 -0.0039066136975735438 0.029474971664118894 0 -0.0039572738974753066 0.029418273398988611 0 -0.019557149197073943 0.025828892585176361 0 -0.019647668292379822 0.025618136912134177 0 -0.01870659264856946 0.026355318140726329 0 -0.0039751746645798171 0.029554076975061159 0 -0.0039066136975735438 0.029474971664118894 0 -0.0039151656695180434 0.029531179124882966 0 -0.0039751746645798171 0.029554076975061159 0 -0.0039684708166634599 0.02957663065996128 0 -0.0039151656695180434 0.029531179124882966 0 -0.003809251050576625 0.029524820674514254 0 -0.0039684708166634599 0.02957663065996128 0 -0.0039151656695180434 0.029531179124882966 0 -0.003809251050576625 0.029524820674514254 0 -0.0039066136975735438 0.029474971664118894 0 -0.0039151656695180434 0.029531179124882966 0 -0.0037883755943215205 0.029415541228856652 0 -0.0039066136975735438 0.029474971664118894 0 -0.0038856250118675067 0.029416702374669753 0 -0.0039066136975735438 0.029474971664118894 0 -0.0038856250118675067 0.029416702374669753 0 -0.0039572738974753066 0.029418273398988611 0 -0.0038856250118675067 0.029416702374669753 0 -0.0039572738974753066 0.029418273398988611 0 -0.0039217330951146863 0.029409105302045189 0 -0.018115251080052894 0.028970756483701076 0 -0.017919602824625944 0.028646302534443082 0 -0.017626368403776051 0.02948293063581062 0 -0.018745465228286799 0.02772071056059932 0 -0.017626368403776051 0.02948293063581062 0 -0.017667942614184896 0.028085501031507414 0 -0.018775311072266411 0.02779321624003438 0 -0.017613118506940233 0.029524607674399277 0 -0.018059251086679662 0.027214702895170209 0 -0.018745465228286799 0.02772071056059932 0 -0.017667942614184896 0.028085501031507414 0 -0.0039572738974753066 0.029418273398988611 0 -0.0039217330951146863 0.029409105302045189 0 -0.0039480558705392169 0.029412157105885357 0 -0.010878983689197035 0.029629841210590233 0 -0.010620117366911326 0.029749773302183306 0 -0.017626368403776051 0.02948293063581062 0 -0.016908523444935271 0.030191804333899334 0 -0.017981871433260889 0.030373798861542029 0 -0.018115251080052894 0.028970756483701076 0 -0.017626368403776051 0.02948293063581062 0 -0.017981871433260889 0.030373798861542029 0 -0.0038856250118675067 0.029416702374669753 0 -0.0039217330951146863 0.029409105302045189 0 -0.0038957626291487831 0.02940109407124258 0 -0.0039217330951146863 0.029409105302045189 0 -0.0038957626291487831 0.02940109407124258 0 -0.0039480558705392169 0.029412157105885357 0 -0.0037883755943215205 0.029415541228856652 0 -0.0038856250118675067 0.029416702374669753 0 -0.0038957626291487831 0.02940109407124258 0 -0.016043006909359083 0.028205595191908808 0 -0.01639506064568029 0.029449115839361193 0 -0.015417779402269446 0.029596853748036781 0 -0.015130650896336337 0.028470592504831457 0 -0.016043006909359083 0.028205595191908808 0 -0.015417779402269446 0.029596853748036781 0 -0.015130650896336337 0.028470592504831457 0 -0.014864738384351549 0.026773053013209366 0 -0.016043006909359083 0.028205595191908808 0 -0.017103696029656442 0.027463508218970169 0 -0.016043006909359083 0.028205595191908808 0 -0.016848201298032925 0.028434321773041619 0 -0.017103696029656442 0.027463508218970169 0 -0.017667942614184896 0.028085501031507414 0 -0.016848201298032925 0.028434321773041619 0 -0.017103696029656442 0.027463508218970169 0 -0.018059251086679662 0.027214702895170209 0 -0.017667942614184896 0.028085501031507414 0 -0.017626368403776051 0.02948293063581062 0 -0.017667942614184896 0.028085501031507414 0 -0.016848201298032925 0.028434321773041619 0 -0.016043006909359083 0.028205595191908808 0 -0.016848201298032925 0.028434321773041619 0 -0.01639506064568029 0.029449115839361193 0 -0.017626368403776051 0.02948293063581062 0 -0.01639506064568029 0.029449115839361193 0 -0.016908523444935271 0.030191804333899334 0 -0.017626368403776051 0.02948293063581062 0 -0.016848201298032925 0.028434321773041619 0 -0.01639506064568029 0.029449115839361193 0 -0.01639506064568029 0.029449115839361193 0 -0.015566941844422534 0.030256517157699888 0 -0.016908523444935271 0.030191804333899334 0 -0.01639506064568029 0.029449115839361193 0 -0.015417779402269446 0.029596853748036781 0 -0.015566941844422534 0.030256517157699888 0 -0.016116284333134726 0.031267890351991914 0 -0.016108322533879813 0.031851776553144133 0 -0.015942681392533326 0.031897743346377475 0 -0.015693458137584028 0.030676447183902916 0 -0.016836626627004674 0.031769272556846979 0 -0.015566941844422534 0.030256517157699888 0 -0.016908523444935271 0.030191804333899334 0 -0.01666097825823756 0.031157384872204687 0 -0.016908523444935271 0.030191804333899334 0 -0.01666097825823756 0.031157384872204687 0 -0.017981871433260889 0.030373798861542029 0 -0.016836626627004674 0.031769272556846979 0 -0.013936614671385314 0.031252051542243774 0 -0.016108322533879813 0.031851776553144133 0 -0.015930052988486432 0.032072247509901626 0 -0.015966173824755313 0.032058916774181878 0 -0.016108322533879813 0.031851776553144133 0 -0.015966173824755313 0.032058916774181878 0 -0.015942681392533326 0.031897743346377475 0 -0.0038957626291487831 0.02940109407124258 0 -0.0039480558705392169 0.029412157105885357 0 -0.0039443830480417209 0.029458900892122195 0 -0.010620117366911326 0.029749773302183306 0 -0.013936614671385314 0.031252051542243774 0 -0.01666097825823756 0.031157384872204687 0 -0.017981871433260889 0.030373798861542029 0 -0.017652602177491258 0.032027064852065225 0 -0.0039480558705392169 0.029412157105885357 0 -0.0039703181559570862 0.029468766946273352 0 -0.0039443830480417209 0.029458900892122195 0 0.0032309483159943617 0.029229101166431199 0 0.0022017736853882962 0.029870368799945687 0 0.010040780845730176 0.02945727568602444 0 0.0099526644708446861 0.029585363717081113 0 0.0099165995848144797 0.029622919372089565 0 0.010040780845730176 0.02945727568602444 0 0.010183229046458075 0.029286488531165469 0 0.0099526644708446861 0.029585363717081113 0 0.0099526644708446861 0.029585363717081113 0 0.0098235331943117878 0.029646326800896697 0 0.0097894898063220232 0.029675565465362801 0 0.0099526644708446861 0.029585363717081113 0 0.0099165995848144797 0.029622919372089565 0 0.0097894898063220232 0.029675565465362801 0 0.0099390927372948953 0.029661687493163311 0 0.0099165995848144797 0.029622919372089565 0 0.0097894898063220232 0.029675565465362801 0 0.0022017736853882962 0.029870368799945687 0 -0.0027343250791270713 0.031169913070030728 0 -0.0027343250791270713 0.031169913070030728 0 -0.0032192792960020768 0.030746262092954668 0 -0.015720858955649338 0.032123334618438165 0 -0.015837283482368181 0.032113929471530897 0 -0.015743654394993738 0.032131283159921677 0 -0.0039703181559570862 0.029468766946273352 0 -0.0039443830480417209 0.029458900892122195 0 -0.0039537143176794623 0.029477809828279009 0 -0.013936614671385314 0.031252051542243774 0 -0.0027343250791270713 0.031169913070030728 0 -0.015801420641978446 0.032178385716695027 0 -0.015720858955649338 0.032123334618438165 0 -0.015837283482368181 0.032113929471530897 0 -0.013936614671385314 0.031252051542243774 0 -0.015005483374449685 0.031995629163486229 0 -0.015837283482368181 0.032113929471530897 0 -0.015743654394993738 0.032131283159921677 0 -0.01580989340378583 0.032136852619602745 0 0.0098235331943117878 0.029646326800896697 0 0.0095760939211266081 0.029685932317686944 0 0.0097894898063220232 0.029675565465362801 0 0.0098621332940396125 0.029622280638055148 0 0.0096416830733749449 0.029561555497262384 0 0.0097894898063220232 0.029675565465362801 0 0.0096416830733749449 0.029561555497262384 0 0.0095760939211266081 0.029685932317686944 0 0.0097894898063220232 0.029675565465362801 0 0.0099390927372948953 0.029661687493163311 0 0.0098621332940396125 0.029622280638055148 0 0.0097894898063220232 0.029675565465362801 0 -0.015910200872658292 0.032167621817326665 0 -0.015966173824755313 0.032058916774181878 0 -0.015942681392533326 0.031897743346377475 0 -0.015910200872658292 0.032167621817326665 0 -0.015966173824755313 0.032058916774181878 0 -0.015813554865074433 0.032181216902395865 0 -0.015837283482368181 0.032113929471530897 0 -0.015966173824755313 0.032058916774181878 0 -0.01580989340378583 0.032136852619602745 0 -0.015930052988486432 0.032072247509901626 0 -0.015837283482368181 0.032113929471530897 0 -0.015966173824755313 0.032058916774181878 0 -0.015966173824755313 0.032058916774181878 0 -0.01580989340378583 0.032136852619602745 0 -0.015813554865074433 0.032181216902395865 0 -0.015743654394993738 0.032131283159921677 0 -0.01580989340378583 0.032136852619602745 0 -0.015711998468271975 0.0321640345931474 0 -0.01580989340378583 0.032136852619602745 0 -0.015711998468271975 0.0321640345931474 0 -0.015813554865074433 0.032181216902395865 0 -0.015910200872658292 0.032167621817326665 0 -0.015813554865074433 0.032181216902395865 0 -0.015868729095606011 0.03223113846782253 0 -0.016132847095363681 0.032252089938894363 0 -0.015868729095606011 0.03223113846782253 0 -0.015958074852660254 0.032244701139373402 0 -0.015910200872658292 0.032167621817326665 0 -0.015868729095606011 0.03223113846782253 0 -0.015958074852660254 0.032244701139373402 0 -0.016132847095363681 0.032252089938894363 0 -0.016051038717828415 0.03227932351567224 0 -0.01633927244823594 0.032344588269878682 0 -0.016132847095363681 0.032252089938894363 0 -0.015958074852660254 0.032244701139373402 0 -0.016051038717828415 0.03227932351567224 0 -0.016051038717828415 0.03227932351567224 0 -0.01590189292923877 0.032142897517499096 0 -0.015907515884484368 0.032144650892271108 0 -0.015958074852660254 0.032244701139373402 0 -0.016051038717828415 0.03227932351567224 0 -0.01590189292923877 0.032142897517499096 0 -0.015910200872658292 0.032167621817326665 0 -0.01590189292923877 0.032142897517499096 0 -0.015942681392533326 0.031897743346377475 0 -0.015910200872658292 0.032167621817326665 0 -0.015958074852660254 0.032244701139373402 0 -0.01590189292923877 0.032142897517499096 0 -0.015942681392533326 0.031897743346377475 0 -0.015705245269796796 0.031820722752000534 0 -0.01553682517002242 0.031323566508666745 0 -0.01590189292923877 0.032142897517499096 0 -0.015942681392533326 0.031897743346377475 0 -0.015705245269796796 0.031820722752000534 0 -0.01590189292923877 0.032142897517499096 0 -0.015705245269796796 0.031820722752000534 0 -0.015907515884484368 0.032144650892271108 0 -0.015705245269796796 0.031820722752000534 0 -0.015436757233359324 0.031267047895340079 0 -0.01553682517002242 0.031323566508666745 0 -0.015705245269796796 0.031820722752000534 0 -0.015436757233359324 0.031267047895340079 0 -0.015741074718430996 0.031948409983736326 0 -0.015261177057184765 0.030788618596921131 0 -0.015436757233359324 0.031267047895340079 0 -0.01553682517002242 0.031323566508666745 0 -0.016116284333134726 0.031267890351991914 0 -0.015942681392533326 0.031897743346377475 0 -0.01553682517002242 0.031323566508666745 0 -0.015369845542121525 0.031123567797165352 0 -0.01541662107251777 0.031695222161183673 0 -0.015741074718430996 0.031948409983736326 0 -0.016179076254041184 0.034165500105443128 0 -0.016285298065750041 0.033438908662832646 0 -0.017012138123512991 0.03343902284203619 0 -0.017593055032739169 0.030735281199939884 0 -0.01577958713165457 0.032913373631130463 0 -0.015369845542121525 0.031123567797165352 0 -0.015436757233359324 0.031267047895340079 0 -0.015741074718430996 0.031948409983736326 0 -0.015741074718430996 0.031948409983736326 0 -0.016202198457381429 0.032378209584102847 0 -0.015907515884484368 0.032144650892271108 0 -0.015705245269796796 0.031820722752000534 0 -0.015741074718430996 0.031948409983736326 0 -0.015907515884484368 0.032144650892271108 0 -0.015741074718430996 0.031948409983736326 0 -0.016292271110239606 0.032551093868532617 0 -0.016202198457381429 0.032378209584102847 0 -0.01577958713165457 0.032913373631130463 0 -0.016204218196389921 0.032315326318246053 0 -0.01541662107251777 0.031695222161183673 0 -0.015741074718430996 0.031948409983736326 0 -0.016292271110239606 0.032551093868532617 0 -0.016202198457381429 0.032378209584102847 0 -0.016923471298074116 0.032398587952800317 0 -0.016820875582882495 0.03250262290866586 0 -0.016292271110239606 0.032551093868532617 0 -0.016202198457381429 0.032378209584102847 0 -0.016820875582882495 0.03250262290866586 0 -0.016051038717828415 0.03227932351567224 0 -0.016202198457381429 0.032378209584102847 0 -0.015907515884484368 0.032144650892271108 0 -0.016051038717828415 0.03227932351567224 0 -0.016202198457381429 0.032378209584102847 0 -0.01633927244823594 0.032344588269878682 0 -0.016747937566584388 0.032312885562804289 0 -0.01633927244823594 0.032344588269878682 0 -0.016923471298074116 0.032398587952800317 0 -0.016202198457381429 0.032378209584102847 0 -0.01633927244823594 0.032344588269878682 0 -0.016923471298074116 0.032398587952800317 0 -0.016923471298074116 0.032398587952800317 0 -0.016820875582882495 0.03250262290866586 0 -0.017750684025553184 0.032512705950071927 0 -0.017586310743828399 0.032392194353291597 0 -0.016923471298074116 0.032398587952800317 0 -0.017750684025553184 0.032512705950071927 0 -0.016820875582882495 0.03250262290866586 0 -0.017750684025553184 0.032512705950071927 0 -0.017159872989947408 0.03275230278047904 0 -0.016292271110239606 0.032551093868532617 0 -0.016820875582882495 0.03250262290866586 0 -0.017159872989947408 0.03275230278047904 0 -0.017750684025553184 0.032512705950071927 0 -0.017159872989947408 0.03275230278047904 0 -0.017811877853543809 0.032852647992799258 0 -0.01842291519312152 0.032426405619469155 0 -0.017750684025553184 0.032512705950071927 0 -0.018510965660099687 0.032602884550702003 0 -0.018728809768859711 0.03229465180550755 0 -0.01842291519312152 0.032426405619469155 0 -0.018510965660099687 0.032602884550702003 0 -0.018980617908853799 0.032199457808485786 0 -0.018728809768859711 0.03229465180550755 0 -0.018510965660099687 0.032602884550702003 0 -0.022005174473709151 0.02953093448651866 0 -0.021640950309666451 0.028506809890586071 0 -0.024567581304374045 0.024946915200552103 0 -0.025019805922650514 0.025940454042074592 0 -0.025805138511214749 0.025065061986643839 0 -0.021640950309666451 0.028506809890586071 0 -0.020651728243940039 0.029388051817665541 0 -0.017750684025553184 0.032512705950071927 0 -0.018510965660099687 0.032602884550702003 0 -0.017811877853543809 0.032852647992799258 0 -0.024567581304374045 0.024946915200552103 0 -0.025019805922650514 0.025940454042074592 0 -0.023611975563545919 0.025785486782530783 0 -0.025019805922650514 0.025940454042074592 0 -0.024382319905614729 0.026722687861016628 0 -0.023611975563545919 0.025785486782530783 0 -0.025019805922650514 0.025940454042074592 0 -0.024382319905614729 0.026722687861016628 0 -0.025344923027781855 0.027097889903559144 0 -0.024382319905614729 0.026722687861016628 0 -0.025344923027781855 0.027097889903559144 0 -0.024814132675868399 0.027706729633105363 0 -0.024382319905614729 0.026722687861016628 0 -0.023502663738847549 0.026902583939827824 0 -0.023611975563545919 0.025785486782530783 0 -0.024382319905614729 0.026722687861016628 0 -0.023502663738847549 0.026902583939827824 0 -0.024041335114164206 0.02764113156396622 0 -0.023502663738847549 0.026902583939827824 0 -0.022606101791631202 0.026694411547970212 0 -0.022604876872713401 0.027463660590656351 0 -0.017593055032739169 0.030735281199939884 0 -0.02003445929565403 0.030027403292498988 0 -0.016292271110239606 0.032551093868532617 0 -0.017012138123512991 0.03343902284203619 0 -0.017159872989947408 0.03275230278047904 0 -0.016285298065750041 0.033438908662832646 0 -0.016292271110239606 0.032551093868532617 0 -0.017012138123512991 0.03343902284203619 0 -0.023502663738847549 0.026902583939827824 0 -0.022606101791631202 0.026694411547970212 0 -0.023611975563545919 0.025785486782530783 0 -0.017012138123512991 0.03343902284203619 0 -0.017159872989947408 0.03275230278047904 0 -0.017811877853543809 0.032852647992799258 0 -0.02003445929565403 0.030027403292498988 0 -0.020651728243940039 0.029388051817665541 0 -0.027731033025339243 0.025322075761776228 0 -0.027183320074628103 0.024970339272474204 0 -0.027226400874865123 0.025767615918323258 0 -0.037928923826467786 0.024841525721013832 0 -0.025717984943036943 0.025655325066253537 0 -0.028244147375813641 0.025464346145505596 0 -0.027731033025339243 0.025322075761776228 0 -0.027226400874865123 0.025767615918323258 0 -0.027702942091610776 0.02440928651734766 0 -0.028239460302033025 0.025523935926291642 0 -0.027731033025339243 0.025322075761776228 0 -0.027702942091610776 0.02440928651734766 0 -0.027731033025339243 0.025322075761776228 0 -0.027183320074628103 0.024970339272474204 0 -0.026892580553181666 0.024280741739099203 0 -0.027702942091610776 0.02440928651734766 0 -0.027183320074628103 0.024970339272474204 0 -0.026892580553181666 0.024280741739099203 0 -0.027183320074628103 0.024970339272474204 0 -0.026645859061818263 0.024812605619727143 0 -0.027183320074628103 0.024970339272474204 0 -0.026645859061818263 0.024812605619727143 0 -0.026628714036852519 0.025387259799467085 0 -0.027183320074628103 0.024970339272474204 0 -0.026628714036852519 0.025387259799467085 0 -0.027226400874865123 0.025767615918323258 0 -0.026628714036852519 0.025387259799467085 0 -0.027226400874865123 0.025767615918323258 0 -0.026245579724742486 0.025806961512468619 0 -0.026628714036852519 0.025387259799467085 0 -0.025805138511214749 0.025065061986643839 0 -0.026245579724742486 0.025806961512468619 0 -0.026645859061818263 0.024812605619727143 0 -0.026628714036852519 0.025387259799467085 0 -0.025805138511214749 0.025065061986643839 0 -0.026121760318587612 0.024456126194299977 0 -0.026645859061818263 0.024812605619727143 0 -0.025805138511214749 0.025065061986643839 0 -0.026121760318587612 0.024456126194299977 0 -0.026892580553181666 0.024280741739099203 0 -0.026645859061818263 0.024812605619727143 0 -0.025443763468152008 0.024166808223498835 0 -0.026121760318587612 0.024456126194299977 0 -0.025805138511214749 0.025065061986643839 0 -0.025443763468152008 0.024166808223498835 0 -0.024567581304374045 0.024946915200552103 0 -0.025805138511214749 0.025065061986643839 0 -0.025019805922650514 0.025940454042074592 0 -0.025805138511214749 0.025065061986643839 0 -0.026245579724742486 0.025806961512468619 0 -0.025019805922650514 0.025940454042074592 0 -0.025659536290948446 0.026372327528893048 0 -0.026245579724742486 0.025806961512468619 0 -0.025019805922650514 0.025940454042074592 0 -0.025659536290948446 0.026372327528893048 0 -0.025344923027781855 0.027097889903559144 0 -0.025659536290948446 0.026372327528893048 0 -0.025344923027781855 0.027097889903559144 0 -0.026299341540416746 0.026713234092725472 0 -0.025344923027781855 0.027097889903559144 0 -0.026299341540416746 0.026713234092725472 0 -0.026407078420050797 0.027514009174333394 0 -0.026299341540416746 0.026713234092725472 0 -0.026983222724252957 0.026897124987998261 0 -0.026407078420050797 0.027514009174333394 0 -0.026299341540416746 0.026713234092725472 0 -0.027153400077884849 0.026204653592302753 0 -0.026983222724252957 0.026897124987998261 0 -0.025659536290948446 0.026372327528893048 0 -0.026299341540416746 0.026713234092725472 0 -0.026245579724742486 0.025806961512468619 0 -0.026299341540416746 0.026713234092725472 0 -0.026245579724742486 0.025806961512468619 0 -0.027153400077884849 0.026204653592302753 0 -0.025717984943036943 0.025655325066253537 0 -0.027135856414213917 0.025639889872173693 0 -0.028015535085068322 0.025091812139337467 0 -0.026245579724742486 0.025806961512468619 0 -0.027153400077884849 0.026204653592302753 0 -0.028015535085068322 0.025091812139337467 0 -0.027892198306945136 0.026055203918008529 0 -0.027153400077884849 0.026204653592302753 0 -0.027892198306945136 0.026055203918008529 0 -0.027882225599652994 0.026503945871728614 0 -0.02871630250989117 0.025863493652724653 0 -0.027892198306945136 0.026055203918008529 0 -0.027153400077884849 0.026204653592302753 0 -0.027735813464623119 0.026539254192036392 0 -0.027892198306945136 0.026055203918008529 0 -0.027735813464623119 0.026539254192036392 0 -0.027882225599652994 0.026503945871728614 0 -0.027153400077884849 0.026204653592302753 0 -0.026983222724252957 0.026897124987998261 0 -0.027735813464623119 0.026539254192036392 0 -0.026983222724252957 0.026897124987998261 0 -0.027299303688252455 0.027346309619086281 0 -0.026407078420050797 0.027514009174333394 0 -0.027965419103603631 0.026640508590569271 0 -0.027735813464623119 0.026539254192036392 0 -0.027985150017133722 0.02682948349535259 0 -0.027748854262543966 0.026456151868179161 0 -0.027634731515602355 0.02739920777020733 0 -0.026983222724252957 0.026897124987998261 0 -0.027735813464623119 0.026539254192036392 0 -0.027299303688252455 0.027346309619086281 0 -0.027965419103603631 0.026640508590569271 0 -0.028112639569079549 0.026758595393964073 0 -0.027985150017133722 0.02682948349535259 0 -0.027965419103603631 0.026640508590569271 0 -0.027735813464623119 0.026539254192036392 0 -0.027882225599652994 0.026503945871728614 0 -0.026360110685957498 0.026345076113026954 0 -0.034073547736978703 0.026288730492732271 0 -0.027965419103603631 0.026640508590569271 0 -0.028112639569079549 0.026758595393964073 0 -0.028421506287660381 0.026520960151935606 0 -0.027965419103603631 0.026640508590569271 0 -0.027882225599652994 0.026503945871728614 0 -0.028421506287660381 0.026520960151935606 0 -0.045580361506176913 0.024018042707900381 0 -0.035283746917941727 0.025599934534311031 0 -0.034073547736978703 0.026288730492732271 0 -0.035283746917941727 0.025599934534311031 0 -0.028112639569079549 0.026758595393964073 0 -0.028421506287660381 0.026520960151935606 0 -0.028261993426075525 0.026832302733092568 0 -0.03988920932878013 0.024431308715348626 0 -0.03793508408094573 0.024228420606042484 0 -0.036818254523556665 0.027311928886436961 0 -0.030256955245954058 0.024604020902153041 0 -0.029427448762634673 0.026769348791271529 0 -0.02871630250989117 0.025863493652724653 0 -0.030256955245954058 0.024604020902153041 0 -0.028015535085068322 0.025091812139337467 0 -0.02871630250989117 0.025863493652724653 0 -0.027882225599652994 0.026503945871728614 0 -0.029427448762634673 0.026769348791271529 0 -0.02871630250989117 0.025863493652724653 0 -0.028015535085068322 0.025091812139337467 0 -0.027892198306945136 0.026055203918008529 0 -0.02871630250989117 0.025863493652724653 0 -0.043261591965764963 0.02059669221556807 0 -0.050888212380648612 0.016570540081135478 0 -0.052889255220477029 0.019575725506409312 0 -0.053509838155012625 0.019387626036951971 0 -0.05374396917908892 0.019999516722029223 0 -0.053900185439173784 0.019689405815212363 0 -0.053509838155012625 0.019387626036951971 0 -0.053267553959825575 0.018321946289331124 0 -0.053900185439173784 0.019689405815212363 0 -0.053509838155012625 0.019387626036951971 0 -0.05374396917908892 0.019999516722029223 0 -0.043261591965764963 0.02059669221556807 0 -0.042411802279715326 0.023048132361169715 0 -0.043261591965764963 0.02059669221556807 0 -0.036464895661101379 0.023469936348303116 0 -0.046462864492526977 0.024409063327994852 0 -0.043762042105509116 0.023572797445088882 0 -0.043085907721846124 0.025456637183928914 0 -0.050747387549986797 0.022133016811384763 0 -0.042411802279715326 0.023048132361169715 0 -0.035283746917941727 0.025599934534311031 0 -0.027528369583979504 0.027634862835404311 0 -0.028112639569079549 0.026758595393964073 0 -0.028261993426075525 0.026832302733092568 0 -0.028129638078926752 0.02686889945454846 0 -0.035283746917941727 0.025599934534311031 0 -0.042411802279715326 0.023048132361169715 0 -0.028261993426075525 0.026832302733092568 0 -0.028155097113018956 0.02703900464108264 0 -0.028129638078926752 0.02686889945454846 0 -0.031804390234052946 0.023500539085071808 0 -0.030556133551873026 0.027082832971596617 0 -0.02855604151349881 0.02692200817651182 0 -0.031804390234052946 0.023500539085071808 0 -0.028155097113018956 0.02703900464108264 0 -0.02855604151349881 0.02692200817651182 0 -0.042411802279715326 0.023048132361169715 0 -0.036464895661101379 0.023469936348303116 0 -0.030556133551873026 0.027082832971596617 0 -0.029005076828031707 0.027564697438988733 0 -0.02855604151349881 0.02692200817651182 0 -0.039176176788046552 0.02278311349825192 0 -0.038602016348355618 0.024393219165777313 0 -0.039948837498268656 0.02396949195347943 0 -0.028087345280651266 0.026919834384936114 0 -0.027985150017133722 0.02682948349535259 0 -0.027889662650971394 0.027182590539688516 0 -0.028443439842042808 0.027201284602177581 0 -0.028155097113018956 0.02703900464108264 0 -0.027889662650971394 0.027182590539688516 0 -0.028155097113018956 0.02703900464108264 0 -0.028087345280651266 0.026919834384936114 0 -0.027889662650971394 0.027182590539688516 0 -0.027299303688252455 0.027346309619086281 0 -0.027088105741439564 0.028071405588063987 0 -0.026407078420050797 0.027514009174333394 0 -0.027634731515602355 0.02739920777020733 0 -0.029619914892551405 0.025789889637156803 0 -0.028443439842042808 0.027201284602177581 0 -0.028155097113018956 0.02703900464108264 0 -0.02855604151349881 0.02692200817651182 0 -0.036464895661101379 0.023469936348303116 0 -0.035805609344397776 0.023494915112828994 0 -0.028155097113018956 0.02703900464108264 0 -0.028087345280651266 0.026919834384936114 0 -0.028129638078926752 0.02686889945454846 0 -0.028112639569079549 0.026758595393964073 0 -0.028129638078926752 0.02686889945454846 0 -0.027985150017133722 0.02682948349535259 0 -0.028087345280651266 0.026919834384936114 0 -0.028129638078926752 0.02686889945454846 0 -0.027985150017133722 0.02682948349535259 0 -0.029619914892551405 0.025789889637156803 0 -0.031795001304196935 0.025514537716460464 0 -0.036333540580256708 0.022276033614473785 0 -0.03664549136555352 0.022334398347391766 0 -0.036526514061789368 0.021704965501595744 0 -0.043261591965764963 0.02059669221556807 0 -0.0416655617088839 0.018536042649372426 0 -0.036464895661101379 0.023469936348303116 0 -0.029619914892551405 0.025789889637156803 0 -0.036333540580256708 0.022276033614473785 0 -0.036405835140678522 0.022404330143579194 0 -0.03664549136555352 0.022334398347391766 0 -0.029619914892551405 0.025789889637156803 0 -0.025264216229828145 0.028536777219710104 0 -0.02684628731268281 0.028008967467637678 0 -0.026174759564311364 0.028243160754063478 0 -0.026656795098976376 0.028954283501456086 0 -0.026174759564311364 0.028243160754063478 0 -0.026407078420050797 0.027514009174333394 0 -0.025561626980663228 0.027915447328019205 0 -0.027088105741439564 0.028071405588063987 0 -0.026174759564311364 0.028243160754063478 0 -0.026407078420050797 0.027514009174333394 0 -0.025344923027781855 0.027097889903559144 0 -0.025561626980663228 0.027915447328019205 0 -0.024814132675868399 0.027706729633105363 0 -0.025344923027781855 0.027097889903559144 0 -0.026407078420050797 0.027514009174333394 0 -0.025561626980663228 0.027915447328019205 0 -0.026174759564311364 0.028243160754063478 0 -0.025578566769677506 0.028479651587517384 0 -0.025778217198085023 0.028919818503108062 0 -0.026174759564311364 0.028243160754063478 0 -0.025561626980663228 0.027915447328019205 0 -0.025578566769677506 0.028479651587517384 0 -0.025578566769677506 0.028479651587517384 0 -0.025247061748048319 0.028852259124438579 0 -0.025115760362080054 0.028438107894126489 0 -0.025561626980663228 0.027915447328019205 0 -0.025578566769677506 0.028479651587517384 0 -0.025115760362080054 0.028438107894126489 0 -0.025578566769677506 0.028479651587517384 0 -0.025247061748048319 0.028852259124438579 0 -0.025778217198085023 0.028919818503108062 0 -0.025778217198085023 0.028919818503108062 0 -0.025272368445174102 0.029131445575967432 0 -0.0255693030056654 0.029341675582340847 0 -0.025247061748048319 0.028852259124438579 0 -0.025778217198085023 0.028919818503108062 0 -0.025272368445174102 0.029131445575967432 0 -0.025272368445174102 0.029131445575967432 0 -0.0255693030056654 0.029341675582340847 0 -0.024946302889079668 0.02930766315368696 0 -0.025601289996185352 0.029833837820949005 0 -0.0255693030056654 0.029341675582340847 0 -0.024946302889079668 0.02930766315368696 0 -0.025169988852097151 0.029356867244100502 0 -0.024873488373053174 0.029197457014265137 0 -0.024754704112324399 0.028999729552858629 0 -0.024192168137131091 0.028485110268817605 0 -0.024717199878164627 0.028208358051379136 0 -0.024754704112324399 0.028999729552858629 0 -0.024192168137131091 0.028485110268817605 0 -0.024946302889079668 0.02930766315368696 0 -0.025601289996185352 0.029833837820949005 0 -0.025837324848085919 0.029618576892428347 0 -0.026044009944145321 0.029863946698549387 0 -0.025601289996185352 0.029833837820949005 0 -0.025837324848085919 0.029618576892428347 0 -0.0255693030056654 0.029341675582340847 0 -0.025837324848085919 0.029618576892428347 0 -0.0255693030056654 0.029341675582340847 0 -0.026123963664830028 0.029421740592909973 0 -0.025778217198085023 0.028919818503108062 0 -0.0255693030056654 0.029341675582340847 0 -0.026123963664830028 0.029421740592909973 0 -0.031795001304196935 0.025514537716460464 0 -0.032733207309972465 0.023708275631222884 0 -0.026123963664830028 0.029421740592909973 0 -0.026656795098976376 0.028954283501456086 0 -0.026476900872481855 0.029907846059525869 0 -0.026123963664830028 0.029421740592909973 0 -0.026476900872481855 0.029907846059525869 0 -0.026044009944145321 0.029863946698549387 0 -0.025837324848085919 0.029618576892428347 0 -0.026123963664830028 0.029421740592909973 0 -0.026044009944145321 0.029863946698549387 0 -0.026174759564311364 0.028243160754063478 0 -0.025778217198085023 0.028919818503108062 0 -0.026656795098976376 0.028954283501456086 0 -0.025778217198085023 0.028919818503108062 0 -0.026123963664830028 0.029421740592909973 0 -0.026656795098976376 0.028954283501456086 0 -0.047303395176648097 0.015074882673976589 0 -0.047235580949942589 0.015179074940890177 0 -0.047300808202537369 0.015016856690606092 0 -0.03664549136555352 0.022334398347391766 0 -0.036758763534712545 0.021659315276869824 0 -0.036526514061789368 0.021704965501595744 0 -0.04346100116767234 0.016293503113762684 0 -0.049092219334530542 0.013978182282903479 0 -0.036758763534712545 0.021659315276869824 0 -0.036697933298000036 0.021127786197202958 0 -0.036833836110449693 0.020977350260076497 0 -0.048615333843491988 0.013666660567487257 0 -0.047651662355468166 0.014001485548098975 0 -0.047612215472035591 0.013148807771452197 0 -0.036758763534712545 0.021659315276869824 0 -0.036526514061789368 0.021704965501595744 0 -0.036697933298000036 0.021127786197202958 0 -0.0416655617088839 0.018536042649372426 0 -0.04346100116767234 0.016293503113762684 0 -0.048615333843491988 0.013666660567487257 0 -0.047651662355468166 0.014001485548098975 0 -0.047300808202537369 0.015016856690606092 0 -0.047651662355468166 0.014001485548098975 0 -0.047096205805559947 0.014184492973161253 0 -0.047612215472035591 0.013148807771452197 0 -0.047651662355468166 0.014001485548098975 0 -0.047096205805559947 0.014184492973161253 0 -0.047300808202537369 0.015016856690606092 0 -0.047329975319023651 0.015394692257198766 0 -0.047303395176648097 0.015074882673976589 0 -0.047300808202537369 0.015016856690606092 0 -0.047096205805559947 0.014184492973161253 0 -0.047300808202537369 0.015016856690606092 0 -0.047100279935703766 0.015049374901456239 0 -0.047329975319023651 0.015394692257198766 0 -0.047300808202537369 0.015016856690606092 0 -0.047100279935703766 0.015049374901456239 0 -0.023426963644421046 0.028534606672492083 0 -0.0232181276657508 0.027904290842975719 0 -0.023814634582216786 0.02818419880868574 0 -0.023426963644421046 0.028534606672492083 0 -0.022749305386336821 0.028540839178119323 0 -0.0232181276657508 0.027904290842975719 0 -0.022749305386336821 0.028540839178119323 0 -0.022095139484819649 0.028180847990059221 0 -0.0232181276657508 0.027904290842975719 0 -0.022749305386336821 0.028540839178119323 0 -0.022095139484819649 0.028180847990059221 0 -0.022186094531961083 0.028897544772075331 0 -0.021581473370856533 0.027653585896685588 0 -0.022095139484819649 0.028180847990059221 0 -0.022604876872713401 0.027463660590656351 0 -0.022095139484819649 0.028180847990059221 0 -0.022604876872713401 0.027463660590656351 0 -0.0232181276657508 0.027904290842975719 0 -0.021581473370856533 0.027653585896685588 0 -0.022606101791631202 0.026694411547970212 0 -0.022604876872713401 0.027463660590656351 0 -0.023502663738847549 0.026902583939827824 0 -0.022604876872713401 0.027463660590656351 0 -0.0232181276657508 0.027904290842975719 0 -0.023502663738847549 0.026902583939827824 0 -0.0232181276657508 0.027904290842975719 0 -0.024041335114164206 0.02764113156396622 0 -0.0232181276657508 0.027904290842975719 0 -0.024041335114164206 0.02764113156396622 0 -0.023814634582216786 0.02818419880868574 0 -0.024041335114164206 0.02764113156396622 0 -0.024814132675868399 0.027706729633105363 0 -0.024447212926870115 0.028393784603608401 0 -0.024382319905614729 0.026722687861016628 0 -0.024041335114164206 0.02764113156396622 0 -0.024814132675868399 0.027706729633105363 0 -0.025561626980663228 0.027915447328019205 0 -0.024814132675868399 0.027706729633105363 0 -0.025115760362080054 0.028438107894126489 0 -0.024814132675868399 0.027706729633105363 0 -0.025115760362080054 0.028438107894126489 0 -0.024447212926870115 0.028393784603608401 0 -0.025115760362080054 0.028438107894126489 0 -0.024447212926870115 0.028393784603608401 0 -0.024801158806638683 0.028821951085741551 0 -0.024041335114164206 0.02764113156396622 0 -0.023814634582216786 0.02818419880868574 0 -0.024447212926870115 0.028393784603608401 0 -0.023814634582216786 0.02818419880868574 0 -0.024447212926870115 0.028393784603608401 0 -0.023916869466475733 0.028588959088869322 0 -0.023426963644421046 0.028534606672492083 0 -0.023814634582216786 0.02818419880868574 0 -0.023916869466475733 0.028588959088869322 0 -0.023916869466475733 0.028588959088869322 0 -0.023705170935619631 0.028913745369967544 0 -0.024174268387295316 0.0289959073495729 0 -0.023426963644421046 0.028534606672492083 0 -0.023916869466475733 0.028588959088869322 0 -0.023705170935619631 0.028913745369967544 0 -0.024174268387295316 0.0289959073495729 0 -0.023875080991387167 0.029349287665819887 0 -0.024652397052780186 0.029574332939241187 0 -0.024447212926870115 0.028393784603608401 0 -0.023916869466475733 0.028588959088869322 0 -0.024174268387295316 0.0289959073495729 0 -0.024755695090328128 0.029637228371878457 0 -0.022720224757779618 0.027867416824461845 0 -0.023705170935619631 0.028913745369967544 0 -0.024174268387295316 0.0289959073495729 0 -0.023875080991387167 0.029349287665819887 0 -0.025247061748048319 0.028852259124438579 0 -0.024801158806638683 0.028821951085741551 0 -0.024911321601960888 0.029127546670668719 0 -0.025247061748048319 0.028852259124438579 0 -0.025115760362080054 0.028438107894126489 0 -0.024801158806638683 0.028821951085741551 0 -0.024447212926870115 0.028393784603608401 0 -0.024174268387295316 0.0289959073495729 0 -0.024801158806638683 0.028821951085741551 0 -0.024174268387295316 0.0289959073495729 0 -0.024801158806638683 0.028821951085741551 0 -0.024911321601960888 0.029127546670668719 0 -0.024174268387295316 0.0289959073495729 0 -0.024911321601960888 0.029127546670668719 0 -0.024852785003400903 0.02939313123651181 0 -0.025247061748048319 0.028852259124438579 0 -0.025272368445174102 0.029131445575967432 0 -0.024911321601960888 0.029127546670668719 0 -0.025272368445174102 0.029131445575967432 0 -0.024911321601960888 0.029127546670668719 0 -0.024946302889079668 0.02930766315368696 0 -0.025327105953202141 0.029115904378107991 0 -0.022720224757779618 0.027867416824461845 0 -0.024911321601960888 0.029127546670668719 0 -0.024946302889079668 0.02930766315368696 0 -0.024852785003400903 0.02939313123651181 0 -0.024754704112324399 0.028999729552858629 0 -0.024946302889079668 0.02930766315368696 0 -0.024852785003400903 0.02939313123651181 0 -0.017963119042619359 0.024758005429406382 0 -0.017922186766682471 0.024241415109101157 0 -0.018190014011206682 0.024678280113817279 0 -0.017922186766682471 0.024241415109101157 0 -0.018190014011206682 0.024678280113817279 0 -0.018316498429554406 0.024213583722509192 0 -0.022720224757779618 0.027867416824461845 0 -0.021112886793750372 0.026373922338610613 0 -0.017963119042619359 0.024758005429406382 0 -0.017922186766682471 0.024241415109101157 0 -0.01734753178857687 0.024042956867456389 0 -0.024754704112324399 0.028999729552858629 0 -0.025487588477828501 0.029266839076867272 0 -0.024717199878164627 0.028208358051379136 0 -0.019550244708605797 0.024199055731828227 0 -0.014533017602474777 0.023777039169720404 0 -0.018612933153980497 0.024977281166113828 0 -0.017963119042619359 0.024758005429406382 0 -0.018190014011206682 0.024678280113817279 0 -0.018190014011206682 0.024678280113817279 0 -0.018316498429554406 0.024213583722509192 0 -0.019006595382190024 0.024149324132448004 0 -0.021368452471535179 0.027208936953051956 0 -0.022720224757779618 0.027867416824461845 0 -0.018612933153980497 0.024977281166113828 0 -0.018190014011206682 0.024678280113817279 0 -0.018861152124180582 0.024287809927825463 0 -0.018612933153980497 0.024977281166113828 0 -0.019223285263300048 0.025195878495433956 0 -0.018861152124180582 0.024287809927825463 0 -0.011312395426907498 0.024785456829442231 0 -0.011643268174837785 0.024299006301831402 0 -0.011039015152428062 0.024095548094223859 0 -0.018854474530992291 0.026308182083572308 0 -0.014533017602474777 0.023777039169720404 0 -0.021368452471535179 0.027208936953051956 0 -0.018854474530992291 0.026308182083572308 0 -0.023705170935619631 0.028913745369967544 0 -0.023875080991387167 0.029349287665819887 0 -0.023011424760870862 0.029116625653079278 0 -0.022586064522336621 0.029719808606908784 0 -0.018854474530992291 0.026308182083572308 0 -0.023426963644421046 0.028534606672492083 0 -0.022749305386336821 0.028540839178119323 0 -0.023011424760870862 0.029116625653079278 0 -0.023426963644421046 0.028534606672492083 0 -0.023705170935619631 0.028913745369967544 0 -0.023011424760870862 0.029116625653079278 0 -0.011312395426907498 0.024785456829442231 0 -0.011747667096559024 0.024954233146184474 0 -0.011643268174837785 0.024299006301831402 0 -0.018854474530992291 0.026308182083572308 0 -0.016997505213521388 0.026948906187605356 0 -0.022749305386336821 0.028540839178119323 0 -0.022940377394939249 0.029117350838813262 0 -0.022186094531961083 0.028897544772075331 0 -0.011643268174837785 0.024299006301831402 0 -0.011543345695748913 0.02372876744582984 0 -0.011949787164017548 0.023796183490213348 0 -0.011643268174837785 0.024299006301831402 0 -0.011543345695748913 0.02372876744582984 0 -0.011039015152428062 0.024095548094223859 0 -0.011870119671585326 0.022921604413554328 0 -0.011803668134658428 0.022005767031350907 0 -0.012315180280544969 0.022105404002508655 0 -0.011870119671585326 0.022921604413554328 0 -0.011274027856741269 0.022261242573205022 0 -0.011803668134658428 0.022005767031350907 0 -0.011274027856741269 0.022261242573205022 0 -0.010998549614142386 0.023483264401151015 0 -0.010536746097754552 0.022424664378645452 0 -0.011274027856741269 0.022261242573205022 0 -0.010536746097754552 0.022424664378645452 0 -0.010689646680389721 0.02170397351343244 0 -0.011870119671585326 0.022921604413554328 0 -0.011274027856741269 0.022261242573205022 0 -0.010998549614142386 0.023483264401151015 0 -0.011076565298089151 0.023511462120023734 0 -0.014533017602474777 0.023777039169720404 0 -0.018316498429554406 0.024213583722509192 0 -0.019006595382190024 0.024149324132448004 0 -0.018151395238612512 0.023785896797071611 0 -0.014533017602474777 0.023777039169720404 0 -0.014606073019629823 0.022897110890720222 0 -0.019006595382190024 0.024149324132448004 0 -0.018151395238612512 0.023785896797071611 0 -0.018575559838388298 0.023028911332126235 0 -0.018151395238612512 0.023785896797071611 0 -0.01734753178857687 0.024042956867456389 0 -0.017396959489649647 0.023422395821119948 0 -0.018151395238612512 0.023785896797071611 0 -0.017857898248884521 0.023136338864378259 0 -0.017396959489649647 0.023422395821119948 0 -0.017922186766682471 0.024241415109101157 0 -0.018151395238612512 0.023785896797071611 0 -0.01734753178857687 0.024042956867456389 0 -0.017922186766682471 0.024241415109101157 0 -0.018316498429554406 0.024213583722509192 0 -0.018151395238612512 0.023785896797071611 0 -0.017857898248884521 0.023136338864378259 0 -0.017412549327560152 0.02263262205637942 0 -0.017396959489649647 0.023422395821119948 0 -0.017857898248884521 0.023136338864378259 0 -0.017412549327560152 0.02263262205637942 0 -0.018054544737378313 0.0226098655510194 0 -0.018151395238612512 0.023785896797071611 0 -0.017857898248884521 0.023136338864378259 0 -0.018575559838388298 0.023028911332126235 0 -0.017857898248884521 0.023136338864378259 0 -0.018575559838388298 0.023028911332126235 0 -0.018054544737378313 0.0226098655510194 0 -0.010536746097754552 0.022424664378645452 0 -0.010689646680389721 0.02170397351343244 0 -0.0099002143057035988 0.021108341300147767 0 -0.018575559838388298 0.023028911332126235 0 -0.018054544737378313 0.0226098655510194 0 -0.018117216586538566 0.021906260694379471 0 -0.014606073019629823 0.022897110890720222 0 -0.014248921537965498 0.02066843443310732 0 -0.010689646680389721 0.02170397351343244 0 -0.010558563025237428 0.021231569832718157 0 -0.0099002143057035988 0.021108341300147767 0 -0.010689646680389721 0.02170397351343244 0 -0.010558563025237428 0.021231569832718157 0 -0.011027724297894306 0.021438907828188556 0 -0.014521490511581588 0.015470584600266835 0 -0.013754182174018142 0.017295092231488982 0 -0.012047272943896991 0.017908377874904065 0 -0.015767409237842433 0.018946236804251306 0 -0.014248921537965498 0.02066843443310732 0 -0.017412549327560152 0.02263262205637942 0 -0.018054544737378313 0.0226098655510194 0 -0.018117216586538566 0.021906260694379471 0 -0.013754182174018142 0.017295092231488982 0 -0.012609452447286252 0.019593795639905934 0 -0.015667817382872585 0.016465042492336018 0 -0.013678580810584361 0.018162862371824115 0 -0.015524364632008255 0.016620730005844221 0 -0.013754182174018142 0.017295092231488982 0 -0.012609452447286252 0.019593795639905934 0 -0.012047272943896991 0.017908377874904065 0 -0.01474471460322046 0.016877792777087491 0 -0.015449667322355696 0.016830250008916043 0 -0.015371282390354237 0.017138861682346899 0 -0.010558563025237428 0.021231569832718157 0 -0.010939302541064431 0.020013497740083024 0 -0.010977848390862738 0.02088053580712659 0 -0.012609452447286252 0.019593795639905934 0 -0.012047272943896991 0.017908377874904065 0 -0.010939302541064431 0.020013497740083024 0 -0.010558563025237428 0.021231569832718157 0 -0.0099002143057035988 0.021108341300147767 0 -0.010939302541064431 0.020013497740083024 0 -0.014248921537965498 0.02066843443310732 0 -0.010419033716629521 0.020110096359604229 0 -0.010939302541064431 0.020013497740083024 0 -0.010977848390862738 0.02088053580712659 0 -0.011323634856102788 0.0207730314448724 0 -0.010939302541064431 0.020013497740083024 0 -0.011323634856102788 0.0207730314448724 0 -0.011206828232354433 0.020277967307238839 0 -0.010977848390862738 0.02088053580712659 0 -0.011323634856102788 0.0207730314448724 0 -0.011027724297894306 0.021438907828188556 0 -0.011323634856102788 0.0207730314448724 0 -0.011685714576115298 0.020455980273209218 0 -0.011206828232354433 0.020277967307238839 0 -0.011323634856102788 0.0207730314448724 0 -0.011986588753722658 0.021352898088286332 0 -0.011496806674137064 0.021527840305155907 0 -0.011323634856102788 0.0207730314448724 0 -0.011986588753722658 0.021352898088286332 0 -0.011685714576115298 0.020455980273209218 0 -0.011986588753722658 0.021352898088286332 0 -0.011685714576115298 0.020455980273209218 0 -0.012243477728744014 0.020747029626112058 0 -0.011986588753722658 0.021352898088286332 0 -0.011803668134658428 0.022005767031350907 0 -0.011496806674137064 0.021527840305155907 0 -0.011986588753722658 0.021352898088286332 0 -0.011803668134658428 0.022005767031350907 0 -0.012315180280544969 0.022105404002508655 0 -0.011274027856741269 0.022261242573205022 0 -0.011803668134658428 0.022005767031350907 0 -0.011496806674137064 0.021527840305155907 0 -0.011274027856741269 0.022261242573205022 0 -0.011027724297894306 0.021438907828188556 0 -0.011496806674137064 0.021527840305155907 0 -0.011274027856741269 0.022261242573205022 0 -0.010689646680389721 0.02170397351343244 0 -0.011027724297894306 0.021438907828188556 0 -0.010558563025237428 0.021231569832718157 0 -0.010977848390862738 0.02088053580712659 0 -0.011027724297894306 0.021438907828188556 0 -0.011323634856102788 0.0207730314448724 0 -0.011027724297894306 0.021438907828188556 0 -0.011496806674137064 0.021527840305155907 0 -0.047410686989231073 0.011856265320458855 0 -0.048142842454625433 0.012517657947619103 0 -0.048148932561085295 0.011546011739955758 0 -0.047410686989231073 0.011856265320458855 0 -0.047612215472035591 0.013148807771452197 0 -0.048142842454625433 0.012517657947619103 0 -0.046780865550864068 0.012979237066476999 0 -0.047096205805559947 0.014184492973161253 0 -0.047612215472035591 0.013148807771452197 0 -0.046780865550864068 0.012979237066476999 0 -0.047410686989231073 0.011856265320458855 0 -0.047612215472035591 0.013148807771452197 0 -0.048615333843491988 0.013666660567487257 0 -0.047612215472035591 0.013148807771452197 0 -0.048142842454625433 0.012517657947619103 0 -0.048615333843491988 0.013666660567487257 0 -0.048142842454625433 0.012517657947619103 0 -0.048941390530928726 0.01242518538516243 0 -0.04346100116767234 0.016293503113762684 0 -0.032733207309972465 0.023708275631222884 0 -0.028439434330049845 0.0088179428971828216 0 -0.028457541435802387 0.0093716900769029651 0 -0.029049821815108009 0.0093076487551516113 0 -0.048142842454625433 0.012517657947619103 0 -0.048941390530928726 0.01242518538516243 0 -0.048148932561085295 0.011546011739955758 0 -0.033795831255245504 0.015543941147136336 0 -0.038980004905083555 0.010188811432546184 0 -0.028289588599600117 0.0091687360377638739 0 -0.028439434330049845 0.0088179428971828216 0 -0.028457541435802387 0.0093716900769029651 0 -0.025157712927009707 0.01267218378871934 0 -0.033795831255245504 0.015543941147136336 0 -0.016812327170372482 0.015404363620837077 0 -0.016097443136463309 0.014368016270852558 0 -0.015819639487822522 0.015414175157827776 0 -0.025157712927009707 0.01267218378871934 0 -0.020622596764892955 0.021124947491653719 0 -0.025623314673206055 0.016415362085682637 0 -0.026005548583283303 0.018032820887201519 0 -0.027192067012641735 0.018285908747919973 0 -0.026005548583283303 0.018032820887201519 0 -0.026170732536063567 0.019306508464625199 0 -0.027192067012641735 0.018285908747919973 0 -0.026005548583283303 0.018032820887201519 0 -0.025036116322215578 0.018122211519520148 0 -0.026170732536063567 0.019306508464625199 0 -0.025623314673206055 0.016415362085682637 0 -0.026005548583283303 0.018032820887201519 0 -0.025036116322215578 0.018122211519520148 0 -0.033795831255245504 0.015543941147136336 0 -0.032733207309972465 0.023708275631222884 0 -0.04346100116767234 0.016293503113762684 0 -0.033795831255245504 0.015543941147136336 0 -0.031528780512526264 0.019474419562416984 0 -0.031142972235654948 0.022879556655854259 0 -0.03301866268160078 0.021015068682548408 0 -0.036912409373913234 0.018204161709743722 0 -0.036794298536935735 0.018080773710601704 0 -0.036883013350184776 0.018174028822199019 0 -0.033795831255245504 0.015543941147136336 0 -0.026752142085697376 0.023772576043903478 0 -0.032733207309972465 0.023708275631222884 0 -0.026752142085697376 0.023772576043903478 0 -0.026476900872481855 0.029907846059525869 0 -0.026044009944145321 0.029863946698549387 0 -0.026116670609857267 0.030239756420799735 0 -0.025601289996185352 0.029833837820949005 0 -0.026044009944145321 0.029863946698549387 0 -0.026116670609857267 0.030239756420799735 0 -0.026752142085697376 0.023772576043903478 0 -0.020622596764892955 0.021124947491653719 0 -0.023100883389460265 0.027385432094898868 0 -0.02393288330713917 0.02772628643227238 0 -0.02367950695603643 0.026822610026408358 0 -0.02393288330713917 0.02772628643227238 0 -0.024717199878164627 0.028208358051379136 0 -0.02367950695603643 0.026822610026408358 0 -0.024192168137131091 0.028485110268817605 0 -0.023100883389460265 0.027385432094898868 0 -0.02393288330713917 0.02772628643227238 0 -0.025169988852097151 0.029356867244100502 0 -0.026752142085697376 0.023772576043903478 0 -0.024192168137131091 0.028485110268817605 0 -0.02393288330713917 0.02772628643227238 0 -0.024717199878164627 0.028208358051379136 0 -0.021112886793750372 0.026373922338610613 0 -0.020622596764892955 0.021124947491653719 0 -0.01734753178857687 0.024042956867456389 0 -0.017396959489649647 0.023422395821119948 0 -0.016759124316903979 0.023316266266254205 0 -0.017412549327560152 0.02263262205637942 0 -0.017396959489649647 0.023422395821119948 0 -0.016759124316903979 0.023316266266254205 0 -0.014521490511581588 0.015470584600266835 0 -0.016097443136463309 0.014368016270852558 0 -0.015819639487822522 0.015414175157827776 0 -0.015767409237842433 0.018946236804251306 0 -0.020622596764892955 0.021124947491653719 0 -0.014521490511581588 0.015470584600266835 0 -0.015819639487822522 0.015414175157827776 0 -0.015667817382872585 0.016465042492336018 0 -0.016812327170372482 0.015404363620837077 0 -0.015819639487822522 0.015414175157827776 0 -0.015667817382872585 0.016465042492336018 0 -0.014521490511581588 0.015470584600266835 0 -0.013754182174018142 0.017295092231488982 0 -0.015667817382872585 0.016465042492336018 0 -0.01474471460322046 0.016877792777087491 0 -0.015667817382872585 0.016465042492336018 0 -0.015449667322355696 0.016830250008916043 0 -0.015449667322355696 0.016830250008916043 0 -0.01600605896526212 0.016842400272048769 0 -0.015371282390354237 0.017138861682346899 0 -0.015667817382872585 0.016465042492336018 0 -0.015449667322355696 0.016830250008916043 0 -0.01600605896526212 0.016842400272048769 0 -0.028209661779443531 0.0098843270784347344 0 -0.028897572554194683 0.010231176915148623 0 -0.028241383392727675 0.010720222822276195 0 -0.027658625906667102 0.010205080583642537 0 -0.028209661779443531 0.0098843270784347344 0 -0.028241383392727675 0.010720222822276195 0 -0.025157712927009707 0.01267218378871934 0 -0.021544371413913584 0.013512689536933397 0 -0.02817812757615628 0.0090710671054374144 0 -0.027658625906667102 0.010205080583642537 0 -0.028209661779443531 0.0098843270784347344 0 -0.016812327170372482 0.015404363620837077 0 -0.015667817382872585 0.016465042492336018 0 -0.01600605896526212 0.016842400272048769 0 -0.02817812757615628 0.0090710671054374144 0 -0.028209661779443531 0.0098843270784347344 0 -0.028457541435802387 0.0093716900769029651 0 -0.028209661779443531 0.0098843270784347344 0 -0.028457541435802387 0.0093716900769029651 0 -0.028878780242789823 0.0097375314239885966 0 -0.025157712927009707 0.01267218378871934 0 -0.026504396380108094 0.010930959870434995 0 -0.029049821815108009 0.0093076487551516113 0 -0.028878780242789823 0.0097375314239885966 0 -0.02980115420953473 0.0099184955540039532 0 -0.028457541435802387 0.0093716900769029651 0 -0.029049821815108009 0.0093076487551516113 0 -0.028878780242789823 0.0097375314239885966 0 -0.028209661779443531 0.0098843270784347344 0 -0.028878780242789823 0.0097375314239885966 0 -0.028897572554194683 0.010231176915148623 0 -0.028878780242789823 0.0097375314239885966 0 -0.028897572554194683 0.010231176915148623 0 -0.02980115420953473 0.0099184955540039532 0 -0.028897572554194683 0.010231176915148623 0 -0.02980115420953473 0.0099184955540039532 0 -0.029311004746793271 0.010866537156189559 0 -0.030554220759299661 0.010569443011898504 0 -0.02980115420953473 0.0099184955540039532 0 -0.029311004746793271 0.010866537156189559 0 -0.047410686989231073 0.011856265320458855 0 -0.048148932561085295 0.011546011739955758 0 -0.047515099778229389 0.010780910216487171 0 -0.047174065063658809 0.011060211976119684 0 -0.047410686989231073 0.011856265320458855 0 -0.047515099778229389 0.010780910216487171 0 -0.038980004905083555 0.010188811432546184 0 -0.038110922740913294 0.010139037378440718 0 -0.030048170113786965 0.011688934238452735 0 -0.029311004746793271 0.010866537156189559 0 -0.028288000386980698 0.011958112362788074 0 -0.030554220759299661 0.010569443011898504 0 -0.030048170113786965 0.011688934238452735 0 -0.029311004746793271 0.010866537156189559 0 -0.029311004746793271 0.010866537156189559 0 -0.028241383392727675 0.010720222822276195 0 -0.028288000386980698 0.011958112362788074 0 -0.028897572554194683 0.010231176915148623 0 -0.029311004746793271 0.010866537156189559 0 -0.028241383392727675 0.010720222822276195 0 -0.028241383392727675 0.010720222822276195 0 -0.027093424964520257 0.01122079317178548 0 -0.028288000386980698 0.011958112362788074 0 -0.027658625906667102 0.010205080583642537 0 -0.028241383392727675 0.010720222822276195 0 -0.027093424964520257 0.01122079317178548 0 -0.01600605896526212 0.016842400272048769 0 -0.015665936206219973 0.017632570327402675 0 -0.015371282390354237 0.017138861682346899 0 -0.021544371413913584 0.013512689536933397 0 -0.021410758013697316 0.014439444574820735 0 -0.027093424964520257 0.01122079317178548 0 -0.028288000386980698 0.011958112362788074 0 -0.026414956683655476 0.012222342235098698 0 -0.021410758013697316 0.014439444574820735 0 -0.020737403887038937 0.015622395361848332 0 -0.027151398874265868 0.012867443039764791 0 -0.026414956683655476 0.012222342235098698 0 -0.026123071443640528 0.013172764815001329 0 -0.027151398874265868 0.012867443039764791 0 -0.028288000386980698 0.011958112362788074 0 -0.026414956683655476 0.012222342235098698 0 -0.026426279007232059 0.013895629461252421 0 -0.027151398874265868 0.012867443039764791 0 -0.02809748196770737 0.013405857087846515 0 -0.02641004532144672 0.006342732471363491 0 -0.026840307349716715 0.0062581628474746775 0 -0.026426279007232059 0.013895629461252421 0 -0.027151398874265868 0.012867443039764791 0 -0.026123071443640528 0.013172764815001329 0 -0.027151398874265868 0.012867443039764791 0 -0.02809748196770737 0.013405857087846515 0 -0.028288000386980698 0.011958112362788074 0 -0.030048170113786965 0.011688934238452735 0 -0.028288000386980698 0.011958112362788074 0 -0.029539262095935347 0.012994489213362668 0 -0.02809748196770737 0.013405857087846515 0 -0.028288000386980698 0.011958112362788074 0 -0.029539262095935347 0.012994489213362668 0 -0.028917783858708416 -0.0011176333255547887 0 -0.032432718335950378 -0.0016278077241084839 0 -0.029733034550462827 0.00040903000702432644 0 -0.026840307349716715 0.0062581628474746775 0 -0.038582750780011804 0.0064142850462873416 0 -0.048833366098010346 0.0072597314516293903 0 -0.05036029414550245 0.0067841297279464434 0 -0.049409330150865197 0.0058579440697908896 0 -0.049428309613640448 0.0074449856961206892 0 -0.038582750780011804 0.0064142850462873416 0 -0.047207557366467319 0.0084316538751424367 0 -0.047292851592209709 0.0091731067877245092 0 -0.047422906258844669 0.0085100276807400389 0 -0.037858246616528791 0.011543024672891122 0 -0.038582750780011804 0.0064142850462873416 0 -0.013162125108814609 0.018761626553968031 0 -0.011981975795013271 0.01901461541808137 0 -0.013424119828954924 0.017644619609629247 0 -0.011981975795013271 0.01901461541808137 0 -0.011654204349856877 0.019914041957700995 0 -0.010847789155483203 0.020267294429158988 0 -0.011991010121673903 0.019007751468797945 0 -0.012201666418989907 0.018954477073954326 0 -0.011981975795013271 0.01901461541808137 0 -0.01175526234822737 0.019230210011340055 0 -0.012037779156272393 0.019369013555696785 0 -0.011981975795013271 0.01901461541808137 0 -0.011654204349856877 0.019914041957700995 0 -0.012037779156272393 0.019369013555696785 0 -0.011654204349856877 0.019914041957700995 0 -0.012000033643455 0.020108658813709979 0 -0.012037779156272393 0.019369013555696785 0 -0.012000033643455 0.020108658813709979 0 -0.011685714576115298 0.020455980273209218 0 -0.012243477728744014 0.020747029626112058 0 -0.011654204349856877 0.019914041957700995 0 -0.012000033643455 0.020108658813709979 0 -0.011685714576115298 0.020455980273209218 0 -0.011654204349856877 0.019914041957700995 0 -0.011685714576115298 0.020455980273209218 0 -0.011206828232354433 0.020277967307238839 0 -0.011654204349856877 0.019914041957700995 0 -0.011206828232354433 0.020277967307238839 0 -0.010847789155483203 0.020267294429158988 0 -0.010939302541064431 0.020013497740083024 0 -0.011206828232354433 0.020277967307238839 0 -0.010847789155483203 0.020267294429158988 0 -0.013678580810584361 0.018162862371824115 0 -0.012201666418989907 0.018954477073954326 0 -0.012609452447286252 0.019593795639905934 0 -0.010939302541064431 0.020013497740083024 0 -0.010847789155483203 0.020267294429158988 0 -0.01474471460322046 0.016877792777087491 0 -0.013424119828954924 0.017644619609629247 0 -0.014771531012845234 0.017724429577814574 0 -0.01474471460322046 0.016877792777087491 0 -0.015371282390354237 0.017138861682346899 0 -0.014771531012845234 0.017724429577814574 0 -0.015665936206219973 0.017632570327402675 0 -0.015371282390354237 0.017138861682346899 0 -0.014771531012845234 0.017724429577814574 0 -0.014771531012845234 0.017724429577814574 0 -0.01403465448642437 0.018466058131471372 0 -0.015195216093862809 0.019012798523726435 0 -0.015665936206219973 0.017632570327402675 0 -0.014771531012845234 0.017724429577814574 0 -0.015195216093862809 0.019012798523726435 0 -0.013162125108814609 0.018761626553968031 0 -0.013424119828954924 0.017644619609629247 0 -0.01403465448642437 0.018466058131471372 0 -0.013424119828954924 0.017644619609629247 0 -0.014771531012845234 0.017724429577814574 0 -0.01403465448642437 0.018466058131471372 0 -0.01403465448642437 0.018466058131471372 0 -0.013784772620731812 0.019345517580267875 0 -0.015195216093862809 0.019012798523726435 0 -0.013162125108814609 0.018761626553968031 0 -0.01403465448642437 0.018466058131471372 0 -0.013784772620731812 0.019345517580267875 0 -0.013784772620731812 0.019345517580267875 0 -0.015195216093862809 0.019012798523726435 0 -0.014696692313806801 0.020307606216454895 0 -0.020737403887038937 0.015622395361848332 0 -0.020226897972795366 0.017111242637145769 0 -0.026414956683655476 0.012222342235098698 0 -0.026123071443640528 0.013172764815001329 0 -0.025166920235238442 0.013557147029760269 0 -0.020226897972795366 0.017111242637145769 0 -0.022385247118363719 0.016381585751516586 0 -0.026123071443640528 0.013172764815001329 0 -0.025166920235238442 0.013557147029760269 0 -0.025430630611853949 0.013500339303246517 0 -0.026426279007232059 0.013895629461252421 0 -0.026123071443640528 0.013172764815001329 0 -0.025430630611853949 0.013500339303246517 0 -0.026426279007232059 0.013895629461252421 0 -0.024814053605037918 0.013460519073179125 0 -0.025430630611853949 0.013500339303246517 0 -0.013784772620731812 0.019345517580267875 0 -0.014696692313806801 0.020307606216454895 0 -0.013249951482766701 0.020458633002145215 0 -0.013784772620731812 0.019345517580267875 0 -0.012851540213463537 0.01941682453217158 0 -0.013249951482766701 0.020458633002145215 0 -0.012851540213463537 0.01941682453217158 0 -0.012177226155791657 0.019563346897537456 0 -0.013249951482766701 0.020458633002145215 0 -0.013162125108814609 0.018761626553968031 0 -0.011981975795013271 0.01901461541808137 0 -0.012851540213463537 0.01941682453217158 0 -0.013162125108814609 0.018761626553968031 0 -0.013784772620731812 0.019345517580267875 0 -0.012851540213463537 0.01941682453217158 0 -0.011981975795013271 0.01901461541808137 0 -0.012177226155791657 0.019563346897537456 0 -0.01175526234822737 0.019230210011340055 0 -0.011981975795013271 0.01901461541808137 0 -0.012851540213463537 0.01941682453217158 0 -0.012177226155791657 0.019563346897537456 0 -0.012177226155791657 0.019563346897537456 0 -0.0120844981885547 0.020425776244086497 0 -0.013249951482766701 0.020458633002145215 0 -0.012177226155791657 0.019563346897537456 0 -0.011528335731581872 0.019476329962522014 0 -0.0120844981885547 0.020425776244086497 0 -0.011024440452363688 0.020361018793696374 0 -0.012361436298802986 0.017832920358156385 0 -0.011528335731581872 0.019476329962522014 0 -0.011269307586853945 0.019301959439431259 0 -0.011177654214212629 0.019258616705472263 0 -0.011269307586853945 0.019301959439431259 0 -0.011115416485629371 0.019186074276855765 0 -0.011191232790082255 0.019238908862510486 0 -0.011528335731581872 0.019476329962522014 0 -0.011269307586853945 0.019301959439431259 0 -0.011352367268179757 0.019244916404224436 0 -0.011352367268179757 0.019244916404224436 0 -0.011099102900334465 0.019162298637922709 0 -0.011446356496459555 0.019100306388762794 0 -0.011352367268179757 0.019244916404224436 0 -0.01175526234822737 0.019230210011340055 0 -0.011446356496459555 0.019100306388762794 0 -0.011269307586853945 0.019301959439431259 0 -0.011352367268179757 0.019244916404224436 0 -0.011191232790082255 0.019238908862510486 0 -0.012177226155791657 0.019563346897537456 0 -0.011528335731581872 0.019476329962522014 0 -0.01175526234822737 0.019230210011340055 0 -0.011528335731581872 0.019476329962522014 0 -0.011352367268179757 0.019244916404224436 0 -0.01175526234822737 0.019230210011340055 0 -0.01092957574576364 0.018845243677055354 0 -0.010879614764620791 0.018734218918488445 0 -0.010808188052776791 0.018816854788270835 0 -0.01092957574576364 0.018845243677055354 0 -0.010808188052776791 0.018816854788270835 0 -0.010893709298884252 0.018968457894782052 0 -0.01092957574576364 0.018845243677055354 0 -0.010996690305978692 0.019033523888416125 0 -0.010893709298884252 0.018968457894782052 0 -0.011112152499547034 0.019168819873883799 0 -0.011174518491663343 0.019228708879518844 0 -0.010996690305978692 0.019033523888416125 0 -0.011370925351338919 0.019701102520829211 0 -0.011039780497816041 0.018804386954263314 0 -0.01092957574576364 0.018845243677055354 0 -0.011049809302094111 0.018728490643909416 0 -0.010996690305978692 0.019033523888416125 0 -0.011115416485629371 0.019186074276855765 0 -0.011112152499547034 0.019168819873883799 0 -0.010996690305978692 0.019033523888416125 0 -0.011115416485629371 0.019186074276855765 0 -0.011112152499547034 0.019168819873883799 0 -0.011191232790082255 0.019238908862510486 0 -0.011112152499547034 0.019168819873883799 0 -0.011191232790082255 0.019238908862510486 0 -0.011174518491663343 0.019228708879518844 0 -0.011352367268179757 0.019244916404224436 0 -0.011191232790082255 0.019238908862510486 0 -0.011099102900334465 0.019162298637922709 0 -0.012952469541571244 0.021332971784172892 0 -0.01238362173216959 0.018885870631216172 0 -0.011126253478035371 0.019408373626038596 0 -0.011370925351338919 0.019701102520829211 0 -0.011191232790082255 0.019238908862510486 0 -0.011099102900334465 0.019162298637922709 0 -0.0110909091835888 0.019234318969051825 0 -0.012952469541571244 0.021332971784172892 0 -0.011370925351338919 0.019701102520829211 0 -0.011370925351338919 0.019701102520829211 0 -0.013589152698329792 0.023870667240326646 0 -0.012952469541571244 0.021332971784172892 0 -0.013589152698329792 0.023870667240326646 0 -0.01092957574576364 0.018845243677055354 0 -0.011049809302094111 0.018728490643909416 0 -0.010879614764620791 0.018734218918488445 0 -0.012714506900493125 0.022080857456950695 0 -0.012735955626760722 0.021913123341257074 0 -0.01304820076091604 0.021964465874945327 0 -0.014412583678081969 0.025009480141322385 0 -0.013838846891822897 0.025329708673036633 0 -0.013970749936052596 0.024718296340942449 0 -0.013838846891822897 0.025329708673036633 0 -0.013970749936052596 0.024718296340942449 0 -0.013444195972465453 0.024851234283835483 0 -0.013750042990168663 0.024256768113137622 0 -0.013970749936052596 0.024718296340942449 0 -0.014301172569770433 0.023669685975261385 0 -0.013750042990168663 0.024256768113137622 0 -0.013970749936052596 0.024718296340942449 0 -0.013444195972465453 0.024851234283835483 0 -0.014412583678081969 0.025009480141322385 0 -0.013970749936052596 0.024718296340942449 0 -0.014301172569770433 0.023669685975261385 0 -0.012952469541571244 0.021332971784172892 0 -0.014386841533695842 0.022067677043173538 0 -0.014373264927435144 0.018592755800824694 0 -0.014185929389408275 0.020217510441318597 0 -0.013190570145943591 0.019026393246582139 0 -0.013750042990168663 0.024256768113137622 0 -0.014301172569770433 0.023669685975261385 0 -0.013653252153131696 0.023664248357627454 0 -0.014301172569770433 0.023669685975261385 0 -0.013653252153131696 0.023664248357627454 0 -0.013579302697584282 0.023144301155332864 0 -0.013750042990168663 0.024256768113137622 0 -0.013653252153131696 0.023664248357627454 0 -0.013377176044206076 0.02422136045596052 0 -0.011966197628724508 0.019371158352005712 0 -0.01238362173216959 0.018885870631216172 0 -0.012037779156272393 0.019369013555696785 0 -0.013190570145943591 0.019026393246582139 0 -0.012804868393364826 0.020201414755325248 0 -0.01175526234822737 0.019230210011340055 0 -0.012037779156272393 0.019369013555696785 0 -0.011446356496459555 0.019100306388762794 0 -0.014185929389408275 0.020217510441318597 0 -0.012804868393364826 0.020201414755325248 0 -0.013369801980269795 0.021085773197124361 0 -0.014185929389408275 0.020217510441318597 0 -0.013190570145943591 0.019026393246582139 0 -0.012804868393364826 0.020201414755325248 0 -0.012804868393364826 0.020201414755325248 0 -0.012814345456962428 0.021127182495071044 0 -0.013369801980269795 0.021085773197124361 0 -0.012000033643455 0.020108658813709979 0 -0.012037779156272393 0.019369013555696785 0 -0.012804868393364826 0.020201414755325248 0 -0.012804868393364826 0.020201414755325248 0 -0.012243477728744014 0.020747029626112058 0 -0.012814345456962428 0.021127182495071044 0 -0.012000033643455 0.020108658813709979 0 -0.012804868393364826 0.020201414755325248 0 -0.012243477728744014 0.020747029626112058 0 -0.012243477728744014 0.020747029626112058 0 -0.012461761774182029 0.021343655044925629 0 -0.012814345456962428 0.021127182495071044 0 -0.012461761774182029 0.021343655044925629 0 -0.012789748080790102 0.021839765136456708 0 -0.012814345456962428 0.021127182495071044 0 -0.011986588753722658 0.021352898088286332 0 -0.012243477728744014 0.020747029626112058 0 -0.012461761774182029 0.021343655044925629 0 -0.011986588753722658 0.021352898088286332 0 -0.012461761774182029 0.021343655044925629 0 -0.012501786049160817 0.021826441868700402 0 -0.011986588753722658 0.021352898088286332 0 -0.012501786049160817 0.021826441868700402 0 -0.012315180280544969 0.022105404002508655 0 -0.012461761774182029 0.021343655044925629 0 -0.012501786049160817 0.021826441868700402 0 -0.012789748080790102 0.021839765136456708 0 -0.012501786049160817 0.021826441868700402 0 -0.012815544942264103 0.022207390000631804 0 -0.012789748080790102 0.021839765136456708 0 -0.012501786049160817 0.021826441868700402 0 -0.012315180280544969 0.022105404002508655 0 -0.012815544942264103 0.022207390000631804 0 -0.012315180280544969 0.022105404002508655 0 -0.012815544942264103 0.022207390000631804 0 -0.012630323678516154 0.022486855801401313 0 -0.012815544942264103 0.022207390000631804 0 -0.013239229205881645 0.022600208214555904 0 -0.012630323678516154 0.022486855801401313 0 -0.012815544942264103 0.022207390000631804 0 -0.013113073841135241 0.022194202716791168 0 -0.013239229205881645 0.022600208214555904 0 -0.012789748080790102 0.021839765136456708 0 -0.013113073841135241 0.022194202716791168 0 -0.013154082984171561 0.021732121674305216 0 -0.012815544942264103 0.022207390000631804 0 -0.012789748080790102 0.021839765136456708 0 -0.013113073841135241 0.022194202716791168 0 -0.013113073841135241 0.022194202716791168 0 -0.01368875917077775 0.022439639646833688 0 -0.013239229205881645 0.022600208214555904 0 -0.013113073841135241 0.022194202716791168 0 -0.013154082984171561 0.021732121674305216 0 -0.01368875917077775 0.022439639646833688 0 -0.013154082984171561 0.021732121674305216 0 -0.013369801980269795 0.021085773197124361 0 -0.01368875917077775 0.022439639646833688 0 -0.012789748080790102 0.021839765136456708 0 -0.013154082984171561 0.021732121674305216 0 -0.012814345456962428 0.021127182495071044 0 -0.013154082984171561 0.021732121674305216 0 -0.012814345456962428 0.021127182495071044 0 -0.013369801980269795 0.021085773197124361 0 -0.014386841533695842 0.022067677043173538 0 -0.013729938820390919 0.022411568432359221 0 -0.014185929389408275 0.020217510441318597 0 -0.013369801980269795 0.021085773197124361 0 -0.01368875917077775 0.022439639646833688 0 -0.014301172569770433 0.023669685975261385 0 -0.013634713975422251 0.022791986183826406 0 -0.01368875917077775 0.022439639646833688 0 -0.013579302697584282 0.023144301155332864 0 -0.01353622875915955 0.022970828600921641 0 -0.013634713975422251 0.022791986183826406 0 -0.014301172569770433 0.023669685975261385 0 -0.013579302697584282 0.023144301155332864 0 -0.013634713975422251 0.022791986183826406 0 -0.01353622875915955 0.022970828600921641 0 -0.013634713975422251 0.022791986183826406 0 -0.013582869671912792 0.022998965183006734 0 -0.01353622875915955 0.022970828600921641 0 -0.013582869671912792 0.022998965183006734 0 -0.01367755915569452 0.023326622197860851 0 -0.013634713975422251 0.022791986183826406 0 -0.01368875917077775 0.022439639646833688 0 -0.013554330292237541 0.022727038296429844 0 -0.013634713975422251 0.022791986183826406 0 -0.013582869671912792 0.022998965183006734 0 -0.013554330292237541 0.022727038296429844 0 -0.013582869671912792 0.022998965183006734 0 -0.013554330292237541 0.022727038296429844 0 -0.013426088311205524 0.023122124098791195 0 -0.01368875917077775 0.022439639646833688 0 -0.013554330292237541 0.022727038296429844 0 -0.013239229205881645 0.022600208214555904 0 -0.013554330292237541 0.022727038296429844 0 -0.013239229205881645 0.022600208214555904 0 -0.013426088311205524 0.023122124098791195 0 -0.013239229205881645 0.022600208214555904 0 -0.013426088311205524 0.023122124098791195 0 -0.013024831803397762 0.023311318909254176 0 -0.013426088311205524 0.023122124098791195 0 -0.013647808614855258 0.023426375737692288 0 -0.013345491139939856 0.023747431325802086 0 -0.013426088311205524 0.023122124098791195 0 -0.013024831803397762 0.023311318909254176 0 -0.013345491139939856 0.023747431325802086 0 -0.013647808614855258 0.023426375737692288 0 -0.013985012444538819 0.023991653616044342 0 -0.01367755915569452 0.023326622197860851 0 -0.013582869671912792 0.022998965183006734 0 -0.013647808614855258 0.023426375737692288 0 -0.01367755915569452 0.023326622197860851 0 -0.013582869671912792 0.022998965183006734 0 -0.013426088311205524 0.023122124098791195 0 -0.013647808614855258 0.023426375737692288 0 -0.013969236303114824 0.024932343720384449 0 -0.013985012444538819 0.023991653616044342 0 -0.013345491139939856 0.023747431325802086 0 -0.013647808614855258 0.023426375737692288 0 -0.013985012444538819 0.023991653616044342 0 -0.013345491139939856 0.023747431325802086 0 -0.012999450693833172 0.02495245089850847 0 -0.013969236303114824 0.024932343720384449 0 -0.013345491139939856 0.023747431325802086 0 -0.012999450693833172 0.02495245089850847 0 -0.013345491139939856 0.023747431325802086 0 -0.012659078166796204 0.02400528171746567 0 -0.013024831803397762 0.023311318909254176 0 -0.013345491139939856 0.023747431325802086 0 -0.012659078166796204 0.02400528171746567 0 -0.01140182345410868 0.024324460080049525 0 -0.012371019658392268 0.023513735853980394 0 -0.011334341415648678 0.025005960817005256 0 -0.012999450693833172 0.02495245089850847 0 -0.012659078166796204 0.02400528171746567 0 -0.011334341415648678 0.025005960817005256 0 -0.012659078166796204 0.02400528171746567 0 -0.012343502318718879 0.023284921847504258 0 -0.011543345695748913 0.02372876744582984 0 -0.011949787164017548 0.023796183490213348 0 -0.011974023600686171 0.023245057069543568 0 -0.012267846327406625 0.024262258029274768 0 -0.011949787164017548 0.023796183490213348 0 -0.012343502318718879 0.023284921847504258 0 -0.011870119671585326 0.022921604413554328 0 -0.012315180280544969 0.022105404002508655 0 -0.012630323678516154 0.022486855801401313 0 -0.011076565298089151 0.023511462120023734 0 -0.012482485962964647 0.022824894007099365 0 -0.011949787164017548 0.023796183490213348 0 -0.011974023600686171 0.023245057069543568 0 -0.012343502318718879 0.023284921847504258 0 -0.013113010262488007 0.02260010098406285 0 -0.012482485962964647 0.022824894007099365 0 -0.011974023600686171 0.023245057069543568 0 -0.012641278235018765 0.023106778639273115 0 -0.012343502318718879 0.023284921847504258 0 -0.013239229205881645 0.022600208214555904 0 -0.011974023600686171 0.023245057069543568 0 -0.012641278235018765 0.023106778639273115 0 -0.013239229205881645 0.022600208214555904 0 -0.013024831803397762 0.023311318909254176 0 -0.012641278235018765 0.023106778639273115 0 -0.013024831803397762 0.023311318909254176 0 -0.012641278235018765 0.023106778639273115 0 -0.012343502318718879 0.023284921847504258 0 -0.013024831803397762 0.023311318909254176 0 -0.012659078166796204 0.02400528171746567 0 -0.012343502318718879 0.023284921847504258 0 -0.013465333666457044 0.023573724951814593 0 -0.01372244823535133 0.023795774296698633 0 -0.01348838444550467 0.023380143046573494 0 -0.0090285798394131155 0.023548662050884739 0 -0.0087746440677024199 0.024967924407768956 0 -0.0043393673908841482 0.024205700505804752 0 -0.0037546633318311768 0.024343007568743191 0 -0.0039577401904017408 0.025778926634495984 0 -0.00471582752699684 0.022710606824166389 0 -0.0043393673908841482 0.024205700505804752 0 -0.0037546633318311768 0.024343007568743191 0 -0.013465333666457044 0.023573724951814593 0 -0.01372244823535133 0.023795774296698633 0 -0.013776266821874819 0.023921040659771835 0 -0.013465333666457044 0.023573724951814593 0 -0.013776266821874819 0.023921040659771835 0 -0.014003415217659656 0.023967770519272881 0 -0.013985012444538819 0.023991653616044342 0 -0.014003415217659656 0.023967770519272881 0 -0.01367755915569452 0.023326622197860851 0 -0.014807132639153254 0.024943121111857067 0 -0.013985012444538819 0.023991653616044342 0 -0.014003415217659656 0.023967770519272881 0 -0.014003415217659656 0.023967770519272881 0 -0.01367755915569452 0.023326622197860851 0 -0.013565540917716919 0.023406975457224033 0 -0.013465333666457044 0.023573724951814593 0 -0.014003415217659656 0.023967770519272881 0 -0.013565540917716919 0.023406975457224033 0 -0.013465333666457044 0.023573724951814593 0 -0.013565540917716919 0.023406975457224033 0 -0.013198790176564336 0.023220665569452362 0 -0.013198790176564336 0.023220665569452362 0 -0.013249383489759903 0.022963775073590223 0 -0.012755954266518609 0.022843396843970624 0 -0.013565540917716919 0.023406975457224033 0 -0.013198790176564336 0.023220665569452362 0 -0.013249383489759903 0.022963775073590223 0 -0.01367755915569452 0.023326622197860851 0 -0.013565540917716919 0.023406975457224033 0 -0.013249383489759903 0.022963775073590223 0 -0.013579302697584282 0.023144301155332864 0 -0.01353622875915955 0.022970828600921641 0 -0.013249383489759903 0.022963775073590223 0 -0.01353622875915955 0.022970828600921641 0 -0.01367755915569452 0.023326622197860851 0 -0.013249383489759903 0.022963775073590223 0 -0.013579302697584282 0.023144301155332864 0 -0.013249383489759903 0.022963775073590223 0 -0.013200416295402187 0.023535812623811329 0 -0.013249383489759903 0.022963775073590223 0 -0.012761964279075208 0.023024114364521259 0 -0.012755954266518609 0.022843396843970624 0 -0.013249383489759903 0.022963775073590223 0 -0.012761964279075208 0.023024114364521259 0 -0.013200416295402187 0.023535812623811329 0 -0.012761964279075208 0.023024114364521259 0 -0.012755954266518609 0.022843396843970624 0 -0.012010287044257188 0.022285908434195631 0 -0.012755954266518609 0.022843396843970624 0 -0.012010287044257188 0.022285908434195631 0 -0.012908288854004493 0.023069987120572608 0 -0.013465333666457044 0.023573724951814593 0 -0.013198790176564336 0.023220665569452362 0 -0.012908288854004493 0.023069987120572608 0 -0.013198790176564336 0.023220665569452362 0 -0.012755954266518609 0.022843396843970624 0 -0.012908288854004493 0.023069987120572608 0 -0.013465333666457044 0.023573724951814593 0 -0.012908288854004493 0.023069987120572608 0 -0.01348838444550467 0.023380143046573494 0 -0.0087746440677024199 0.024967924407768956 0 -0.0076030128510533755 0.023224936061196404 0 -0.012908288854004493 0.023069987120572608 0 -0.01348838444550467 0.023380143046573494 0 -0.013492149157093566 0.022457044199100572 0 -0.012010287044257188 0.022285908434195631 0 -0.0083656134290961172 0.021032580284789031 0 -0.010474758114440796 0.023611164854140037 0 -0.012010287044257188 0.022285908434195631 0 -0.012908288854004493 0.023069987120572608 0 -0.013492149157093566 0.022457044199100572 0 -0.013067465946112692 0.022093382589432355 0 -0.0076030128510533755 0.023224936061196404 0 -0.0074211585603630465 0.022936902566526508 0 -0.0083656134290961172 0.021032580284789031 0 -0.010474758114440796 0.023611164854140037 0 -0.0074211585603630465 0.022936902566526508 0 -0.010474758114440796 0.023611164854140037 0 -0.0083644288212014074 0.024970695961331276 0 -0.012761964279075208 0.023024114364521259 0 -0.012010287044257188 0.022285908434195631 0 -0.012075659242737761 0.024259094999475844 0 -0.012010287044257188 0.022285908434195631 0 -0.010474758114440796 0.023611164854140037 0 -0.012075659242737761 0.024259094999475844 0 -0.012075659242737761 0.024259094999475844 0 -0.012714778442306717 0.025740821097485614 0 -0.010361080738101337 0.02646219535454996 0 -0.010474758114440796 0.023611164854140037 0 -0.012075659242737761 0.024259094999475844 0 -0.010361080738101337 0.02646219535454996 0 -0.010474758114440796 0.023611164854140037 0 -0.0083644288212014074 0.024970695961331276 0 -0.010361080738101337 0.02646219535454996 0 -0.0054045093866974536 0.026540172921631522 0 -0.0083644288212014074 0.024970695961331276 0 -0.010361080738101337 0.02646219535454996 0 -0.013653252153131696 0.023664248357627454 0 -0.013579302697584282 0.023144301155332864 0 -0.013200416295402187 0.023535812623811329 0 -0.013653252153131696 0.023664248357627454 0 -0.013200416295402187 0.023535812623811329 0 -0.013377176044206076 0.02422136045596052 0 -0.012761964279075208 0.023024114364521259 0 -0.013200416295402187 0.023535812623811329 0 -0.012075659242737761 0.024259094999475844 0 -0.012075659242737761 0.024259094999475844 0 -0.012844948553066149 0.024640765146679507 0 -0.012714778442306717 0.025740821097485614 0 -0.013200416295402187 0.023535812623811329 0 -0.012075659242737761 0.024259094999475844 0 -0.012844948553066149 0.024640765146679507 0 -0.012844948553066149 0.024640765146679507 0 -0.013444195972465453 0.024851234283835483 0 -0.012714778442306717 0.025740821097485614 0 -0.013200416295402187 0.023535812623811329 0 -0.012844948553066149 0.024640765146679507 0 -0.013377176044206076 0.02422136045596052 0 -0.012844948553066149 0.024640765146679507 0 -0.013444195972465453 0.024851234283835483 0 -0.013377176044206076 0.02422136045596052 0 -0.013750042990168663 0.024256768113137622 0 -0.013444195972465453 0.024851234283835483 0 -0.013377176044206076 0.02422136045596052 0 -0.016268370795861554 0.027918813385508459 0 -0.012934760126326923 0.0275664316174127 0 -0.013432743508033917 0.029142601659891555 0 -0.013589152698329792 0.023870667240326646 0 -0.013138261030077971 0.027015048906766783 0 -0.013589152698329792 0.023870667240326646 0 -0.012038148668706651 0.023882599760726257 0 -0.013838846891822897 0.025329708673036633 0 -0.013444195972465453 0.024851234283835483 0 -0.012714778442306717 0.025740821097485614 0 -0.012934760126326923 0.0275664316174127 0 -0.013432743508033917 0.029142601659891555 0 -0.011179614554340337 0.028641317729331647 0 -0.013432743508033917 0.029142601659891555 0 -0.011179614554340337 0.028641317729331647 0 -0.010388669033478619 0.030544758935454636 0 -0.010683023561676344 0.018703011756826871 0 -0.010295160755909256 0.018656985663293386 0 -0.010548565858097159 0.01874234399224832 0 -0.012038148668706651 0.023882599760726257 0 -0.010391534969638946 0.024534141396326661 0 -0.010683023561676344 0.018703011756826871 0 -0.010703082038177143 0.01879702583179424 0 -0.010548565858097159 0.01874234399224832 0 -0.010879614764620791 0.018734218918488445 0 -0.010683023561676344 0.018703011756826871 0 -0.010808188052776791 0.018816854788270835 0 -0.010683023561676344 0.018703011756826871 0 -0.010808188052776791 0.018816854788270835 0 -0.010703082038177143 0.01879702583179424 0 -0.0054045093866974536 0.026540172921631522 0 -0.0092626281103873713 0.027071644760007996 0 -0.007088378684598236 0.029235283358733159 0 -0.0056796205271723386 0.026530894141299482 0 -0.009590056264219814 0.026691998748523356 0 -0.0092626281103873713 0.027071644760007996 0 -0.0095432240290732866 0.028995665822706258 0 -0.007088378684598236 0.029235283358733159 0 -0.012934760126326923 0.0275664316174127 0 -0.0092626281103873713 0.027071644760007996 0 -0.011179614554340337 0.028641317729331647 0 -0.013138261030077971 0.027015048906766783 0 -0.009590056264219814 0.026691998748523356 0 -0.0092626281103873713 0.027071644760007996 0 -0.011179614554340337 0.028641317729331647 0 -0.0095432240290732866 0.028995665822706258 0 -0.011179614554340337 0.028641317729331647 0 -0.0095432240290732866 0.028995665822706258 0 -0.010388669033478619 0.030544758935454636 0 -0.0095432240290732866 0.028995665822706258 0 -0.010388669033478619 0.030544758935454636 0 -0.0085267126026618376 0.030220203507278963 0 -0.010388669033478619 0.030544758935454636 0 -0.0085267126026618376 0.030220203507278963 0 -0.0070439653710976371 0.032132525691792674 0 -0.0095432240290732866 0.028995665822706258 0 -0.007088378684598236 0.029235283358733159 0 -0.0085267126026618376 0.030220203507278963 0 -0.007088378684598236 0.029235283358733159 0 -0.0085267126026618376 0.030220203507278963 0 -0.0070439653710976371 0.032132525691792674 0 -0.010171224944307694 0.018668943606051872 0 -0.010156182044901192 0.018708925836461616 0 -0.01024385332439488 0.018381151089962817 0 -0.010391534969638946 0.024534141396326661 0 -0.0083994029535192794 0.026144175192524474 0 -0.010295160755909256 0.018656985663293386 0 -0.010171224944307694 0.018668943606051872 0 -0.010156182044901192 0.018708925836461616 0 -0.010295160755909256 0.018656985663293386 0 -0.010418833514502139 0.018730130505409864 0 -0.010156182044901192 0.018708925836461616 0 -0.010295160755909256 0.018656985663293386 0 -0.010418833514502139 0.018730130505409864 0 -0.010548565858097159 0.01874234399224832 0 -0.010418833514502139 0.018730130505409864 0 -0.010156182044901192 0.018708925836461616 0 -0.010519109145539848 0.018806484709578332 0 -0.0098086209470134873 0.018239133612284429 0 -0.010755506061421 0.019609308528495389 0 -0.010156182044901192 0.018708925836461616 0 -0.0099649695268186865 0.01833171025059321 0 -0.0093815190261092828 0.0181897936961735 0 -0.010156182044901192 0.018708925836461616 0 -0.010580307261583818 0.018899335019342964 0 -0.010519109145539848 0.018806484709578332 0 -0.0099649695268186865 0.01833171025059321 0 -0.0093815190261092828 0.0181897936961735 0 -0.0098117142837287931 0.017774298255689564 0 -0.010156182044901192 0.018708925836461616 0 -0.0099649695268186865 0.01833171025059321 0 -0.01024385332439488 0.018381151089962817 0 -0.0099649695268186865 0.01833171025059321 0 -0.0098117142837287931 0.017774298255689564 0 -0.01024385332439488 0.018381151089962817 0 -0.0053017371980775534 0.0093237934387822401 0 -0.0082903036571028883 0.010440972939444996 0 -0.010797482742727262 0.018868430204508065 0 -0.010746504463179216 0.018843367926456869 0 -0.010850352588989092 0.01890045439999636 0 -0.010808188052776791 0.018816854788270835 0 -0.010797482742727262 0.018868430204508065 0 -0.010703082038177143 0.01879702583179424 0 -0.010797482742727262 0.018868430204508065 0 -0.010703082038177143 0.01879702583179424 0 -0.010746504463179216 0.018843367926456869 0 -0.010703082038177143 0.01879702583179424 0 -0.010746504463179216 0.018843367926456869 0 -0.010608498097936393 0.018800775382683151 0 -0.010703082038177143 0.01879702583179424 0 -0.010608498097936393 0.018800775382683151 0 -0.010548565858097159 0.01874234399224832 0 -0.010418833514502139 0.018730130505409864 0 -0.010608498097936393 0.018800775382683151 0 -0.010548565858097159 0.01874234399224832 0 -0.010418833514502139 0.018730130505409864 0 -0.010608498097936393 0.018800775382683151 0 -0.010519109145539848 0.018806484709578332 0 -0.010608498097936393 0.018800775382683151 0 -0.010519109145539848 0.018806484709578332 0 -0.010681176629458078 0.018841729241678647 0 -0.010580307261583818 0.018899335019342964 0 -0.010519109145539848 0.018806484709578332 0 -0.010681176629458078 0.018841729241678647 0 -0.010580307261583818 0.018899335019342964 0 -0.010681176629458078 0.018841729241678647 0 -0.010698870274403135 0.018791332202024138 0 -0.010746504463179216 0.018843367926456869 0 -0.010608498097936393 0.018800775382683151 0 -0.010681176629458078 0.018841729241678647 0 -0.010746504463179216 0.018843367926456869 0 -0.010681176629458078 0.018841729241678647 0 -0.010779892902241166 0.018823451529522757 0 -0.010681176629458078 0.018841729241678647 0 -0.010779892902241166 0.018823451529522757 0 -0.010748191336982847 0.01876512179916175 0 -0.010779892902241166 0.018823451529522757 0 -0.010807935069615164 0.018730286185569069 0 -0.010822468189643178 0.01880663485014096 0 -0.010779892902241166 0.018823451529522757 0 -0.010807935069615164 0.018730286185569069 0 -0.010748191336982847 0.01876512179916175 0 -0.010779892902241166 0.018823451529522757 0 -0.010822468189643178 0.01880663485014096 0 -0.010850352588989092 0.01890045439999636 0 -0.010746504463179216 0.018843367926456869 0 -0.010779892902241166 0.018823451529522757 0 -0.010850352588989092 0.01890045439999636 0 -0.010768452057619319 0.018688393453228286 0 -0.010807935069615164 0.018730286185569069 0 -0.010748191336982847 0.01876512179916175 0 -0.010748191336982847 0.01876512179916175 0 -0.01073085650000348 0.018713924724634824 0 -0.010698870274403135 0.018791332202024138 0 -0.010768452057619319 0.018688393453228286 0 -0.010748191336982847 0.01876512179916175 0 -0.01073085650000348 0.018713924724634824 0 -0.01073085650000348 0.018713924724634824 0 -0.010723393170790806 0.018678858048498233 0 -0.010745848123698287 0.018673225980133087 0 -0.010768452057619319 0.018688393453228286 0 -0.01073085650000348 0.018713924724634824 0 -0.010745848123698287 0.018673225980133087 0 -0.010755506061421 0.019609308528495389 0 -0.0059839668035094225 0.012738875786083325 0 0.0014524968674042979 0.00018023646865669669 0 -0.00016299478521817799 -0.0014390414355164955 0 -0.0022159777283834586 0.0019089303818554605 0 -0.010580307261583818 0.018899335019342964 0 -0.010732719086428422 0.018707432551992684 0 -0.010698870274403135 0.018791332202024138 0 -0.0059839668035094225 0.012738875786083325 0 -0.0053017371980775534 0.0093237934387822401 0 -0.01073085650000348 0.018713924724634824 0 -0.010732719086428422 0.018707432551992684 0 -0.010698870274403135 0.018791332202024138 0 -0.01073085650000348 0.018713924724634824 0 -0.010732719086428422 0.018707432551992684 0 -0.010723393170790806 0.018678858048498233 0 -0.010681176629458078 0.018841729241678647 0 -0.010748191336982847 0.01876512179916175 0 -0.010698870274403135 0.018791332202024138 0 -0.00016299478521817799 -0.0014390414355164955 0 0.0034688542858254089 -0.0022662546912289778 0 -0.0012486924741819615 -0.0052981083067285143 0 0.0014524968674042979 0.00018023646865669669 0 -0.00016299478521817799 -0.0014390414355164955 0 0.0034688542858254089 -0.0022662546912289778 0 -0.010720273528528368 0.018678169604351716 0 -0.010723393170790806 0.018678858048498233 0 -0.010723832007577807 0.018643778762859286 0 -0.0059839668035094225 0.012738875786083325 0 -0.0067330390177024677 0.0061696216306380888 0 -0.0059839668035094225 0.012738875786083325 0 -0.007490882452915436 0.013749825283998665 0 -0.0067330390177024677 0.0061696216306380888 0 -0.011812175103333166 0.01822225099018928 0 -0.014517822907515163 0.016172144537449886 0 -0.01262029175588735 0.017306893673727661 0 -0.013016003739169304 0.016057199110274263 0 -0.010745848123698287 0.018673225980133087 0 -0.010723832007577807 0.018643778762859286 0 -0.010803122654776006 0.018647323355813379 0 -0.010723393170790806 0.018678858048498233 0 -0.010745848123698287 0.018673225980133087 0 -0.010723832007577807 0.018643778762859286 0 -0.010768452057619319 0.018688393453228286 0 -0.010745848123698287 0.018673225980133087 0 -0.010803122654776006 0.018647323355813379 0 -0.0043203705660382003 0.0011388484365925345 0 -0.0022159777283834586 0.0019089303818554605 0 -0.0055191109367162313 0.0037392961242395189 0 -0.0043203705660382003 0.0011388484365925345 0 -0.0022159777283834586 0.0019089303818554605 0 -0.0029796305682368985 -0.00048036849714913523 0 -0.0043203705660382003 0.0011388484365925345 0 -0.0045804891730943835 -0.0010696018981078089 0 -0.0063430809072244163 0.001569193445698291 0 -0.0043203705660382003 0.0011388484365925345 0 -0.0055191109367162313 0.0037392961242395189 0 -0.0063430809072244163 0.001569193445698291 0 -0.0093815190261092828 0.0181897936961735 0 -0.0085264993896502494 0.017003460390623157 0 -0.0098117142837287931 0.017774298255689564 0 -0.00016299478521817799 -0.0014390414355164955 0 -0.0022159777283834586 0.0019089303818554605 0 -0.0029796305682368985 -0.00048036849714913523 0 -0.00016299478521817799 -0.0014390414355164955 0 -0.0029796305682368985 -0.00048036849714913523 0 -0.0036429404963727037 -0.0026919885772376732 0 -0.00018388931865125015 -0.0016748546407361589 0 -0.0051493953750508456 -0.0030218622252919788 0 -0.0029796305682368985 -0.00048036849714913523 0 -0.0045804891730943835 -0.0010696018981078089 0 -0.0036429404963727037 -0.0026919885772376732 0 -0.0043203705660382003 0.0011388484365925345 0 -0.0029796305682368985 -0.00048036849714913523 0 -0.0045804891730943835 -0.0010696018981078089 0 -0.0045804891730943835 -0.0010696018981078089 0 -0.0036429404963727037 -0.0026919885772376732 0 -0.0052305893866761944 -0.0022078492940188041 0 -0.0051493953750508456 -0.0030218622252919788 0 -0.0027012765197133278 -0.012626272387469236 0 -0.0054981010246547253 -0.0047483945611314967 0 -0.0062027313128969249 -0.0081980504662804588 0 -0.0095552799808461507 -0.0076182678197678523 0 -0.0036429404963727037 -0.0026919885772376732 0 -0.0062670507247425252 -0.0038279068362803543 0 -0.0052305893866761944 -0.0022078492940188041 0 -0.0062027313128969249 -0.0081980504662804588 0 -0.0062647233986190742 -0.0094417441692910935 0 -0.0095552799808461507 -0.0076182678197678523 0 -0.0062027313128969249 -0.0081980504662804588 0 -0.0062647233986190742 -0.0094417441692910935 0 -0.0055867936024782856 -0.0091225637151063944 0 -0.0062027313128969249 -0.0081980504662804588 0 -0.0055867936024782856 -0.0091225637151063944 0 -0.0053770924332241345 -0.0086939804387939877 0 -0.0055867936024782856 -0.0091225637151063944 0 -0.0053770924332241345 -0.0086939804387939877 0 -0.0053118058802793184 -0.0092241416366288381 0 -0.0061531280926374974 -0.0079686510869502233 0 -0.002778891007504245 -0.007883652604793184 0 -0.0054981010246547253 -0.0047483945611314967 0 -0.0062027313128969249 -0.0081980504662804588 0 -0.0012486924741819615 -0.0052981083067285143 0 -0.00016299478521817799 -0.0014390414355164955 0 -0.0054981010246547253 -0.0047483945611314967 0 -0.0012486924741819615 -0.0052981083067285143 0 -0.0062027313128969249 -0.0081980504662804588 0 -0.0053034620813206881 -0.008399421439510682 0 -0.0053770924332241345 -0.0086939804387939877 0 -0.0053770924332241345 -0.0086939804387939877 0 -0.0053457962115202144 -0.0093261133455530571 0 -0.0053243165559180858 -0.0091214063953037553 0 -0.0055395431958610731 -0.0088025260405465624 0 -0.004804208999091699 -0.0086255816469229425 0 -0.0067330390177024677 0.0061696216306380888 0 -0.002778891007504245 -0.007883652604793184 0 -0.0053034620813206881 -0.008399421439510682 0 -0.0053770924332241345 -0.0086939804387939877 0 -0.0049559387572521481 -0.0084327116716971014 0 -0.0047855791840873251 -0.0078976538675109946 0 -0.0053034620813206881 -0.008399421439510682 0 -0.0049559387572521481 -0.0084327116716971014 0 -0.004804208999091699 -0.0086255816469229425 0 -0.0094969872567515819 -0.0013645970306644332 0 -0.0047855791840873251 -0.0078976538675109946 0 -0.0049559387572521481 -0.0084327116716971014 0 -0.0045631211442324938 -0.0082447596745885855 0 -0.0053457962115202144 -0.0093261133455530571 0 -0.0057342558413675951 -0.0097297963009137182 0 -0.0054832836650046618 -0.0092604221126929669 0 -0.0067330390177024677 0.0061696216306380888 0 -0.0094969872567515819 -0.0013645970306644332 0 -0.014517822907515163 0.016172144537449886 0 -0.01349677059894947 0.014680259897100293 0 -0.013016003739169304 0.016057199110274263 0 -0.0054832836650046618 -0.0092604221126929669 0 -0.0054578535812182692 -0.0090616645044842813 0 -0.0059410351726523966 -0.0092808318677127383 0 -0.0054832836650046618 -0.0092604221126929669 0 -0.0053118058802793184 -0.0092241416366288381 0 -0.0054578535812182692 -0.0090616645044842813 0 -0.0057943101864169925 -0.0094493998311763264 0 -0.0054832836650046618 -0.0092604221126929669 0 -0.0059410351726523966 -0.0092808318677127383 0 -0.0057342558413675951 -0.0097297963009137182 0 -0.0057943101864169925 -0.0094493998311763264 0 -0.0054832836650046618 -0.0092604221126929669 0 -0.0054832836650046618 -0.0092604221126929669 0 -0.0053243165559180858 -0.0091214063953037553 0 -0.0053118058802793184 -0.0092241416366288381 0 -0.0053770924332241345 -0.0086939804387939877 0 -0.0053243165559180858 -0.0091214063953037553 0 -0.0053118058802793184 -0.0092241416366288381 0 -0.0053457962115202144 -0.0093261133455530571 0 -0.0054832836650046618 -0.0092604221126929669 0 -0.0053243165559180858 -0.0091214063953037553 0 0.0025635318851356566 -0.050379990688334569 0 0.0033202532852408375 -0.050458359368437671 0 0.0035332232235839671 -0.050593747785959979 0 -0.0015756520978148089 -0.029266165937508398 0 -0.00028191317895309454 -0.033447511483982222 0 -0.0053118058802793184 -0.0092241416366288381 0 -0.0054578535812182692 -0.0090616645044842813 0 -0.0053455446739716882 -0.0095583695008185331 0 0.0025635318851356566 -0.050379990688334569 0 0.0028511630675150867 -0.050096755871985151 0 0.0023157343290247778 -0.049853795636550222 0 0.0028511630675150867 -0.050096755871985151 0 0.0023157343290247778 -0.049853795636550222 0 0.0026513488325663557 -0.049740617658732701 0 0.0025635318851356566 -0.050379990688334569 0 0.0028511630675150867 -0.050096755871985151 0 0.0033202532852408375 -0.050458359368437671 0 0.0028511630675150867 -0.050096755871985151 0 0.0033993966063809618 -0.050100552440974576 0 0.0031641451264894775 -0.049811728497210592 0 0.0028511630675150867 -0.050096755871985151 0 0.0033202532852408375 -0.050458359368437671 0 0.0033993966063809618 -0.050100552440974576 0 0.0033202532852408375 -0.050458359368437671 0 0.0041349967395728944 -0.050282563397793731 0 0.0037409457072780541 -0.050914382645663642 0 0.0033202532852408375 -0.050458359368437671 0 0.0033993966063809618 -0.050100552440974576 0 0.0041349967395728944 -0.050282563397793731 0 0.0041349967395728944 -0.050282563397793731 0 0.0049998702549615354 -0.050403109279654384 0 0.0051717743536790536 -0.051132513722790846 0 0.0041349967395728944 -0.050282563397793731 0 0.0051717743536790536 -0.051132513722790846 0 0.0037409457072780541 -0.050914382645663642 0 0.0041821699036398673 -0.040267669837171664 0 -0.00028191317895309454 -0.033447511483982222 0 0.0017928841866595199 -0.0278363251230156 0 0.0017453331258929035 -0.028057473735558267 0 0.0019484997300438865 -0.028060013985152069 0 -0.0062647233986190742 -0.0094417441692910935 0 -0.0055867936024782856 -0.0091225637151063944 0 -0.0053455446739716882 -0.0095583695008185331 0 -0.0032687804207291366 -0.01716547259635608 0 -0.00028191317895309454 -0.033447511483982222 0 -0.0055867936024782856 -0.0091225637151063944 0 -0.0053118058802793184 -0.0092241416366288381 0 -0.0053455446739716882 -0.0095583695008185331 0 0.0071067533117497011 -0.047445246372141758 0 -0.00028191317895309454 -0.033447511483982222 0 -0.0039781396632621478 -0.029112201721637129 0 -0.0024167310909951477 -0.02946475377475025 0 0.0008519198866069321 -0.049556129222758434 0 0.0002511036493360917 -0.048352176902195038 0 0.0014698531846026703 -0.047846828398791952 0 0.00096150404787313988 -0.049537301159184227 0 0.0013717014870871151 -0.048647896918684208 0 0.0008519198866069321 -0.049556129222758434 0 0.0013163749405119747 -0.049636961666231494 0 0.0014509676859085583 -0.049710812625696633 0 0.0008519198866069321 -0.049556129222758434 0 0.00046795818168253477 -0.049533535681422852 0 0.0017278013499162181 -0.050013131638497722 0 0.0008519198866069321 -0.049556129222758434 0 0.00046795818168253477 -0.049533535681422852 0 0.0002511036493360917 -0.048352176902195038 0 0.00046795818168253477 -0.049533535681422852 0 0.0002511036493360917 -0.048352176902195038 0 -0.0011870864026588778 -0.048241001751513447 0 0.0002511036493360917 -0.048352176902195038 0 -0.0011870864026588778 -0.048241001751513447 0 -0.00030638598534984095 -0.046501882345761587 0 0.0002511036493360917 -0.048352176902195038 0 0.0014698531846026703 -0.047846828398791952 0 -0.00030638598534984095 -0.046501882345761587 0 0.0013717014870871151 -0.048647896918684208 0 0.0010106574346154629 -0.04848325886544675 0 0.0013163749405119747 -0.049636961666231494 0 0.0015224598610824654 -0.04961696577091905 0 0.0014706557377457804 -0.049491794795439512 0 0.0018342992660177607 -0.049795028374318796 0 0.0019248455807467316 -0.049577535299925729 0 0.0017122505582506289 -0.049615528981607149 0 0.0015224598610824654 -0.04961696577091905 0 0.0018342992660177607 -0.049795028374318796 0 0.0017122505582506289 -0.049615528981607149 0 0.0015224598610824654 -0.04961696577091905 0 0.0014509676859085583 -0.049710812625696633 0 0.0018342992660177607 -0.049795028374318796 0 0.0013163749405119747 -0.049636961666231494 0 0.0015224598610824654 -0.04961696577091905 0 0.0014509676859085583 -0.049710812625696633 0 0.0025635318851356566 -0.050379990688334569 0 0.0023157343290247778 -0.049853795636550222 0 0.0018342992660177607 -0.049795028374318796 0 0.0023157343290247778 -0.049853795636550222 0 0.0018342992660177607 -0.049795028374318796 0 0.0019248455807467316 -0.049577535299925729 0 0.0025635318851356566 -0.050379990688334569 0 0.0018342992660177607 -0.049795028374318796 0 0.0017278013499162181 -0.050013131638497722 0 -0.0015756520978148089 -0.029266165937508398 0 -0.0024167310909951477 -0.02946475377475025 0 -0.0054578535812182692 -0.0090616645044842813 0 -0.0066332165642077005 -0.0087771849495549767 0 -0.0059410351726523966 -0.0092808318677127383 0 0.0008519198866069321 -0.049556129222758434 0 0.0014509676859085583 -0.049710812625696633 0 0.0017278013499162181 -0.050013131638497722 0 0.0014509676859085583 -0.049710812625696633 0 0.0018342992660177607 -0.049795028374318796 0 0.0017278013499162181 -0.050013131638497722 0 -0.0066332165642077005 -0.0087771849495549767 0 -0.0064168942339649674 -0.0094810357421189137 0 -0.0070971457883717975 -0.0098222164277956131 0 -0.0066332165642077005 -0.0087771849495549767 0 -0.0059410351726523966 -0.0092808318677127383 0 -0.0064168942339649674 -0.0094810357421189137 0 -0.0064168942339649674 -0.0094810357421189137 0 -0.0060691832191863138 -0.009574436011301906 0 -0.0064537571930353621 -0.0099345852523262564 0 -0.0059410351726523966 -0.0092808318677127383 0 -0.0064168942339649674 -0.0094810357421189137 0 -0.0060691832191863138 -0.009574436011301906 0 -0.0057943101864169925 -0.0094493998311763264 0 -0.0059410351726523966 -0.0092808318677127383 0 -0.0060691832191863138 -0.009574436011301906 0 -0.01349677059894947 0.014680259897100293 0 -0.011100625073560326 0.015257147104100578 0 -0.013016003739169304 0.016057199110274263 0 -0.0057342558413675951 -0.0097297963009137182 0 -0.0064537571930353621 -0.0099345852523262564 0 -0.0065452712282034874 -0.010111121515765225 0 -0.0094969872567515819 -0.0013645970306644332 0 -0.0098934824910650136 0.0043595306143867111 0 -0.0057342558413675951 -0.0097297963009137182 0 -0.0060691832191863138 -0.009574436011301906 0 -0.0064537571930353621 -0.0099345852523262564 0 -0.0057342558413675951 -0.0097297963009137182 0 -0.0057943101864169925 -0.0094493998311763264 0 -0.0060691832191863138 -0.009574436011301906 0 -0.0098934824910650136 0.0043595306143867111 0 -0.011485899964802773 0.0014497350702880522 0 -0.0070971457883717975 -0.0098222164277956131 0 -0.006581196113654722 -0.010247028634949371 0 -0.0075175648340131468 -0.010574850260689474 0 -0.0070971457883717975 -0.0098222164277956131 0 -0.0064537571930353621 -0.0099345852523262564 0 -0.006581196113654722 -0.010247028634949371 0 -0.0064168942339649674 -0.0094810357421189137 0 -0.0070971457883717975 -0.0098222164277956131 0 -0.0064537571930353621 -0.0099345852523262564 0 -0.011010764417356765 -0.0037543109471736011 0 -0.0098934824910650136 0.0043595306143867111 0 -0.0075175648340131468 -0.010574850260689474 0 -0.0081922459512974895 -0.010525116663048248 0 -0.0084786672494228024 -0.010789109030910545 0 -0.0075175648340131468 -0.010574850260689474 0 -0.0081922459512974895 -0.010525116663048248 0 -0.0079438340086363853 -0.0098880200573955978 0 -0.0081922459512974895 -0.010525116663048248 0 -0.0079438340086363853 -0.0098880200573955978 0 -0.0085608412288150099 -0.0097353634636101836 0 -0.0070971457883717975 -0.0098222164277956131 0 -0.0075175648340131468 -0.010574850260689474 0 -0.0079438340086363853 -0.0098880200573955978 0 -0.0083555107704780199 -0.0087964413406575719 0 -0.0070971457883717975 -0.0098222164277956131 0 -0.0079438340086363853 -0.0098880200573955978 0 -0.0083555107704780199 -0.0087964413406575719 0 -0.0066332165642077005 -0.0087771849495549767 0 -0.0070971457883717975 -0.0098222164277956131 0 -0.0083555107704780199 -0.0087964413406575719 0 -0.0079438340086363853 -0.0098880200573955978 0 -0.0085608412288150099 -0.0097353634636101836 0 -0.0083555107704780199 -0.0087964413406575719 0 -0.0085608412288150099 -0.0097353634636101836 0 -0.0092905541913120039 -0.0096196210962930188 0 -0.0085608412288150099 -0.0097353634636101836 0 -0.0092905541913120039 -0.0096196210962930188 0 -0.0088209451042874122 -0.010232583214556066 0 -0.0084840435624831366 -0.010924531547440875 0 -0.0095235451769823537 -0.010303422342437958 0 -0.0098864241121065701 -0.01074834696452566 0 -0.0092905541913120039 -0.0096196210962930188 0 -0.0088209451042874122 -0.010232583214556066 0 -0.0095235451769823537 -0.010303422342437958 0 -0.0081922459512974895 -0.010525116663048248 0 -0.0085608412288150099 -0.0097353634636101836 0 -0.0088209451042874122 -0.010232583214556066 0 -0.0081922459512974895 -0.010525116663048248 0 -0.0088209451042874122 -0.010232583214556066 0 -0.0084840435624831366 -0.010924531547440875 0 -0.012547291268641366 -0.0055461468213103019 0 -0.011704634939731867 0.0013242340188876029 0 -0.0088209451042874122 -0.010232583214556066 0 -0.0084840435624831366 -0.010924531547440875 0 -0.0095235451769823537 -0.010303422342437958 0 -0.011704634939731867 0.0013242340188876029 0 -0.016235699601211028 0.010835571550623136 0 -0.015293732226998789 0.013483048629180216 0 -0.015153011022067005 0.01322595164966384 0 -0.015812204310628169 0.01323176101163473 0 -0.011485899964802773 0.0014497350702880522 0 -0.011704634939731867 0.0013242340188876029 0 -0.014951503777215984 0.013479903713665566 0 -0.015293732226998789 0.013483048629180216 0 -0.015153011022067005 0.01322595164966384 0 -0.014951503777215984 0.013479903713665566 0 -0.015153011022067005 0.01322595164966384 0 -0.014827838784364462 0.013274301205830126 0 -0.015153011022067005 0.01322595164966384 0 -0.015262623700592757 0.012882693593457985 0 -0.014960698352605991 0.012977868082777313 0 -0.015153011022067005 0.01322595164966384 0 -0.014827838784364462 0.013274301205830126 0 -0.014960698352605991 0.012977868082777313 0 -0.015153011022067005 0.01322595164966384 0 -0.015262623700592757 0.012882693593457985 0 -0.015812204310628169 0.01323176101163473 0 -0.011100625073560326 0.015257147104100578 0 -0.013016003739169304 0.016057199110274263 0 -0.011490611819025054 0.016878033299565217 0 -0.01262029175588735 0.017306893673727661 0 -0.011490611819025054 0.016878033299565217 0 -0.01075246123537482 0.018343795098100385 0 -0.01262029175588735 0.017306893673727661 0 -0.013016003739169304 0.016057199110274263 0 -0.011490611819025054 0.016878033299565217 0 -0.014678610466650407 0.013467126629723788 0 -0.014951503777215984 0.013479903713665566 0 -0.014827838784364462 0.013274301205830126 0 -0.0098934824910650136 0.0043595306143867111 0 -0.01228817197916709 0.017072884342143779 0 -0.011100625073560326 0.015257147104100578 0 -0.011490611819025054 0.016878033299565217 0 -0.010355911783787189 0.017730447673018342 0 -0.011490611819025054 0.016878033299565217 0 -0.010355911783787189 0.017730447673018342 0 -0.01075246123537482 0.018343795098100385 0 -0.010355911783787189 0.017730447673018342 0 -0.01075246123537482 0.018343795098100385 0 -0.010422060983360503 0.018746482075681137 0 -0.01228817197916709 0.017072884342143779 0 -0.012896417609880518 0.015182911394872389 0 -0.01075246123537482 0.018343795098100385 0 -0.010779871740349856 0.018745573672825151 0 -0.010422060983360503 0.018746482075681137 0 -0.01075246123537482 0.018343795098100385 0 -0.010832695325682215 0.01862227825195165 0 -0.010779871740349856 0.018745573672825151 0 -0.011812175103333166 0.01822225099018928 0 -0.010830751675729139 0.018329142856716999 0 -0.010803122654776006 0.018647323355813379 0 -0.01075246123537482 0.018343795098100385 0 -0.010832695325682215 0.01862227825195165 0 -0.010807935069615164 0.018730286185569069 0 -0.010832695325682215 0.01862227825195165 0 -0.010843619955335653 0.018785171706163062 0 -0.010768452057619319 0.018688393453228286 0 -0.010807935069615164 0.018730286185569069 0 -0.010832695325682215 0.01862227825195165 0 -0.010768452057619319 0.018688393453228286 0 -0.010803122654776006 0.018647323355813379 0 -0.010832695325682215 0.01862227825195165 0 -0.010822468189643178 0.01880663485014096 0 -0.010843619955335653 0.018785171706163062 0 -0.010850352588989092 0.01890045439999636 0 -0.010807935069615164 0.018730286185569069 0 -0.010822468189643178 0.01880663485014096 0 -0.010843619955335653 0.018785171706163062 0 -0.010832695325682215 0.01862227825195165 0 -0.010843619955335653 0.018785171706163062 0 -0.010779871740349856 0.018745573672825151 0 -0.010843619955335653 0.018785171706163062 0 -0.01086584818578914 0.018930684683948807 0 -0.010779871740349856 0.018745573672825151 0 -0.010843619955335653 0.018785171706163062 0 -0.01086584818578914 0.018930684683948807 0 -0.010850352588989092 0.01890045439999636 0 -0.01086584818578914 0.018930684683948807 0 -0.010779871740349856 0.018745573672825151 0 -0.010864019731484315 0.019074475635091941 0 -0.010779871740349856 0.018745573672825151 0 -0.010864019731484315 0.019074475635091941 0 -0.010422060983360503 0.018746482075681137 0 -0.011115416485629371 0.019186074276855765 0 -0.010996690305978692 0.019033523888416125 0 -0.010864019731484315 0.019074475635091941 0 -0.010996690305978692 0.019033523888416125 0 -0.010864019731484315 0.019074475635091941 0 -0.010893709298884252 0.018968457894782052 0 -0.01086584818578914 0.018930684683948807 0 -0.010893709298884252 0.018968457894782052 0 -0.010850352588989092 0.01890045439999636 0 -0.01086584818578914 0.018930684683948807 0 -0.010864019731484315 0.019074475635091941 0 -0.010893709298884252 0.018968457894782052 0 -0.010808188052776791 0.018816854788270835 0 -0.010797482742727262 0.018868430204508065 0 -0.010893709298884252 0.018968457894782052 0 -0.010797482742727262 0.018868430204508065 0 -0.010893709298884252 0.018968457894782052 0 -0.010850352588989092 0.01890045439999636 0 -0.015655119798515874 0.012722910192241508 0 -0.015262623700592757 0.012882693593457985 0 -0.015812204310628169 0.01323176101163473 0 -0.015356759465710067 0.012704113970509232 0 -0.015604108150661664 0.012521879864099238 0 -0.015156873963345427 0.012643001952877866 0 -0.015356759465710067 0.012704113970509232 0 -0.015262623700592757 0.012882693593457985 0 -0.015156873963345427 0.012643001952877866 0 -0.015356759465710067 0.012704113970509232 0 -0.015604108150661664 0.012521879864099238 0 -0.015655119798515874 0.012722910192241508 0 -0.015604108150661664 0.012521879864099238 0 -0.015655119798515874 0.012722910192241508 0 -0.015825163525383826 0.012468473976009085 0 -0.015356759465710067 0.012704113970509232 0 -0.015655119798515874 0.012722910192241508 0 -0.015262623700592757 0.012882693593457985 0 -0.015262623700592757 0.012882693593457985 0 -0.014960698352605991 0.012977868082777313 0 -0.015156873963345427 0.012643001952877866 0 -0.014960698352605991 0.012977868082777313 0 -0.015156873963345427 0.012643001952877866 0 -0.014992282247647409 0.012451567613311947 0 -0.012896417609880518 0.015182911394872389 0 -0.012361436298802986 0.017832920358156385 0 -0.010864019731484315 0.019074475635091941 0 -0.010422060983360503 0.018746482075681137 0 -0.010309252094982862 0.019179623842835003 0 -0.011115416485629371 0.019186074276855765 0 -0.010864019731484315 0.019074475635091941 0 -0.011177654214212629 0.019258616705472263 0 -0.011269307586853945 0.019301959439431259 0 -0.011115416485629371 0.019186074276855765 0 -0.011177654214212629 0.019258616705472263 0 -0.010225029538158315 0.01931788938138377 0 -0.012361436298802986 0.017832920358156385 0 -0.012361436298802986 0.017832920358156385 0 -0.014956278426657381 0.016535878749110212 0 -0.015604108150661664 0.012521879864099238 0 -0.015156873963345427 0.012643001952877866 0 -0.016117350015592582 0.012018180577692149 0 -0.015482626471177582 0.012531690419561552 0 -0.016981335748254098 0.01323599690450495 0 -0.015156873963345427 0.012643001952877866 0 -0.017514735075618751 0.01292808911194855 0 -0.018334456949342461 0.013466721718405851 0 -0.011528335731581872 0.019476329962522014 0 -0.011063692826719651 0.020545574455867643 0 -0.0120844981885547 0.020425776244086497 0 -0.015156873963345427 0.012643001952877866 0 -0.014992282247647409 0.012451567613311947 0 -0.017514735075618751 0.01292808911194855 0 -0.017514735075618751 0.01292808911194855 0 -0.018334456949342461 0.013466721718405851 0 -0.020930729169515303 0.013227587924466711 0 -0.015604108150661664 0.012521879864099238 0 -0.016117350015592582 0.012018180577692149 0 -0.015825163525383826 0.012468473976009085 0 -0.016117350015592582 0.012018180577692149 0 -0.015825163525383826 0.012468473976009085 0 -0.016073064098810728 0.012614662177751146 0 -0.015655119798515874 0.012722910192241508 0 -0.015825163525383826 0.012468473976009085 0 -0.016073064098810728 0.012614662177751146 0 -0.015655119798515874 0.012722910192241508 0 -0.016073064098810728 0.012614662177751146 0 -0.015812204310628169 0.01323176101163473 0 -0.016073064098810728 0.012614662177751146 0 -0.016717081074537024 0.012663527974815864 0 -0.015812204310628169 0.01323176101163473 0 -0.016117350015592582 0.012018180577692149 0 -0.016073064098810728 0.012614662177751146 0 -0.016717081074537024 0.012663527974815864 0 -0.017943466709936299 0.0069928863161301483 0 -0.021309698633404747 0.0093123207976271282 0 -0.018334456949342461 0.013466721718405851 0 -0.020930729169515303 0.013227587924466711 0 -0.022629257567803197 0.013859050456219527 0 -0.016117350015592582 0.012018180577692149 0 -0.016717081074537024 0.012663527974815864 0 -0.017775312717197008 0.011569744906974527 0 -0.014956278426657381 0.016535878749110212 0 -0.016922733850063321 0.016847149265234708 0 -0.016981335748254098 0.01323599690450495 0 -0.021309698633404747 0.0093123207976271282 0 -0.020930729169515303 0.013227587924466711 0 -0.023094782232934478 0.013566292240515428 0 -0.022629257567803197 0.013859050456219527 0 -0.020226897972795366 0.017111242637145769 0 -0.016922733850063321 0.016847149265234708 0 -0.024814053605037918 0.013460519073179125 0 -0.020930729169515303 0.013227587924466711 0 -0.023094782232934478 0.013566292240515428 0 -0.024814053605037918 0.013460519073179125 0 -0.023094782232934478 0.013566292240515428 0 -0.022726447510071475 0.013928321283178965 0 -0.021132549606397065 0.010300909016902384 0 -0.021309698633404747 0.0093123207976271282 0 -0.025309992477217422 -0.00055174260492301048 0 -0.021678310458911575 0.0001118297704417295 0 -0.023135059885798562 0.003180122710334242 0 -0.02641004532144672 0.006342732471363491 0 -0.021309698633404747 0.0093123207976271282 0 -0.026426279007232059 0.013895629461252421 0 -0.024814053605037918 0.013460519073179125 0 -0.022726447510071475 0.013928321283178965 0 -0.019152042538009784 0.0028271055410634869 0 -0.023135059885798562 0.003180122710334242 0 -0.019613918121559309 0.0051211241597626392 0 -0.019152042538009784 0.0028271055410634869 0 -0.021678310458911575 0.0001118297704417295 0 -0.023135059885798562 0.003180122710334242 0 -0.023135059885798562 0.003180122710334242 0 -0.02141596161064508 0.0067246982011915689 0 -0.019613918121559309 0.0051211241597626392 0 -0.023135059885798562 0.003180122710334242 0 -0.02141596161064508 0.0067246982011915689 0 -0.025146877607535013 0.0060395099451706598 0 -0.023135059885798562 0.003180122710334242 0 -0.026605968879261994 0.0035826318329022751 0 -0.025146877607535013 0.0060395099451706598 0 -0.018509772751545969 -0.0027784090859852696 0 -0.022406640628121848 -0.0040442517101040125 0 -0.017358320407582225 -0.010538632698974136 0 -0.020782822000926984 -0.013341885624791328 0 -0.01952002377667621 -0.0088201347552727873 0 -0.017358320407582225 -0.010538632698974136 0 -0.015419514112518721 -0.012403052361823973 0 -0.020782822000926984 -0.013341885624791328 0 -0.017358320407582225 -0.010538632698974136 0 -0.015419514112518721 -0.012403052361823973 0 -0.01482281493168802 -0.0097505872169831014 0 -0.018509772751545969 -0.0027784090859852696 0 -0.014118142863616725 -0.0024522073384253356 0 -0.02141596161064508 0.0067246982011915689 0 -0.017779806671772369 0.0073542835482030468 0 -0.019613918121559309 0.0051211241597626392 0 -0.015419514112518721 -0.012403052361823973 0 -0.010398933377600329 -0.011661842108952833 0 -0.01482281493168802 -0.0097505872169831014 0 -0.010705192853476484 -0.010916527773460263 0 -0.01382106805976668 -0.010433070167868781 0 -0.010479228964212784 -0.010963406548658565 0 -0.010398933377600329 -0.011661842108952833 0 -0.01482281493168802 -0.0097505872169831014 0 -0.0084840435624831366 -0.010924531547440875 0 -0.010398933377600329 -0.011661842108952833 0 -0.0098864241121065701 -0.01074834696452566 0 -0.011704634939731867 0.0013242340188876029 0 -0.014118142863616725 -0.0024522073384253356 0 -0.010479228964212784 -0.010963406548658565 0 -0.010398933377600329 -0.011661842108952833 0 -0.0098864241121065701 -0.01074834696452566 0 -0.014284309248383458 0.0079579092103466038 0 -0.017779806671772369 0.0073542835482030468 0 -0.01669330033477066 0.0054616812831474468 0 -0.017779806671772369 0.0073542835482030468 0 -0.01669330033477066 0.0054616812831474468 0 -0.019613918121559309 0.0051211241597626392 0 -0.017943466709936299 0.0069928863161301483 0 -0.016235699601211028 0.010835571550623136 0 -0.019152042538009784 0.0028271055410634869 0 -0.01669330033477066 0.0054616812831474468 0 -0.019613918121559309 0.0051211241597626392 0 -0.049449069366151892 0.0033705512312014615 0 -0.050209326337208357 0.0023723001704395838 0 -0.048331474968225922 0.0027361105734330397 0 -0.049449069366151892 0.0033705512312014615 0 -0.051200748018907005 0.0042051598885577187 0 -0.050209326337208357 0.0023723001704395838 0 -0.049449069366151892 0.0033705512312014615 0 -0.049256050530158461 0.0045001827480003502 0 -0.051200748018907005 0.0042051598885577187 0 -0.049409330150865197 0.0058579440697908896 0 -0.049256050530158461 0.0045001827480003502 0 -0.051200748018907005 0.0042051598885577187 0 -0.05036029414550245 0.0067841297279464434 0 -0.049409330150865197 0.0058579440697908896 0 -0.051200748018907005 0.0042051598885577187 0 -0.038582750780011804 0.0064142850462873416 0 -0.041309727385366417 0.0025783922322265697 0 -0.032432718335950378 -0.0016278077241084839 0 -0.030921554264641927 0.0016904682614041452 0 -0.029733034550462827 0.00040903000702432644 0 -0.030921554264641927 0.0016904682614041452 0 -0.029019402907824909 0.0019074515450888101 0 -0.029733034550462827 0.00040903000702432644 0 -0.051200748018907005 0.0042051598885577187 0 -0.051941451287799791 0.0020249734992168369 0 -0.050209326337208357 0.0023723001704395838 0 -0.041309727385366417 0.0025783922322265697 0 -0.042134518838645912 0.0012257583111164826 0 -0.030921554264641927 0.0016904682614041452 0 -0.029019402907824909 0.0019074515450888101 0 -0.029612627188801338 0.0047418906639624895 0 -0.029019402907824909 0.0019074515450888101 0 -0.027148516616475035 0.001215911451178325 0 -0.026605968879261994 0.0035826318329022751 0 -0.028739299525537613 0.0043648493342480993 0 -0.030494827046803067 -0.00053622060827091921 0 -0.029019402907824909 0.0019074515450888101 0 -0.026605968879261994 0.0035826318329022751 0 -0.028895608889410649 0.0053120367884048596 0 -0.029019402907824909 0.0019074515450888101 0 -0.029733034550462827 0.00040903000702432644 0 -0.027148516616475035 0.001215911451178325 0 -0.028917783858708416 -0.0011176333255547887 0 -0.029733034550462827 0.00040903000702432644 0 -0.027148516616475035 0.001215911451178325 0 -0.025309992477217422 -0.00055174260492301048 0 -0.028917783858708416 -0.0011176333255547887 0 -0.027148516616475035 0.001215911451178325 0 -0.025309992477217422 -0.00055174260492301048 0 -0.023135059885798562 0.003180122710334242 0 -0.027148516616475035 0.001215911451178325 0 -0.023135059885798562 0.003180122710334242 0 -0.027148516616475035 0.001215911451178325 0 -0.026605968879261994 0.0035826318329022751 0 -0.026605968879261994 0.0035826318329022751 0 -0.025146877607535013 0.0060395099451706598 0 -0.028895608889410649 0.0053120367884048596 0 -0.022406640628121848 -0.0040442517101040125 0 -0.030494827046803067 -0.00053622060827091921 0 -0.020782822000926984 -0.013341885624791328 0 -0.023358927805475629 -0.01138705074544806 0 -0.02614440843114622 -0.014270624106501041 0 -0.020782822000926984 -0.013341885624791328 0 -0.023358927805475629 -0.01138705074544806 0 -0.01952002377667621 -0.0088201347552727873 0 -0.051863312243996811 -0.00049915804844207498 0 -0.05133195810496588 -0.0012148097036995614 0 -0.051844290805132164 -0.0019633877523303933 0 -0.023358927805475629 -0.01138705074544806 0 -0.026093285618898409 -0.012393861827044075 0 -0.024231781708447055 -0.008071197802602962 0 -0.037419848997275171 -0.0054844537041303784 0 -0.025558361532600039 -0.0093717035820396928 0 -0.037419848997275171 -0.0054844537041303784 0 -0.039870061000614687 -0.0062943235077149162 0 -0.023358927805475629 -0.01138705074544806 0 -0.026093285618898409 -0.012393861827044075 0 -0.02614440843114622 -0.014270624106501041 0 -0.029019402907824909 0.0019074515450888101 0 -0.029612627188801338 0.0047418906639624895 0 -0.029114022446296257 0.0048352556160404115 0 -0.038364275161227313 -0.0044724480392957164 0 -0.035655558703136685 0.0020815788400228561 0 -0.038268629041997591 0.001549659495425791 0 -0.051863312243996811 -0.00049915804844207498 0 -0.051610179168973987 0.00016219985996896377 0 -0.051273329495221023 -0.00032316980589597571 0 -0.037419848997275171 -0.0054844537041303784 0 -0.042134518838645912 0.0012257583111164826 0 -0.037419848997275171 -0.0054844537041303784 0 -0.030494827046803067 -0.00053622060827091921 0 -0.042134518838645912 0.0012257583111164826 0 -0.030494827046803067 -0.00053622060827091921 0 -0.042134518838645912 0.0012257583111164826 0 -0.052161830958493 0.0012493487413040029 0 -0.051273329495221023 -0.00032316980589597571 0 -0.050790719907628776 -0.0005798186782853637 0 -0.050431648182633911 0.00060333660239718628 0 -0.051610179168973987 0.00016219985996896377 0 -0.051273329495221023 -0.00032316980589597571 0 -0.050431648182633911 0.00060333660239718628 0 -0.051863312243996811 -0.00049915804844207498 0 -0.051273329495221023 -0.00032316980589597571 0 -0.05133195810496588 -0.0012148097036995614 0 -0.051273329495221023 -0.00032316980589597571 0 -0.05133195810496588 -0.0012148097036995614 0 -0.050790719907628776 -0.0005798186782853637 0 -0.05133195810496588 -0.0012148097036995614 0 -0.050565718659976437 -0.0012117010952318896 0 -0.050790719907628776 -0.0005798186782853637 0 -0.050565718659976437 -0.0012117010952318896 0 -0.050790719907628776 -0.0005798186782853637 0 -0.050116277391530628 -0.00049578003047124448 0 -0.050565718659976437 -0.0012117010952318896 0 -0.050116277391530628 -0.00049578003047124448 0 -0.049908515888504403 -0.0015552094862321074 0 -0.050116277391530628 -0.00049578003047124448 0 -0.049908515888504403 -0.0015552094862321074 0 -0.049520923553051224 -0.0010305905926530484 0 -0.050116277391530628 -0.00049578003047124448 0 -0.049493075811650841 0.00016471129892946164 0 -0.049520923553051224 -0.0010305905926530484 0 -0.050790719907628776 -0.0005798186782853637 0 -0.050116277391530628 -0.00049578003047124448 0 -0.050431648182633911 0.00060333660239718628 0 -0.050431648182633911 0.00060333660239718628 0 -0.048905300790100303 0.0014952980802343855 0 -0.049493075811650841 0.00016471129892946164 0 -0.052161830958493 0.0012493487413040029 0 -0.048187373919472781 0.0021860716455078645 0 -0.050116277391530628 -0.00049578003047124448 0 -0.050431648182633911 0.00060333660239718628 0 -0.049493075811650841 0.00016471129892946164 0 -0.044437346131952771 -0.0092223999973981494 0 -0.042340463789586037 -0.011002823588840544 0 -0.046314388106095873 -0.010418900180479362 0 -0.039620347774516597 -0.021237072658850765 0 -0.039406414242746497 -0.020052433561294582 0 -0.040989144226045111 -0.020005251174240936 0 -0.041894774546250381 -0.015048085289246478 0 -0.037972089892449198 -0.018400701477378753 0 -0.039620347774516597 -0.021237072658850765 0 -0.037937038776646531 -0.020297450650374131 0 -0.039406414242746497 -0.020052433561294582 0 -0.041894774546250381 -0.015048085289246478 0 -0.039805093579405593 -0.013611299361655912 0 -0.041894774546250381 -0.015048085289246478 0 -0.046419671948021539 -0.0085331150311399179 0 -0.047730420704490253 -0.0063719798068086961 0 -0.046419671948021539 -0.0085331150311399179 0 -0.049908515888504403 -0.0015552094862321074 0 -0.050640832916243807 -0.0021642572848515683 0 -0.049371476155053745 -0.0024061653368722459 0 -0.049908515888504403 -0.0015552094862321074 0 -0.049259385251479798 -0.0017810091265699505 0 -0.049371476155053745 -0.0024061653368722459 0 -0.049908515888504403 -0.0015552094862321074 0 -0.049520923553051224 -0.0010305905926530484 0 -0.049259385251479798 -0.0017810091265699505 0 -0.050565718659976437 -0.0012117010952318896 0 -0.049908515888504403 -0.0015552094862321074 0 -0.050640832916243807 -0.0021642572848515683 0 -0.042340463789586037 -0.011002823588840544 0 -0.040067264646133846 -0.010320078927198795 0 -0.038310728673612869 -0.011585108639067403 0 -0.047730420704490253 -0.0063719798068086961 0 -0.039870061000614687 -0.0062943235077149162 0 -0.05133195810496588 -0.0012148097036995614 0 -0.050640832916243807 -0.0021642572848515683 0 -0.051844290805132164 -0.0019633877523303933 0 -0.05133195810496588 -0.0012148097036995614 0 -0.050565718659976437 -0.0012117010952318896 0 -0.050640832916243807 -0.0021642572848515683 0 -0.040067264646133846 -0.010320078927198795 0 -0.041363984809019184 -0.0093002119715502249 0 -0.038252366037379769 -0.0093889652737162762 0 -0.039805093579405593 -0.013611299361655912 0 -0.031840287440735089 -0.014123217344033118 0 -0.036903871142912686 -0.017790975608431858 0 -0.035396006657774079 -0.016578615070974221 0 -0.033962724229026894 -0.017859907786291106 0 -0.044437346131952771 -0.0092223999973981494 0 -0.042340463789586037 -0.011002823588840544 0 -0.041363984809019184 -0.0093002119715502249 0 -0.042340463789586037 -0.011002823588840544 0 -0.040067264646133846 -0.010320078927198795 0 -0.041363984809019184 -0.0093002119715502249 0 -0.039893161863579302 -0.017688192183007122 0 -0.036903871142912686 -0.017790975608431858 0 -0.036858506885489806 -0.015800103126983288 0 -0.036903871142912686 -0.017790975608431858 0 -0.036858506885489806 -0.015800103126983288 0 -0.035396006657774079 -0.016578615070974221 0 -0.035396006657774079 -0.016578615070974221 0 -0.033962724229026894 -0.017859907786291106 0 -0.033873903597286287 -0.01394837665022472 0 -0.031840287440735089 -0.014123217344033118 0 -0.029344709358449964 -0.019422536487472958 0 -0.021741987199771114 -0.017457004021739417 0 -0.023444522145316646 -0.01840450205286169 0 -0.021792799457917095 -0.020906418007530035 0 -0.021741987199771114 -0.017457004021739417 0 -0.02380226860985591 -0.017404488385195989 0 -0.023444522145316646 -0.01840450205286169 0 -0.031840287440735089 -0.014123217344033118 0 -0.020359775038265752 -0.011727080146505879 0 -0.030174868409577796 -0.0089067655263647925 0 -0.029230069894226284 -0.0099689532756058984 0 -0.027664022202307039 -0.0089776034977447402 0 -0.040067264646133846 -0.010320078927198795 0 -0.038252366037379769 -0.0093889652737162762 0 -0.038310728673612869 -0.011585108639067403 0 -0.034436834911949619 -0.0066389055061985384 0 -0.034429272312929117 -0.0078214194034322993 0 -0.034847938582569071 -0.00776101977114497 0 -0.031840287440735089 -0.014123217344033118 0 -0.039870061000614687 -0.0062943235077149162 0 -0.030174868409577796 -0.0089067655263647925 0 -0.030225146711400964 -0.010964585890079075 0 -0.029230069894226284 -0.0099689532756058984 0 -0.028629047443943345 -0.011201471667679838 0 -0.029230069894226284 -0.0099689532756058984 0 -0.027664022202307039 -0.0089776034977447402 0 -0.039870061000614687 -0.0062943235077149162 0 -0.025558361532600039 -0.0093717035820396928 0 -0.030225146711400964 -0.010964585890079075 0 -0.028629047443943345 -0.011201471667679838 0 -0.029230069894226284 -0.0099689532756058984 0 -0.023358927805475629 -0.01138705074544806 0 -0.024231781708447055 -0.008071197802602962 0 -0.01952002377667621 -0.0088201347552727873 0 -0.025558361532600039 -0.0093717035820396928 0 -0.020359775038265752 -0.011727080146505879 0 -0.018752945518299927 -0.010574435640448208 0 -0.016725066231910623 -0.0098129569159244017 0 -0.015387198021577063 -0.010983775602246473 0 -0.025558361532600039 -0.0093717035820396928 0 -0.016659229336162588 -0.0099698233414197892 0 -0.018752945518299927 -0.010574435640448208 0 -0.016725066231910623 -0.0098129569159244017 0 -0.017979190704060923 -0.0087788703500830921 0 -0.020359775038265752 -0.011727080146505879 0 -0.013886270061713482 -0.009632512997779152 0 -0.016725066231910623 -0.0098129569159244017 0 -0.017979190704060923 -0.0087788703500830921 0 -0.014828138111562481 -0.0089444740882722723 0 -0.01666232097094543 -0.010650602222942587 0 -0.016301732908726389 -0.0098136343387178089 0 -0.014043954426894214 -0.010538175493652656 0 -0.020359775038265752 -0.011727080146505879 0 -0.016370921407326589 -0.021353280607244698 0 -0.02380226860985591 -0.017404488385195989 0 -0.024198735552102543 -0.01845310858836597 0 -0.023444522145316646 -0.01840450205286169 0 -0.024283751761727104 -0.018508543781265426 0 -0.023444522145316646 -0.01840450205286169 0 -0.023768801310365295 -0.020286235336774705 0 -0.016370921407326589 -0.021353280607244698 0 -0.02072572787495066 -0.02098330523468353 0 -0.0096090918084310809 -0.032674632727580533 0 -0.010014241766530421 -0.033843520000984575 0 -0.010617144334977201 -0.033608571333324497 0 -0.024283751761727104 -0.018508543781265426 0 -0.023768801310365295 -0.020286235336774705 0 -0.025365036393749898 -0.021230343513666549 0 -0.016370921407326589 -0.021353280607244698 0 -0.017901803914477522 -0.028057440721605462 0 -0.023768801310365295 -0.020286235336774705 0 -0.025365036393749898 -0.021230343513666549 0 -0.023955510890511157 -0.022321422498119192 0 -0.025365036393749898 -0.021230343513666549 0 -0.023955510890511157 -0.022321422498119192 0 -0.025984138452167186 -0.023611526463516039 0 -0.026183535383312858 -0.023676690947106695 0 -0.025984138452167186 -0.023611526463516039 0 -0.024773607757274 -0.02428696168100869 0 -0.024155458395236754 -0.022216618435022987 0 -0.025955108319292122 -0.023579125504208449 0 -0.025192136072663636 -0.023614448692264388 0 -0.025984138452167186 -0.023611526463516039 0 -0.024773607757274 -0.02428696168100869 0 -0.025192136072663636 -0.023614448692264388 0 -0.02517463368012245 -0.023077164261569305 0 -0.025984138452167186 -0.023611526463516039 0 -0.025192136072663636 -0.023614448692264388 0 -0.024838600545854392 -0.023488288775225904 0 -0.024773607757274 -0.02428696168100869 0 -0.025192136072663636 -0.023614448692264388 0 -0.02517463368012245 -0.023077164261569305 0 -0.024838600545854392 -0.023488288775225904 0 -0.02517463368012245 -0.023077164261569305 0 -0.024838600545854392 -0.023488288775225904 0 -0.024407765157772328 -0.022537278261341939 0 -0.036969461538673302 -0.017344425031676377 0 -0.036237495442809874 -0.019274087348474443 0 -0.037424412077177248 -0.018586659999379675 0 -0.036969461538673302 -0.017344425031676377 0 -0.036237495442809874 -0.019274087348474443 0 -0.036175994539863587 -0.016842638318327229 0 -0.024838600545854392 -0.023488288775225904 0 -0.024407765157772328 -0.022537278261341939 0 -0.024397470183326844 -0.023995254832932338 0 -0.029344709358449964 -0.019422536487472958 0 -0.031260202684359438 -0.022753063549150424 0 -0.035524404719752573 -0.020171722299333939 0 -0.031260202684359438 -0.022753063549150424 0 -0.023768801310365295 -0.020286235336774705 0 -0.023955510890511157 -0.022321422498119192 0 -0.021792799457917095 -0.020906418007530035 0 -0.024155458395236754 -0.022216618435022987 0 -0.029344709358449964 -0.019422536487472958 0 -0.023444522145316646 -0.01840450205286169 0 -0.023768801310365295 -0.020286235336774705 0 -0.021792799457917095 -0.020906418007530035 0 -0.037937038776646531 -0.020297450650374131 0 -0.037424412077177248 -0.018586659999379675 0 -0.039031334378261159 -0.018650947413797168 0 -0.037937038776646531 -0.020297450650374131 0 -0.036237495442809874 -0.019274087348474443 0 -0.037424412077177248 -0.018586659999379675 0 -0.036858506885489806 -0.015800103126983288 0 -0.035396006657774079 -0.016578615070974221 0 -0.033873903597286287 -0.01394837665022472 0 -0.037972089892449198 -0.018400701477378753 0 -0.029344709358449964 -0.019422536487472958 0 -0.038385835809985794 -0.018273368385003479 0 -0.039614035269848663 -0.018140208781837742 0 -0.039705287680996723 -0.019124942335792632 0 -0.036969461538673302 -0.017344425031676377 0 -0.037424412077177248 -0.018586659999379675 0 -0.039031334378261159 -0.018650947413797168 0 -0.035524404719752573 -0.020171722299333939 0 -0.039614888640732475 -0.018752903247132708 0 -0.039614035269848663 -0.018140208781837742 0 -0.040513294791778544 -0.018379579503205509 0 -0.039705287680996723 -0.019124942335792632 0 -0.040513294791778544 -0.018379579503205509 0 -0.039705287680996723 -0.019124942335792632 0 -0.041020206869331062 -0.019154603102763144 0 -0.039614035269848663 -0.018140208781837742 0 -0.040513294791778544 -0.018379579503205509 0 -0.040145826235555196 -0.017523036640201505 0 -0.039614888640732475 -0.018752903247132708 0 -0.040814618095152293 -0.019930782939660691 0 -0.037937038776646531 -0.020297450650374131 0 -0.039031334378261159 -0.018650947413797168 0 -0.039406414242746497 -0.020052433561294582 0 -0.039031334378261159 -0.018650947413797168 0 -0.039406414242746497 -0.020052433561294582 0 -0.040989144226045111 -0.020005251174240936 0 -0.010177570439017505 -0.0097659837473024046 0 -0.011717375992875574 -0.010197637495755406 0 -0.010329840963359243 -0.0089416140732812843 0 -0.011207006543955214 -0.009132790801802999 0 -0.011717375992875574 -0.010197637495755406 0 -0.010329840963359243 -0.0089416140732812843 0 -0.010329078451739405 -0.0097637295437370836 0 -0.012104831489717981 -0.0097412932687960842 0 -0.008350250537249828 -0.033025919124067112 0 -0.0061893439778472042 -0.029710511547889867 0 -0.0083555107704780199 -0.0087964413406575719 0 -0.0092905541913120039 -0.0096196210962930188 0 -0.010329840963359243 -0.0089416140732812843 0 -0.0092905541913120039 -0.0096196210962930188 0 -0.010177570439017505 -0.0097659837473024046 0 -0.010329840963359243 -0.0089416140732812843 0 -0.010177570439017505 -0.0097659837473024046 0 -0.01038381006792052 -0.010363629126236076 0 -0.011150210028708986 -0.010219494492716306 0 -0.010177570439017505 -0.0097659837473024046 0 -0.0095235451769823537 -0.010303422342437958 0 -0.01038381006792052 -0.010363629126236076 0 -0.0092905541913120039 -0.0096196210962930188 0 -0.010177570439017505 -0.0097659837473024046 0 -0.0095235451769823537 -0.010303422342437958 0 -0.0095235451769823537 -0.010303422342437958 0 -0.0098864241121065701 -0.01074834696452566 0 -0.01038381006792052 -0.010363629126236076 0 -0.010479228964212784 -0.010963406548658565 0 -0.0098864241121065701 -0.01074834696452566 0 -0.01038381006792052 -0.010363629126236076 0 -0.010479228964212784 -0.010963406548658565 0 -0.01038381006792052 -0.010363629126236076 0 -0.011094116613069489 -0.010657015230108568 0 -0.010479228964212784 -0.010963406548658565 0 -0.011094116613069489 -0.010657015230108568 0 -0.01242831097982856 -0.011148145824246751 0 -0.01038381006792052 -0.010363629126236076 0 -0.011094116613069489 -0.010657015230108568 0 -0.011150210028708986 -0.010219494492716306 0 -0.010177570439017505 -0.0097659837473024046 0 -0.011150210028708986 -0.010219494492716306 0 -0.012152019268860696 -0.0092632900134508086 0 -0.011150210028708986 -0.010219494492716306 0 -0.01242831097982856 -0.011148145824246751 0 -0.012152019268860696 -0.0092632900134508086 0 -0.011094116613069489 -0.010657015230108568 0 -0.011150210028708986 -0.010219494492716306 0 -0.01242831097982856 -0.011148145824246751 0 -0.01382106805976668 -0.010433070167868781 0 -0.016659229336162588 -0.0099698233414197892 0 -0.017358320407582225 -0.010538632698974136 0 -0.01482281493168802 -0.0097505872169831014 0 -0.01952002377667621 -0.0088201347552727873 0 -0.01242831097982856 -0.011148145824246751 0 -0.013567245281574897 -0.01003951869911013 0 -0.015387198021577063 -0.010983775602246473 0 -0.01242831097982856 -0.011148145824246751 0 -0.013567245281574897 -0.01003951869911013 0 -0.012152019268860696 -0.0092632900134508086 0 -0.013567245281574897 -0.01003951869911013 0 -0.015387198021577063 -0.010983775602246473 0 -0.014828138111562481 -0.0089444740882722723 0 -0.016725066231910623 -0.0098129569159244017 0 -0.015387198021577063 -0.010983775602246473 0 -0.014828138111562481 -0.0089444740882722723 0 -0.0096090918084310809 -0.032674632727580533 0 -0.011427178824319754 -0.032994876628536403 0 -0.010617144334977201 -0.033608571333324497 0 -0.016301732908726389 -0.0098136343387178089 0 -0.014043954426894214 -0.010538175493652656 0 -0.012813310498892965 -0.0092922078715933724 0 -0.016370921407326589 -0.021353280607244698 0 -0.011509236254075728 -0.021177632671530715 0 -0.013567245281574897 -0.01003951869911013 0 -0.014828138111562481 -0.0089444740882722723 0 -0.012152019268860696 -0.0092632900134508086 0 -0.014043954426894214 -0.010538175493652656 0 -0.011717375992875574 -0.010197637495755406 0 -0.012813310498892965 -0.0092922078715933724 0 -0.011207006543955214 -0.009132790801802999 0 -0.011717375992875574 -0.010197637495755406 0 -0.012813310498892965 -0.0092922078715933724 0 -0.013886270061713482 -0.009632512997779152 0 -0.012104831489717981 -0.0097412932687960842 0 -0.008350250537249828 -0.033025919124067112 0 -0.011509236254075728 -0.021177632671530715 0 -0.011427178824319754 -0.032994876628536403 0 -0.011336231828471665 -0.034165182793652639 0 -0.012103274852184388 -0.033944479476121114 0 -0.012520753141745382 -0.033159824863525721 0 -0.011427178824319754 -0.032994876628536403 0 -0.012103274852184388 -0.033944479476121114 0 -0.011427178824319754 -0.032994876628536403 0 -0.011336231828471665 -0.034165182793652639 0 -0.010617144334977201 -0.033608571333324497 0 -0.011336231828471665 -0.034165182793652639 0 -0.010617144334977201 -0.033608571333324497 0 -0.010690077270377645 -0.034364237753572044 0 -0.010014241766530421 -0.033843520000984575 0 -0.010617144334977201 -0.033608571333324497 0 -0.010690077270377645 -0.034364237753572044 0 -0.017901803914477522 -0.028057440721605462 0 -0.019956322376252861 -0.029360831129976075 0 -0.010014241766530421 -0.033843520000984575 0 -0.010690077270377645 -0.034364237753572044 0 -0.010483234922663719 -0.03498474073874621 0 -0.025365036393749898 -0.021230343513666549 0 -0.026183535383312858 -0.023676690947106695 0 -0.025984138452167186 -0.023611526463516039 0 -0.011336231828471665 -0.034165182793652639 0 -0.010690077270377645 -0.034364237753572044 0 -0.010924681846243277 -0.034600088651244129 0 -0.011336231828471665 -0.034165182793652639 0 -0.010924681846243277 -0.034600088651244129 0 -0.011151305227257205 -0.034896959886560809 0 -0.010690077270377645 -0.034364237753572044 0 -0.010924681846243277 -0.034600088651244129 0 -0.010483234922663719 -0.03498474073874621 0 -0.010924681846243277 -0.034600088651244129 0 -0.010483234922663719 -0.03498474073874621 0 -0.011151305227257205 -0.034896959886560809 0 -0.011336231828471665 -0.034165182793652639 0 -0.012103274852184388 -0.033944479476121114 0 -0.012148852293586131 -0.034787756364106304 0 -0.011336231828471665 -0.034165182793652639 0 -0.012148852293586131 -0.034787756364106304 0 -0.011151305227257205 -0.034896959886560809 0 -0.012148852293586131 -0.034787756364106304 0 -0.011151305227257205 -0.034896959886560809 0 -0.011594622895767827 -0.035389603288403008 0 -0.0082296020306699517 -0.042569835596837587 0 -0.0066947501412310097 -0.041796028398946673 0 -0.012148852293586131 -0.034787756364106304 0 -0.013166910061356436 -0.035601938488740222 0 -0.011594622895767827 -0.035389603288403008 0 -0.012148852293586131 -0.034787756364106304 0 -0.012850209038439675 -0.034400838682758304 0 -0.013166910061356436 -0.035601938488740222 0 -0.012103274852184388 -0.033944479476121114 0 -0.012148852293586131 -0.034787756364106304 0 -0.012850209038439675 -0.034400838682758304 0 -0.008350250537249828 -0.033025919124067112 0 -0.0082296020306699517 -0.042569835596837587 0 -0.012520753141745382 -0.033159824863525721 0 -0.012103274852184388 -0.033944479476121114 0 -0.012850209038439675 -0.034400838682758304 0 -0.0033499209983515977 -0.049567080261837669 0 -0.0029114632595519086 -0.048133499439855003 0 -0.0023543008861040523 -0.049552159783825864 0 -0.0039781396632621478 -0.029112201721637129 0 -0.0061893439778472042 -0.029710511547889867 0 0.00046795818168253477 -0.049533535681422852 0 -0.0023543008861040523 -0.049552159783825864 0 -0.0011870864026588778 -0.048241001751513447 0 -0.0029114632595519086 -0.048133499439855003 0 -0.0023543008861040523 -0.049552159783825864 0 -0.0011870864026588778 -0.048241001751513447 0 -0.0011870864026588778 -0.048241001751513447 0 -0.0024634055198686283 -0.046627496691142897 0 -0.00030638598534984095 -0.046501882345761587 0 -0.0029114632595519086 -0.048133499439855003 0 -0.0011870864026588778 -0.048241001751513447 0 -0.0024634055198686283 -0.046627496691142897 0 -0.0066947501412310097 -0.041796028398946673 0 0.0009529211056465975 -0.048000947774932044 0 -9.9182930681673967e-05 -0.048533832458214722 0 -0.00048890110962874188 -0.048730427165537139 0 0.00011334797878049511 -0.048747647488392817 0 -9.9182930681673967e-05 -0.048533832458214722 0 -0.00015563089596305922 -0.048343284330639266 0 -0.00048890110962874188 -0.048730427165537139 0 -0.0083706340897439467 -0.041732312760581036 0 -0.0066947501412310097 -0.041796028398946673 0 -0.00015563089596305922 -0.048343284330639266 0 -0.00021733526869827129 -0.048163145351603452 0 -0.00048890110962874188 -0.048730427165537139 0 -0.012665402996174068 -0.036864008156427312 0 -0.012386394315796724 -0.036456424498584404 0 -0.012456207239830475 -0.035691916964072805 0 -0.012424757732531802 -0.03678157751906902 0 -0.012665402996174068 -0.036864008156427312 0 -0.012386394315796724 -0.036456424498584404 0 -0.00021733526869827129 -0.048163145351603452 0 -0.00013458237126425841 -0.048159534318443123 0 -0.00011248754031328262 -0.048125485491167283 0 -0.00021733526869827129 -0.048163145351603452 0 -0.00013458237126425841 -0.048159534318443123 0 -0.00012262763949463272 -0.048214978928382786 0 -0.00015563089596305922 -0.048343284330639266 0 -0.00021733526869827129 -0.048163145351603452 0 -0.00012262763949463272 -0.048214978928382786 0 -7.0795439932043976e-05 -0.048165351686245188 0 -0.00012262763949463272 -0.048214978928382786 0 -2.6141992980726767e-05 -0.048249913665665688 0 -0.00013458237126425841 -0.048159534318443123 0 -7.0795439932043976e-05 -0.048165351686245188 0 -0.00012262763949463272 -0.048214978928382786 0 -0.00015563089596305922 -0.048343284330639266 0 -0.00012262763949463272 -0.048214978928382786 0 -2.6141992980726767e-05 -0.048249913665665688 0 -0.011903044144810436 -0.036794916431178555 0 -0.012077184508953584 -0.036458220206229026 0 -0.01166575588706306 -0.036610731396685581 0 -0.011903044144810436 -0.036794916431178555 0 -0.012124885019797915 -0.036744304899968015 0 -0.012077184508953584 -0.036458220206229026 0 -0.012124885019797915 -0.036744304899968015 0 -0.012263497502179374 -0.03665606751701897 0 -0.012274398108274683 -0.036848706552604381 0 -0.012424757732531802 -0.03678157751906902 0 -0.012263497502179374 -0.03665606751701897 0 -0.012386394315796724 -0.036456424498584404 0 -0.012424757732531802 -0.03678157751906902 0 -0.012263497502179374 -0.03665606751701897 0 -0.012274398108274683 -0.036848706552604381 0 -0.012124885019797915 -0.036744304899968015 0 -0.012263497502179374 -0.03665606751701897 0 -0.012077184508953584 -0.036458220206229026 0 -0.012386394315796724 -0.036456424498584404 0 -0.012077184508953584 -0.036458220206229026 0 -0.012232777426446986 -0.036139337156904247 0 -0.012263497502179374 -0.03665606751701897 0 -0.012386394315796724 -0.036456424498584404 0 -0.012077184508953584 -0.036458220206229026 0 -0.012077184508953584 -0.036458220206229026 0 -0.012005245712916451 -0.035956019116313784 0 -0.011579850080446485 -0.036280189765216728 0 -0.012386394315796724 -0.036456424498584404 0 -0.012232777426446986 -0.036139337156904247 0 -0.012456207239830475 -0.035691916964072805 0 -0.012005245712916451 -0.035956019116313784 0 -0.012456207239830475 -0.035691916964072805 0 -0.011594622895767827 -0.035389603288403008 0 -0.0066947501412310097 -0.041796028398946673 0 -0.013978912945367673 -0.034479721219694316 0 -0.012077184508953584 -0.036458220206229026 0 -0.012005245712916451 -0.035956019116313784 0 -0.012232777426446986 -0.036139337156904247 0 -0.012005245712916451 -0.035956019116313784 0 -0.012232777426446986 -0.036139337156904247 0 -0.012456207239830475 -0.035691916964072805 0 -0.011594622895767827 -0.035389603288403008 0 -0.010991266548739949 -0.036044984043418271 0 -0.011579850080446485 -0.036280189765216728 0 -0.012005245712916451 -0.035956019116313784 0 -0.011594622895767827 -0.035389603288403008 0 -0.011579850080446485 -0.036280189765216728 0 -0.011151305227257205 -0.034896959886560809 0 -0.011594622895767827 -0.035389603288403008 0 -0.010991266548739949 -0.036044984043418271 0 -0.020634605129524163 -0.031475330460316843 0 -0.020594198529115457 -0.031090150277678818 0 -0.021863202378492524 -0.031298541401286295 0 -0.021212863683500428 -0.032800777645257129 0 -0.020634605129524163 -0.031475330460316843 0 -0.021863202378492524 -0.031298541401286295 0 -0.019956322376252861 -0.029360831129976075 0 -0.015801666845597685 -0.034108647480925271 0 -0.010483234922663719 -0.03498474073874621 0 -0.011151305227257205 -0.034896959886560809 0 -0.010991266548739949 -0.036044984043418271 0 -0.020634605129524163 -0.031475330460316843 0 -0.020594198529115457 -0.031090150277678818 0 -0.020067412743425217 -0.030272896655831438 0 -0.020594198529115457 -0.031090150277678818 0 -0.020796122082640183 -0.030647249809972646 0 -0.021863202378492524 -0.031298541401286295 0 -0.015801666845597685 -0.034108647480925271 0 -0.015539045748862388 -0.034417497981926268 0 -0.020957257502091948 -0.031984045150645457 0 -0.024567581251064188 -0.031530614531686416 0 -0.021015840288938121 -0.031332755611875845 0 -0.020957257502091948 -0.031984045150645457 0 -0.019206259697039058 -0.03474196496480688 0 -0.01791160270866006 -0.033890039775365075 0 -0.019070387482720635 -0.033414347689673551 0 -0.020594198529115457 -0.031090150277678818 0 -0.020756541389099624 -0.030705084538096582 0 -0.020067412743425217 -0.030272896655831438 0 -0.020957257502091948 -0.031984045150645457 0 -0.015539045748862388 -0.034417497981926268 0 -0.010991266548739949 -0.036044984043418271 0 -0.011579850080446485 -0.036280189765216728 0 -0.011396984983809663 -0.036795173353939878 0 -0.012077184508953584 -0.036458220206229026 0 -0.011579850080446485 -0.036280189765216728 0 -0.01166575588706306 -0.036610731396685581 0 -0.011579850080446485 -0.036280189765216728 0 -0.011396984983809663 -0.036795173353939878 0 -0.01166575588706306 -0.036610731396685581 0 -0.011903044144810436 -0.036794916431178555 0 -0.011396984983809663 -0.036795173353939878 0 -0.01166575588706306 -0.036610731396685581 0 -0.015539045748862388 -0.034417497981926268 0 -0.012179330636797278 -0.037463538130330931 0 -0.011903044144810436 -0.036794916431178555 0 -0.011396984983809663 -0.036795173353939878 0 -0.012050761616991418 -0.037150641449672145 0 -0.013146378086088602 -0.037849839007979766 0 -0.013034109710545897 -0.037800070611237635 0 -0.012879661694708618 -0.037757319468447147 0 -0.013034109710545897 -0.037800070611237635 0 -0.013051542837911292 -0.037778482616526443 0 -0.012987727244560706 -0.037758698860218348 0 -0.013689447574205798 -0.036733710078342884 0 -0.014528617663695852 -0.035984612800511143 0 -0.01791160270866006 -0.033890039775365075 0 -0.017433936816651958 -0.032782441885194635 0 -0.018814330956792906 -0.03279025432560391 0 -0.015539045748862388 -0.034417497981926268 0 -0.014528617663695852 -0.035984612800511143 0 -0.013146378086088602 -0.037849839007979766 0 -0.013034109710545897 -0.037800070611237635 0 -0.013088213065664121 -0.03775465562913792 0 -0.012848751992785089 -0.039098016648464268 0 -0.013009658115603047 -0.037734622237696032 0 -0.013564441750790216 -0.037407851095724622 0 -0.012848751992785089 -0.039098016648464268 0 -0.014330198885465781 -0.037522966911691394 0 -0.013564441750790216 -0.037407851095724622 0 -0.014528617663695852 -0.035984612800511143 0 -0.013927295108702784 -0.037768595406037213 0 -0.013034109710545897 -0.037800070611237635 0 -0.012987727244560706 -0.037758698860218348 0 -0.012879661694708618 -0.037757319468447147 0 -0.012987727244560706 -0.037758698860218348 0 -0.013009658115603047 -0.037734622237696032 0 -0.012873576121169407 -0.037517422161331256 0 -0.013051542837911292 -0.037778482616526443 0 -0.012987727244560706 -0.037758698860218348 0 -0.013009658115603047 -0.037734622237696032 0 -0.019206259697039058 -0.03474196496480688 0 -0.019070387482720635 -0.033414347689673551 0 -0.02035224912966015 -0.032234840983978594 0 -0.025139039418883916 -0.030454237858173732 0 -0.026128243116989264 -0.028284573416201136 0 -0.027379839721931924 -0.029993851301207918 0 -0.020957257502091948 -0.031984045150645457 0 -0.023500964160212016 -0.029909370492386123 0 -0.019070387482720635 -0.033414347689673551 0 -0.018814330956792906 -0.03279025432560391 0 -0.02035224912966015 -0.032234840983978594 0 -0.01791160270866006 -0.033890039775365075 0 -0.019070387482720635 -0.033414347689673551 0 -0.018814330956792906 -0.03279025432560391 0 -0.012848751992785089 -0.039098016648464268 0 -0.015728083108283324 -0.036848277065529934 0 -0.014330198885465781 -0.037522966911691394 0 -0.017433936816651958 -0.032782441885194635 0 -0.018814330956792906 -0.03279025432560391 0 -0.019462959501380574 -0.031241784438066932 0 -0.014528617663695852 -0.035984612800511143 0 -0.017364124891966787 -0.034261052331409789 0 -0.018814330956792906 -0.03279025432560391 0 -0.02035224912966015 -0.032234840983978594 0 -0.019462959501380574 -0.031241784438066932 0 -0.014289937464462428 -0.037215565711158381 0 -0.015085936256409027 -0.033951757770172661 0 -0.02035224912966015 -0.032234840983978594 0 -0.019462959501380574 -0.031241784438066932 0 -0.021525083803693588 -0.029695872370487597 0 -0.014330198885465781 -0.037522966911691394 0 -0.013613423634076185 -0.036981003984337624 0 -0.013700524494667594 -0.036841188201230737 0 -0.014330198885465781 -0.037522966911691394 0 -0.016705928256375169 -0.034398606706770071 0 -0.016388653323380395 -0.030567669545135793 0 -0.015728083108283324 -0.036848277065529934 0 -0.014330198885465781 -0.037522966911691394 0 -0.016705928256375169 -0.034398606706770071 0 -0.017364124891966787 -0.034261052331409789 0 -0.022861060043810628 -0.029749969102888459 0 -0.015728083108283324 -0.036848277065529934 0 -0.016705928256375169 -0.034398606706770071 0 -0.020399022477556077 -0.033514618760924778 0 -0.014330198885465781 -0.037522966911691394 0 -0.013541639253714538 -0.037178530201738072 0 -0.013613423634076185 -0.036981003984337624 0 -0.013009658115603047 -0.037734622237696032 0 -0.013131994016126095 -0.037323794195537399 0 -0.012873576121169407 -0.037517422161331256 0 -0.013009658115603047 -0.037734622237696032 0 -0.013564441750790216 -0.037407851095724622 0 -0.013131994016126095 -0.037323794195537399 0 -0.014330198885465781 -0.037522966911691394 0 -0.013564441750790216 -0.037407851095724622 0 -0.013541639253714538 -0.037178530201738072 0 -0.013564441750790216 -0.037407851095724622 0 -0.013541639253714538 -0.037178530201738072 0 -0.013131994016126095 -0.037323794195537399 0 -0.013541639253714538 -0.037178530201738072 0 -0.013131994016126095 -0.037323794195537399 0 -0.013221913945319288 -0.037057958106285677 0 -0.013131994016126095 -0.037323794195537399 0 -0.012946243788411407 -0.037258381534520033 0 -0.013221913945319288 -0.037057958106285677 0 -0.012873576121169407 -0.037517422161331256 0 -0.012504489727525782 -0.037377783999917827 0 -0.012879661694708618 -0.037757319468447147 0 -0.012873576121169407 -0.037517422161331256 0 -0.012665186203744207 -0.037300537437531381 0 -0.012504489727525782 -0.037377783999917827 0 -0.013131994016126095 -0.037323794195537399 0 -0.012946243788411407 -0.037258381534520033 0 -0.012873576121169407 -0.037517422161331256 0 -0.012573694142056807 -0.037435681238238989 0 -0.012179330636797278 -0.037463538130330931 0 -0.012946243788411407 -0.037258381534520033 0 -0.012873576121169407 -0.037517422161331256 0 -0.012665186203744207 -0.037300537437531381 0 -0.012665186203744207 -0.037300537437531381 0 -0.012504323600295667 -0.037335383086186433 0 -0.012504489727525782 -0.037377783999917827 0 -0.012665186203744207 -0.037300537437531381 0 -0.012504323600295667 -0.037335383086186433 0 -0.0125453145512324 -0.037247722181909457 0 -0.012039559544026841 -0.040434729475546639 0 -0.012030708428742902 -0.038577808872419621 0 -0.011894704479899305 -0.038792354116672444 0 -0.012504323600295667 -0.037335383086186433 0 -0.012496839396538411 -0.037346194291249371 0 -0.012504489727525782 -0.037377783999917827 0 -0.012504323600295667 -0.037335383086186433 0 -0.012426045345314335 -0.037244573792100652 0 -0.012488622142582168 -0.03740471677245788 0 -0.012504323600295667 -0.037335383086186433 0 -0.012496839396538411 -0.037346194291249371 0 -0.012488622142582168 -0.03740471677245788 0 -0.012496839396538411 -0.037346194291249371 0 -0.012522341993278696 -0.037191036743323358 0 -0.012488622142582168 -0.03740471677245788 0 -0.012496839396538411 -0.037346194291249371 0 -0.012504489727525782 -0.037377783999917827 0 -0.012522341993278696 -0.037191036743323358 0 -0.012504489727525782 -0.037377783999917827 0 -0.01238480241015665 -0.037170259777167466 0 -0.012522341993278696 -0.037191036743323358 0 -0.00021733526869827129 -0.048163145351603452 0 -5.2327582255568747e-05 -0.047941082319968187 0 1.2823936332843128e-05 -0.047716126182289223 0 -0.0083706340897439467 -0.041732312760581036 0 -0.0057446089519533391 -0.043725399519319016 0 -0.012522341993278696 -0.037191036743323358 0 -0.012468914561675461 -0.037104273622365694 0 -0.012494808162875088 -0.036959982968437451 0 -0.012665402996174068 -0.036864008156427312 0 -0.012522341993278696 -0.037191036743323358 0 -0.012488622142582168 -0.03740471677245788 0 -0.01238480241015665 -0.037170259777167466 0 -0.012522341993278696 -0.037191036743323358 0 -0.012468914561675461 -0.037104273622365694 0 -0.0083706340897439467 -0.041732312760581036 0 -0.012759581384248599 -0.037306265818484195 0 -0.01238480241015665 -0.037170259777167466 0 -0.012468914561675461 -0.037104273622365694 0 -0.012328469825808533 -0.037030587665125639 0 -5.2327582255568747e-05 -0.047941082319968187 0 -9.0998417580960884e-05 -0.048040321684047517 0 4.4959825024062252e-06 -0.048010215482207734 0 -0.00021733526869827129 -0.048163145351603452 0 -5.2327582255568747e-05 -0.047941082319968187 0 -9.0998417580960884e-05 -0.048040321684047517 0 -9.0998417580960884e-05 -0.048040321684047517 0 -3.9817848444968648e-05 -0.048099768200737358 0 4.4959825024062252e-06 -0.048010215482207734 0 -0.00021733526869827129 -0.048163145351603452 0 -9.0998417580960884e-05 -0.048040321684047517 0 -0.00011248754031328262 -0.048125485491167283 0 -9.0998417580960884e-05 -0.048040321684047517 0 -0.00011248754031328262 -0.048125485491167283 0 -3.9817848444968648e-05 -0.048099768200737358 0 -0.00013458237126425841 -0.048159534318443123 0 -7.0795439932043976e-05 -0.048165351686245188 0 -0.00011248754031328262 -0.048125485491167283 0 -7.0795439932043976e-05 -0.048165351686245188 0 -0.00011248754031328262 -0.048125485491167283 0 -3.9817848444968648e-05 -0.048099768200737358 0 -0.012665402996174068 -0.036864008156427312 0 -0.012522341993278696 -0.037191036743323358 0 -0.012494808162875088 -0.036959982968437451 0 -0.012468914561675461 -0.037104273622365694 0 -0.012494808162875088 -0.036959982968437451 0 -0.012328469825808533 -0.037030587665125639 0 -0.012494808162875088 -0.036959982968437451 0 -0.01238751709251276 -0.036893995567378789 0 -0.012328469825808533 -0.037030587665125639 0 -0.012424757732531802 -0.03678157751906902 0 -0.012665402996174068 -0.036864008156427312 0 -0.012494808162875088 -0.036959982968437451 0 -0.012424757732531802 -0.03678157751906902 0 -0.012494808162875088 -0.036959982968437451 0 -0.01238751709251276 -0.036893995567378789 0 -0.012504489727525782 -0.037377783999917827 0 -0.01238480241015665 -0.037170259777167466 0 -0.012050761616991418 -0.037150641449672145 0 -0.012328469825808533 -0.037030587665125639 0 -0.012142191131320302 -0.036917930346704042 0 -0.012050761616991418 -0.037150641449672145 0 -0.01238751709251276 -0.036893995567378789 0 -0.012328469825808533 -0.037030587665125639 0 -0.012274398108274683 -0.036848706552604381 0 -0.012424757732531802 -0.03678157751906902 0 -0.01238751709251276 -0.036893995567378789 0 -0.012274398108274683 -0.036848706552604381 0 -0.012328469825808533 -0.037030587665125639 0 -0.012274398108274683 -0.036848706552604381 0 -0.012142191131320302 -0.036917930346704042 0 -0.012124885019797915 -0.036744304899968015 0 -0.012274398108274683 -0.036848706552604381 0 -0.012142191131320302 -0.036917930346704042 0 -0.011903044144810436 -0.036794916431178555 0 -0.012124885019797915 -0.036744304899968015 0 -0.012142191131320302 -0.036917930346704042 0 -0.011903044144810436 -0.036794916431178555 0 -0.012142191131320302 -0.036917930346704042 0 -0.012050761616991418 -0.037150641449672145 0 -0.012987727244560706 -0.037758698860218348 0 -0.012873576121169407 -0.037517422161331256 0 -0.012879661694708618 -0.037757319468447147 0 -0.01238480241015665 -0.037170259777167466 0 -0.012328469825808533 -0.037030587665125639 0 -0.012050761616991418 -0.037150641449672145 0 -0.036445140227155913 -0.023728164562459041 0 -0.03246389852338858 -0.027925601005374869 0 -0.036445140227155913 -0.023728164562459041 0 -0.03726076796963583 -0.020027994589966659 0 -0.04016835832954703 -0.016343220138883296 0 -0.040145826235555196 -0.017523036640201505 0 -0.041151948614463613 -0.017490827080287697 0 -0.04016835832954703 -0.016343220138883296 0 -0.040145826235555196 -0.017523036640201505 0 -0.039281576700227264 -0.017289821869800794 0 -0.039614035269848663 -0.018140208781837742 0 -0.040145826235555196 -0.017523036640201505 0 -0.039281576700227264 -0.017289821869800794 0 -0.038385835809985794 -0.018273368385003479 0 -0.039614035269848663 -0.018140208781837742 0 -0.039281576700227264 -0.017289821869800794 0 -0.03246389852338858 -0.027925601005374869 0 -0.030491139925654779 -0.02854351110346166 0 -0.033851136372176321 -0.023898513614226943 0 -0.034248460296696918 -0.02335303442966228 0 -0.033332766357925925 -0.023785907189356571 0 -0.035524404719752573 -0.020171722299333939 0 -0.03726076796963583 -0.020027994589966659 0 -0.033752813864952914 -0.024443954009662476 0 -0.034459928338057909 -0.023693392330533532 0 -0.033851136372176321 -0.023898513614226943 0 -0.034459928338057909 -0.023693392330533532 0 -0.033851136372176321 -0.023898513614226943 0 -0.034248460296696918 -0.02335303442966228 0 -0.035199070834876396 -0.022928616529138399 0 -0.034459928338057909 -0.023693392330533532 0 -0.034248460296696918 -0.02335303442966228 0 -0.03137197757496437 -0.032027532947224033 0 -0.029020709844061722 -0.030689488799070051 0 -0.031660541238575771 -0.029220240991489083 0 -0.033845702133213605 -0.031179318153209356 0 -0.03137197757496437 -0.032027532947224033 0 -0.031660541238575771 -0.029220240991489083 0 -0.029075457096697118 -0.031097744617495454 0 -0.030491139925654779 -0.02854351110346166 0 -0.029055123244139208 -0.030225563858140268 0 -0.028139811982168621 -0.031207969245848351 0 -0.029065701691910875 -0.032142902048615855 0 -0.03137197757496437 -0.032027532947224033 0 -0.029020709844061722 -0.030689488799070051 0 -0.029072863619988145 -0.033058127214250853 0 -0.029055123244139208 -0.030225563858140268 0 -0.028139811982168621 -0.031207969245848351 0 -0.027379839721931924 -0.029993851301207918 0 -0.033752813864952914 -0.024443954009662476 0 -0.033851136372176321 -0.023898513614226943 0 -0.033346348986481471 -0.02418911410284497 0 -0.033851136372176321 -0.023898513614226943 0 -0.033332766357925925 -0.023785907189356571 0 -0.033346348986481471 -0.02418911410284497 0 -0.030491139925654779 -0.02854351110346166 0 -0.031260202684359438 -0.022753063549150424 0 -0.024838600545854392 -0.023488288775225904 0 -0.024397470183326844 -0.023995254832932338 0 -0.024773607757274 -0.02428696168100869 0 -0.031260202684359438 -0.022753063549150424 0 -0.027027284363152045 -0.028325921686278052 0 -0.030078541091103944 -0.026818581757762441 0 -0.030073903324819237 -0.026472815836146101 0 -0.030356655641978311 -0.026680198319832718 0 -0.030491139925654779 -0.02854351110346166 0 -0.027027284363152045 -0.028325921686278052 0 -0.028139811982168621 -0.031207969245848351 0 -0.029065701691910875 -0.032142902048615855 0 -0.028306322079910556 -0.032509373767339908 0 -0.019956322376252861 -0.029360831129976075 0 -0.027027284363152045 -0.028325921686278052 0 -0.028139811982168621 -0.031207969245848351 0 -0.028306322079910556 -0.032509373767339908 0 -0.02673668067478183 -0.031494822953330739 0 -0.027027284363152045 -0.028325921686278052 0 -0.024567581251064188 -0.031530614531686416 0 -0.021212863683500428 -0.032800777645257129 0 -0.022943298548069639 -0.031977341759037409 0 -0.021863202378492524 -0.031298541401286295 0 -0.025139039418883916 -0.030454237858173732 0 -0.02673668067478183 -0.031494822953330739 0 -0.027379839721931924 -0.029993851301207918 0 -0.028139811982168621 -0.031207969245848351 0 -0.02673668067478183 -0.031494822953330739 0 -0.027379839721931924 -0.029993851301207918 0 -0.026128243116989264 -0.028284573416201136 0 -0.027379839721931924 -0.029993851301207918 0 -0.029066691628328801 -0.028258072276270894 0 -0.026128243116989264 -0.028284573416201136 0 -0.028238401091952067 -0.026912473855968577 0 -0.029066691628328801 -0.028258072276270894 0 -0.026128243116989264 -0.028284573416201136 0 -0.027150155941128743 -0.026034875205982341 0 -0.028238401091952067 -0.026912473855968577 0 -0.023500964160212016 -0.029909370492386123 0 -0.022861060043810628 -0.029749969102888459 0 -0.027150155941128743 -0.026034875205982341 0 -0.028238401091952067 -0.026912473855968577 0 -0.02906497520315094 -0.025779956298140373 0 -0.028238401091952067 -0.026912473855968577 0 -0.029995064130449618 -0.026286477193114399 0 -0.029066691628328801 -0.028258072276270894 0 -0.029995064130449618 -0.026286477193114399 0 -0.029066691628328801 -0.028258072276270894 0 -0.031145276585569683 -0.027081255200458728 0 -0.028238401091952067 -0.026912473855968577 0 -0.029995064130449618 -0.026286477193114399 0 -0.02906497520315094 -0.025779956298140373 0 -0.029055123244139208 -0.030225563858140268 0 -0.027379839721931924 -0.029993851301207918 0 -0.029066691628328801 -0.028258072276270894 0 -0.029020709844061722 -0.030689488799070051 0 -0.029066691628328801 -0.028258072276270894 0 -0.031660541238575771 -0.029220240991489083 0 -0.029075457096697118 -0.031097744617495454 0 -0.029044807151837364 -0.028313613282485599 0 -0.031660541238575771 -0.029220240991489083 0 -0.031145276585569683 -0.027081255200458728 0 -0.033421621741271057 -0.026686381562888377 0 -0.029066691628328801 -0.028258072276270894 0 -0.031660541238575771 -0.029220240991489083 0 -0.031145276585569683 -0.027081255200458728 0 -0.031145276585569683 -0.027081255200458728 0 -0.033421621741271057 -0.026686381562888377 0 -0.031606058740257702 -0.025357010184215177 0 -0.029995064130449618 -0.026286477193114399 0 -0.031145276585569683 -0.027081255200458728 0 -0.031606058740257702 -0.025357010184215177 0 -0.033421621741271057 -0.026686381562888377 0 -0.034265990696786028 -0.028537743364021761 0 -0.036032612988332602 -0.027149937299935031 0 -0.033845702133213605 -0.031179318153209356 0 -0.031660541238575771 -0.029220240991489083 0 -0.034265990696786028 -0.028537743364021761 0 -0.031660541238575771 -0.029220240991489083 0 -0.033421621741271057 -0.026686381562888377 0 -0.034265990696786028 -0.028537743364021761 0 -0.032645372860510842 -0.023210283072892995 0 -0.032710856312289704 -0.024784556675369208 0 -0.034124042682860706 -0.024346813428442114 0 -0.032645372860510842 -0.023210283072892995 0 -0.032710856312289704 -0.024784556675369208 0 -0.031748477781337221 -0.024313732302131023 0 -0.027758315178054712 -0.026245983675397697 0 -0.032284405237528596 -0.022573199811094357 0 -0.023726484047381292 -0.029034165820779188 0 -0.02294520046655851 -0.028394393549518924 0 -0.023150143746443218 -0.029182153207749455 0 -0.023726484047381292 -0.029034165820779188 0 -0.023483526104550248 -0.029493888858260518 0 -0.023150143746443218 -0.029182153207749455 0 -0.033421621741271057 -0.026686381562888377 0 -0.032710856312289704 -0.024784556675369208 0 -0.034124042682860706 -0.024346813428442114 0 -0.033421621741271057 -0.026686381562888377 0 -0.032710856312289704 -0.024784556675369208 0 -0.031606058740257702 -0.025357010184215177 0 -0.03457919895150726 -0.025635298413520656 0 -0.032284405237528596 -0.022573199811094357 0 -0.032710856312289704 -0.024784556675369208 0 -0.031606058740257702 -0.025357010184215177 0 -0.031748477781337221 -0.024313732302131023 0 -0.031606058740257702 -0.025357010184215177 0 -0.030857338755585249 -0.024548865999509385 0 -0.031748477781337221 -0.024313732302131023 0 -0.029995064130449618 -0.026286477193114399 0 -0.031606058740257702 -0.025357010184215177 0 -0.030317149853545756 -0.025212424522222332 0 -0.031606058740257702 -0.025357010184215177 0 -0.030317149853545756 -0.025212424522222332 0 -0.030857338755585249 -0.024548865999509385 0 -0.030317149853545756 -0.025212424522222332 0 -0.030857338755585249 -0.024548865999509385 0 -0.029504975778391011 -0.024503965355040659 0 -0.030857338755585249 -0.024548865999509385 0 -0.031116164758164425 -0.023499018852381832 0 -0.029504975778391011 -0.024503965355040659 0 -0.031116164758164425 -0.023499018852381832 0 -0.027443567081453995 -0.024263993676979317 0 -0.02653092672345311 -0.02742924996583735 0 -0.030715546033214407 -0.023834994033733639 0 -0.028402743640648025 -0.025638666623899142 0 -0.032645372860510842 -0.023210283072892995 0 -0.031116164758164425 -0.023499018852381832 0 -0.029193882969375876 -0.020276964162471486 0 -0.030857338755585249 -0.024548865999509385 0 -0.031748477781337221 -0.024313732302131023 0 -0.031116164758164425 -0.023499018852381832 0 -0.032645372860510842 -0.023210283072892995 0 -0.031748477781337221 -0.024313732302131023 0 -0.031116164758164425 -0.023499018852381832 0 -0.031116164758164425 -0.023499018852381832 0 -0.027443567081453995 -0.024263993676979317 0 -0.029193882969375876 -0.020276964162471486 0 -0.025475828328195785 -0.023022467807832295 0 -0.023253600067260561 -0.027871663759908637 0 -0.027443567081453995 -0.024263993676979317 0 -0.025651656440334788 -0.022656514719174951 0 -0.023935811962378453 -0.026649481294557097 0 -0.027443567081453995 -0.024263993676979317 0 -0.02653092672345311 -0.02742924996583735 0 -0.023935811962378453 -0.026649481294557097 0 -0.027150155941128743 -0.026034875205982341 0 -0.029504975778391011 -0.024503965355040659 0 -0.02906497520315094 -0.025779956298140373 0 -0.022861060043810628 -0.029749969102888459 0 -0.028402743640648025 -0.025638666623899142 0 -0.030317149853545756 -0.025212424522222332 0 -0.029504975778391011 -0.024503965355040659 0 -0.02906497520315094 -0.025779956298140373 0 -0.029995064130449618 -0.026286477193114399 0 -0.030317149853545756 -0.025212424522222332 0 -0.02906497520315094 -0.025779956298140373 0 -0.022092867449283488 -0.030749785178909469 0 -0.02653092672345311 -0.02742924996583735 0 -0.023935811962378453 -0.026649481294557097 0 -0.022861060043810628 -0.029749969102888459 0 -0.023253600067260561 -0.027871663759908637 0 -0.020399022477556077 -0.033514618760924778 0 -0.02291692967589851 -0.028405782106343227 0 -0.019576188455239518 -0.028856402887325921 0 -0.020399022477556077 -0.033514618760924778 0 -0.019576188455239518 -0.028856402887325921 0 -0.016388653323380395 -0.030567669545135793 0 -0.025651656440334788 -0.022656514719174951 0 -0.02291692967589851 -0.028405782106343227 0 -0.020733592023706542 -0.025834981685122382 0 -0.019576188455239518 -0.028856402887325921 0 -0.019244763477224678 -0.023403248818312152 0 -0.016388653323380395 -0.030567669545135793 0 -0.019576188455239518 -0.028856402887325921 0 -0.020733592023706542 -0.025834981685122382 0 -0.019244763477224678 -0.023403248818312152 0 -0.02291692967589851 -0.028405782106343227 0 -0.019576188455239518 -0.028856402887325921 0 -0.020733592023706542 -0.025834981685122382 0 -0.019244763477224678 -0.023403248818312152 0 -0.021298722274629908 -0.017659874392535659 0 -0.02256677612386614 -0.018497007391597379 0 -0.025651656440334788 -0.022656514719174951 0 -0.020733592023706542 -0.025834981685122382 0 -0.023759459697562605 -0.016087661877996942 0 -0.020733592023706542 -0.025834981685122382 0 -0.019244763477224678 -0.023403248818312152 0 -0.02256677612386614 -0.018497007391597379 0 -0.013596563711296718 -0.036717408363129415 0 -0.013569573582676393 -0.036859691516684855 0 -0.013587459222191798 -0.036817976378511585 0 -0.021475199706217644 -0.021892883260507662 0 -0.022102934644635631 -0.025656495504852397 0 -0.016267698093509544 -0.029336764371470231 0 -0.01970403575889873 -0.031300961481291793 0 -0.013596563711296718 -0.036717408363129415 0 -0.013569573582676393 -0.036859691516684855 0 -0.013535943126472058 -0.036888750387101064 0 -0.013569573582676393 -0.036859691516684855 0 -0.013571055714056453 -0.036914824531435943 0 -0.013566149103408264 -0.036903228476680497 0 -0.01334234141236307 -0.039729682659694607 0 -0.01970403575889873 -0.031300961481291793 0 -0.013569573582676393 -0.036859691516684855 0 -0.013571055714056453 -0.036914824531435943 0 -0.013535943126472058 -0.036888750387101064 0 -0.019620595899424234 -0.035799057972175627 0 -0.018828906167050796 -0.035746690454637645 0 -0.018975909675485764 -0.03531674243880091 0 -0.018828906167050796 -0.035746690454637645 0 -0.01900219622695112 -0.035261117999878744 0 -0.018577696825294674 -0.034969533840541876 0 -0.018819491824465809 -0.034402173800042249 0 -0.01970403575889873 -0.031300961481291793 0 -0.01970403575889873 -0.031300961481291793 0 -0.022102934644635631 -0.025656495504852397 0 -0.02577385128661239 -0.03037609792381589 0 -0.02475041342507622 -0.030675363211974522 0 -0.025364461023722078 -0.031976256558104467 0 -0.018828906167050796 -0.035746690454637645 0 -0.018577696825294674 -0.034969533840541876 0 -0.018134044437469146 -0.036765930746457183 0 -0.02577385128661239 -0.03037609792381589 0 -0.024627996867126752 -0.029635975144503734 0 -0.02475041342507622 -0.030675363211974522 0 -0.025651656440334788 -0.022656514719174951 0 -0.023759459697562605 -0.016087661877996942 0 -0.029193882969375876 -0.020276964162471486 0 -0.022102934644635631 -0.025656495504852397 0 -0.027175280221305938 -0.024827289536434673 0 -0.027443567081453995 -0.024263993676979317 0 -0.025651656440334788 -0.022656514719174951 0 -0.029193882969375876 -0.020276964162471486 0 -0.023726484047381292 -0.029034165820779188 0 -0.023928925211145414 -0.029641092243316954 0 -0.024627996867126752 -0.029635975144503734 0 -0.027758315178054712 -0.026245983675397697 0 -0.027175280221305938 -0.024827289536434673 0 -0.023928925211145414 -0.029641092243316954 0 -0.024627996867126752 -0.029635975144503734 0 -0.0240001256080263 -0.030309734851409219 0 -0.02475041342507622 -0.030675363211974522 0 -0.0240001256080263 -0.030309734851409219 0 -0.023823648167659119 -0.031458350090614179 0 -0.024627996867126752 -0.029635975144503734 0 -0.02475041342507622 -0.030675363211974522 0 -0.0240001256080263 -0.030309734851409219 0 -0.0240001256080263 -0.030309734851409219 0 -0.023474351682961681 -0.030550633940942207 0 -0.023567279550616535 -0.029970103824462069 0 -0.023474351682961681 -0.030550633940942207 0 -0.022992993738991042 -0.030814502418658081 0 -0.023823648167659119 -0.031458350090614179 0 -0.0240001256080263 -0.030309734851409219 0 -0.023474351682961681 -0.030550633940942207 0 -0.023823648167659119 -0.031458350090614179 0 -0.023474351682961681 -0.030550633940942207 0 -0.022992993738991042 -0.030814502418658081 0 -0.02310948323169593 -0.030224615896962896 0 -0.023474351682961681 -0.030550633940942207 0 -0.023567279550616535 -0.029970103824462069 0 -0.02310948323169593 -0.030224615896962896 0 -0.023567279550616535 -0.029970103824462069 0 -0.023483526104550248 -0.029493888858260518 0 -0.023065515899100018 -0.029658407455463207 0 -0.023567279550616535 -0.029970103824462069 0 -0.023065515899100018 -0.029658407455463207 0 -0.02310948323169593 -0.030224615896962896 0 -0.023928925211145414 -0.029641092243316954 0 -0.0240001256080263 -0.030309734851409219 0 -0.023567279550616535 -0.029970103824462069 0 -0.023928925211145414 -0.029641092243316954 0 -0.023567279550616535 -0.029970103824462069 0 -0.023483526104550248 -0.029493888858260518 0 -0.023726484047381292 -0.029034165820779188 0 -0.023928925211145414 -0.029641092243316954 0 -0.023483526104550248 -0.029493888858260518 0 -0.023483526104550248 -0.029493888858260518 0 -0.023150143746443218 -0.029182153207749455 0 -0.023065515899100018 -0.029658407455463207 0 -0.01274541162240252 -0.036906614733716016 0 -0.013057927172684185 -0.03692294144438231 0 -0.013109828246532425 -0.036708688456487018 0 -0.01274541162240252 -0.036906614733716016 0 -0.012749039547776501 -0.0366611137910135 0 -0.013109828246532425 -0.036708688456487018 0 -0.01274541162240252 -0.036906614733716016 0 -0.012749039547776501 -0.0366611137910135 0 -0.012448590211439922 -0.036782655769789931 0 -0.012448590211439922 -0.036782655769789931 0 -0.012293625652336744 -0.036938992616868609 0 -0.012188475430639171 -0.03683653223866043 0 -0.012448590211439922 -0.036782655769789931 0 -0.012118225917182462 -0.036602747870959358 0 -0.012188475430639171 -0.03683653223866043 0 -0.012293625652336744 -0.036938992616868609 0 -0.012469500890117882 -0.036985890726515168 0 -0.012353661040098118 -0.037095987523760594 0 -0.012448590211439922 -0.036782655769789931 0 -0.012293625652336744 -0.036938992616868609 0 -0.012469500890117882 -0.036985890726515168 0 -0.01274541162240252 -0.036906614733716016 0 -0.012448590211439922 -0.036782655769789931 0 -0.012469500890117882 -0.036985890726515168 0 -0.01274541162240252 -0.036906614733716016 0 -0.012469500890117882 -0.036985890726515168 0 -0.012548248634448781 -0.03710905891881839 0 -0.012469500890117882 -0.036985890726515168 0 -0.012548248634448781 -0.03710905891881839 0 -0.012353661040098118 -0.037095987523760594 0 -0.012548248634448781 -0.03710905891881839 0 -0.012353661040098118 -0.037095987523760594 0 -0.012426045345314335 -0.037244573792100652 0 -0.012504323600295667 -0.037335383086186433 0 -0.012426045345314335 -0.037244573792100652 0 -0.0125453145512324 -0.037247722181909457 0 -0.012548248634448781 -0.03710905891881839 0 -0.012426045345314335 -0.037244573792100652 0 -0.0125453145512324 -0.037247722181909457 0 -0.012548248634448781 -0.03710905891881839 0 -0.0125453145512324 -0.037247722181909457 0 -0.012788201078858703 -0.037118996807872839 0 -0.012946243788411407 -0.037258381534520033 0 -0.012665186203744207 -0.037300537437531381 0 -0.012788201078858703 -0.037118996807872839 0 -0.012665186203744207 -0.037300537437531381 0 -0.0125453145512324 -0.037247722181909457 0 -0.012788201078858703 -0.037118996807872839 0 -0.01274541162240252 -0.036906614733716016 0 -0.012788201078858703 -0.037118996807872839 0 -0.013057927172684185 -0.03692294144438231 0 -0.01274541162240252 -0.036906614733716016 0 -0.012548248634448781 -0.03710905891881839 0 -0.012788201078858703 -0.037118996807872839 0 -0.012946243788411407 -0.037258381534520033 0 -0.012788201078858703 -0.037118996807872839 0 -0.013221913945319288 -0.037057958106285677 0 -0.012788201078858703 -0.037118996807872839 0 -0.013057927172684185 -0.03692294144438231 0 -0.013221913945319288 -0.037057958106285677 0 -0.013221913945319288 -0.037057958106285677 0 -0.013425868063951638 -0.036838485950795717 0 -0.013613423634076185 -0.036981003984337624 0 -0.013541639253714538 -0.037178530201738072 0 -0.013221913945319288 -0.037057958106285677 0 -0.013613423634076185 -0.036981003984337624 0 -0.013057927172684185 -0.03692294144438231 0 -0.013221913945319288 -0.037057958106285677 0 -0.013425868063951638 -0.036838485950795717 0 -0.016705928256375169 -0.034398606706770071 0 -0.020399022477556077 -0.033514618760924778 0 -0.016388653323380395 -0.030567669545135793 0 -0.013425868063951638 -0.036838485950795717 0 -0.013613423634076185 -0.036981003984337624 0 -0.013700524494667594 -0.036841188201230737 0 -0.013425868063951638 -0.036838485950795717 0 -0.013700524494667594 -0.036841188201230737 0 -0.013619085279113504 -0.036740195093926675 0 -0.016267698093509544 -0.029336764371470231 0 -0.015085936256409027 -0.033951757770172661 0 -0.013596563711296718 -0.036717408363129415 0 -0.013619085279113504 -0.036740195093926675 0 -0.013631239400427131 -0.036792137216182172 0 -0.013596563711296718 -0.036717408363129415 0 -0.013700524494667594 -0.036841188201230737 0 -0.013619085279113504 -0.036740195093926675 0 -0.013592975366879657 -0.036692241066142453 0 -0.013588046626192089 -0.036737446036255318 0 -0.013425868063951638 -0.036838485950795717 0 -0.013619085279113504 -0.036740195093926675 0 -0.013371907995856509 -0.036683520643893582 0 -0.013619085279113504 -0.036740195093926675 0 -0.013371907995856509 -0.036683520643893582 0 -0.01331680547157974 -0.036415702822332412 0 -0.013057927172684185 -0.03692294144438231 0 -0.013425868063951638 -0.036838485950795717 0 -0.013109828246532425 -0.036708688456487018 0 -0.013425868063951638 -0.036838485950795717 0 -0.013371907995856509 -0.036683520643893582 0 -0.013109828246532425 -0.036708688456487018 0 -0.013371907995856509 -0.036683520643893582 0 -0.013109828246532425 -0.036708688456487018 0 -0.01331680547157974 -0.036415702822332412 0 -0.01331680547157974 -0.036415702822332412 0 -0.012974650414107433 -0.036044026997350022 0 -0.012862578261501166 -0.03637670307534302 0 -0.013109828246532425 -0.036708688456487018 0 -0.01331680547157974 -0.036415702822332412 0 -0.012862578261501166 -0.03637670307534302 0 -0.013619085279113504 -0.036740195093926675 0 -0.013753394989160991 -0.03679775346554244 0 -0.013631239400427131 -0.036792137216182172 0 -0.013596563711296718 -0.036717408363129415 0 -0.013631239400427131 -0.036792137216182172 0 -0.013587459222191798 -0.036817976378511585 0 -0.013631239400427131 -0.036792137216182172 0 -0.013566149103408264 -0.036903228476680497 0 -0.013691858953705687 -0.036968501522156555 0 -0.013753394989160991 -0.03679775346554244 0 -0.013631239400427131 -0.036792137216182172 0 -0.013691858953705687 -0.036968501522156555 0 -0.013631239400427131 -0.036792137216182172 0 -0.013587459222191798 -0.036817976378511585 0 -0.013566149103408264 -0.036903228476680497 0 -0.013569573582676393 -0.036859691516684855 0 -0.013587459222191798 -0.036817976378511585 0 -0.013566149103408264 -0.036903228476680497 0 -0.01339863018224622 -0.037182970130277743 0 -0.01369261953984933 -0.037194714560310517 0 -0.013594346157760256 -0.0370561000258837 0 -0.013566149103408264 -0.036903228476680497 0 -0.013691858953705687 -0.036968501522156555 0 -0.013594346157760256 -0.0370561000258837 0 -0.013691858953705687 -0.036968501522156555 0 -0.01369261953984933 -0.037194714560310517 0 -0.013594346157760256 -0.0370561000258837 0 -0.01339863018224622 -0.037182970130277743 0 -0.013566149103408264 -0.036903228476680497 0 -0.013594346157760256 -0.0370561000258837 0 -0.01334234141236307 -0.039729682659694607 0 -0.013984224862951108 -0.036486660331526179 0 -0.013753394989160991 -0.03679775346554244 0 -0.013691858953705687 -0.036968501522156555 0 -0.013972599612534815 -0.037111723698410481 0 -0.01369261953984933 -0.037194714560310517 0 -0.013972599612534815 -0.037111723698410481 0 -0.013856728975803576 -0.03730710871653875 0 -0.013691858953705687 -0.036968501522156555 0 -0.01369261953984933 -0.037194714560310517 0 -0.013972599612534815 -0.037111723698410481 0 -0.013588046626192089 -0.036737446036255318 0 -0.013461900700979921 -0.035855568242585963 0 -0.012974650414107433 -0.036044026997350022 0 -0.012487086760092688 -0.036066008185008665 0 -0.01261900087891674 -0.035636127639587012 0 -0.012974650414107433 -0.036044026997350022 0 -0.012862578261501166 -0.03637670307534302 0 -0.012487086760092688 -0.036066008185008665 0 -0.012749039547776501 -0.0366611137910135 0 -0.013109828246532425 -0.036708688456487018 0 -0.012862578261501166 -0.03637670307534302 0 -0.012749039547776501 -0.0366611137910135 0 -0.012862578261501166 -0.03637670307534302 0 -0.012477831463964041 -0.036442958513797107 0 -0.012477831463964041 -0.036442958513797107 0 -0.012009269191520231 -0.036190506087332701 0 -0.012118225917182462 -0.036602747870959358 0 -0.012448590211439922 -0.036782655769789931 0 -0.012477831463964041 -0.036442958513797107 0 -0.012118225917182462 -0.036602747870959358 0 -0.012749039547776501 -0.0366611137910135 0 -0.012448590211439922 -0.036782655769789931 0 -0.012477831463964041 -0.036442958513797107 0 -0.012862578261501166 -0.03637670307534302 0 -0.012477831463964041 -0.036442958513797107 0 -0.012487086760092688 -0.036066008185008665 0 -0.012477831463964041 -0.036442958513797107 0 -0.012487086760092688 -0.036066008185008665 0 -0.012009269191520231 -0.036190506087332701 0 -0.012487086760092688 -0.036066008185008665 0 -0.012009269191520231 -0.036190506087332701 0 -0.011968650377647246 -0.035725365897663952 0 -0.012009269191520231 -0.036190506087332701 0 -0.011715002122645139 -0.036053567680333451 0 -0.011968650377647246 -0.035725365897663952 0 -0.012009269191520231 -0.036190506087332701 0 -0.011715002122645139 -0.036053567680333451 0 -0.011587722833774974 -0.036423402169622941 0 -0.0056471460627342202 -0.041100055403744749 0 -0.0042110484273822149 -0.043074815003860942 0 0.00044713585441580295 -0.046518614107610358 0 0.00070912276255061669 -0.046340461510630343 0 0.00059438017378964938 -0.046134108557976485 0 -0.011715002122645139 -0.036053567680333451 0 -0.011587722833774974 -0.036423402169622941 0 -0.01130487555457086 -0.035869483714958378 0 0.00044713585441580295 -0.046518614107610358 0 0.00087381325613872631 -0.046664886110240514 0 0.00070912276255061669 -0.046340461510630343 0 0.00044713585441580295 -0.046518614107610358 0 0.00064992636963871644 -0.046802612570645961 0 0.00087381325613872631 -0.046664886110240514 0 0.00044713585441580295 -0.046518614107610358 0 0.00064992636963871644 -0.046802612570645961 0 0.00049722020117037077 -0.047005548010002604 0 -0.011587722833774974 -0.036423402169622941 0 -0.012118225917182462 -0.036602747870959358 0 -0.011969342448745795 -0.036986543197146601 0 -0.012009269191520231 -0.036190506087332701 0 -0.011587722833774974 -0.036423402169622941 0 -0.012118225917182462 -0.036602747870959358 0 -0.012118225917182462 -0.036602747870959358 0 -0.012188475430639171 -0.03683653223866043 0 -0.011969342448745795 -0.036986543197146601 0 -0.0056471460627342202 -0.041100055403744749 0 -0.0058003657010513932 -0.042244871880445706 0 -0.011587722833774974 -0.036423402169622941 0 -0.011792897293365856 -0.037312059010430408 0 -0.011969342448745795 -0.036986543197146601 0 -0.012293625652336744 -0.036938992616868609 0 -0.012188475430639171 -0.03683653223866043 0 -0.011969342448745795 -0.036986543197146601 0 -0.012293625652336744 -0.036938992616868609 0 -0.012353661040098118 -0.037095987523760594 0 -0.011969342448745795 -0.036986543197146601 0 0.00044713585441580295 -0.046518614107610358 0 0.00020608199219522379 -0.047157154738332624 0 0.00049722020117037077 -0.047005548010002604 0 0.00064992636963871644 -0.046802612570645961 0 0.00049722020117037077 -0.047005548010002604 0 0.00078274965450030834 -0.047033404750528793 0 0.00049722020117037077 -0.047005548010002604 0 0.00056071786812085165 -0.047303050612073953 0 0.00078274965450030834 -0.047033404750528793 0 0.00020608199219522379 -0.047157154738332624 0 0.00049722020117037077 -0.047005548010002604 0 0.00039597782587514051 -0.047220863751862616 0 0.00049722020117037077 -0.047005548010002604 0 0.00039597782587514051 -0.047220863751862616 0 0.00056071786812085165 -0.047303050612073953 0 0.00056071786812085165 -0.047303050612073953 0 0.00091992859350649653 -0.047518046321879864 0 0.00078274965450030834 -0.047033404750528793 0 0.00039597782587514051 -0.047220863751862616 0 0.00038357159693779914 -0.047373622821817805 0 0.00056071786812085165 -0.047303050612073953 0 0.00056071786812085165 -0.047303050612073953 0 0.00091992859350649653 -0.047518046321879864 0 0.00052687884578905841 -0.047595951887748213 0 0.00038357159693779914 -0.047373622821817805 0 0.00056071786812085165 -0.047303050612073953 0 0.00052687884578905841 -0.047595951887748213 0 0.00038357159693779914 -0.047373622821817805 0 0.00024846332556535639 -0.047578875496223645 0 0.00052687884578905841 -0.047595951887748213 0 -0.011792897293365856 -0.037312059010430408 0 -0.012030708428742902 -0.038577808872419621 0 -0.011894704479899305 -0.038792354116672444 0 -0.012426045345314335 -0.037244573792100652 0 -0.011969342448745795 -0.036986543197146601 0 -0.012488622142582168 -0.03740471677245788 0 0.00020608199219522379 -0.047157154738332624 0 0.00024846332556535639 -0.047578875496223645 0 1.2823936332843128e-05 -0.047716126182289223 0 -0.011792897293365856 -0.037312059010430408 0 -0.011969342448745795 -0.036986543197146601 0 -0.012030708428742902 -0.038577808872419621 0 0.00020608199219522379 -0.047157154738332624 0 0.00038357159693779914 -0.047373622821817805 0 0.00024846332556535639 -0.047578875496223645 0 -0.012353661040098118 -0.037095987523760594 0 -0.012426045345314335 -0.037244573792100652 0 -0.011969342448745795 -0.036986543197146601 0 -0.011854629795607344 -0.037251483061236337 0 -0.012759581384248599 -0.037306265818484195 0 -0.0058003657010513932 -0.042244871880445706 0 -0.0057446089519533391 -0.043725399519319016 0 0.00020608199219522379 -0.047157154738332624 0 0.00039597782587514051 -0.047220863751862616 0 0.00038357159693779914 -0.047373622821817805 0 0.0014423849154717263 -0.047517455744910425 0 0.0023737775738207644 -0.047755422486434919 0 0.0020493974235573031 -0.048205026567143136 0 0.0014423849154717263 -0.047517455744910425 0 0.0020522561449324525 -0.04703588154250056 0 0.0023737775738207644 -0.047755422486434919 0 0.0014423849154717263 -0.047517455744910425 0 0.00091992859350649653 -0.047518046321879864 0 0.0010168149356568901 -0.047911447446573177 0 0.0014423849154717263 -0.047517455744910425 0 0.00091992859350649653 -0.047518046321879864 0 0.0012612346012282063 -0.047049840506620123 0 0.00091992859350649653 -0.047518046321879864 0 0.00078274965450030834 -0.047033404750528793 0 0.0012612346012282063 -0.047049840506620123 0 0.00064992636963871644 -0.046802612570645961 0 0.00078274965450030834 -0.047033404750528793 0 0.00087381325613872631 -0.046664886110240514 0 0.00078274965450030834 -0.047033404750528793 0 0.0012612346012282063 -0.047049840506620123 0 0.00087381325613872631 -0.046664886110240514 0 0.0014423849154717263 -0.047517455744910425 0 0.0012612346012282063 -0.047049840506620123 0 0.0020522561449324525 -0.04703588154250056 0 0.0012612346012282063 -0.047049840506620123 0 0.0013942435031550821 -0.046691790637993939 0 0.0020522561449324525 -0.04703588154250056 0 0.0013942435031550821 -0.046691790637993939 0 0.0010398480284870885 -0.046380477065053639 0 0.0016731751081194455 -0.046411085881247302 0 0.0013942435031550821 -0.046691790637993939 0 0.0016731751081194455 -0.046411085881247302 0 0.0020522561449324525 -0.04703588154250056 0 0.00087381325613872631 -0.046664886110240514 0 0.00070912276255061669 -0.046340461510630343 0 0.0010398480284870885 -0.046380477065053639 0 0.0012612346012282063 -0.047049840506620123 0 0.0013942435031550821 -0.046691790637993939 0 0.00087381325613872631 -0.046664886110240514 0 0.0013942435031550821 -0.046691790637993939 0 0.00087381325613872631 -0.046664886110240514 0 0.0010398480284870885 -0.046380477065053639 0 0.0010398480284870885 -0.046380477065053639 0 0.0011581280625973195 -0.046193294916024336 0 0.00066189908801723703 -0.046197654747865184 0 0.00070912276255061669 -0.046340461510630343 0 0.0010398480284870885 -0.046380477065053639 0 0.00066189908801723703 -0.046197654747865184 0 0.00070912276255061669 -0.046340461510630343 0 0.00066189908801723703 -0.046197654747865184 0 0.00059438017378964938 -0.046134108557976485 0 0.0010398480284870885 -0.046380477065053639 0 0.0011581280625973195 -0.046193294916024336 0 0.0016731751081194455 -0.046411085881247302 0 0.0011581280625973195 -0.046193294916024336 0 0.0016731751081194455 -0.046411085881247302 0 0.0017186197353073114 -0.045945045865882723 0 0.003038392102738075 -0.046404318784107591 0 0.0016731751081194455 -0.046411085881247302 0 0.0017186197353073114 -0.045945045865882723 0 0.002937697652724656 -0.046424252706901196 0 0.0019332090262651571 -0.045966549049051897 0 0.003038392102738075 -0.046404318784107591 0 0.003593764284582213 -0.045565631869581881 0 0.0020990995509918508 -0.045913087174665052 0 0.003038392102738075 -0.046404318784107591 0 0.0016731751081194455 -0.046411085881247302 0 0.0020522561449324525 -0.04703588154250056 0 0.0047047847636442087 -0.046145193201173558 0 0.003593764284582213 -0.045565631869581881 0 0.0052506035914394707 -0.04490613430426442 0 0.003038392102738075 -0.046404318784107591 0 0.0047047847636442087 -0.046145193201173558 0 0.003593764284582213 -0.045565631869581881 0 0.003038392102738075 -0.046404318784107591 0 0.0047047847636442087 -0.046145193201173558 0 0.0041278211181103317 -0.04691865284941972 0 0.0041278211181103317 -0.04691865284941972 0 0.0045469000980677687 -0.047860343211963127 0 0.0053907857053451594 -0.047195649658106263 0 0.0047047847636442087 -0.046145193201173558 0 0.0041278211181103317 -0.04691865284941972 0 0.0053907857053451594 -0.047195649658106263 0 0.003038392102738075 -0.046404318784107591 0 0.0041278211181103317 -0.04691865284941972 0 0.0032998330598587489 -0.047396636007698729 0 0.0045469000980677687 -0.047860343211963127 0 0.0032998330598587489 -0.047396636007698729 0 0.0033909525308334436 -0.048105374397266989 0 0.0041278211181103317 -0.04691865284941972 0 0.0045469000980677687 -0.047860343211963127 0 0.0032998330598587489 -0.047396636007698729 0 0.0045469000980677687 -0.047860343211963127 0 0.0056783724556182099 -0.048255624057659791 0 0.0053907857053451594 -0.047195649658106263 0 0.003038392102738075 -0.046404318784107591 0 0.0020522561449324525 -0.04703588154250056 0 0.0032998330598587489 -0.047396636007698729 0 0.0032998330598587489 -0.047396636007698729 0 0.0023737775738207644 -0.047755422486434919 0 0.0033909525308334436 -0.048105374397266989 0 0.0020522561449324525 -0.04703588154250056 0 0.0032998330598587489 -0.047396636007698729 0 0.0023737775738207644 -0.047755422486434919 0 0.0023737775738207644 -0.047755422486434919 0 0.0026802268112756976 -0.048428307137489024 0 0.0033909525308334436 -0.048105374397266989 0 0.0023737775738207644 -0.047755422486434919 0 0.0026802268112756976 -0.048428307137489024 0 0.0020493974235573031 -0.048205026567143136 0 0.0026802268112756976 -0.048428307137489024 0 0.0033909525308334436 -0.048105374397266989 0 0.0034569298405315078 -0.048600368553276978 0 0.0026802268112756976 -0.048428307137489024 0 0.0034569298405315078 -0.048600368553276978 0 0.002780001525946763 -0.048946992128306284 0 0.0034569298405315078 -0.048600368553276978 0 0.002780001525946763 -0.048946992128306284 0 0.0033957553345969204 -0.049037254658341294 0 0.0026802268112756976 -0.048428307137489024 0 0.002780001525946763 -0.048946992128306284 0 0.0022217365827179526 -0.048814358509973274 0 0.0026802268112756976 -0.048428307137489024 0 0.0020493974235573031 -0.048205026567143136 0 0.0022217365827179526 -0.048814358509973274 0 0.0045469000980677687 -0.047860343211963127 0 0.0049115316722353848 -0.048499991870321189 0 0.004137212204806999 -0.048552808791083812 0 0.0045469000980677687 -0.047860343211963127 0 0.0049115316722353848 -0.048499991870321189 0 0.0056783724556182099 -0.048255624057659791 0 0.0045469000980677687 -0.047860343211963127 0 0.0033909525308334436 -0.048105374397266989 0 0.004137212204806999 -0.048552808791083812 0 0.0033909525308334436 -0.048105374397266989 0 0.0034569298405315078 -0.048600368553276978 0 0.004137212204806999 -0.048552808791083812 0 0.004137212204806999 -0.048552808791083812 0 0.0047138142452254964 -0.049110740447144315 0 0.0040078174973203762 -0.0491689555120534 0 0.0034569298405315078 -0.048600368553276978 0 0.0040078174973203762 -0.0491689555120534 0 0.0033957553345969204 -0.049037254658341294 0 0.0034569298405315078 -0.048600368553276978 0 0.004137212204806999 -0.048552808791083812 0 0.0040078174973203762 -0.0491689555120534 0 0.0049115316722353848 -0.048499991870321189 0 0.0047138142452254964 -0.049110740447144315 0 0.0056047978263765851 -0.04886198776398061 0 0.0049115316722353848 -0.048499991870321189 0 0.004137212204806999 -0.048552808791083812 0 0.0047138142452254964 -0.049110740447144315 0 0.0047138142452254964 -0.049110740447144315 0 0.004979733535159383 -0.049851125411426223 0 0.0055249375245352041 -0.049355216180854491 0 0.0047138142452254964 -0.049110740447144315 0 0.0041360760983059309 -0.049618159690001933 0 0.004979733535159383 -0.049851125411426223 0 0.0047138142452254964 -0.049110740447144315 0 0.0055249375245352041 -0.049355216180854491 0 0.0056047978263765851 -0.04886198776398061 0 0.0047138142452254964 -0.049110740447144315 0 0.0040078174973203762 -0.0491689555120534 0 0.0041360760983059309 -0.049618159690001933 0 0.0040078174973203762 -0.0491689555120534 0 0.0041360760983059309 -0.049618159690001933 0 0.0034175130943300885 -0.04946577547778732 0 0.0041349967395728944 -0.050282563397793731 0 0.0036647276967473855 -0.049841010819663308 0 0.0041360760983059309 -0.049618159690001933 0 0.0036647276967473855 -0.049841010819663308 0 0.0041360760983059309 -0.049618159690001933 0 0.0034175130943300885 -0.04946577547778732 0 0.0033993966063809618 -0.050100552440974576 0 0.0041349967395728944 -0.050282563397793731 0 0.0036647276967473855 -0.049841010819663308 0 0.0041349967395728944 -0.050282563397793731 0 0.0041360760983059309 -0.049618159690001933 0 0.004979733535159383 -0.049851125411426223 0 0.0041349967395728944 -0.050282563397793731 0 0.0049998702549615354 -0.050403109279654384 0 0.004979733535159383 -0.049851125411426223 0 0.0026666728197777584 -0.049360700128261284 0 0.0021016050705255046 -0.049302133879407219 0 0.0022217365827179526 -0.048814358509973274 0 0.002780001525946763 -0.048946992128306284 0 0.0026666728197777584 -0.049360700128261284 0 0.0022217365827179526 -0.048814358509973274 0 0.0026666728197777584 -0.049360700128261284 0 0.0033957553345969204 -0.049037254658341294 0 0.0034175130943300885 -0.04946577547778732 0 0.002780001525946763 -0.048946992128306284 0 0.0026666728197777584 -0.049360700128261284 0 0.0033957553345969204 -0.049037254658341294 0 0.0040078174973203762 -0.0491689555120534 0 0.0033957553345969204 -0.049037254658341294 0 0.0034175130943300885 -0.04946577547778732 0 0.0026666728197777584 -0.049360700128261284 0 0.0034175130943300885 -0.04946577547778732 0 0.0031641451264894775 -0.049811728497210592 0 0.0036647276967473855 -0.049841010819663308 0 0.0034175130943300885 -0.04946577547778732 0 0.0031641451264894775 -0.049811728497210592 0 0.0033993966063809618 -0.050100552440974576 0 0.0036647276967473855 -0.049841010819663308 0 0.0031641451264894775 -0.049811728497210592 0 0.0028511630675150867 -0.050096755871985151 0 0.0031641451264894775 -0.049811728497210592 0 0.0026513488325663557 -0.049740617658732701 0 0.0026666728197777584 -0.049360700128261284 0 0.0023189670796215467 -0.049568306767320006 0 0.0021016050705255046 -0.049302133879407219 0 0.0026666728197777584 -0.049360700128261284 0 0.0031641451264894775 -0.049811728497210592 0 0.0026513488325663557 -0.049740617658732701 0 0.0026666728197777584 -0.049360700128261284 0 0.0026513488325663557 -0.049740617658732701 0 0.0023189670796215467 -0.049568306767320006 0 0.0023157343290247778 -0.049853795636550222 0 0.0026513488325663557 -0.049740617658732701 0 0.0023189670796215467 -0.049568306767320006 0 0.0023157343290247778 -0.049853795636550222 0 0.0023189670796215467 -0.049568306767320006 0 0.0019248455807467316 -0.049577535299925729 0 0.0019248455807467316 -0.049577535299925729 0 0.0021016050705255046 -0.049302133879407219 0 0.0017898587369520802 -0.049286017212878494 0 0.0023189670796215467 -0.049568306767320006 0 0.0019248455807467316 -0.049577535299925729 0 0.0021016050705255046 -0.049302133879407219 0 0.0021016050705255046 -0.049302133879407219 0 0.0018577115038585809 -0.049002134885850611 0 0.0022217365827179526 -0.048814358509973274 0 0.0021016050705255046 -0.049302133879407219 0 0.0018577115038585809 -0.049002134885850611 0 0.0017898587369520802 -0.049286017212878494 0 0.001512089987068328 -0.049023300064289697 0 0.0017898587369520802 -0.049286017212878494 0 0.0015813152853719245 -0.049497945914735289 0 0.0011339535438661143 -0.048767973966398391 0 0.0010106574346154629 -0.04848325886544675 0 0.0018577115038585809 -0.049002134885850611 0 0.001512089987068328 -0.049023300064289697 0 0.0017898587369520802 -0.049286017212878494 0 0.001512089987068328 -0.049023300064289697 0 0.0015813152853719245 -0.049497945914735289 0 0.0014236881998135166 -0.049510014315144853 0 0.0019248455807467316 -0.049577535299925729 0 0.0017898587369520802 -0.049286017212878494 0 0.0015813152853719245 -0.049497945914735289 0 0.0019248455807467316 -0.049577535299925729 0 0.0017122505582506289 -0.049615528981607149 0 0.0015813152853719245 -0.049497945914735289 0 0.0015224598610824654 -0.04961696577091905 0 0.0015813152853719245 -0.049497945914735289 0 0.0014706557377457804 -0.049491794795439512 0 0.0015224598610824654 -0.04961696577091905 0 0.0017122505582506289 -0.049615528981607149 0 0.0015813152853719245 -0.049497945914735289 0 0.0014069810138908944 -0.048837532905578837 0 0.0010106574346154629 -0.04848325886544675 0 0.0010106574346154629 -0.04848325886544675 0 0.0009529211056465975 -0.048000947774932044 0 0.0014698531846026703 -0.047846828398791952 0 0.0019189457611888366 -0.046332253436635364 0 -0.00030638598534984095 -0.046501882345761587 0 0.00064693082499767097 -0.048716892358693399 0 0.00011334797878049511 -0.048747647488392817 0 0.00032385587519831156 -0.048470173491694725 0 -9.9182930681673967e-05 -0.048533832458214722 0 0.00011334797878049511 -0.048747647488392817 0 9.2658356476415789e-05 -0.048360222419044717 0 0.00011334797878049511 -0.048747647488392817 0 9.2658356476415789e-05 -0.048360222419044717 0 0.00032385587519831156 -0.048470173491694725 0 -9.9182930681673967e-05 -0.048533832458214722 0 -0.00015563089596305922 -0.048343284330639266 0 9.2658356476415789e-05 -0.048360222419044717 0 9.2658356476415789e-05 -0.048360222419044717 0 0.00024184048911393726 -0.048257029303277639 0 0.00032385587519831156 -0.048470173491694725 0 9.2658356476415789e-05 -0.048360222419044717 0 0.00024184048911393726 -0.048257029303277639 0 5.808846894884459e-05 -0.048175963717981905 0 9.2658356476415789e-05 -0.048360222419044717 0 5.808846894884459e-05 -0.048175963717981905 0 -2.6141992980726767e-05 -0.048249913665665688 0 -0.00015563089596305922 -0.048343284330639266 0 9.2658356476415789e-05 -0.048360222419044717 0 -2.6141992980726767e-05 -0.048249913665665688 0 -7.0795439932043976e-05 -0.048165351686245188 0 5.808846894884459e-05 -0.048175963717981905 0 -2.6141992980726767e-05 -0.048249913665665688 0 0.00064693082499767097 -0.048716892358693399 0 0.00032385587519831156 -0.048470173491694725 0 0.00050296398848314152 -0.048263118945552151 0 0.00079526455041503609 -0.048281945832263508 0 0.00064693082499767097 -0.048716892358693399 0 0.00050296398848314152 -0.048263118945552151 0 0.00024184048911393726 -0.048257029303277639 0 0.00050296398848314152 -0.048263118945552151 0 0.00031642047496511057 -0.048109912400014894 0 0.00024184048911393726 -0.048257029303277639 0 0.00032385587519831156 -0.048470173491694725 0 0.00050296398848314152 -0.048263118945552151 0 0.00079526455041503609 -0.048281945832263508 0 0.00050296398848314152 -0.048263118945552151 0 0.00069226166509573283 -0.0480093382113373 0 0.00050296398848314152 -0.048263118945552151 0 0.00045229466559210742 -0.047985542778508562 0 0.00069226166509573283 -0.0480093382113373 0 0.00050296398848314152 -0.048263118945552151 0 0.00045229466559210742 -0.047985542778508562 0 0.00031642047496511057 -0.048109912400014894 0 0.00045229466559210742 -0.047985542778508562 0 0.00023357386605233219 -0.047952889345509439 0 0.0003421701781456833 -0.047863844435079739 0 0.00045229466559210742 -0.047985542778508562 0 0.00069226166509573283 -0.0480093382113373 0 0.00052635050160641317 -0.047825054618414686 0 4.690906154481038e-05 -0.048089962209361868 0 -3.9817848444968648e-05 -0.048099768200737358 0 4.4959825024062252e-06 -0.048010215482207734 0 -7.0795439932043976e-05 -0.048165351686245188 0 5.808846894884459e-05 -0.048175963717981905 0 -3.9817848444968648e-05 -0.048099768200737358 0 5.808846894884459e-05 -0.048175963717981905 0 4.690906154481038e-05 -0.048089962209361868 0 -3.9817848444968648e-05 -0.048099768200737358 0 5.808846894884459e-05 -0.048175963717981905 0 4.690906154481038e-05 -0.048089962209361868 0 0.00015309710450413694 -0.04807486717069695 0 4.690906154481038e-05 -0.048089962209361868 0 0.00015309710450413694 -0.04807486717069695 0 4.4959825024062252e-06 -0.048010215482207734 0 0.00024184048911393726 -0.048257029303277639 0 5.808846894884459e-05 -0.048175963717981905 0 0.00015309710450413694 -0.04807486717069695 0 0.00024184048911393726 -0.048257029303277639 0 0.00015309710450413694 -0.04807486717069695 0 0.00031642047496511057 -0.048109912400014894 0 0.00015309710450413694 -0.04807486717069695 0 0.00031642047496511057 -0.048109912400014894 0 0.00023357386605233219 -0.047952889345509439 0 0.00045229466559210742 -0.047985542778508562 0 0.00031642047496511057 -0.048109912400014894 0 0.00023357386605233219 -0.047952889345509439 0 0.00023357386605233219 -0.047952889345509439 0 0.00011027327185118709 -0.047881171636598559 0 0.00019569859503458005 -0.047815467823007114 0 0.00015309710450413694 -0.04807486717069695 0 0.00023357386605233219 -0.047952889345509439 0 9.8101646567607371e-05 -0.047962409890825751 0 0.00015309710450413694 -0.04807486717069695 0 9.8101646567607371e-05 -0.047962409890825751 0 4.4959825024062252e-06 -0.048010215482207734 0 0.00023357386605233219 -0.047952889345509439 0 9.8101646567607371e-05 -0.047962409890825751 0 0.00011027327185118709 -0.047881171636598559 0 9.8101646567607371e-05 -0.047962409890825751 0 0.00011027327185118709 -0.047881171636598559 0 2.8131828147807789e-05 -0.047923336237001353 0 -5.2327582255568747e-05 -0.047941082319968187 0 2.8131828147807789e-05 -0.047923336237001353 0 1.7284243525433755e-05 -0.047841106537475919 0 0.00011027327185118709 -0.047881171636598559 0 2.8131828147807789e-05 -0.047923336237001353 0 1.7284243525433755e-05 -0.047841106537475919 0 9.8101646567607371e-05 -0.047962409890825751 0 2.8131828147807789e-05 -0.047923336237001353 0 4.4959825024062252e-06 -0.048010215482207734 0 -5.2327582255568747e-05 -0.047941082319968187 0 2.8131828147807789e-05 -0.047923336237001353 0 4.4959825024062252e-06 -0.048010215482207734 0 -5.2327582255568747e-05 -0.047941082319968187 0 1.7284243525433755e-05 -0.047841106537475919 0 1.2823936332843128e-05 -0.047716126182289223 0 1.7284243525433755e-05 -0.047841106537475919 0 9.1366627507052361e-05 -0.047791780708216942 0 1.2823936332843128e-05 -0.047716126182289223 0 0.00011027327185118709 -0.047881171636598559 0 1.7284243525433755e-05 -0.047841106537475919 0 9.1366627507052361e-05 -0.047791780708216942 0 0.00011027327185118709 -0.047881171636598559 0 9.1366627507052361e-05 -0.047791780708216942 0 0.00019569859503458005 -0.047815467823007114 0 9.1366627507052361e-05 -0.047791780708216942 0 0.00019569859503458005 -0.047815467823007114 0 0.0001612942508032065 -0.047723673941459391 0 9.1366627507052361e-05 -0.047791780708216942 0 0.0001612942508032065 -0.047723673941459391 0 1.2823936332843128e-05 -0.047716126182289223 0 0.00019569859503458005 -0.047815467823007114 0 0.00032825053389475673 -0.047731084465725257 0 0.0001612942508032065 -0.047723673941459391 0 0.00023357386605233219 -0.047952889345509439 0 0.00019569859503458005 -0.047815467823007114 0 0.0003421701781456833 -0.047863844435079739 0 0.00019569859503458005 -0.047815467823007114 0 0.00032825053389475673 -0.047731084465725257 0 0.0003421701781456833 -0.047863844435079739 0 0.00032825053389475673 -0.047731084465725257 0 0.00024846332556535639 -0.047578875496223645 0 0.0001612942508032065 -0.047723673941459391 0 0.00024846332556535639 -0.047578875496223645 0 0.0001612942508032065 -0.047723673941459391 0 1.2823936332843128e-05 -0.047716126182289223 0 0.00069226166509573283 -0.0480093382113373 0 0.00052635050160641317 -0.047825054618414686 0 0.00073957987681333795 -0.047777418823283985 0 0.00045229466559210742 -0.047985542778508562 0 0.00052635050160641317 -0.047825054618414686 0 0.0003421701781456833 -0.047863844435079739 0 0.00032825053389475673 -0.047731084465725257 0 0.00052635050160641317 -0.047825054618414686 0 0.0003421701781456833 -0.047863844435079739 0 0.00032825053389475673 -0.047731084465725257 0 0.00024846332556535639 -0.047578875496223645 0 0.00052687884578905841 -0.047595951887748213 0 0.00032825053389475673 -0.047731084465725257 0 0.00052635050160641317 -0.047825054618414686 0 0.00052687884578905841 -0.047595951887748213 0 0.00091992859350649653 -0.047518046321879864 0 0.00052687884578905841 -0.047595951887748213 0 0.00073957987681333795 -0.047777418823283985 0 0.00052635050160641317 -0.047825054618414686 0 0.00052687884578905841 -0.047595951887748213 0 0.00073957987681333795 -0.047777418823283985 0 0.0014382902405425905 -0.047540257713016926 0 0.0012902027177138426 -0.048075130789414729 0 0.00091992859350649653 -0.047518046321879864 0 0.00073957987681333795 -0.047777418823283985 0 0.0010168149356568901 -0.047911447446573177 0 0.00069226166509573283 -0.0480093382113373 0 0.00073957987681333795 -0.047777418823283985 0 0.0010168149356568901 -0.047911447446573177 0 0.0015230048127051993 -0.048365475135334006 0 0.0020493974235573031 -0.048205026567143136 0 0.0022217365827179526 -0.048814358509973274 0 0.0014423849154717263 -0.047517455744910425 0 0.0015230048127051993 -0.048365475135334006 0 0.0020493974235573031 -0.048205026567143136 0 0.0018577115038585809 -0.049002134885850611 0 0.0015230048127051993 -0.048365475135334006 0 0.0022217365827179526 -0.048814358509973274 0 0.0018577115038585809 -0.049002134885850611 0 0.001512089987068328 -0.049023300064289697 0 0.0015230048127051993 -0.048365475135334006 0 0.00079526455041503609 -0.048281945832263508 0 0.00069226166509573283 -0.0480093382113373 0 0.0010168149356568901 -0.047911447446573177 0 0.0011339535438661143 -0.048767973966398391 0 0.0012902027177138426 -0.048075130789414729 0 -0.046160578842078387 -0.011022314244133753 0 -0.047637578878366317 -0.01148617880758266 0 -0.047172457181516039 -0.0084525309721698531 0 -0.044999866425142282 -0.0095638129886613191 0 -0.046160578842078387 -0.011022314244133753 0 -0.047172457181516039 -0.0084525309721698531 0 -0.044999866425142282 -0.0095638129886613191 0 -0.046160578842078387 -0.011022314244133753 0 -0.044999915098835525 -0.012245145419013795 0 -0.046160578842078387 -0.011022314244133753 0 -0.047637578878366317 -0.01148617880758266 0 -0.046802295313429172 -0.012615052106796684 0 -0.047637578878366317 -0.01148617880758266 0 -0.050300013829092542 -0.010628661002618793 0 -0.048726327648160761 -0.009559621905849797 0 -0.047637578878366317 -0.01148617880758266 0 -0.048266767650654498 -0.012462405324239969 0 -0.047847204175732155 -0.012644697221833093 0 -0.047675530164642606 -0.011606341164826096 0 -0.049342664664798065 -0.011557749250784842 0 -0.048266767650654498 -0.012462405324239969 0 -0.048588063729919403 -0.013447913667824085 0 -0.048291990052192889 -0.013435385601524533 0 -0.050300013829092542 -0.010628661002618793 0 -0.050124865567062318 -0.0075859120648747499 0 -0.052737762025844827 -0.0098788388284017023 0 -0.050300013829092542 -0.010628661002618793 0 -0.048726327648160761 -0.009559621905849797 0 -0.050124865567062318 -0.0075859120648747499 0 -0.047637578878366317 -0.01148617880758266 0 -0.048726327648160761 -0.009559621905849797 0 -0.047172457181516039 -0.0084525309721698531 0 -0.050124865567062318 -0.0075859120648747499 0 -0.047482861409298346 -0.0052686693924499641 0 -0.047172457181516039 -0.0084525309721698531 0 -0.048726327648160761 -0.009559621905849797 0 -0.050124865567062318 -0.0075859120648747499 0 -0.047172457181516039 -0.0084525309721698531 0 -0.048872260584588989 -0.005467765006379785 0 -0.04874320246243892 -0.0047599778209459704 0 -0.049535789320466032 -0.0050865915457900829 0 -0.048872260584588989 -0.005467765006379785 0 -0.04874320246243892 -0.0047599778209459704 0 -0.047482861409298346 -0.0052686693924499641 0 -0.049617437942717835 -0.0061187081369785314 0 -0.047546892952883793 -0.0053906772675205309 0 -0.047482861409298346 -0.0052686693924499641 0 -0.047172457181516039 -0.0084525309721698531 0 -0.044998902141804645 -0.0068797059836674919 0 -0.044999866425142282 -0.0095638129886613191 0 -0.047172457181516039 -0.0084525309721698531 0 -0.044998902141804645 -0.0068797059836674919 0 -0.047482861409298346 -0.0052686693924499641 0 -0.044998902141804645 -0.0068797059836674919 0 -0.046102643832832642 -0.0039048562885901214 0 -0.045000216507680393 -0.006880650008184469 0 -0.046233920879957806 -0.0042450278050469798 0 -0.046333223137386546 -0.0045890972396341609 0 -0.044999983985124718 -0.0049847622506834412 0 -0.0450000083475776 -0.0030883930986173478 0 -0.045000006825186324 -0.0068812339775314174 0 -0.046333223137386546 -0.0045890972396341609 0 -0.044999983985124718 -0.0049847622506834412 0 -0.047482861409298346 -0.0052686693924499641 0 -0.046102643832832642 -0.0039048562885901214 0 -0.047691134805689026 -0.003547581292713398 0 -0.046102643832832642 -0.0039048562885901214 0 -0.047009463486435026 -0.0017830292389882773 0 -0.047691134805689026 -0.003547581292713398 0 -0.046233920879957806 -0.0042450278050469798 0 -0.047311156710502823 -0.0020190434846480889 0 -0.046333223137386546 -0.0045890972396341609 0 -0.04644582022809772 -0.0031382198315616791 0 -0.047631900471298588 -0.0023277408766320009 0 -0.046333223137386546 -0.0045890972396341609 0 -0.04644582022809772 -0.0031382198315616791 0 -0.0450000083475776 -0.0030883930986173478 0 -0.04644582022809772 -0.0031382198315616791 0 -0.0450000083475776 -0.0030883930986173478 0 -0.046982942838288397 -0.0016003945529042155 0 -0.045000299221878967 -0.002876028171596524 0 -0.046577464694882234 -0.00085885139549250983 0 -0.044999849522249502 -0.0028766766790545855 0 -0.046864177193065938 -0.0015892208389797929 0 -0.04653036572886779 -0.00086533927077688086 0 -0.044999849522249502 -0.0028766766790545855 0 -0.045000140993079217 -0.0030880962792237065 0 -0.046864177193065938 -0.0015892208389797929 0 -0.045000004030168093 -0.0028764392811352138 0 -0.046641448770276213 -0.00076775898390030043 0 -0.044999990109624688 -0.0013046596339153841 0 -0.045000287843109006 -0.0030880977826251029 0 -0.046956770272695243 -0.0016110103204092425 0 -0.04644582022809772 -0.0031382198315616791 0 -0.047631900471298588 -0.0023277408766320009 0 -0.046982942838288397 -0.0016003945529042155 0 -0.046864177193065938 -0.0015892208389797929 0 -0.04653036572886779 -0.00086533927077688086 0 -0.04861643084389982 -0.00019160962826419103 0 -0.04500000598767287 0.000267082468835456 0 -0.046641448770276213 -0.00076775898390030043 0 -0.044999990109624688 -0.0013046596339153841 0 -0.047891620178786995 0.00035406412407091583 0 -0.048864931177862364 -0.0015867765283024591 0 -0.049624354997058105 7.3709535193186679e-05 0 -0.046956770272695243 -0.0016110103204092425 0 -0.04852328058880833 -2.3059273837801919e-05 0 -0.047311156710502823 -0.0020190434846480889 0 -0.04852328058880833 -2.3059273837801919e-05 0 -0.047631900471298588 -0.0023277408766320009 0 -0.046982942838288397 -0.0016003945529042155 0 -0.048908725109926943 -0.00013101874139751957 0 -0.047009463486435026 -0.0017830292389882773 0 -0.047891620178786995 0.00035406412407091583 0 -0.048864931177862364 -0.0015867765283024591 0 -0.047009463486435026 -0.0017830292389882773 0 -0.048864931177862364 -0.0015867765283024591 0 -0.048442275768039583 -0.0027999698854271116 0 -0.048442275768039583 -0.0027999698854271116 0 -0.048894035123044605 -0.0038157151065417011 0 -0.0496262571204176 -0.0031367063364815262 0 -0.048442275768039583 -0.0027999698854271116 0 -0.047691134805689026 -0.003547581292713398 0 -0.048894035123044605 -0.0038157151065417011 0 -0.048864931177862364 -0.0015867765283024591 0 -0.048442275768039583 -0.0027999698854271116 0 -0.0496262571204176 -0.0031367063364815262 0 -0.047009463486435026 -0.0017830292389882773 0 -0.048442275768039583 -0.0027999698854271116 0 -0.047691134805689026 -0.003547581292713398 0 -0.04874320246243892 -0.0047599778209459704 0 -0.047482861409298346 -0.0052686693924499641 0 -0.047691134805689026 -0.003547581292713398 0 -0.04874320246243892 -0.0047599778209459704 0 -0.048894035123044605 -0.0038157151065417011 0 -0.049974212080415858 -0.0044319962176434828 0 -0.04874320246243892 -0.0047599778209459704 0 -0.047691134805689026 -0.003547581292713398 0 -0.048894035123044605 -0.0038157151065417011 0 -0.050587647594720189 -0.0035426495898479918 0 -0.0496262571204176 -0.0031367063364815262 0 -0.049974212080415858 -0.0044319962176434828 0 -0.048894035123044605 -0.0038157151065417011 0 -0.0496262571204176 -0.0031367063364815262 0 -0.049974212080415858 -0.0044319962176434828 0 -0.050587647594720189 -0.0035426495898479918 0 -0.050814030748544632 -0.0041329787866923899 0 -0.049974212080415858 -0.0044319962176434828 0 -0.050587647594720189 -0.0035426495898479918 0 -0.050324918014098857 -0.0018781834220866587 0 -0.051756118736591278 -0.0018554763776732308 0 -0.050587647594720189 -0.0035426495898479918 0 -0.0496262571204176 -0.0031367063364815262 0 -0.050324918014098857 -0.0018781834220866587 0 -0.048864931177862364 -0.0015867765283024591 0 -0.0496262571204176 -0.0031367063364815262 0 -0.050324918014098857 -0.0018781834220866587 0 -0.048864931177862364 -0.0015867765283024591 0 -0.050324918014098857 -0.0018781834220866587 0 -0.049624354997058105 7.3709535193186679e-05 0 -0.050324918014098857 -0.0018781834220866587 0 -0.051236589390425108 -0.00020298770543231701 0 -0.051756118736591278 -0.0018554763776732308 0 -0.05061424073687959 0.0013531543969240529 0 -0.050720211754582092 0.0013086325359179302 0 -0.050324918014098857 -0.0018781834220866587 0 -0.051236589390425108 -0.00020298770543231701 0 -0.049624354997058105 7.3709535193186679e-05 0 -0.050347723469779386 0.0017119334816121526 0 -0.051236589390425108 -0.00020298770543231701 0 -0.049624354997058105 7.3709535193186679e-05 0 -0.049336696669957304 0.0027043426446520672 0 -0.048636221660177802 0.0030955396580951266 0 -0.049285251130252623 0.0033231705659655633 0 -0.049336696669957304 0.0027043426446520672 0 -0.050035472387623167 0.0030309884898073172 0 -0.049285251130252623 0.0033231705659655633 0 -0.050035472387623167 0.0030309884898073172 0 -0.049285251130252623 0.0033231705659655633 0 -0.049641996158411784 0.0038671720491276194 0 -0.049285251130252623 0.0033231705659655633 0 -0.049641996158411784 0.0038671720491276194 0 -0.048858073288657253 0.0038779612183633574 0 -0.048636221660177802 0.0030955396580951266 0 -0.049285251130252623 0.0033231705659655633 0 -0.048858073288657253 0.0038779612183633574 0 -0.048858073288657253 0.0038779612183633574 0 -0.049313973181518339 0.0045682258150047785 0 -0.048366404835914985 0.0045292111204969111 0 -0.050587647594720189 -0.0035426495898479918 0 -0.051756118736591278 -0.0018554763776732308 0 -0.052309094260630622 -0.003471291479332261 0 -0.049641996158411784 0.0038671720491276194 0 -0.048858073288657253 0.0038779612183633574 0 -0.049313973181518339 0.0045682258150047785 0 -0.050720211754582092 0.0013086325359179302 0 -0.049408677173643487 -0.0014805739180575408 0 -0.051539827088442042 -0.0037277647124392076 0 -0.049408677173643487 -0.0014805739180575408 0 -0.050587647594720189 -0.0035426495898479918 0 -0.050814030748544632 -0.0041329787866923899 0 -0.051236658772708492 -0.0036165002209795666 0 -0.050814030748544632 -0.0041329787866923899 0 -0.051236658772708492 -0.0036165002209795666 0 -0.051455959853111875 -0.0042311836886231215 0 -0.049408677173643487 -0.0014805739180575408 0 -0.049127327129479773 -0.0035816324326313829 0 -0.049408677173643487 -0.0014805739180575408 0 -0.047027466887006264 0.0010493625738698055 0 -0.04662313190463506 -0.0026221612073101205 0 -0.046286659204627316 -0.0026188867758350992 0 -0.04626231344193972 -0.0028815694180945508 0 -0.046744020743516711 -0.0028818757041207802 0 -0.04662313190463506 -0.0026221612073101205 0 -0.04626231344193972 -0.0028815694180945508 0 -0.04662313190463506 -0.0026221612073101205 0 -0.046408826549445455 -0.00249486253267279 0 -0.046286659204627316 -0.0026188867758350992 0 -0.04662313190463506 -0.0026221612073101205 0 -0.046408826549445455 -0.00249486253267279 0 -0.046522514259635203 -0.0023572358174006021 0 -0.049127327129479773 -0.0035816324326313829 0 -0.049325273011325138 -0.003991064094364157 0 -0.046408826549445455 -0.00249486253267279 0 -0.046522514259635203 -0.0023572358174006021 0 -0.046250787961095413 -0.002465085646313126 0 -0.050216780718102823 -0.0048863952347255003 0 -0.050325213632274178 -0.0051799813900897627 0 -0.048944062319834433 -0.0046566060509944385 0 -0.050216780718102823 -0.0048863952347255003 0 -0.050521959938944767 -0.0047076067588741975 0 -0.048795633987388225 -0.0042815678366880548 0 -0.050216780718102823 -0.0048863952347255003 0 -0.050321089155648313 -0.0050443412815087451 0 -0.050520014849490778 -0.0049235346194967059 0 -0.049736493624555046 -0.004705506017147385 0 -0.049325273011325138 -0.003991064094364157 0 -0.050216780718102823 -0.0048863952347255003 0 -0.050521959938944767 -0.0047076067588741975 0 -0.050520014849490778 -0.0049235346194967059 0 -0.050321089155648313 -0.0050443412815087451 0 -0.050520014849490778 -0.0049235346194967059 0 -0.050703082096754538 -0.0049483685138611531 0 -0.049325273011325138 -0.003991064094364157 0 -0.051364869574348729 -0.0050796906204767711 0 -0.050562154849741109 -0.0050511741018369125 0 -0.050432841914408381 -0.0052964229549812168 0 -0.050465975384436514 -0.0051596984221728374 0 -0.050562154849741109 -0.0050511741018369125 0 -0.050524204638562463 -0.0049496612484784749 0 -0.050465975384436514 -0.0051596984221728374 0 -0.050562154849741109 -0.0050511741018369125 0 -0.050524204638562463 -0.0049496612484784749 0 -0.050520014849490778 -0.0049235346194967059 0 -0.050521959938944767 -0.0047076067588741975 0 -0.050524204638562463 -0.0049496612484784749 0 -0.050465975384436514 -0.0051596984221728374 0 -0.050521959938944767 -0.0047076067588741975 0 -0.050524204638562463 -0.0049496612484784749 0 -0.050520014849490778 -0.0049235346194967059 0 -0.050562154849741109 -0.0050511741018369125 0 -0.050703082096754538 -0.0049483685138611531 0 -0.050422676401205097 -0.0052508529869530673 0 -0.050562154849741109 -0.0050511741018369125 0 -0.050520014849490778 -0.0049235346194967059 0 -0.050703082096754538 -0.0049483685138611531 0 -0.050814030748544632 -0.0041329787866923899 0 -0.051455959853111875 -0.0042311836886231215 0 -0.050703082096754538 -0.0049483685138611531 0 -0.051455959853111875 -0.0042311836886231215 0 -0.051708242030908236 -0.00494784565061671 0 -0.050703082096754538 -0.0049483685138611531 0 -0.050814030748544632 -0.0041329787866923899 0 -0.050703082096754538 -0.0049483685138611531 0 -0.049974212080415858 -0.0044319962176434828 0 -0.050703082096754538 -0.0049483685138611531 0 -0.049974212080415858 -0.0044319962176434828 0 -0.05018935202396739 -0.0052139787567819663 0 -0.04874320246243892 -0.0047599778209459704 0 -0.049974212080415858 -0.0044319962176434828 0 -0.049535789320466032 -0.0050865915457900829 0 -0.049974212080415858 -0.0044319962176434828 0 -0.049535789320466032 -0.0050865915457900829 0 -0.05018935202396739 -0.0052139787567819663 0 -0.048872260584588989 -0.005467765006379785 0 -0.049535789320466032 -0.0050865915457900829 0 -0.049831340706778769 -0.0054618805435001317 0 -0.049535789320466032 -0.0050865915457900829 0 -0.049831340706778769 -0.0054618805435001317 0 -0.05018935202396739 -0.0052139787567819663 0 -0.050703082096754538 -0.0049483685138611531 0 -0.05018935202396739 -0.0052139787567819663 0 -0.050422676401205097 -0.0052508529869530673 0 -0.05018935202396739 -0.0052139787567819663 0 -0.050422676401205097 -0.0052508529869530673 0 -0.050226012573890651 -0.0054664271645523382 0 -0.049831340706778769 -0.0054618805435001317 0 -0.05018935202396739 -0.0052139787567819663 0 -0.050226012573890651 -0.0054664271645523382 0 -0.050422676401205097 -0.0052508529869530673 0 -0.050432841914408381 -0.0052964229549812168 0 -0.050377639171532283 -0.0054233998970238716 0 -0.050562154849741109 -0.0050511741018369125 0 -0.050422676401205097 -0.0052508529869530673 0 -0.050432841914408381 -0.0052964229549812168 0 -0.050432841914408381 -0.0052964229549812168 0 -0.050377230610157836 -0.0056458649081883808 0 -0.050465975384436514 -0.0051596984221728374 0 -0.050432841914408381 -0.0052964229549812168 0 -0.050377639171532283 -0.0054233998970238716 0 -0.050377230610157836 -0.0056458649081883808 0 -0.050422676401205097 -0.0052508529869530673 0 -0.050377639171532283 -0.0054233998970238716 0 -0.050226012573890651 -0.0054664271645523382 0 -0.050377639171532283 -0.0054233998970238716 0 -0.050226012573890651 -0.0054664271645523382 0 -0.050377230610157836 -0.0056458649081883808 0 -0.050226012573890651 -0.0054664271645523382 0 -0.050278149216988886 -0.0057080156081863436 0 -0.050056383009081259 -0.0056318112728857049 0 -0.050226012573890651 -0.0054664271645523382 0 -0.050377230610157836 -0.0056458649081883808 0 -0.050278149216988886 -0.0057080156081863436 0 -0.049733328263477046 -0.0075575318278103066 0 -0.049512399325406832 -0.0082213901921046797 0 -0.048809771667256648 -0.013687847464477173 0 -0.048783410387382979 -0.013694040311714254 0 -0.04883598361532588 -0.013934847033548399 0 -0.048783410387382979 -0.013694040311714254 0 -0.048630111617985965 -0.013728867465789043 0 -0.04883598361532588 -0.013934847033548399 0 -0.049512399325406832 -0.0082213901921046797 0 -0.049803356491349912 -0.010433637044564788 0 -0.048809771667256648 -0.013687847464477173 0 -0.04883598361532588 -0.013934847033548399 0 -0.049013589302238598 -0.013800776652047741 0 -0.049617437942717835 -0.0061187081369785314 0 -0.049803356491349912 -0.010433637044564788 0 -0.049342664664798065 -0.011557749250784842 0 -0.049803356491349912 -0.010433637044564788 0 -0.048872260584588989 -0.005467765006379785 0 -0.049831340706778769 -0.0054618805435001317 0 -0.049902558731509117 -0.0059048385604844322 0 -0.049831340706778769 -0.0054618805435001317 0 -0.050056383009081259 -0.0056318112728857049 0 -0.049902558731509117 -0.0059048385604844322 0 -0.050278149216988886 -0.0057080156081863436 0 -0.050056383009081259 -0.0056318112728857049 0 -0.049902558731509117 -0.0059048385604844322 0 -0.049831340706778769 -0.0054618805435001317 0 -0.050226012573890651 -0.0054664271645523382 0 -0.050056383009081259 -0.0056318112728857049 0 -0.048266767650654498 -0.012462405324239969 0 -0.048746864549621009 -0.012795476818997641 0 -0.04872569507202397 -0.013182284440340621 0 -0.048266767650654498 -0.012462405324239969 0 -0.04872569507202397 -0.013182284440340621 0 -0.048588063729919403 -0.013447913667824085 0 -0.048746864549621009 -0.012795476818997641 0 -0.04872569507202397 -0.013182284440340621 0 -0.049011971275552971 -0.013339828069075691 0 -0.04872569507202397 -0.013182284440340621 0 -0.049011971275552971 -0.013339828069075691 0 -0.048899689256111559 -0.013953959288443904 0 -0.049011971275552971 -0.013339828069075691 0 -0.049078289392648175 -0.014098894603566425 0 -0.048899689256111559 -0.013953959288443904 0 -0.049803356491349912 -0.010433637044564788 0 -0.049059647413212233 -0.013692592547936639 0 -0.049059647413212233 -0.013692592547936639 0 -0.049022676657658346 -0.013928633150028973 0 -0.04883598361532588 -0.013934847033548399 0 -0.049090170305269284 -0.013988252389144756 0 -0.049078289392648175 -0.014098894603566425 0 -0.04883598361532588 -0.013934847033548399 0 -0.049090170305269284 -0.013988252389144756 0 -0.049013589302238598 -0.013800776652047741 0 -0.049090170305269284 -0.013988252389144756 0 -0.049222684029569794 -0.013938413747801215 0 -0.049152325330838229 -0.013828815728599673 0 -0.049090170305269284 -0.013988252389144756 0 -0.049013589302238598 -0.013800776652047741 0 -0.049152325330838229 -0.013828815728599673 0 -0.049090170305269284 -0.013988252389144756 0 -0.049237218727044126 -0.014249959295350006 0 -0.049078289392648175 -0.014098894603566425 0 -0.049090170305269284 -0.013988252389144756 0 -0.049237218727044126 -0.014249959295350006 0 -0.049222684029569794 -0.013938413747801215 0 -0.049237218727044126 -0.014249959295350006 0 -0.049404035306887549 -0.013949021552401268 0 -0.049538197776186378 -0.014154086668070893 0 -0.049404035306887549 -0.013949021552401268 0 -0.049222684029569794 -0.013938413747801215 0 -0.049274894576006485 -0.013785755121487865 0 -0.049237218727044126 -0.014249959295350006 0 -0.049404035306887549 -0.013949021552401268 0 -0.049222684029569794 -0.013938413747801215 0 -0.049185499707883086 -0.0091038484077194583 0 -0.049479988702060988 -0.0086608430846983383 0 -0.049222684029569794 -0.013938413747801215 0 -0.049274894576006485 -0.013785755121487865 0 -0.049152325330838229 -0.013828815728599673 0 -0.049274894576006485 -0.013785755121487865 0 -0.049179694194570418 -0.013613788511702462 0 -0.049152325330838229 -0.013828815728599673 0 -0.049274894576006485 -0.013785755121487865 0 -0.049473260554019877 -0.013698822642862055 0 -0.049179694194570418 -0.013613788511702462 0 -0.049473260554019877 -0.013698822642862055 0 -0.049179694194570418 -0.013613788511702462 0 -0.0497499342097577 -0.013424743740445456 0 -0.049407183932758579 -0.0042817504472808529 0 -0.049472562846906883 -0.004252753168318954 0 -0.049004577689209926 -0.0041251105689026017 0 -0.049404035306887549 -0.013949021552401268 0 -0.049274894576006485 -0.013785755121487865 0 -0.049473260554019877 -0.013698822642862055 0 -0.050045339983352095 -0.0040988655763403064 0 -0.049733328263477046 -0.0075575318278103066 0 -0.049733328263477046 -0.0075575318278103066 0 -0.049185499707883086 -0.0091038484077194583 0 -0.049407183932758579 -0.0042817504472808529 0 -0.049805650108116196 -0.0043897059990549298 0 -0.049472562846906883 -0.004252753168318954 0 -0.048809771667256648 -0.013687847464477173 0 -0.049179694194570418 -0.013613788511702462 0 -0.049013589302238598 -0.013800776652047741 0 -0.050521959938944767 -0.0047076067588741975 0 -0.050377230610157836 -0.0056458649081883808 0 -0.050465975384436514 -0.0051596984221728374 0 -0.049179694194570418 -0.013613788511702462 0 -0.049013589302238598 -0.013800776652047741 0 -0.049152325330838229 -0.013828815728599673 0 -0.0500579795483014 -0.013619431185034551 0 -0.0497499342097577 -0.013424743740445456 0 -0.050479885315199369 -0.013260689708334933 0 -0.0500579795483014 -0.013619431185034551 0 -0.049754965307365902 -0.013839562492770442 0 -0.05025713492259095 -0.013951767352216558 0 -0.0500579795483014 -0.013619431185034551 0 -0.05025713492259095 -0.013951767352216558 0 -0.050479885315199369 -0.013260689708334933 0 -0.049533118688022452 -0.015818648927304481 0 -0.048978265383705623 -0.0093791092748389503 0 -0.0500579795483014 -0.013619431185034551 0 -0.0497499342097577 -0.013424743740445456 0 -0.049754965307365902 -0.013839562492770442 0 -0.049473260554019877 -0.013698822642862055 0 -0.0497499342097577 -0.013424743740445456 0 -0.049754965307365902 -0.013839562492770442 0 -0.049404035306887549 -0.013949021552401268 0 -0.049473260554019877 -0.013698822642862055 0 -0.049754965307365902 -0.013839562492770442 0 -0.049754965307365902 -0.013839562492770442 0 -0.049815168733556424 -0.014215950582338726 0 -0.05025713492259095 -0.013951767352216558 0 -0.049404035306887549 -0.013949021552401268 0 -0.049754965307365902 -0.013839562492770442 0 -0.049538197776186378 -0.014154086668070893 0 -0.049754965307365902 -0.013839562492770442 0 -0.049538197776186378 -0.014154086668070893 0 -0.049815168733556424 -0.014215950582338726 0 -0.049538197776186378 -0.014154086668070893 0 -0.049815168733556424 -0.014215950582338726 0 -0.049524224604381883 -0.014611622070399014 0 -0.049815168733556424 -0.014215950582338726 0 -0.05025713492259095 -0.013951767352216558 0 -0.05003634124997159 -0.014676836228359497 0 -0.049026979846459991 -0.015840931073225557 0 -0.049133913090631809 -0.016029541493378777 0 -0.049129232957391758 -0.016101124574486786 0 -0.049533118688022452 -0.015818648927304481 0 -0.049609935616377936 -0.015179795345157371 0 -0.049316597778561788 -0.015902439334349219 0 -0.049482602728404351 -0.016072271517642886 0 -0.049133913090631809 -0.016029541493378777 0 -0.049026979846459991 -0.015840931073225557 0 -0.049316597778561788 -0.015902439334349219 0 -0.04921161930987953 -0.015682968886739961 0 -0.049026979846459991 -0.015840931073225557 0 -0.049316597778561788 -0.015902439334349219 0 -0.049133913090631809 -0.016029541493378777 0 -0.049316597778561788 -0.015902439334349219 0 -0.049550867794351423 -0.015722204364763424 0 -0.04921161930987953 -0.015682968886739961 0 -0.049316597778561788 -0.015902439334349219 0 -0.049550867794351423 -0.015722204364763424 0 -0.049482602728404351 -0.016072271517642886 0 -0.045636792545782567 -0.019192414205619041 0 -0.045151895650678592 -0.018912180564485875 0 -0.045930520487466937 -0.017664681845849413 0 -0.047431313835454215 -0.018639848262046083 0 -0.048474952571065093 -0.016679780822548337 0 -0.047431313835454215 -0.018639848262046083 0 -0.047002197253427989 -0.011902159059157955 0 -0.049550867794351423 -0.015722204364763424 0 -0.049372441825212374 -0.015534999171687268 0 -0.04960949337392568 -0.015324040021986996 0 -0.049550867794351423 -0.015722204364763424 0 -0.049372441825212374 -0.015534999171687268 0 -0.04921161930987953 -0.015682968886739961 0 -0.049026979846459991 -0.015840931073225557 0 -0.04921161930987953 -0.015682968886739961 0 -0.049114246931400055 -0.015404898654156323 0 -0.049372441825212374 -0.015534999171687268 0 -0.04921161930987953 -0.015682968886739961 0 -0.049114246931400055 -0.015404898654156323 0 -0.048182490072704288 -0.0030991379020792551 0 -0.047603756920761062 -0.0036189916932210763 0 -0.047211381622407962 -0.0033606804692346216 0 -0.047603756920761062 -0.0036189916932210763 0 -0.047990972046556196 -0.0039367499217361933 0 -0.047211381622407962 -0.0033606804692346216 0 -0.047603756920761062 -0.0036189916932210763 0 -0.047844874143455667 -0.0037275281222691821 0 -0.047990972046556196 -0.0039367499217361933 0 -0.048223176344291747 -0.0038680189399869615 0 -0.048012624393870086 -0.0038328236998239865 0 -0.048161982843118144 -0.0039138115132665175 0 -0.048182490072704288 -0.0030991379020792551 0 -0.047603756920761062 -0.0036189916932210763 0 -0.047844874143455667 -0.0037275281222691821 0 -0.048182490072704288 -0.0030991379020792551 0 -0.047844874143455667 -0.0037275281222691821 0 -0.048012624393870086 -0.0038328236998239865 0 -0.048978265383705623 -0.0093791092748389503 0 -0.049205522068709831 -0.0034690136692500663 0 -0.047844874143455667 -0.0037275281222691821 0 -0.048012624393870086 -0.0038328236998239865 0 -0.047990972046556196 -0.0039367499217361933 0 -0.048012624393870086 -0.0038328236998239865 0 -0.047990972046556196 -0.0039367499217361933 0 -0.048161982843118144 -0.0039138115132665175 0 -0.047990972046556196 -0.0039367499217361933 0 -0.048161982843118144 -0.0039138115132665175 0 -0.04841833078335063 -0.0041031733659377834 0 -0.046949526728632639 -0.0032162136684581364 0 -0.046553512066101706 -0.0030087520749356154 0 -0.048182490072704288 -0.0030991379020792551 0 -0.046363016931639967 -0.0027965275145577914 0 -0.047211381622407962 -0.0033606804692346216 0 -0.047990972046556196 -0.0039367499217361933 0 -0.047211381622407962 -0.0033606804692346216 0 -0.046459031454444903 -0.002949291314604344 0 -0.049372441825212374 -0.015534999171687268 0 -0.049114246931400055 -0.015404898654156323 0 -0.04960949337392568 -0.015324040021986996 0 -0.048978265383705623 -0.0093791092748389503 0 -0.047002197253427989 -0.011902159059157955 0 -0.046363016931639967 -0.0027965275145577914 0 -0.047211381622407962 -0.0033606804692346216 0 -0.046459031454444903 -0.002949291314604344 0 -0.046459031454444903 -0.002949291314604344 0 -0.046561867052827166 -0.0027274555645373432 0 -0.046468756256796577 -0.0028958947875220072 0 -0.046363016931639967 -0.0027965275145577914 0 -0.046459031454444903 -0.002949291314604344 0 -0.046468756256796577 -0.0028958947875220072 0 -0.045697720273406697 -0.0024915908811473444 0 -0.046459031454444903 -0.002949291314604344 0 -0.046018818377796235 -0.0024050522092229965 0 -0.046459031454444903 -0.002949291314604344 0 -0.046389114400117643 -0.002417420709572645 0 -0.046018818377796235 -0.0024050522092229965 0 -0.046459031454444903 -0.002949291314604344 0 -0.046389114400117643 -0.002417420709572645 0 -0.046561867052827166 -0.0027274555645373432 0 -0.046018818377796235 -0.0024050522092229965 0 -0.046101232933641288 -0.0020673500047620709 0 -0.045742330577727808 -0.0020545147578897313 0 -0.046389114400117643 -0.002417420709572645 0 -0.046018818377796235 -0.0024050522092229965 0 -0.046101232933641288 -0.0020673500047620709 0 -0.046389114400117643 -0.002417420709572645 0 -0.046101232933641288 -0.0020673500047620709 0 -0.046462115797536001 -0.0019487436640847323 0 -0.046389114400117643 -0.002417420709572645 0 -0.046462115797536001 -0.0019487436640847323 0 -0.046706486775461964 -0.0024431350835419294 0 -0.045829770349773175 -0.0025889688068009295 0 -0.045775661487842317 -0.0024787906166716255 0 -0.045718671989458261 -0.0026422225248995028 0 -0.045697720273406697 -0.0024915908811473444 0 -0.045775661487842317 -0.0024787906166716255 0 -0.045742330577727808 -0.0020545147578897313 0 -0.045845857386395232 -0.0023126622553204554 0 -0.045553477485362447 -0.0026986583426150627 0 -0.045697720273406697 -0.0024915908811473444 0 -0.046018818377796235 -0.0024050522092229965 0 -0.045742330577727808 -0.0020545147578897313 0 -0.045829770349773175 -0.0025889688068009295 0 -0.045937663507039386 -0.0025295042851854908 0 -0.045964142203571569 -0.002642334711565544 0 -0.045937663507039386 -0.0025295042851854908 0 -0.045775661487842317 -0.0024787906166716255 0 -0.046064190762012472 -0.0023819590754160596 0 -0.045937663507039386 -0.0025295042851854908 0 -0.046097716381965588 -0.0025587256449045529 0 -0.045964142203571569 -0.002642334711565544 0 -0.045937663507039386 -0.0025295042851854908 0 -0.046064190762012472 -0.0023819590754160596 0 -0.046097716381965588 -0.0025587256449045529 0 -0.045829770349773175 -0.0025889688068009295 0 -0.045937663507039386 -0.0025295042851854908 0 -0.045775661487842317 -0.0024787906166716255 0 -0.046949526728632639 -0.0032162136684581364 0 -0.047365122948890663 -0.0034944253532745878 0 -0.048223176344291747 -0.0038680189399869615 0 -0.04841833078335063 -0.0041031733659377834 0 -0.048795633987388225 -0.0042815678366880548 0 -0.047990972046556196 -0.0039367499217361933 0 -0.04841833078335063 -0.0041031733659377834 0 -0.048944062319834433 -0.0046566060509944385 0 -0.045697720273406697 -0.0024915908811473444 0 -0.045775661487842317 -0.0024787906166716255 0 -0.046064190762012472 -0.0023819590754160596 0 -0.049004577689209926 -0.0041251105689026017 0 -0.048223176344291747 -0.0038680189399869615 0 -0.048795633987388225 -0.0042815678366880548 0 -0.049479988702060988 -0.0086608430846983383 0 -0.048978265383705623 -0.0093791092748389503 0 -0.048223176344291747 -0.0038680189399869615 0 -0.048161982843118144 -0.0039138115132665175 0 -0.04841833078335063 -0.0041031733659377834 0 -0.04841833078335063 -0.0041031733659377834 0 -0.048795633987388225 -0.0042815678366880548 0 -0.048944062319834433 -0.0046566060509944385 0 -0.049325273011325138 -0.003991064094364157 0 -0.047365122948890663 -0.0034944253532745878 0 -0.050216780718102823 -0.0048863952347255003 0 -0.048795633987388225 -0.0042815678366880548 0 -0.048944062319834433 -0.0046566060509944385 0 -0.050045339983352095 -0.0040988655763403064 0 -0.048765530794596557 -0.0044772772810603547 0 -0.049407183932758579 -0.0042817504472808529 0 -0.049004577689209926 -0.0041251105689026017 0 -0.048795633987388225 -0.0042815678366880548 0 -0.046522514259635203 -0.0023572358174006021 0 -0.046064190762012472 -0.0023819590754160596 0 -0.046250787961095413 -0.002465085646313126 0 -0.046064190762012472 -0.0023819590754160596 0 -0.046250787961095413 -0.002465085646313126 0 -0.046097716381965588 -0.0025587256449045529 0 -0.046097716381965588 -0.0025587256449045529 0 -0.046286659204627316 -0.0026188867758350992 0 -0.046109164066222078 -0.0027232344813506028 0 -0.046250787961095413 -0.002465085646313126 0 -0.046097716381965588 -0.0025587256449045529 0 -0.046286659204627316 -0.0026188867758350992 0 -0.046408826549445455 -0.00249486253267279 0 -0.046250787961095413 -0.002465085646313126 0 -0.046286659204627316 -0.0026188867758350992 0 -0.046286659204627316 -0.0026188867758350992 0 -0.04626231344193972 -0.0028815694180945508 0 -0.046109164066222078 -0.0027232344813506028 0 -0.04626231344193972 -0.0028815694180945508 0 -0.046109164066222078 -0.0027232344813506028 0 -0.045863534053378563 -0.0028192816713510432 0 -0.046097716381965588 -0.0025587256449045529 0 -0.046109164066222078 -0.0027232344813506028 0 -0.045964142203571569 -0.002642334711565544 0 -0.046109164066222078 -0.0027232344813506028 0 -0.045964142203571569 -0.002642334711565544 0 -0.045863534053378563 -0.0028192816713510432 0 -0.045829770349773175 -0.0025889688068009295 0 -0.045964142203571569 -0.002642334711565544 0 -0.045863534053378563 -0.0028192816713510432 0 -0.047540611023757173 0.0044307479195665423 0 -0.047952118433733731 0.0038724356426150176 0 -0.047199432906062606 0.0039857337369191654 0 -0.047027466887006264 0.0010493625738698055 0 -0.046805943845339169 0.00082001689258687411 0 -0.048366404835914985 0.0045292111204969111 0 -0.047540611023757173 0.0044307479195665423 0 -0.047952118433733731 0.0038724356426150176 0 -0.048858073288657253 0.0038779612183633574 0 -0.048366404835914985 0.0045292111204969111 0 -0.047952118433733731 0.0038724356426150176 0 -0.048636221660177802 0.0030955396580951266 0 -0.048858073288657253 0.0038779612183633574 0 -0.047952118433733731 0.0038724356426150176 0 -0.047952118433733731 0.0038724356426150176 0 -0.047339450018717512 0.0035518180867196909 0 -0.047199432906062606 0.0039857337369191654 0 -0.047952118433733731 0.0038724356426150176 0 -0.047764009908596083 0.003153056270319957 0 -0.047339450018717512 0.0035518180867196909 0 -0.048636221660177802 0.0030955396580951266 0 -0.047952118433733731 0.0038724356426150176 0 -0.047764009908596083 0.003153056270319957 0 -0.047076519676065735 0.0033276716676453092 0 -0.046878117680100209 0.0036451376117209509 0 -0.046753325897171592 0.0036623397673737823 0 -0.047076519676065735 0.0033276716676453092 0 -0.046878117680100209 0.0036451376117209509 0 -0.047339450018717512 0.0035518180867196909 0 -0.047076519676065735 0.0033276716676453092 0 -0.047764009908596083 0.003153056270319957 0 -0.047339450018717512 0.0035518180867196909 0 -0.046878117680100209 0.0036451376117209509 0 -0.047339450018717512 0.0035518180867196909 0 -0.047199432906062606 0.0039857337369191654 0 -0.046878117680100209 0.0036451376117209509 0 -0.047199432906062606 0.0039857337369191654 0 -0.046696299267944663 0.0039120287029428633 0 -0.047199432906062606 0.0039857337369191654 0 -0.046906465829285746 0.0043148705831988991 0 -0.046696299267944663 0.0039120287029428633 0 -0.046125671399918543 0.00039939955678879106 0 -0.046324201313263001 0.0035156794644095584 0 -0.047540611023757173 0.0044307479195665423 0 -0.047199432906062606 0.0039857337369191654 0 -0.046906465829285746 0.0043148705831988991 0 -0.046805943845339169 0.00082001689258687411 0 -0.046125671399918543 0.00039939955678879106 0 -0.045829770349773175 -0.0025889688068009295 0 -0.045863534053378563 -0.0028192816713510432 0 -0.045718671989458261 -0.0026422225248995028 0 -0.045863534053378563 -0.0028192816713510432 0 -0.045623659714901794 -0.002776355306008481 0 -0.045718671989458261 -0.0026422225248995028 0 -0.046125671399918543 0.00039939955678879106 0 -0.045553477485362447 -0.0026986583426150627 0 -0.046101232933641288 -0.0020673500047620709 0 -0.046120178795330986 -0.0012247153273539514 0 -0.046462115797536001 -0.0019487436640847323 0 -0.046101232933641288 -0.0020673500047620709 0 -0.046120178795330986 -0.0012247153273539514 0 -0.045742330577727808 -0.0020545147578897313 0 -0.046120178795330986 -0.0012247153273539514 0 -0.046462115797536001 -0.0019487436640847323 0 -0.046674063682903569 -0.0014866674075621066 0 -0.046674063682903569 -0.0014866674075621066 0 -0.047350785538473328 -0.0014584777703057633 0 -0.047085885975989311 -0.0010109424427733132 0 -0.046120178795330986 -0.0012247153273539514 0 -0.046674063682903569 -0.0014866674075621066 0 -0.047085885975989311 -0.0010109424427733132 0 -0.046462115797536001 -0.0019487436640847323 0 -0.046674063682903569 -0.0014866674075621066 0 -0.046911534013936308 -0.001987759011689098 0 -0.046674063682903569 -0.0014866674075621066 0 -0.047350785538473328 -0.0014584777703057633 0 -0.046911534013936308 -0.001987759011689098 0 -0.047350785538473328 -0.0014584777703057633 0 -0.047085885975989311 -0.0010109424427733132 0 -0.048114787911841136 -0.00056902833280433494 0 -0.047350785538473328 -0.0014584777703057633 0 -0.048114787911841136 -0.00056902833280433494 0 -0.047874861098904598 -0.0016534406749804987 0 -0.047008828414137283 0.0021267428591745393 0 -0.046346055125982499 0.0014058952105344999 0 -0.046581920008326679 0.0025920074123521254 0 -0.047008828414137283 0.0021267428591745393 0 -0.046346055125982499 0.0014058952105344999 0 -0.047762576787337183 0.0010737333787152648 0 -0.046600003737821138 0.00015868669819340915 0 -0.048068204688336426 0.00024132167438607307 0 -0.046125671399918543 0.00039939955678879106 0 -0.046600003737821138 0.00015868669819340915 0 -0.044902955245838427 0.0013716224741143648 0 -0.046346055125982499 0.0014058952105344999 0 -0.04558809802355452 0.0024080485749559425 0 -0.046346055125982499 0.0014058952105344999 0 -0.04558809802355452 0.0024080485749559425 0 -0.046581920008326679 0.0025920074123521254 0 -0.046878117680100209 0.0036451376117209509 0 -0.046696299267944663 0.0039120287029428633 0 -0.046587334879559579 0.003554004561350911 0 -0.04558809802355452 0.0024080485749559425 0 -0.046581920008326679 0.0025920074123521254 0 -0.046587334879559579 0.003554004561350911 0 -0.046324201313263001 0.0035156794644095584 0 -0.046443377376434281 0.0034062498714538519 0 -0.047008828414137283 0.0021267428591745393 0 -0.046581920008326679 0.0025920074123521254 0 -0.047102477757566735 0.0028744123327106041 0 -0.047008828414137283 0.0021267428591745393 0 -0.047102477757566735 0.0028744123327106041 0 -0.047419091280577128 0.0025527775406408945 0 -0.047102477757566735 0.0028744123327106041 0 -0.046871830627797977 0.0033048857149374691 0 -0.047201901171012223 0.0034600419994757852 0 -0.047102477757566735 0.0028744123327106041 0 -0.047201901171012223 0.0034600419994757852 0 -0.047555630030427447 0.0032118830852426055 0 -0.046581920008326679 0.0025920074123521254 0 -0.046871830627797977 0.0033048857149374691 0 -0.046587334879559579 0.003554004561350911 0 -0.046581920008326679 0.0025920074123521254 0 -0.047102477757566735 0.0028744123327106041 0 -0.046871830627797977 0.0033048857149374691 0 -0.046871830627797977 0.0033048857149374691 0 -0.046944384367259638 0.0039298065907488128 0 -0.046587334879559579 0.003554004561350911 0 -0.046871830627797977 0.0033048857149374691 0 -0.047201901171012223 0.0034600419994757852 0 -0.046944384367259638 0.0039298065907488128 0 -0.047201901171012223 0.0034600419994757852 0 -0.046944384367259638 0.0039298065907488128 0 -0.047369050475611144 0.0040207806842265086 0 -0.046878117680100209 0.0036451376117209509 0 -0.046753325897171592 0.0036623397673737823 0 -0.046587334879559579 0.003554004561350911 0 -0.046944384367259638 0.0039298065907488128 0 -0.046753325897171592 0.0036623397673737823 0 -0.046587334879559579 0.003554004561350911 0 -0.049256050530158461 0.0045001827480003502 0 -0.048247701818043734 0.0047841970866739055 0 -0.048530968975726702 0.003630217827745415 0 -0.047902933623594046 0.0064290450010722009 0 -0.049409330150865197 0.0058579440697908896 0 -0.048247701818043734 0.0047841970866739055 0 -0.049409330150865197 0.0058579440697908896 0 -0.049256050530158461 0.0045001827480003502 0 -0.048247701818043734 0.0047841970866739055 0 -0.047902933623594046 0.0064290450010722009 0 -0.048247701818043734 0.0047841970866739055 0 -0.046721260331529582 0.005679290228632468 0 -0.048247701818043734 0.0047841970866739055 0 -0.046721260331529582 0.005679290228632468 0 -0.047757526454042028 0.0028881267110740824 0 -0.04738674079146063 0.0048324906729347687 0 -0.047677751151862117 0.0030834663373772342 0 -0.047981318037569068 0.0039127462227069925 0 -0.047555630030427447 0.0032118830852426055 0 -0.047757526454042028 0.0028881267110740824 0 -0.047201901171012223 0.0034600419994757852 0 -0.047369050475611144 0.0040207806842265086 0 -0.047522254127302613 0.0036443691234808733 0 -0.047981318037569068 0.0039127462227069925 0 -0.047369050475611144 0.0040207806842265086 0 -0.047522254127302613 0.0036443691234808733 0 -0.047201901171012223 0.0034600419994757852 0 -0.047522254127302613 0.0036443691234808733 0 -0.047555630030427447 0.0032118830852426055 0 -0.047981318037569068 0.0039127462227069925 0 -0.047522254127302613 0.0036443691234808733 0 -0.047555630030427447 0.0032118830852426055 0 -0.047581454018247989 0.0024724070528447085 0 -0.048187373919472781 0.0021860716455078645 0 -0.047419091280577128 0.0025527775406408945 0 -0.047757526454042028 0.0028881267110740824 0 -0.048331474968225922 0.0027361105734330397 0 -0.047102477757566735 0.0028744123327106041 0 -0.047555630030427447 0.0032118830852426055 0 -0.047419091280577128 0.0025527775406408945 0 -0.047555630030427447 0.0032118830852426055 0 -0.047419091280577128 0.0025527775406408945 0 -0.047757526454042028 0.0028881267110740824 0 -0.047757526454042028 0.0028881267110740824 0 -0.048331474968225922 0.0027361105734330397 0 -0.048530968975726702 0.003630217827745415 0 -0.048247701818043734 0.0047841970866739055 0 -0.047757526454042028 0.0028881267110740824 0 -0.048530968975726702 0.003630217827745415 0 -0.049449069366151892 0.0033705512312014615 0 -0.049256050530158461 0.0045001827480003502 0 -0.048530968975726702 0.003630217827745415 0 -0.049449069366151892 0.0033705512312014615 0 -0.048331474968225922 0.0027361105734330397 0 -0.048530968975726702 0.003630217827745415 0 -0.049493075811650841 0.00016471129892946164 0 -0.048114787911841136 -0.00056902833280433494 0 -0.048305372173261675 -0.0010714651671751962 0 -0.048905300790100303 0.0014952980802343855 0 -0.049493075811650841 0.00016471129892946164 0 -0.047762576787337183 0.0010737333787152648 0 -0.049465716347632402 0.00019721604181004542 0 -0.048068204688336426 0.00024132167438607307 0 -0.047419091280577128 0.0025527775406408945 0 -0.048905300790100303 0.0014952980802343855 0 -0.047762576787337183 0.0010737333787152648 0 -0.047008828414137283 0.0021267428591745393 0 -0.047419091280577128 0.0025527775406408945 0 -0.047762576787337183 0.0010737333787152648 0 -0.048114787911841136 -0.00056902833280433494 0 -0.048305372173261675 -0.0010714651671751962 0 -0.047874861098904598 -0.0016534406749804987 0 -0.048305372173261675 -0.0010714651671751962 0 -0.047874861098904598 -0.0016534406749804987 0 -0.048357862769064217 -0.001721504246452342 0 -0.048305372173261675 -0.0010714651671751962 0 -0.04881573793971327 -0.001317721122286406 0 -0.048357862769064217 -0.001721504246452342 0 -0.049493075811650841 0.00016471129892946164 0 -0.048305372173261675 -0.0010714651671751962 0 -0.04881573793971327 -0.001317721122286406 0 -0.049493075811650841 0.00016471129892946164 0 -0.04881573793971327 -0.001317721122286406 0 -0.049520923553051224 -0.0010305905926530484 0 -0.04881573793971327 -0.001317721122286406 0 -0.049520923553051224 -0.0010305905926530484 0 -0.049259385251479798 -0.0017810091265699505 0 -0.049371476155053745 -0.0024061653368722459 0 -0.047949548375107717 -0.0026671305896639368 0 -0.048585784911182713 -0.0021953754449925288 0 -0.048798587243911666 -0.0018057891217197215 0 -0.049019552702982971 -0.0020268071806208094 0 -0.048585784911182713 -0.0021953754449925288 0 -0.049259385251479798 -0.0017810091265699505 0 -0.048798587243911666 -0.0018057891217197215 0 -0.049019552702982971 -0.0020268071806208094 0 -0.04881573793971327 -0.001317721122286406 0 -0.049259385251479798 -0.0017810091265699505 0 -0.048798587243911666 -0.0018057891217197215 0 -0.04881573793971327 -0.001317721122286406 0 -0.048798587243911666 -0.0018057891217197215 0 -0.048357862769064217 -0.001721504246452342 0 -0.049019552702982971 -0.0020268071806208094 0 -0.049371476155053745 -0.0024061653368722459 0 -0.048585784911182713 -0.0021953754449925288 0 -0.049259385251479798 -0.0017810091265699505 0 -0.049019552702982971 -0.0020268071806208094 0 -0.049371476155053745 -0.0024061653368722459 0 -0.043961469575006143 -0.012420173362285278 0 -0.044293612413421973 -0.012613242162596997 0 -0.044679853032645621 -0.012389540927695111 0 -0.044293612413421973 -0.012613242162596997 0 -0.044679853032645621 -0.012389540927695111 0 -0.045198228104977811 -0.012472616076057128 0 -0.041894774546250381 -0.015048085289246478 0 -0.04310660836322025 -0.01680140346381101 0 -0.039620347774516597 -0.021237072658850765 0 -0.041569685635341712 -0.021039531396726138 0 -0.040989144226045111 -0.020005251174240936 0 -0.046419671948021539 -0.0085331150311399179 0 -0.046831317008371218 -0.0069433338132900094 0 -0.041569685635341712 -0.021039531396726138 0 -0.040989144226045111 -0.020005251174240936 0 -0.042307065451983511 -0.019678470088411101 0 -0.044679853032645621 -0.012389540927695111 0 -0.045198228104977811 -0.012472616076057128 0 -0.045387651735412107 -0.012363432121361422 0 -0.041569685635341712 -0.021039531396726138 0 -0.043154971808715435 -0.020917307841398336 0 -0.042307065451983511 -0.019678470088411101 0 -0.04310660836322025 -0.01680140346381101 0 -0.044147312838238736 -0.016894987667919484 0 -0.047949548375107717 -0.0026671305896639368 0 -0.048585784911182713 -0.0021953754449925288 0 -0.048357862769064217 -0.001721504246452342 0 -0.047874861098904598 -0.0016534406749804987 0 -0.047949548375107717 -0.0026671305896639368 0 -0.048357862769064217 -0.001721504246452342 0 -0.048798587243911666 -0.0018057891217197215 0 -0.048585784911182713 -0.0021953754449925288 0 -0.048357862769064217 -0.001721504246452342 0 -0.047350785538473328 -0.0014584777703057633 0 -0.047874861098904598 -0.0016534406749804987 0 -0.047254505616115369 -0.0022032110393913002 0 -0.047874861098904598 -0.0016534406749804987 0 -0.047949548375107717 -0.0026671305896639368 0 -0.047254505616115369 -0.0022032110393913002 0 -0.047350785538473328 -0.0014584777703057633 0 -0.047254505616115369 -0.0022032110393913002 0 -0.046911534013936308 -0.001987759011689098 0 -0.046462115797536001 -0.0019487436640847323 0 -0.046911534013936308 -0.001987759011689098 0 -0.046706486775461964 -0.0024431350835419294 0 -0.047254505616115369 -0.0022032110393913002 0 -0.046911534013936308 -0.001987759011689098 0 -0.046706486775461964 -0.0024431350835419294 0 -0.047254505616115369 -0.0022032110393913002 0 -0.046706486775461964 -0.0024431350835419294 0 -0.046811286028024437 -0.0030058525782644591 0 -0.046389114400117643 -0.002417420709572645 0 -0.046706486775461964 -0.0024431350835419294 0 -0.046561867052827166 -0.0027274555645373432 0 -0.046706486775461964 -0.0024431350835419294 0 -0.046561867052827166 -0.0027274555645373432 0 -0.046811286028024437 -0.0030058525782644591 0 -0.047002197253427989 -0.011902159059157955 0 -0.045950711291261034 -0.011806061045499402 0 -0.046432108324916094 -0.0031099644322572545 0 -0.046468756256796577 -0.0028958947875220072 0 -0.046811286028024437 -0.0030058525782644591 0 -0.047002197253427989 -0.011902159059157955 0 -0.047436041181235358 -0.0073924004524213603 0 -0.046561867052827166 -0.0027274555645373432 0 -0.046468756256796577 -0.0028958947875220072 0 -0.046811286028024437 -0.0030058525782644591 0 -0.044728215865363394 -0.020805701159531041 0 -0.043836587756524714 -0.020084931159017043 0 -0.044694260956404039 -0.020071099463690768 0 -0.04535702925737381 -0.020698531821519942 0 -0.044728215865363394 -0.020805701159531041 0 -0.044694260956404039 -0.020071099463690768 0 -0.043154971808715435 -0.020917307841398336 0 -0.043836587756524714 -0.020084931159017043 0 -0.042307065451983511 -0.019678470088411101 0 -0.044728215865363394 -0.020805701159531041 0 -0.043154971808715435 -0.020917307841398336 0 -0.043836587756524714 -0.020084931159017043 0 -0.047949548375107717 -0.0026671305896639368 0 -0.047254505616115369 -0.0022032110393913002 0 -0.046811286028024437 -0.0030058525782644591 0 -0.045950711291261034 -0.011806061045499402 0 -0.044147312838238736 -0.016894987667919484 0 -0.045198228104977811 -0.012472616076057128 0 -0.046082414695500847 -0.012341825345392739 0 -0.045387651735412107 -0.012363432121361422 0 -0.046831317008371218 -0.0069433338132900094 0 -0.045950711291261034 -0.011806061045499402 0 -0.043836587756524714 -0.020084931159017043 0 -0.043353740087104388 -0.019167444361833378 0 -0.042307065451983511 -0.019678470088411101 0 -0.043836587756524714 -0.020084931159017043 0 -0.043353740087104388 -0.019167444361833378 0 -0.044278986083347002 -0.019225603218824376 0 -0.045636792545782567 -0.019192414205619041 0 -0.04535702925737381 -0.020698531821519942 0 -0.0450268124998493 -0.019623591263914685 0 -0.04535702925737381 -0.020698531821519942 0 -0.0450268124998493 -0.019623591263914685 0 -0.044694260956404039 -0.020071099463690768 0 -0.043836587756524714 -0.020084931159017043 0 -0.044694260956404039 -0.020071099463690768 0 -0.044278986083347002 -0.019225603218824376 0 -0.0450268124998493 -0.019623591263914685 0 -0.044694260956404039 -0.020071099463690768 0 -0.044278986083347002 -0.019225603218824376 0 -0.0450268124998493 -0.019623591263914685 0 -0.044278986083347002 -0.019225603218824376 0 -0.045151895650678592 -0.018912180564485875 0 -0.045636792545782567 -0.019192414205619041 0 -0.0450268124998493 -0.019623591263914685 0 -0.045151895650678592 -0.018912180564485875 0 -0.044772415885120057 -0.01858904734515851 0 -0.045061460691378348 -0.017958643623190045 0 -0.044278986083347002 -0.019225603218824376 0 -0.045151895650678592 -0.018912180564485875 0 -0.044009246430947953 -0.017538182548221839 0 -0.045151895650678592 -0.018912180564485875 0 -0.044113300940967173 -0.017535411733698363 0 -0.045930520487466937 -0.017664681845849413 0 -0.043353740087104388 -0.019167444361833378 0 -0.044278986083347002 -0.019225603218824376 0 -0.044009246430947953 -0.017538182548221839 0 -0.043353740087104388 -0.019167444361833378 0 -0.042711725947794731 -0.018426750392911244 0 -0.044009246430947953 -0.017538182548221839 0 -0.042711725947794731 -0.018426750392911244 0 -0.041732670112633999 -0.018615259696856932 0 -0.042567026553750095 -0.017476401933865231 0 -0.042711725947794731 -0.018426750392911244 0 -0.041732670112633999 -0.018615259696856932 0 -0.042307065451983511 -0.019678470088411101 0 -0.040513294791778544 -0.018379579503205509 0 -0.041732670112633999 -0.018615259696856932 0 -0.041020206869331062 -0.019154603102763144 0 -0.040513294791778544 -0.018379579503205509 0 -0.041732670112633999 -0.018615259696856932 0 -0.041151948614463613 -0.017490827080287697 0 -0.041732670112633999 -0.018615259696856932 0 -0.041020206869331062 -0.019154603102763144 0 -0.042307065451983511 -0.019678470088411101 0 -0.039705287680996723 -0.019124942335792632 0 -0.041020206869331062 -0.019154603102763144 0 -0.040989144226045111 -0.020005251174240936 0 -0.041020206869331062 -0.019154603102763144 0 -0.040989144226045111 -0.020005251174240936 0 -0.042307065451983511 -0.019678470088411101 0 -0.043353740087104388 -0.019167444361833378 0 -0.042711725947794731 -0.018426750392911244 0 -0.042307065451983511 -0.019678470088411101 0 -0.04788603467269438 -0.017613444913679215 0 -0.047991275746763373 -0.017346662299529136 0 -0.047676716200021174 -0.017269206191106119 0 -0.045430960666501312 -0.017004824431999219 0 -0.044142880093503874 -0.017818424583683459 0 -0.041701778280417531 -0.016674067186548954 0 -0.042834306274783969 -0.016606099039694299 0 -0.041948743069499507 -0.015505085261357736 0 -0.04016835832954703 -0.016343220138883296 0 -0.041701778280417531 -0.016674067186548954 0 -0.041948743069499507 -0.015505085261357736 0 -0.04016835832954703 -0.016343220138883296 0 -0.041701778280417531 -0.016674067186548954 0 -0.041151948614463613 -0.017490827080287697 0 -0.036445140227155913 -0.023728164562459041 0 -0.044142880093503874 -0.017818424583683459 0 -0.040513294791778544 -0.018379579503205509 0 -0.040145826235555196 -0.017523036640201505 0 -0.041151948614463613 -0.017490827080287697 0 -0.041384401845230324 -0.017497835471084716 0 -0.042255356859202543 -0.017536130794468266 0 -0.041701778280417531 -0.016674067186548954 0 -0.041151948614463613 -0.017490827080287697 0 -0.042427557687200163 -0.01763852319705992 0 -0.041701778280417531 -0.016674067186548954 0 -0.042427557687200163 -0.01763852319705992 0 -0.042834306274783969 -0.016606099039694299 0 -0.041732670112633999 -0.018615259696856932 0 -0.041151948614463613 -0.017490827080287697 0 -0.042567026553750095 -0.017476401933865231 0 -0.042711725947794731 -0.018426750392911244 0 -0.042567026553750095 -0.017476401933865231 0 -0.044009246430947953 -0.017538182548221839 0 -0.045061460691378348 -0.017958643623190045 0 -0.045430960666501312 -0.017004824431999219 0 -0.042427557687200163 -0.01763852319705992 0 -0.043743029972525486 -0.017747839241575473 0 -0.042834306274783969 -0.016606099039694299 0 -0.042255356859202543 -0.017536130794468266 0 -0.045061460691378348 -0.017958643623190045 0 -0.048190521021214017 -0.018035826765848407 0 -0.048586239206149483 -0.017737164142470164 0 -0.048901771857832052 -0.018104957416848672 0 -0.045061460691378348 -0.017958643623190045 0 -0.048474952571065093 -0.016679780822548337 0 -0.048190521021214017 -0.018035826765848407 0 -0.048586239206149483 -0.017737164142470164 0 -0.04824349691370583 -0.017535373402230651 0 -0.048586239206149483 -0.017737164142470164 0 -0.048615327877791568 -0.017326564885236647 0 -0.04824349691370583 -0.017535373402230651 0 -0.048615327877791568 -0.017326564885236647 0 -0.04824349691370583 -0.017535373402230651 0 -0.048305321971904722 -0.017240856029972922 0 -0.048190521021214017 -0.018035826765848407 0 -0.04788603467269438 -0.017613444913679215 0 -0.04824349691370583 -0.017535373402230651 0 -0.04788603467269438 -0.017613444913679215 0 -0.04824349691370583 -0.017535373402230651 0 -0.047991275746763373 -0.017346662299529136 0 -0.04824349691370583 -0.017535373402230651 0 -0.047991275746763373 -0.017346662299529136 0 -0.048305321971904722 -0.017240856029972922 0 -0.047991275746763373 -0.017346662299529136 0 -0.048068184586128972 -0.017152716006565323 0 -0.048305321971904722 -0.017240856029972922 0 -0.048068184586128972 -0.017152716006565323 0 -0.048305321971904722 -0.017240856029972922 0 -0.048315938019580992 -0.017078905009253062 0 -0.048068184586128972 -0.017152716006565323 0 -0.047869299026231611 -0.017192111766947005 0 -0.04789421948617547 -0.017062440465915246 0 -0.047991275746763373 -0.017346662299529136 0 -0.048068184586128972 -0.017152716006565323 0 -0.047869299026231611 -0.017192111766947005 0 -0.048615327877791568 -0.017326564885236647 0 -0.048305321971904722 -0.017240856029972922 0 -0.048626595179194133 -0.017017920725434808 0 -0.048305321971904722 -0.017240856029972922 0 -0.048315938019580992 -0.017078905009253062 0 -0.048626595179194133 -0.017017920725434808 0 -0.048517028131356416 -0.016965209521282335 0 -0.048928889829565968 -0.016922400373226922 0 -0.048857640516046262 -0.016841202794346675 0 -0.048626595179194133 -0.017017920725434808 0 -0.048517028131356416 -0.016965209521282335 0 -0.048857640516046262 -0.016841202794346675 0 -0.048315938019580992 -0.017078905009253062 0 -0.048626595179194133 -0.017017920725434808 0 -0.048517028131356416 -0.016965209521282335 0 -0.048315938019580992 -0.017078905009253062 0 -0.048517028131356416 -0.016965209521282335 0 -0.048100052226788613 -0.017012202944606248 0 -0.048068184586128972 -0.017152716006565323 0 -0.04789421948617547 -0.017062440465915246 0 -0.048100052226788613 -0.017012202944606248 0 -0.04789421948617547 -0.017062440465915246 0 -0.048100052226788613 -0.017012202944606248 0 -0.047937684032864789 -0.016953037260426448 0 -0.048068184586128972 -0.017152716006565323 0 -0.048315938019580992 -0.017078905009253062 0 -0.048100052226788613 -0.017012202944606248 0 -0.048517028131356416 -0.016965209521282335 0 -0.048100052226788613 -0.017012202944606248 0 -0.048014893911373216 -0.016896315809815723 0 -0.048100052226788613 -0.017012202944606248 0 -0.047937684032864789 -0.016953037260426448 0 -0.048014893911373216 -0.016896315809815723 0 -0.047937684032864789 -0.016953037260426448 0 -0.047740118615808215 -0.016870769863781086 0 -0.048014893911373216 -0.016896315809815723 0 -0.04789421948617547 -0.017062440465915246 0 -0.047937684032864789 -0.016953037260426448 0 -0.047740118615808215 -0.016870769863781086 0 -0.041102228505591365 -0.022392425917496229 0 -0.045929224545454984 -0.019304036769439512 0 -0.047727398766089571 -0.017109379075238781 0 -0.047468187234797773 -0.017163351001862198 0 -0.047740118615808215 -0.016870769863781086 0 -0.040044917618399775 -0.023794509995227794 0 -0.038561549747933105 -0.027514728865103314 0 -0.043706768797071777 -0.022234582295917359 0 -0.04789421948617547 -0.017062440465915246 0 -0.047727398766089571 -0.017109379075238781 0 -0.047740118615808215 -0.016870769863781086 0 -0.047869299026231611 -0.017192111766947005 0 -0.04789421948617547 -0.017062440465915246 0 -0.047727398766089571 -0.017109379075238781 0 -0.047869299026231611 -0.017192111766947005 0 -0.047727398766089571 -0.017109379075238781 0 -0.047676716200021174 -0.017269206191106119 0 -0.04788603467269438 -0.017613444913679215 0 -0.047676716200021174 -0.017269206191106119 0 -0.04760144566231686 -0.017303230495619666 0 -0.044142880093503874 -0.017818424583683459 0 -0.041102228505591365 -0.022392425917496229 0 -0.047676716200021174 -0.017269206191106119 0 -0.04760274404451087 -0.017308275283409294 0 -0.047468187234797773 -0.017163351001862198 0 -0.047727398766089571 -0.017109379075238781 0 -0.047676716200021174 -0.017269206191106119 0 -0.047468187234797773 -0.017163351001862198 0 -0.04550543683123448 -0.017316261641426762 0 -0.044142880093503874 -0.017818424583683459 0 -0.047991275746763373 -0.017346662299529136 0 -0.047869299026231611 -0.017192111766947005 0 -0.047676716200021174 -0.017269206191106119 0 -0.037303044140326619 -0.023539225109985608 0 -0.042660863460283319 -0.020950001407468891 0 -0.041241752102642408 -0.019133635887424897 0 -0.033845702133213605 -0.031179318153209356 0 -0.034265990696786028 -0.028537743364021761 0 -0.038561549747933105 -0.027514728865103314 0 -0.034265990696786028 -0.028537743364021761 0 -0.038561549747933105 -0.027514728865103314 0 -0.036032612988332602 -0.027149937299935031 0 -0.036445140227155913 -0.023728164562459041 0 -0.041102228505591365 -0.022392425917496229 0 -0.033421621741271057 -0.026686381562888377 0 -0.036032612988332602 -0.027149937299935031 0 -0.03643661803455172 -0.024623801534203852 0 -0.036032612988332602 -0.027149937299935031 0 -0.037283545071809442 -0.026043762646116259 0 -0.03643661803455172 -0.024623801534203852 0 -0.033421621741271057 -0.026686381562888377 0 -0.03643661803455172 -0.024623801534203852 0 -0.03696351647662665 -0.017940639880114285 0 -0.037283545071809442 -0.026043762646116259 0 -0.038181264659821662 -0.02441251214841602 0 -0.03643661803455172 -0.024623801534203852 0 -0.038561549747933105 -0.027514728865103314 0 -0.036032612988332602 -0.027149937299935031 0 -0.037283545071809442 -0.026043762646116259 0 -0.040044917618399775 -0.023794509995227794 0 -0.038561549747933105 -0.027514728865103314 0 -0.038859058238717263 -0.025425455825804088 0 -0.038561549747933105 -0.027514728865103314 0 -0.037283545071809442 -0.026043762646116259 0 -0.038859058238717263 -0.025425455825804088 0 -0.037283545071809442 -0.026043762646116259 0 -0.038859058238717263 -0.025425455825804088 0 -0.038181264659821662 -0.02441251214841602 0 -0.038181264659821662 -0.02441251214841602 0 -0.03643661803455172 -0.024623801534203852 0 -0.038386460123941923 -0.022063117514045258 0 -0.040044917618399775 -0.023794509995227794 0 -0.038859058238717263 -0.025425455825804088 0 -0.038181264659821662 -0.02441251214841602 0 -0.040044917618399775 -0.023794509995227794 0 -0.038181264659821662 -0.02441251214841602 0 -0.038386460123941923 -0.022063117514045258 0 -0.03643661803455172 -0.024623801534203852 0 -0.038386460123941923 -0.022063117514045258 0 -0.03696351647662665 -0.017940639880114285 0 -0.040044917618399775 -0.023794509995227794 0 -0.038386460123941923 -0.022063117514045258 0 -0.040234490025987411 -0.019954175087145008 0 -0.038386460123941923 -0.022063117514045258 0 -0.03696351647662665 -0.017940639880114285 0 -0.040234490025987411 -0.019954175087145008 0 -0.03787727613154878 -0.018109772867204964 0 -0.040234490025987411 -0.019954175087145008 0 -0.041165939437502269 -0.017136107619115593 0 -0.032284405237528596 -0.022573199811094357 0 -0.038849352557152758 -0.021282836665969879 0 -0.043706768797071777 -0.022234582295917359 0 -0.040234490025987411 -0.019954175087145008 0 -0.043344202081757509 -0.018219775712484058 0 -0.040044917618399775 -0.023794509995227794 0 -0.043706768797071777 -0.022234582295917359 0 -0.040234490025987411 -0.019954175087145008 0 -0.040234490025987411 -0.019954175087145008 0 -0.043344202081757509 -0.018219775712484058 0 -0.041165939437502269 -0.017136107619115593 0 -0.043344202081757509 -0.018219775712484058 0 -0.041165939437502269 -0.017136107619115593 0 -0.043852107960633879 -0.015733867957717071 0 -0.041165939437502269 -0.017136107619115593 0 -0.043852107960633879 -0.015733867957717071 0 -0.040599327454058178 -0.013392451962246858 0 -0.043852107960633879 -0.015733867957717071 0 -0.040599327454058178 -0.013392451962246858 0 -0.043660911900056457 -0.013209982274194015 0 -0.02294520046655851 -0.028394393549518924 0 -0.023150143746443218 -0.029182153207749455 0 -0.022463352144796622 -0.029344991505699195 0 -0.032284405237528596 -0.022573199811094357 0 -0.03105200177083528 -0.021352192173386183 0 -0.03787727613154878 -0.018109772867204964 0 -0.041165939437502269 -0.017136107619115593 0 -0.040599327454058178 -0.013392451962246858 0 -0.023150143746443218 -0.029182153207749455 0 -0.023065515899100018 -0.029658407455463207 0 -0.022463352144796622 -0.029344991505699195 0 -0.023065515899100018 -0.029658407455463207 0 -0.022576159966665371 -0.030009902225231859 0 -0.02310948323169593 -0.030224615896962896 0 -0.023065515899100018 -0.029658407455463207 0 -0.022576159966665371 -0.030009902225231859 0 -0.022463352144796622 -0.029344991505699195 0 -0.03105200177083528 -0.021352192173386183 0 -0.037325142467702639 -0.022435798272729127 0 -0.040599327454058178 -0.013392451962246858 0 -0.043660911900056457 -0.013209982274194015 0 -0.042992131204045811 -0.0087597312828200571 0 -0.022576159966665371 -0.030009902225231859 0 -0.022463352144796622 -0.029344991505699195 0 -0.022079095623281798 -0.030238619288162894 0 -0.022576159966665371 -0.030009902225231859 0 -0.022079095623281798 -0.030238619288162894 0 -0.022201462404557972 -0.030436801740102704 0 -0.021686754836857156 -0.03195491366571615 0 -0.02187634238735851 -0.032024149947311724 0 -0.021709155716164358 -0.032720836638911892 0 -0.037325142467702639 -0.022435798272729127 0 -0.027455623969296641 -0.02665940930204605 0 -0.037325142467702639 -0.022435798272729127 0 -0.03809847311674832 -0.025529567008690301 0 -0.03809847311674832 -0.025529567008690301 0 -0.027455623969296641 -0.02665940930204605 0 -0.034128154209405751 -0.027260636074707915 0 -0.034532412586561104 -0.026448179562736027 0 -0.033265965874809268 -0.026117941364296689 0 -0.027455623969296641 -0.02665940930204605 0 -0.021663525421489999 -0.031029466473045345 0 -0.022576159966665371 -0.030009902225231859 0 -0.022201462404557972 -0.030436801740102704 0 -0.022992993738991042 -0.030814502418658081 0 -0.022576159966665371 -0.030009902225231859 0 -0.022992993738991042 -0.030814502418658081 0 -0.02310948323169593 -0.030224615896962896 0 -0.048419619351063314 -0.0197906629333271 0 -0.048566378987615934 -0.02133139415815935 0 -0.050202217780874366 -0.020521478326178927 0 -0.048009987584394488 -0.019693026862263693 0 -0.051704135302883217 -0.020882901688468281 0 -0.048419619351063314 -0.0197906629333271 0 -0.048566378987615934 -0.02133139415815935 0 -0.047421318137753674 -0.021055566260095464 0 -0.048566378987615934 -0.02133139415815935 0 -0.047421318137753674 -0.021055566260095464 0 -0.047272379359859805 -0.02240246486844983 0 -0.048566378987615934 -0.02133139415815935 0 -0.050202217780874366 -0.020521478326178927 0 -0.050008735767740405 -0.022001373472926519 0 -0.052088062595808365 -0.021086228229434519 0 -0.050202217780874366 -0.020521478326178927 0 -0.050008735767740405 -0.022001373472926519 0 -0.050941098713946691 -0.019990132087512862 0 -0.050823616226060568 -0.020212053052876777 0 -0.04974443547778757 -0.019893746519106702 0 -0.03809847311674832 -0.025529567008690301 0 -0.051704135302883217 -0.020882901688468281 0 -0.04974443547778757 -0.019893746519106702 0 -0.049160298288788831 -0.019009115557333155 0 -0.04975730460790221 -0.018119828247506995 0 -0.043660911900056457 -0.013209982274194015 0 -0.042992131204045811 -0.0087597312828200571 0 -0.047305801250615932 -0.01460411041104815 0 -0.037325142467702639 -0.022435798272729127 0 -0.049752019735947776 -0.015175217141466418 0 -0.050941098713946691 -0.019990132087512862 0 -0.04974443547778757 -0.019893746519106702 0 -0.04975730460790221 -0.018119828247506995 0 -0.048996895919985406 -0.018331926797990717 0 -0.049160298288788831 -0.019009115557333155 0 -0.04975730460790221 -0.018119828247506995 0 -0.048419619351063314 -0.0197906629333271 0 -0.04974443547778757 -0.019893746519106702 0 -0.049160298288788831 -0.019009115557333155 0 -0.048419619351063314 -0.0197906629333271 0 -0.048402990137730265 -0.018772760792898611 0 -0.047162936928237781 -0.019358370749476422 0 -0.048419619351063314 -0.0197906629333271 0 -0.049160298288788831 -0.019009115557333155 0 -0.048402990137730265 -0.018772760792898611 0 -0.048996895919985406 -0.018331926797990717 0 -0.049160298288788831 -0.019009115557333155 0 -0.048402990137730265 -0.018772760792898611 0 -0.049752019735947776 -0.015175217141466418 0 -0.048613323879975329 -0.017233149667113475 0 -0.047305801250615932 -0.01460411041104815 0 -0.047511009480171562 -0.016386071980687006 0 -0.048928889829565968 -0.016922400373226922 0 -0.048996895919985406 -0.018331926797990717 0 -0.048402990137730265 -0.018772760792898611 0 -0.048862675560898558 -0.017320498603101905 0 -0.048996895919985406 -0.018331926797990717 0 -0.04975730460790221 -0.018119828247506995 0 -0.048862675560898558 -0.017320498603101905 0 -0.04975730460790221 -0.018119828247506995 0 -0.048928889829565968 -0.016922400373226922 0 -0.048862675560898558 -0.017320498603101905 0 -0.043344202081757509 -0.018219775712484058 0 -0.043852107960633879 -0.015733867957717071 0 -0.047511009480171562 -0.016386071980687006 0 -0.043852107960633879 -0.015733867957717071 0 -0.043660911900056457 -0.013209982274194015 0 -0.047305801250615932 -0.01460411041104815 0 -0.043852107960633879 -0.015733867957717071 0 -0.047305801250615932 -0.01460411041104815 0 -0.047511009480171562 -0.016386071980687006 0 -0.047740118615808215 -0.016870769863781086 0 -0.047511009480171562 -0.016386071980687006 0 -0.048014893911373216 -0.016896315809815723 0 -0.043706768797071777 -0.022234582295917359 0 -0.043344202081757509 -0.018219775712484058 0 -0.047511009480171562 -0.016386071980687006 0 -0.045929224545454984 -0.019304036769439512 0 -0.047367474921281169 -0.016813928305573125 0 -0.047511009480171562 -0.016386071980687006 0 -0.048014893911373216 -0.016896315809815723 0 -0.048928889829565968 -0.016922400373226922 0 -0.048517028131356416 -0.016965209521282335 0 -0.048014893911373216 -0.016896315809815723 0 -0.048928889829565968 -0.016922400373226922 0 -0.048928889829565968 -0.016922400373226922 0 -0.048978545447108127 -0.01692819669014085 0 -0.048857640516046262 -0.016841202794346675 0 -0.048978545447108127 -0.01692819669014085 0 -0.049001044089264055 -0.016766810136598125 0 -0.049087393092506378 -0.017205357751749195 0 -0.048978545447108127 -0.01692819669014085 0 -0.048862675560898558 -0.017320498603101905 0 -0.049087393092506378 -0.017205357751749195 0 -0.048928889829565968 -0.016922400373226922 0 -0.048978545447108127 -0.01692819669014085 0 -0.048862675560898558 -0.017320498603101905 0 -0.049001044089264055 -0.016766810136598125 0 -0.048890052172689907 -0.01702088891410225 0 -0.049087393092506378 -0.017205357751749195 0 -0.048978545447108127 -0.01692819669014085 0 -0.049001044089264055 -0.016766810136598125 0 -0.049056252855692484 -0.016652708693859174 0 -0.048890052172689907 -0.01702088891410225 0 -0.049081299686439789 -0.017515925100485948 0 -0.049087393092506378 -0.017205357751749195 0 -0.049081299686439789 -0.017515925100485948 0 -0.049087393092506378 -0.017205357751749195 0 -0.049306224250427209 -0.017597797112639261 0 -0.048890052172689907 -0.01702088891410225 0 -0.049081299686439789 -0.017515925100485948 0 -0.048768844972655066 -0.017678505667184107 0 -0.048862675560898558 -0.017320498603101905 0 -0.049087393092506378 -0.017205357751749195 0 -0.049306224250427209 -0.017597797112639261 0 -0.048816148759093299 -0.017523414773176173 0 -0.048510824325922339 -0.018875372197713108 0 -0.048402990137730265 -0.018772760792898611 0 -0.048862675560898558 -0.017320498603101905 0 -0.047162936928237781 -0.019358370749476422 0 -0.048862675560898558 -0.017320498603101905 0 -0.049306224250427209 -0.017597797112639261 0 -0.04990627769171431 -0.018148106855436948 0 -0.04990627769171431 -0.018148106855436948 0 -0.049219268573209685 -0.01808642555416682 0 -0.049393155968179087 -0.018990249602877592 0 -0.049306224250427209 -0.017597797112639261 0 -0.04990627769171431 -0.018148106855436948 0 -0.049219268573209685 -0.01808642555416682 0 -0.049081299686439789 -0.017515925100485948 0 -0.049306224250427209 -0.017597797112639261 0 -0.049219268573209685 -0.01808642555416682 0 -0.049219268573209685 -0.01808642555416682 0 -0.04877058210128405 -0.018781190329348586 0 -0.048768844972655066 -0.017678505667184107 0 -0.049081299686439789 -0.017515925100485948 0 -0.049219268573209685 -0.01808642555416682 0 -0.048768844972655066 -0.017678505667184107 0 -0.049219268573209685 -0.01808642555416682 0 -0.049393155968179087 -0.018990249602877592 0 -0.04877058210128405 -0.018781190329348586 0 -0.049393155968179087 -0.018990249602877592 0 -0.04877058210128405 -0.018781190329348586 0 -0.049180931149838278 -0.01981956552568629 0 -0.049393155968179087 -0.018990249602877592 0 -0.050063284093024296 -0.02041705312845556 0 -0.049180931149838278 -0.01981956552568629 0 -0.04990627769171431 -0.018148106855436948 0 -0.049393155968179087 -0.018990249602877592 0 -0.050063284093024296 -0.02041705312845556 0 -0.048510824325922339 -0.018875372197713108 0 -0.047918878972775622 -0.021506366344740707 0 -0.047162936928237781 -0.019358370749476422 0 -0.047421318137753674 -0.021055566260095464 0 -0.045809344738402633 -0.022568143654019292 0 -0.048419619351063314 -0.0197906629333271 0 -0.047162936928237781 -0.019358370749476422 0 -0.047421318137753674 -0.021055566260095464 0 -0.047569124306064185 -0.018883951214445843 0 -0.047117756297132045 -0.019158179888070021 0 -0.048056428981681651 -0.019805525796675633 0 -0.047569124306064185 -0.018883951214445843 0 -0.048159900783647659 -0.018149235808483162 0 -0.048056428981681651 -0.019805525796675633 0 -0.04877058210128405 -0.018781190329348586 0 -0.048056428981681651 -0.019805525796675633 0 -0.049180931149838278 -0.01981956552568629 0 -0.04877058210128405 -0.018781190329348586 0 -0.048159900783647659 -0.018149235808483162 0 -0.048056428981681651 -0.019805525796675633 0 -0.04877058210128405 -0.018781190329348586 0 -0.048159900783647659 -0.018149235808483162 0 -0.048768844972655066 -0.017678505667184107 0 -0.047569124306064185 -0.018883951214445843 0 -0.048159900783647659 -0.018149235808483162 0 -0.047055124559156079 -0.018423989817957918 0 -0.048159900783647659 -0.018149235808483162 0 -0.047147612868829278 -0.017200878116948037 0 -0.047055124559156079 -0.018423989817957918 0 -0.048488804657538555 -0.016731324162830189 0 -0.048811395282295056 -0.016385260405695785 0 -0.048887946313921612 -0.016219346625271174 0 -0.048539199361978952 -0.01667947361856742 0 -0.04785109952464249 -0.01671229792780916 0 -0.048159900783647659 -0.018149235808483162 0 -0.048488804657538555 -0.016731324162830189 0 -0.047147612868829278 -0.017200878116948037 0 -0.048159900783647659 -0.018149235808483162 0 -0.048768844972655066 -0.017678505667184107 0 -0.048488804657538555 -0.016731324162830189 0 -0.048890052172689907 -0.01702088891410225 0 -0.048768844972655066 -0.017678505667184107 0 -0.048488804657538555 -0.016731324162830189 0 -0.049001044089264055 -0.016766810136598125 0 -0.048890052172689907 -0.01702088891410225 0 -0.048834607417765998 -0.016456647436619714 0 -0.048890052172689907 -0.01702088891410225 0 -0.048488804657538555 -0.016731324162830189 0 -0.048834607417765998 -0.016456647436619714 0 -0.048834607417765998 -0.016456647436619714 0 -0.048811395282295056 -0.016385260405695785 0 -0.048979275084913274 -0.016124069216708319 0 -0.048488804657538555 -0.016731324162830189 0 -0.048834607417765998 -0.016456647436619714 0 -0.048811395282295056 -0.016385260405695785 0 -0.048834607417765998 -0.016456647436619714 0 -0.049106514906566909 -0.016052685863272766 0 -0.048979275084913274 -0.016124069216708319 0 -0.049106514906566909 -0.016052685863272766 0 -0.049315346160473186 -0.015769394587671109 0 -0.049134766437689936 -0.015488844176696841 0 -0.049106514906566909 -0.016052685863272766 0 -0.049027977789890154 -0.016326269458749799 0 -0.049315346160473186 -0.015769394587671109 0 -0.049027977789890154 -0.016326269458749799 0 -0.049054064757225263 -0.016321964511120907 0 -0.049315346160473186 -0.015769394587671109 0 -0.048834607417765998 -0.016456647436619714 0 -0.049106514906566909 -0.016052685863272766 0 -0.049027977789890154 -0.016326269458749799 0 -0.049001044089264055 -0.016766810136598125 0 -0.048834607417765998 -0.016456647436619714 0 -0.049027977789890154 -0.016326269458749799 0 -0.049001044089264055 -0.016766810136598125 0 -0.049027977789890154 -0.016326269458749799 0 -0.049056252855692484 -0.016652708693859174 0 -0.049056252855692484 -0.016652708693859174 0 -0.048857640516046262 -0.016841202794346675 0 -0.049123236957706172 -0.016680497498433113 0 -0.048978545447108127 -0.01692819669014085 0 -0.049056252855692484 -0.016652708693859174 0 -0.048857640516046262 -0.016841202794346675 0 -0.048626595179194133 -0.017017920725434808 0 -0.048857640516046262 -0.016841202794346675 0 -0.049123236957706172 -0.016680497498433113 0 -0.048615327877791568 -0.017326564885236647 0 -0.048626595179194133 -0.017017920725434808 0 -0.049123236957706172 -0.016680497498433113 0 -0.049056252855692484 -0.016652708693859174 0 -0.049123236957706172 -0.016680497498433113 0 -0.049054064757225263 -0.016321964511120907 0 -0.049027977789890154 -0.016326269458749799 0 -0.049056252855692484 -0.016652708693859174 0 -0.049054064757225263 -0.016321964511120907 0 -0.049123236957706172 -0.016680497498433113 0 -0.049054064757225263 -0.016321964511120907 0 -0.049243739261752753 -0.016194926704575847 0 -0.049054064757225263 -0.016321964511120907 0 -0.049243739261752753 -0.016194926704575847 0 -0.049081576237848541 -0.016117401149533656 0 -0.049243739261752753 -0.016194926704575847 0 -0.049175083344161534 -0.016089331267586545 0 -0.049081576237848541 -0.016117401149533656 0 -0.049136913490431929 -0.016683474473191563 0 -0.049145789189149178 -0.016924232884624184 0 -0.048615327877791568 -0.017326564885236647 0 -0.049123236957706172 -0.016680497498433113 0 -0.049041801414589192 -0.017544365914762879 0 -0.048586239206149483 -0.017737164142470164 0 -0.048615327877791568 -0.017326564885236647 0 -0.049041801414589192 -0.017544365914762879 0 -0.049145789189149178 -0.016924232884624184 0 -0.048474952571065093 -0.016679780822548337 0 -0.048586239206149483 -0.017737164142470164 0 -0.049041801414589192 -0.017544365914762879 0 -0.048901771857832052 -0.018104957416848672 0 -0.049243739261752753 -0.016194926704575847 0 -0.049252339898255934 -0.016040218408071398 0 -0.049175083344161534 -0.016089331267586545 0 -0.048474952571065093 -0.016679780822548337 0 -0.049492763642781296 -0.01594934696650872 0 -0.049133913090631809 -0.016029541493378777 0 -0.049175083344161534 -0.016089331267586545 0 -0.049081576237848541 -0.016117401149533656 0 -0.049252339898255934 -0.016040218408071398 0 -0.049133913090631809 -0.016029541493378777 0 -0.049175083344161534 -0.016089331267586545 0 -0.049133913090631809 -0.016029541493378777 0 -0.049129232957391758 -0.016101124574486786 0 -0.049081576237848541 -0.016117401149533656 0 -0.049815168733556424 -0.014215950582338726 0 -0.05003634124997159 -0.014676836228359497 0 -0.049524224604381883 -0.014611622070399014 0 -0.05003634124997159 -0.014676836228359497 0 -0.049524224604381883 -0.014611622070399014 0 -0.049315346160473186 -0.015769394587671109 0 -0.049609935616377936 -0.015179795345157371 0 -0.049339015576332225 -0.015804496370957839 0 -0.049524224604381883 -0.014611622070399014 0 -0.049315346160473186 -0.015769394587671109 0 -0.049252173067567871 -0.01491984459760874 0 -0.049054064757225263 -0.016321964511120907 0 -0.049315346160473186 -0.015769394587671109 0 -0.049081576237848541 -0.016117401149533656 0 -0.049129232957391758 -0.016101124574486786 0 -0.049315346160473186 -0.015769394587671109 0 -0.049081576237848541 -0.016117401149533656 0 -0.049107353875182502 -0.014583610428943478 0 -0.048988787819743945 -0.014741687906375922 0 -0.049134766437689936 -0.015488844176696841 0 -0.049315346160473186 -0.015769394587671109 0 -0.049252173067567871 -0.01491984459760874 0 -0.049134766437689936 -0.015488844176696841 0 -0.049252173067567871 -0.01491984459760874 0 -0.049107353875182502 -0.014583610428943478 0 -0.049134766437689936 -0.015488844176696841 0 -0.049237218727044126 -0.014249959295350006 0 -0.049524224604381883 -0.014611622070399014 0 -0.049252173067567871 -0.01491984459760874 0 -0.049237218727044126 -0.014249959295350006 0 -0.049252173067567871 -0.01491984459760874 0 -0.049107353875182502 -0.014583610428943478 0 -0.049237218727044126 -0.014249959295350006 0 -0.049538197776186378 -0.014154086668070893 0 -0.049524224604381883 -0.014611622070399014 0 -0.049237218727044126 -0.014249959295350006 0 -0.049107353875182502 -0.014583610428943478 0 -0.049078289392648175 -0.014098894603566425 0 -0.049107353875182502 -0.014583610428943478 0 -0.049078289392648175 -0.014098894603566425 0 -0.048899689256111559 -0.013953959288443904 0 -0.049107353875182502 -0.014583610428943478 0 -0.048899689256111559 -0.013953959288443904 0 -0.048988787819743945 -0.014741687906375922 0 -0.048899689256111559 -0.013953959288443904 0 -0.048588063729919403 -0.013447913667824085 0 -0.048701889539647263 -0.014310905755111514 0 -0.04872569507202397 -0.013182284440340621 0 -0.048899689256111559 -0.013953959288443904 0 -0.048588063729919403 -0.013447913667824085 0 -0.048588063729919403 -0.013447913667824085 0 -0.048701889539647263 -0.014310905755111514 0 -0.048291990052192889 -0.013435385601524533 0 -0.048899689256111559 -0.013953959288443904 0 -0.048701889539647263 -0.014310905755111514 0 -0.048988787819743945 -0.014741687906375922 0 -0.048701889539647263 -0.014310905755111514 0 -0.048988787819743945 -0.014741687906375922 0 -0.048873183733545419 -0.014935075836964412 0 -0.048988787819743945 -0.014741687906375922 0 -0.048967384270978472 -0.015362729379786678 0 -0.048873183733545419 -0.014935075836964412 0 -0.048967384270978472 -0.015362729379786678 0 -0.048873183733545419 -0.014935075836964412 0 -0.048764747213997046 -0.015293965400560456 0 -0.048701889539647263 -0.014310905755111514 0 -0.048873183733545419 -0.014935075836964412 0 -0.048764747213997046 -0.015293965400560456 0 -0.048701889539647263 -0.014310905755111514 0 -0.048764747213997046 -0.015293965400560456 0 -0.048375928338107735 -0.014656687119942169 0 -0.048764747213997046 -0.015293965400560456 0 -0.048896993679300109 -0.015785002921472713 0 -0.048672419713856108 -0.015825283108547791 0 -0.048764747213997046 -0.015293965400560456 0 -0.048672419713856108 -0.015825283108547791 0 -0.048533534970709648 -0.0157054291717913 0 -0.048967384270978472 -0.015362729379786678 0 -0.048764747213997046 -0.015293965400560456 0 -0.048896993679300109 -0.015785002921472713 0 -0.048967384270978472 -0.015362729379786678 0 -0.048896993679300109 -0.015785002921472713 0 -0.049004197448571915 -0.015801097892712525 0 -0.048896993679300109 -0.015785002921472713 0 -0.049004197448571915 -0.015801097892712525 0 -0.048960391122006439 -0.016120051504317376 0 -0.048988787819743945 -0.014741687906375922 0 -0.048967384270978472 -0.015362729379786678 0 -0.049134766437689936 -0.015488844176696841 0 -0.048967384270978472 -0.015362729379786678 0 -0.049004197448571915 -0.015801097892712525 0 -0.049134766437689936 -0.015488844176696841 0 -0.049106514906566909 -0.016052685863272766 0 -0.049134766437689936 -0.015488844176696841 0 -0.048979275084913274 -0.016124069216708319 0 -0.049004197448571915 -0.015801097892712525 0 -0.049134766437689936 -0.015488844176696841 0 -0.048979275084913274 -0.016124069216708319 0 -0.049004197448571915 -0.015801097892712525 0 -0.048979275084913274 -0.016124069216708319 0 -0.048960391122006439 -0.016120051504317376 0 -0.048811395282295056 -0.016385260405695785 0 -0.048979275084913274 -0.016124069216708319 0 -0.048960391122006439 -0.016120051504317376 0 -0.048811395282295056 -0.016385260405695785 0 -0.048960391122006439 -0.016120051504317376 0 -0.048887946313921612 -0.016219346625271174 0 -0.048896993679300109 -0.015785002921472713 0 -0.048960391122006439 -0.016120051504317376 0 -0.048848518900995855 -0.016071803860581046 0 -0.048960391122006439 -0.016120051504317376 0 -0.048920682483971606 -0.016185310933473928 0 -0.048848518900995855 -0.016071803860581046 0 -0.048960391122006439 -0.016120051504317376 0 -0.048920682483971606 -0.016185310933473928 0 -0.048887946313921612 -0.016219346625271174 0 -0.048725090173155391 -0.01807323506611986 0 -0.04785109952464249 -0.01671229792780916 0 -0.045988275482793751 -0.017536860864935638 0 -0.047147612868829278 -0.017200878116948037 0 -0.047055124559156079 -0.018423989817957918 0 -0.048725090173155391 -0.01807323506611986 0 -0.046257837173442694 -0.018094467107565078 0 -0.04668056368659506 -0.018313172921503116 0 -0.047055124559156079 -0.018423989817957918 0 -0.046730623245590838 -0.018513178490020234 0 -0.04668056368659506 -0.018313172921503116 0 -0.046730623245590838 -0.018513178490020234 0 -0.046516986758230412 -0.018563678806072462 0 -0.046730623245590838 -0.018513178490020234 0 -0.046575390308122681 -0.018803904550244367 0 -0.046516986758230412 -0.018563678806072462 0 -0.047012176598389084 -0.020742848186655054 0 -0.047406574231355532 -0.020780969748971995 0 -0.047341506391167458 -0.02267139351373116 0 -0.04763717543433843 -0.022395047311543074 0 -0.047462110256184062 -0.022725962496367803 0 -0.046730623245590838 -0.018513178490020234 0 -0.046575390308122681 -0.018803904550244367 0 -0.047117756297132045 -0.019158179888070021 0 -0.047055124559156079 -0.018423989817957918 0 -0.046730623245590838 -0.018513178490020234 0 -0.047117756297132045 -0.019158179888070021 0 -0.047569124306064185 -0.018883951214445843 0 -0.047055124559156079 -0.018423989817957918 0 -0.047117756297132045 -0.019158179888070021 0 -0.046947494505823598 -0.022604758106470401 0 -0.046674419085435646 -0.022938898280975867 0 -0.047068942700061928 -0.02305344410930572 0 -0.047341506391167458 -0.02267139351373116 0 -0.046947494505823598 -0.022604758106470401 0 -0.047068942700061928 -0.02305344410930572 0 -0.046575390308122681 -0.018803904550244367 0 -0.046329257294484602 -0.018652271386390147 0 -0.046516986758230412 -0.018563678806072462 0 -0.047012176598389084 -0.020742848186655054 0 -0.04648121772964172 -0.02058615415045599 0 -0.046329257294484602 -0.018652271386390147 0 -0.046516986758230412 -0.018563678806072462 0 -0.046355090045599824 -0.018524034423921351 0 -0.048725090173155391 -0.01807323506611986 0 -0.049088198228220296 -0.019631230413117415 0 -0.04668056368659506 -0.018313172921503116 0 -0.046516986758230412 -0.018563678806072462 0 -0.046355090045599824 -0.018524034423921351 0 -0.046329257294484602 -0.018652271386390147 0 -0.046355090045599824 -0.018524034423921351 0 -0.046182425839808576 -0.018641915166236877 0 -0.051099765665180846 -0.020646876937303146 0 -0.050749757915895581 -0.01912300854250638 0 -0.052166584491839287 -0.018557084650060493 0 -0.051099765665180846 -0.020646876937303146 0 -0.050749757915895581 -0.01912300854250638 0 -0.049216031000591735 -0.01922070251184424 0 -0.048725090173155391 -0.01807323506611986 0 -0.050880551628345268 -0.017475980781908471 0 -0.053714206466211167 -0.019826000185543705 0 -0.051099765665180846 -0.020646876937303146 0 -0.052166584491839287 -0.018557084650060493 0 -0.048896993679300109 -0.015785002921472713 0 -0.048848518900995855 -0.016071803860581046 0 -0.048672419713856108 -0.015825283108547791 0 -0.050749757915895581 -0.01912300854250638 0 -0.050497762896936187 -0.017128024891630209 0 -0.049216031000591735 -0.01922070251184424 0 -0.050749757915895581 -0.01912300854250638 0 -0.052166584491839287 -0.018557084650060493 0 -0.050497762896936187 -0.017128024891630209 0 -0.050880551628345268 -0.017475980781908471 0 -0.049490693988645341 -0.01643241190350277 0 -0.050497762896936187 -0.017128024891630209 0 -0.048206242351748661 -0.017265937953530958 0 -0.049216031000591735 -0.01922070251184424 0 -0.048206242351748661 -0.017265937953530958 0 -0.047372454326629551 -0.019496950032022373 0 -0.046890688724726293 -0.017376816589096986 0 -0.048206242351748661 -0.017265937953530958 0 -0.047372454326629551 -0.019496950032022373 0 -0.049216031000591735 -0.01922070251184424 0 -0.047372454326629551 -0.019496950032022373 0 -0.049216031000591735 -0.01922070251184424 0 -0.048324111852923943 -0.021661346794200488 0 -0.051099765665180846 -0.020646876937303146 0 -0.049216031000591735 -0.01922070251184424 0 -0.048324111852923943 -0.021661346794200488 0 -0.04648121772964172 -0.02058615415045599 0 -0.046933393952847742 -0.0205720032061565 0 -0.049088198228220296 -0.019631230413117415 0 -0.046933393952847742 -0.0205720032061565 0 -0.046933393952847742 -0.0205720032061565 0 -0.046183337593271728 -0.021661748740425198 0 -0.046332830617439161 -0.022211621973668449 0 -0.045956655982154662 -0.022344236291757989 0 -0.045930437320510095 -0.021414787024220949 0 -0.047372454326629551 -0.019496950032022373 0 -0.048324111852923943 -0.021661346794200488 0 -0.045930437320510095 -0.021414787024220949 0 -0.046332830617439161 -0.022211621973668449 0 -0.045956655982154662 -0.022344236291757989 0 -0.046116456101829073 -0.023020783518196825 0 -0.045956655982154662 -0.022344236291757989 0 -0.045537761250711059 -0.022854923192511561 0 -0.046116456101829073 -0.023020783518196825 0 -0.046332830617439161 -0.022211621973668449 0 -0.046674419085435646 -0.022938898280975867 0 -0.046116456101829073 -0.023020783518196825 0 -0.046947494505823598 -0.022604758106470401 0 -0.046332830617439161 -0.022211621973668449 0 -0.046674419085435646 -0.022938898280975867 0 -0.044836944580471223 -0.02224490083820066 0 -0.045282178359106175 -0.022620617159425774 0 -0.045280826821259106 -0.02301284530698789 0 -0.045345596891170903 -0.021611902590456485 0 -0.045000048474924621 -0.022970589423262903 0 -0.045852906450484447 -0.021076070526280494 0 -0.044999855487890011 -0.020289102644932586 0 -0.045000037176130193 -0.022970972010457238 0 -0.044836944580471223 -0.02224490083820066 0 -0.045280826821259106 -0.02301284530698789 0 -0.044999127092771318 -0.022972252163344465 0 -0.045282178359106175 -0.022620617159425774 0 -0.045537761250711059 -0.022854923192511561 0 -0.045280826821259106 -0.02301284530698789 0 -0.045956655982154662 -0.022344236291757989 0 -0.045537761250711059 -0.022854923192511561 0 -0.045476305231719409 -0.022207384796581194 0 -0.044836944580471223 -0.02224490083820066 0 -0.045282178359106175 -0.022620617159425774 0 -0.045476305231719409 -0.022207384796581194 0 -0.045282178359106175 -0.022620617159425774 0 -0.045537761250711059 -0.022854923192511561 0 -0.045476305231719409 -0.022207384796581194 0 -0.045476305231719409 -0.022207384796581194 0 -0.045930437320510095 -0.021414787024220949 0 -0.045246552865532939 -0.020109556748227925 0 -0.044836944580471223 -0.02224490083820066 0 -0.045476305231719409 -0.022207384796581194 0 -0.045246552865532939 -0.020109556748227925 0 -0.045956655982154662 -0.022344236291757989 0 -0.045476305231719409 -0.022207384796581194 0 -0.045930437320510095 -0.021414787024220949 0 -0.045852906450484447 -0.021076070526280494 0 -0.044999855487890011 -0.020289102644932586 0 -0.046501863138647279 -0.019111530138455835 0 -0.045345596891170903 -0.021611902590456485 0 -0.045925718436787936 -0.019597798887188218 0 -0.044999855487890011 -0.020289102644932586 0 -0.046501863138647279 -0.019111530138455835 0 -0.04499979180572182 -0.017607578680164274 0 -0.047372454326629551 -0.019496950032022373 0 -0.045246552865532939 -0.020109556748227925 0 -0.046890688724726293 -0.017376816589096986 0 -0.045925718436787936 -0.019597798887188218 0 -0.046795745978294695 -0.017584404996739373 0 -0.047372454326629551 -0.019496950032022373 0 -0.045930437320510095 -0.021414787024220949 0 -0.045246552865532939 -0.020109556748227925 0 -0.046501863138647279 -0.019111530138455835 0 -0.046890688724726293 -0.017376816589096986 0 -0.04499979180572182 -0.017607578680164274 0 -0.046890688724726293 -0.017376816589096986 0 -0.04499979180572182 -0.017607578680164274 0 -0.045985784391858943 -0.01620065803833786 0 -0.04499979180572182 -0.017607578680164274 0 -0.045985784391858943 -0.01620065803833786 0 -0.044999701988785862 -0.014926311241827483 0 -0.045985784391858943 -0.01620065803833786 0 -0.044999701988785862 -0.014926311241827483 0 -0.046469422941500638 -0.014136017160912107 0 -0.047380092396758791 -0.015436670457391099 0 -0.047538797551979067 -0.013812584956491137 0 -0.046469422941500638 -0.014136017160912107 0 -0.045985784391858943 -0.01620065803833786 0 -0.047380092396758791 -0.015436670457391099 0 -0.046469422941500638 -0.014136017160912107 0 -0.046890688724726293 -0.017376816589096986 0 -0.045985784391858943 -0.01620065803833786 0 -0.047380092396758791 -0.015436670457391099 0 -0.048206242351748661 -0.017265937953530958 0 -0.046890688724726293 -0.017376816589096986 0 -0.047380092396758791 -0.015436670457391099 0 -0.048206242351748661 -0.017265937953530958 0 -0.048533534970709648 -0.0157054291717913 0 -0.047380092396758791 -0.015436670457391099 0 -0.050497762896936187 -0.017128024891630209 0 -0.048206242351748661 -0.017265937953530958 0 -0.048533534970709648 -0.0157054291717913 0 -0.049490693988645341 -0.01643241190350277 0 -0.048661040910485093 -0.015787098732559013 0 -0.048764747213997046 -0.015293965400560456 0 -0.048533534970709648 -0.0157054291717913 0 -0.048375928338107735 -0.014656687119942169 0 -0.048533534970709648 -0.0157054291717913 0 -0.048375928338107735 -0.014656687119942169 0 -0.047380092396758791 -0.015436670457391099 0 -0.048375928338107735 -0.014656687119942169 0 -0.047380092396758791 -0.015436670457391099 0 -0.047538797551979067 -0.013812584956491137 0 -0.048701889539647263 -0.014310905755111514 0 -0.048375928338107735 -0.014656687119942169 0 -0.048291990052192889 -0.013435385601524533 0 -0.048375928338107735 -0.014656687119942169 0 -0.047538797551979067 -0.013812584956491137 0 -0.048291990052192889 -0.013435385601524533 0 -0.048266767650654498 -0.012462405324239969 0 -0.048291990052192889 -0.013435385601524533 0 -0.047847204175732155 -0.012644697221833093 0 -0.047538797551979067 -0.013812584956491137 0 -0.048291990052192889 -0.013435385601524533 0 -0.047847204175732155 -0.012644697221833093 0 -0.047538797551979067 -0.013812584956491137 0 -0.047847204175732155 -0.012644697221833093 0 -0.046802295313429172 -0.012615052106796684 0 -0.047637578878366317 -0.01148617880758266 0 -0.047847204175732155 -0.012644697221833093 0 -0.046802295313429172 -0.012615052106796684 0 -0.046160578842078387 -0.011022314244133753 0 -0.046802295313429172 -0.012615052106796684 0 -0.044999915098835525 -0.012245145419013795 0 -0.044999701988785862 -0.014926311241827483 0 -0.044999915098835525 -0.012245145419013795 0 -0.046469422941500638 -0.014136017160912107 0 -0.046802295313429172 -0.012615052106796684 0 -0.044999915098835525 -0.012245145419013795 0 -0.046469422941500638 -0.014136017160912107 0 -0.047538797551979067 -0.013812584956491137 0 -0.046802295313429172 -0.012615052106796684 0 -0.046469422941500638 -0.014136017160912107 0 -0.045543847880121897 -0.032660293834634077 0 -0.046113537249198963 -0.033322053403396591 0 -0.046643814136206746 -0.031049885410510455 0 -0.045543847880121897 -0.032660293834634077 0 -0.046643814136206746 -0.031049885410510455 0 -0.045825014282995999 -0.030535825623135063 0 -0.044999373370379424 -0.031458464484751175 0 -0.045543847880121897 -0.032660293834634077 0 -0.045825014282995999 -0.030535825623135063 0 -0.045543847880121897 -0.032660293834634077 0 -0.045931320653281003 -0.03415151873088184 0 -0.044999769502949594 -0.033750817154696355 0 -0.044999373370379424 -0.031458464484751175 0 -0.045543847880121897 -0.032660293834634077 0 -0.044999769502949594 -0.033750817154696355 0 -0.045543847880121897 -0.032660293834634077 0 -0.046113537249198963 -0.033322053403396591 0 -0.045931320653281003 -0.03415151873088184 0 -0.045969898884971681 -0.033347722561032189 0 -0.045872002008359974 -0.033284339764869116 0 -0.046113537249198963 -0.033322053403396591 0 -0.044518062812784913 -0.034790729671062573 0 -0.044747411081048252 -0.033945264434165165 0 -0.046113537249198963 -0.033322053403396591 0 -0.047429659618884651 -0.031831117693415713 0 -0.046643814136206746 -0.031049885410510455 0 -0.044518062812784913 -0.034790729671062573 0 -0.043771409632894998 -0.034417261499701847 0 -0.042789118896249534 -0.03492418648485663 0 -0.044518062812784913 -0.034790729671062573 0 -0.043771409632894998 -0.034417261499701847 0 -0.044747411081048252 -0.033945264434165165 0 -0.045872002008359974 -0.033284339764869116 0 -0.045305574839350854 -0.032865663502741817 0 -0.047429659618884651 -0.031831117693415713 0 -0.047500584761991163 -0.030757186261273019 0 -0.047849047694270931 -0.030899447794068797 0 -0.047429659618884651 -0.031831117693415713 0 -0.047500584761991163 -0.030757186261273019 0 -0.046643814136206746 -0.031049885410510455 0 -0.047500584761991163 -0.030757186261273019 0 -0.046643814136206746 -0.031049885410510455 0 -0.047180060459105791 -0.029977014077299045 0 -0.046643814136206746 -0.031049885410510455 0 -0.047180060459105791 -0.029977014077299045 0 -0.046404135172896002 -0.029450063287374279 0 -0.047500584761991163 -0.030757186261273019 0 -0.047180060459105791 -0.029977014077299045 0 -0.047801034203602405 -0.030071315922798447 0 -0.047180060459105791 -0.029977014077299045 0 -0.047540112089305926 -0.028961413971203782 0 -0.047801034203602405 -0.030071315922798447 0 -0.047180060459105791 -0.029977014077299045 0 -0.047540112089305926 -0.028961413971203782 0 -0.046404135172896002 -0.029450063287374279 0 -0.047547440936835036 -0.028953218373110351 0 -0.046525302441945277 -0.029053144008341719 0 -0.046643814136206746 -0.031049885410510455 0 -0.046404135172896002 -0.029450063287374279 0 -0.045825014282995999 -0.030535825623135063 0 -0.044999373370379424 -0.031458464484751175 0 -0.045825014282995999 -0.030535825623135063 0 -0.044999795083611439 -0.029166652018980572 0 -0.046674496986011275 -0.028659790368055955 0 -0.04499961460164633 -0.02916432093759011 0 -0.044999903059567511 -0.027101187565912732 0 -0.046404135172896002 -0.029450063287374279 0 -0.045825014282995999 -0.030535825623135063 0 -0.044999795083611439 -0.029166652018980572 0 -0.046525302441945277 -0.029053144008341719 0 -0.045000109929085833 -0.029165434625729604 0 -0.046674496986011275 -0.028659790368055955 0 -0.044999903059567511 -0.027101187565912732 0 -0.046341724302349598 -0.026379216687892185 0 -0.044999903059567511 -0.027101187565912732 0 -0.046341724302349598 -0.026379216687892185 0 -0.044999635317348179 -0.02503599552803288 0 -0.044999635317348179 -0.02503599552803288 0 -0.045641861157740243 -0.024411852711778169 0 -0.044999127092771318 -0.022972252163344465 0 -0.046341724302349598 -0.026379216687892185 0 -0.044999635317348179 -0.02503599552803288 0 -0.045641861157740243 -0.024411852711778169 0 -0.046341724302349598 -0.026379216687892185 0 -0.045641861157740243 -0.024411852711778169 0 -0.046758751711004777 -0.024641980265344265 0 -0.045537761250711059 -0.022854923192511561 0 -0.045370989087005223 -0.023658344631577993 0 -0.045280826821259106 -0.02301284530698789 0 -0.046028652127661454 -0.024169275920452659 0 -0.045299986344485663 -0.023148049366570767 0 -0.045641861157740243 -0.024411852711778169 0 -0.046758751711004777 -0.024641980265344265 0 -0.045280826821259106 -0.02301284530698789 0 -0.045641861157740243 -0.024411852711778169 0 -0.045280826821259106 -0.02301284530698789 0 -0.044999127092771318 -0.022972252163344465 0 -0.046674419085435646 -0.022938898280975867 0 -0.046654421476951653 -0.023684382726151889 0 -0.046116456101829073 -0.023020783518196825 0 -0.046654421476951653 -0.023684382726151889 0 -0.046116456101829073 -0.023020783518196825 0 -0.045963811901728081 -0.023805836446523666 0 -0.045537761250711059 -0.022854923192511561 0 -0.045370989087005223 -0.023658344631577993 0 -0.046116456101829073 -0.023020783518196825 0 -0.045370989087005223 -0.023658344631577993 0 -0.046116456101829073 -0.023020783518196825 0 -0.045963811901728081 -0.023805836446523666 0 -0.046028652127661454 -0.024169275920452659 0 -0.046658574585715581 -0.025665173056075394 0 -0.045370989087005223 -0.023658344631577993 0 -0.045963811901728081 -0.023805836446523666 0 -0.045733333543867799 -0.025000835289845379 0 -0.046341724302349598 -0.026379216687892185 0 -0.046758751711004777 -0.024641980265344265 0 -0.047579833850128844 -0.026306411843451002 0 -0.046654421476951653 -0.023684382726151889 0 -0.045733333543867799 -0.025000835289845379 0 -0.046765309600920603 -0.025388015363958162 0 -0.046654421476951653 -0.023684382726151889 0 -0.045963811901728081 -0.023805836446523666 0 -0.045733333543867799 -0.025000835289845379 0 -0.047579833850128844 -0.026306411843451002 0 -0.047233092408868776 -0.02769221976484898 0 -0.047957063761957026 -0.027774690552843942 0 -0.046658574585715581 -0.025665173056075394 0 -0.047344518459130631 -0.027339570155214297 0 -0.045733333543867799 -0.025000835289845379 0 -0.046713300333117623 -0.026903457808645705 0 -0.046765309600920603 -0.025388015363958162 0 -0.046674496986011275 -0.028659790368055955 0 -0.046341724302349598 -0.026379216687892185 0 -0.047233092408868776 -0.02769221976484898 0 -0.046341724302349598 -0.026379216687892185 0 -0.047579833850128844 -0.026306411843451002 0 -0.047233092408868776 -0.02769221976484898 0 -0.047540112089305926 -0.028961413971203782 0 -0.046674496986011275 -0.028659790368055955 0 -0.047233092408868776 -0.02769221976484898 0 -0.047540112089305926 -0.028961413971203782 0 -0.047233092408868776 -0.02769221976484898 0 -0.047957063761957026 -0.027774690552843942 0 -0.047944253186937125 -0.028543638695465608 0 -0.047344518459130631 -0.027339570155214297 0 -0.047540112089305926 -0.028961413971203782 0 -0.047913630768097716 -0.028741160626824871 0 -0.047957063761957026 -0.027774690552843942 0 -0.047913630768097716 -0.028741160626824871 0 -0.047974068292055527 -0.027355380010374148 0 -0.046713300333117623 -0.026903457808645705 0 -0.047913630768097716 -0.028741160626824871 0 -0.047974068292055527 -0.027355380010374148 0 -0.048892636366521344 -0.027865094510996887 0 -0.047974068292055527 -0.027355380010374148 0 -0.048057997563960612 -0.025926355282951091 0 -0.048892636366521344 -0.027865094510996887 0 -0.046713300333117623 -0.026903457808645705 0 -0.046765309600920603 -0.025388015363958162 0 -0.048057997563960612 -0.025926355282951091 0 -0.047974068292055527 -0.027355380010374148 0 -0.046713300333117623 -0.026903457808645705 0 -0.048057997563960612 -0.025926355282951091 0 -0.046453278414807481 -0.023680150002650269 0 -0.04792096042885377 -0.024680482101194837 0 -0.046654421476951653 -0.023684382726151889 0 -0.047057478819461838 -0.023413226977273324 0 -0.047068942700061928 -0.02305344410930572 0 -0.046654421476951653 -0.023684382726151889 0 -0.046765309600920603 -0.025388015363958162 0 -0.048057997563960612 -0.025926355282951091 0 -0.047057478819461838 -0.023413226977273324 0 -0.047068942700061928 -0.02305344410930572 0 -0.047297643991148282 -0.023006260546907176 0 -0.047341506391167458 -0.02267139351373116 0 -0.047068942700061928 -0.02305344410930572 0 -0.047297643991148282 -0.023006260546907176 0 -0.046674419085435646 -0.022938898280975867 0 -0.046654421476951653 -0.023684382726151889 0 -0.047068942700061928 -0.02305344410930572 0 -0.04763717543433843 -0.022395047311543074 0 -0.047462110256184062 -0.022725962496367803 0 -0.047608118656717789 -0.022871856944701494 0 -0.047462110256184062 -0.022725962496367803 0 -0.047297643991148282 -0.023006260546907176 0 -0.047608118656717789 -0.022871856944701494 0 -0.047341506391167458 -0.02267139351373116 0 -0.047462110256184062 -0.022725962496367803 0 -0.047297643991148282 -0.023006260546907176 0 -0.047057478819461838 -0.023413226977273324 0 -0.047297643991148282 -0.023006260546907176 0 -0.047599657928382277 -0.023804118210128473 0 -0.047297643991148282 -0.023006260546907176 0 -0.047608118656717789 -0.022871856944701494 0 -0.047266664502303234 -0.023326112912446833 0 -0.047605653902449044 -0.021977501386876385 0 -0.045839169087263799 -0.026341956629123395 0 -0.047608118656717789 -0.022871856944701494 0 -0.047266664502303234 -0.023326112912446833 0 -0.047732021274556571 -0.023248855838138679 0 -0.047266664502303234 -0.023326112912446833 0 -0.047582652813650532 -0.02374879362083963 0 -0.047732021274556571 -0.023248855838138679 0 -0.04792096042885377 -0.024680482101194837 0 -0.045839169087263799 -0.026341956629123395 0 -0.047913630768097716 -0.028741160626824871 0 -0.048892636366521344 -0.027865094510996887 0 -0.047953821219791477 -0.0296080263605445 0 -0.048892636366521344 -0.027865094510996887 0 -0.048279714032703064 -0.029719568174198303 0 -0.047953821219791477 -0.0296080263605445 0 -0.045839169087263799 -0.026341956629123395 0 -0.044254743408262007 -0.030972363155365695 0 -0.045839169087263799 -0.026341956629123395 0 -0.044154504858387802 -0.026971159594827491 0 -0.03985775696807746 -0.029369364692417316 0 -0.041412584050304312 -0.030441358826515039 0 -0.040529654781412724 -0.031565612752505787 0 -0.041412584050304312 -0.030441358826515039 0 -0.040529654781412724 -0.031565612752505787 0 -0.04170395398006678 -0.03149017148147288 0 -0.040529654781412724 -0.031565612752505787 0 -0.041214297528579913 -0.033886855777054928 0 -0.04181846859731634 -0.032436803013243809 0 -0.040529654781412724 -0.031565612752505787 0 -0.04181846859731634 -0.032436803013243809 0 -0.04170395398006678 -0.03149017148147288 0 -0.044254743408262007 -0.030972363155365695 0 -0.043887612447010074 -0.032196277751788301 0 -0.048279714032703064 -0.029719568174198303 0 -0.046686378351586455 -0.030809068025612403 0 -0.047550254780473658 -0.030452728411382867 0 -0.046686378351586455 -0.030809068025612403 0 -0.047550254780473658 -0.030452728411382867 0 -0.046760488129992721 -0.031017238128874951 0 -0.047550254780473658 -0.030452728411382867 0 -0.047737962300940226 -0.030502446958894893 0 -0.046760488129992721 -0.031017238128874951 0 -0.048279714032703064 -0.029719568174198303 0 -0.047550254780473658 -0.030452728411382867 0 -0.047953821219791477 -0.0296080263605445 0 -0.047550254780473658 -0.030452728411382867 0 -0.047953821219791477 -0.0296080263605445 0 -0.047801034203602405 -0.030071315922798447 0 -0.047913630768097716 -0.028741160626824871 0 -0.047953821219791477 -0.0296080263605445 0 -0.047801034203602405 -0.030071315922798447 0 -0.047540112089305926 -0.028961413971203782 0 -0.047913630768097716 -0.028741160626824871 0 -0.047801034203602405 -0.030071315922798447 0 -0.047550254780473658 -0.030452728411382867 0 -0.047801034203602405 -0.030071315922798447 0 -0.047737962300940226 -0.030502446958894893 0 -0.047801034203602405 -0.030071315922798447 0 -0.047737962300940226 -0.030502446958894893 0 -0.047849047694270931 -0.030899447794068797 0 -0.045305574839350854 -0.032865663502741817 0 -0.044910485598186473 -0.032137087313644119 0 -0.047737962300940226 -0.030502446958894893 0 -0.047849047694270931 -0.030899447794068797 0 -0.047438314418989422 -0.03031375428743632 0 -0.047500584761991163 -0.030757186261273019 0 -0.047801034203602405 -0.030071315922798447 0 -0.047849047694270931 -0.030899447794068797 0 -0.042789118896249534 -0.03492418648485663 0 -0.04246972187291774 -0.034542034817631899 0 -0.043101135540437673 -0.034398483735338305 0 -0.043771409632894998 -0.034417261499701847 0 -0.042789118896249534 -0.03492418648485663 0 -0.043101135540437673 -0.034398483735338305 0 -0.042789118896249534 -0.03492418648485663 0 -0.042183666284475271 -0.034491305227355884 0 -0.04246972187291774 -0.034542034817631899 0 -0.042789118896249534 -0.03492418648485663 0 -0.042183666284475271 -0.034491305227355884 0 -0.042103944654815074 -0.033819744279205886 0 -0.042183666284475271 -0.034491305227355884 0 -0.042977098034198927 -0.034177305537581866 0 -0.042369611851583056 -0.034885077836788049 0 -0.042183666284475271 -0.034491305227355884 0 -0.042977098034198927 -0.034177305537581866 0 -0.042103944654815074 -0.033819744279205886 0 -0.043774897880581025 -0.034042146124879158 0 -0.045378783473610317 -0.031897921723542895 0 -0.044840369930051742 -0.03308535705862866 0 -0.043774897880581025 -0.034042146124879158 0 -0.042977098034198927 -0.034177305537581866 0 -0.045378783473610317 -0.031897921723542895 0 -0.042977098034198927 -0.034177305537581866 0 -0.042824873783715356 -0.034744474513131375 0 -0.042369611851583056 -0.034885077836788049 0 -0.043774897880581025 -0.034042146124879158 0 -0.042977098034198927 -0.034177305537581866 0 -0.042824873783715356 -0.034744474513131375 0 -0.043774897880581025 -0.034042146124879158 0 -0.043651466412931474 -0.03477716410048471 0 -0.043073320435312777 -0.035031500969105234 0 -0.043774897880581025 -0.034042146124879158 0 -0.043073320435312777 -0.035031500969105234 0 -0.042824873783715356 -0.034744474513131375 0 -0.046686378351586455 -0.030809068025612403 0 -0.045378783473610317 -0.031897921723542895 0 -0.044840369930051742 -0.03308535705862866 0 -0.042977098034198927 -0.034177305537581866 0 -0.045378783473610317 -0.031897921723542895 0 -0.042103944654815074 -0.033819744279205886 0 -0.045378783473610317 -0.031897921723542895 0 -0.047438314418989422 -0.03031375428743632 0 -0.046760488129992721 -0.031017238128874951 0 -0.045474445042037522 -0.031877051613443085 0 -0.044910485598186473 -0.032137087313644119 0 -0.046686378351586455 -0.030809068025612403 0 -0.045378783473610317 -0.031897921723542895 0 -0.046760488129992721 -0.031017238128874951 0 -0.047737962300940226 -0.030502446958894893 0 -0.047438314418989422 -0.03031375428743632 0 -0.046760488129992721 -0.031017238128874951 0 -0.038383481770778383 -0.034079657726641809 0 -0.039650566458644058 -0.031074815097663074 0 -0.036510075372043295 -0.033096675656838617 0 -0.041329691039520951 -0.034514144718590559 0 -0.041279983989074717 -0.034763361205355559 0 -0.04356229557450176 -0.03542269162500418 0 -0.044442134298212366 -0.034710617964721718 0 -0.043611944856700245 -0.036553473022524291 0 -0.04356229557450176 -0.03542269162500418 0 -0.043050602898702016 -0.035548745623810656 0 -0.04311670857991505 -0.034925163811051443 0 -0.04356229557450176 -0.03542269162500418 0 -0.043050602898702016 -0.035548745623810656 0 -0.043320592956151122 -0.036166307603835386 0 -0.043050602898702016 -0.035548745623810656 0 -0.042754160649495443 -0.036243340193604492 0 -0.043320592956151122 -0.036166307603835386 0 -0.04356229557450176 -0.03542269162500418 0 -0.044442134298212366 -0.034710617964721718 0 -0.043835779374179179 -0.03462763647412994 0 -0.044442134298212366 -0.034710617964721718 0 -0.043835779374179179 -0.03462763647412994 0 -0.044397162539747265 -0.034381510494416172 0 -0.04356229557450176 -0.03542269162500418 0 -0.043835779374179179 -0.03462763647412994 0 -0.04311670857991505 -0.034925163811051443 0 -0.043835779374179179 -0.03462763647412994 0 -0.04311670857991505 -0.034925163811051443 0 -0.043298156027768847 -0.034164250871369595 0 -0.041214297528579913 -0.033886855777054928 0 -0.042469902476909425 -0.035222024766348663 0 -0.041998663016504012 -0.036352937157794737 0 -0.04311670857991505 -0.034925163811051443 0 -0.043298156027768847 -0.034164250871369595 0 -0.042480920080234685 -0.034213789608409768 0 -0.04311670857991505 -0.034925163811051443 0 -0.042469902476909425 -0.035222024766348663 0 -0.042480920080234685 -0.034213789608409768 0 -0.043887612447010074 -0.032196277751788301 0 -0.043423037095583407 -0.034615301923209635 0 -0.043050602898702016 -0.035548745623810656 0 -0.04311670857991505 -0.034925163811051443 0 -0.042469902476909425 -0.035222024766348663 0 -0.041214297528579913 -0.033886855777054928 0 -0.042469902476909425 -0.035222024766348663 0 -0.042480920080234685 -0.034213789608409768 0 -0.042469902476909425 -0.035222024766348663 0 -0.042754160649495443 -0.036243340193604492 0 -0.041998663016504012 -0.036352937157794737 0 -0.043050602898702016 -0.035548745623810656 0 -0.042469902476909425 -0.035222024766348663 0 -0.042754160649495443 -0.036243340193604492 0 -0.043423037095583407 -0.034615301923209635 0 -0.043216038466030095 -0.037023885174032503 0 -0.042754160649495443 -0.036243340193604492 0 -0.041998663016504012 -0.036352937157794737 0 -0.042671591354666423 -0.037067506548225451 0 -0.041998663016504012 -0.036352937157794737 0 -0.042671591354666423 -0.037067506548225451 0 -0.042630533320620445 -0.038318255482661455 0 -0.042754160649495443 -0.036243340193604492 0 -0.042671591354666423 -0.037067506548225451 0 -0.043035474148511665 -0.036564824967764843 0 -0.044840369930051742 -0.03308535705862866 0 -0.043651466412931474 -0.03477716410048471 0 -0.04389946935692339 -0.035846181658064302 0 -0.043774897880581025 -0.034042146124879158 0 -0.044840369930051742 -0.03308535705862866 0 -0.043651466412931474 -0.03477716410048471 0 -0.042671591354666423 -0.037067506548225451 0 -0.043035474148511665 -0.036564824967764843 0 -0.042931386849115349 -0.037795283475689861 0 -0.043035474148511665 -0.036564824967764843 0 -0.043611944856700245 -0.036553473022524291 0 -0.042931386849115349 -0.037795283475689861 0 -0.042982043117993744 -0.038481933734798017 0 -0.042865639442603444 -0.037902088155044908 0 -0.042931386849115349 -0.037795283475689861 0 -0.041279983989074717 -0.034763361205355559 0 -0.042438249511713037 -0.038026869724605762 0 -0.042982043117993744 -0.038481933734798017 0 -0.041904445346727458 -0.03792770936604975 0 -0.042865639442603444 -0.037902088155044908 0 -0.043035474148511665 -0.036564824967764843 0 -0.043611944856700245 -0.036553473022524291 0 -0.043320592956151122 -0.036166307603835386 0 -0.04356229557450176 -0.03542269162500418 0 -0.043611944856700245 -0.036553473022524291 0 -0.043320592956151122 -0.036166307603835386 0 -0.042754160649495443 -0.036243340193604492 0 -0.043035474148511665 -0.036564824967764843 0 -0.043320592956151122 -0.036166307603835386 0 -0.041279983989074717 -0.034763361205355559 0 -0.038594890658944239 -0.034573713968200359 0 -0.042982043117993744 -0.038481933734798017 0 -0.041480060938721419 -0.038645989137330666 0 -0.041904445346727458 -0.03792770936604975 0 -0.039650566458644058 -0.031074815097663074 0 -0.034829381616415779 -0.030970992959539836 0 -0.036510075372043295 -0.033096675656838617 0 -0.034829381616415779 -0.030970992959539836 0 -0.033913100348474924 -0.033063973034132547 0 -0.030011918800086093 -0.030927719743477786 0 -0.040784767911712573 -0.038153193950765184 0 -0.041480060938721419 -0.038645989137330666 0 -0.041904445346727458 -0.03792770936604975 0 -0.034829381616415779 -0.030970992959539836 0 -0.033913100348474924 -0.033063973034132547 0 -0.036510075372043295 -0.033096675656838617 0 -0.033913100348474924 -0.033063973034132547 0 -0.035346099805015567 -0.034123711661565886 0 -0.036510075372043295 -0.033096675656838617 0 -0.033913100348474924 -0.033063973034132547 0 -0.035346099805015567 -0.034123711661565886 0 -0.034655935785035501 -0.035551258783941372 0 -0.033913100348474924 -0.033063973034132547 0 -0.034655935785035501 -0.035551258783941372 0 -0.032080213292262079 -0.033934781166246666 0 -0.035346099805015567 -0.034123711661565886 0 -0.036510075372043295 -0.033096675656838617 0 -0.036170288066697441 -0.034926427873816578 0 -0.038383481770778383 -0.034079657726641809 0 -0.036510075372043295 -0.033096675656838617 0 -0.036170288066697441 -0.034926427873816578 0 -0.038383481770778383 -0.034079657726641809 0 -0.036170288066697441 -0.034926427873816578 0 -0.037150713041197235 -0.037102691253582253 0 -0.041329691039520951 -0.034514144718590559 0 -0.042511447804691335 -0.033593684825698175 0 -0.044442134298212366 -0.034710617964721718 0 -0.045177182823290238 -0.032863033177586612 0 -0.044397162539747265 -0.034381510494416172 0 -0.043268004001095518 -0.033306549441823534 0 -0.045387967298198065 -0.034680479720221459 0 -0.045155107312738099 -0.03229375090471355 0 -0.045177182823290238 -0.032863033177586612 0 -0.044800923674861964 -0.032619355947628319 0 -0.044397162539747265 -0.034381510494416172 0 -0.035346099805015567 -0.034123711661565886 0 -0.036170288066697441 -0.034926427873816578 0 -0.034655935785035501 -0.035551258783941372 0 -0.042511447804691335 -0.033593684825698175 0 -0.035011545200072929 -0.034568916139061531 0 -0.036170288066697441 -0.034926427873816578 0 -0.037150713041197235 -0.037102691253582253 0 -0.034655935785035501 -0.035551258783941372 0 -0.035011545200072929 -0.034568916139061531 0 -0.025306157739802805 -0.034608269899374197 0 -0.035011545200072929 -0.034568916139061531 0 -0.033468414099640971 -0.033522542604831465 0 -0.020293642455912676 -0.036208410827111251 0 -0.02040624643021333 -0.035386526375687656 0 -0.020758673240951594 -0.035981193230591152 0 -0.045387967298198065 -0.034680479720221459 0 -0.045155107312738099 -0.03229375090471355 0 -0.047206494273019414 -0.031141591673011178 0 -0.045155107312738099 -0.03229375090471355 0 -0.044735174474436312 -0.030052437290463401 0 -0.047206494273019414 -0.031141591673011178 0 -0.048880746255474644 -0.024925647891089368 0 -0.048712689985833994 -0.024280737301764603 0 -0.049159359238694675 -0.023884712527135862 0 -0.042511447804691335 -0.033593684825698175 0 -0.044872126282263926 -0.029988100982208981 0 -0.045601084593332127 -0.031025394156048131 0 -0.046606498280915024 -0.026163721964470997 0 -0.043582910251494501 -0.032851631368790102 0 -0.043105653071657035 -0.032544576840900195 0 -0.044735174474436312 -0.030052437290463401 0 -0.043268004001095518 -0.033306549441823534 0 -0.045155107312738099 -0.03229375090471355 0 -0.044735174474436312 -0.030052437290463401 0 -0.042511447804691335 -0.033593684825698175 0 -0.045601084593332127 -0.031025394156048131 0 -0.045601084593332127 -0.031025394156048131 0 -0.045748762512019425 -0.027824235356903624 0 -0.044828884655109917 -0.032635076810519019 0 -0.043368477448400666 -0.032599613592945449 0 -0.04307763197905766 -0.031517390544604895 0 -0.048880746255474644 -0.024925647891089368 0 -0.048149778686667574 -0.024350182228905934 0 -0.048712689985833994 -0.024280737301764603 0 -0.045601084593332127 -0.031025394156048131 0 -0.044298489588487033 -0.034761992093306812 0 -0.044828884655109917 -0.032635076810519019 0 -0.043368477448400666 -0.032599613592945449 0 -0.04399940931260056 -0.033357022906638875 0 -0.044828884655109917 -0.032635076810519019 0 -0.04399940931260056 -0.033357022906638875 0 -0.044397162539747265 -0.034381510494416172 0 -0.043368477448400666 -0.032599613592945449 0 -0.04399940931260056 -0.033357022906638875 0 -0.042923533158346669 -0.033332096506292014 0 -0.04399940931260056 -0.033357022906638875 0 -0.043513450632067317 -0.033724632919497316 0 -0.042923533158346669 -0.033332096506292014 0 -0.04399940931260056 -0.033357022906638875 0 -0.043513450632067317 -0.033724632919497316 0 -0.043832283898892974 -0.034046749058128011 0 -0.043513450632067317 -0.033724632919497316 0 -0.043298156027768847 -0.034164250871369595 0 -0.043832283898892974 -0.034046749058128011 0 -0.043513450632067317 -0.033724632919497316 0 -0.043298156027768847 -0.034164250871369595 0 -0.042923533158346669 -0.033332096506292014 0 -0.043835779374179179 -0.03462763647412994 0 -0.043298156027768847 -0.034164250871369595 0 -0.043832283898892974 -0.034046749058128011 0 -0.04399940931260056 -0.033357022906638875 0 -0.043832283898892974 -0.034046749058128011 0 -0.044397162539747265 -0.034381510494416172 0 -0.043835779374179179 -0.03462763647412994 0 -0.043832283898892974 -0.034046749058128011 0 -0.044397162539747265 -0.034381510494416172 0 -0.041214297528579913 -0.033886855777054928 0 -0.042480920080234685 -0.034213789608409768 0 -0.042061581269046154 -0.033439373360567994 0 -0.042480920080234685 -0.034213789608409768 0 -0.042923533158346669 -0.033332096506292014 0 -0.042061581269046154 -0.033439373360567994 0 -0.043298156027768847 -0.034164250871369595 0 -0.042480920080234685 -0.034213789608409768 0 -0.042923533158346669 -0.033332096506292014 0 -0.041214297528579913 -0.033886855777054928 0 -0.042061581269046154 -0.033439373360567994 0 -0.04181846859731634 -0.032436803013243809 0 -0.042923533158346669 -0.033332096506292014 0 -0.042061581269046154 -0.033439373360567994 0 -0.04181846859731634 -0.032436803013243809 0 -0.043368477448400666 -0.032599613592945449 0 -0.042923533158346669 -0.033332096506292014 0 -0.04181846859731634 -0.032436803013243809 0 -0.043368477448400666 -0.032599613592945449 0 -0.04181846859731634 -0.032436803013243809 0 -0.04307763197905766 -0.031517390544604895 0 -0.04181846859731634 -0.032436803013243809 0 -0.04307763197905766 -0.031517390544604895 0 -0.04170395398006678 -0.03149017148147288 0 -0.047582652813650532 -0.02374879362083963 0 -0.048149778686667574 -0.024350182228905934 0 -0.048085754153146365 -0.023670009571976239 0 -0.044154504858387802 -0.026971159594827491 0 -0.045748762512019425 -0.027824235356903624 0 -0.041412584050304312 -0.030441358826515039 0 -0.04307763197905766 -0.031517390544604895 0 -0.04170395398006678 -0.03149017148147288 0 -0.047582652813650532 -0.02374879362083963 0 -0.048085754153146365 -0.023670009571976239 0 -0.047732021274556571 -0.023248855838138679 0 -0.048712689985833994 -0.024280737301764603 0 -0.048429620147991674 -0.023976041801486107 0 -0.048746000535234098 -0.023854680290862452 0 -0.048149778686667574 -0.024350182228905934 0 -0.048712689985833994 -0.024280737301764603 0 -0.048429620147991674 -0.023976041801486107 0 -0.048149778686667574 -0.024350182228905934 0 -0.048085754153146365 -0.023670009571976239 0 -0.048429620147991674 -0.023976041801486107 0 -0.048085754153146365 -0.023670009571976239 0 -0.048429620147991674 -0.023976041801486107 0 -0.048479921498422777 -0.023601482993040438 0 -0.048429620147991674 -0.023976041801486107 0 -0.048479921498422777 -0.023601482993040438 0 -0.048746000535234098 -0.023854680290862452 0 -0.048255174806486931 -0.02309529543055323 0 -0.048640433088224737 -0.022468971969329982 0 -0.048869658238639216 -0.02328197780828278 0 -0.048479921498422777 -0.023601482993040438 0 -0.048255174806486931 -0.02309529543055323 0 -0.048869658238639216 -0.02328197780828278 0 -0.048479921498422777 -0.023601482993040438 0 -0.048746000535234098 -0.023854680290862452 0 -0.048869658238639216 -0.02328197780828278 0 -0.048085754153146365 -0.023670009571976239 0 -0.048479921498422777 -0.023601482993040438 0 -0.048255174806486931 -0.02309529543055323 0 -0.048085754153146365 -0.023670009571976239 0 -0.048255174806486931 -0.02309529543055323 0 -0.047732021274556571 -0.023248855838138679 0 -0.048255174806486931 -0.02309529543055323 0 -0.047732021274556571 -0.023248855838138679 0 -0.048011073339833156 -0.022549539475940128 0 -0.047608118656717789 -0.022871856944701494 0 -0.047732021274556571 -0.023248855838138679 0 -0.048011073339833156 -0.022549539475940128 0 -0.048255174806486931 -0.02309529543055323 0 -0.048011073339833156 -0.022549539475940128 0 -0.048640433088224737 -0.022468971969329982 0 -0.048011073339833156 -0.022549539475940128 0 -0.048640433088224737 -0.022468971969329982 0 -0.04827794303964749 -0.021922660744623918 0 -0.04763717543433843 -0.022395047311543074 0 -0.048011073339833156 -0.022549539475940128 0 -0.04827794303964749 -0.021922660744623918 0 -0.04763717543433843 -0.022395047311543074 0 -0.047608118656717789 -0.022871856944701494 0 -0.048011073339833156 -0.022549539475940128 0 -0.047406574231355532 -0.020780969748971995 0 -0.048280355708784542 -0.020889453700074164 0 -0.046781737805588766 -0.023768578911871271 0 -0.047272379359859805 -0.02240246486844983 0 -0.048464558577665191 -0.022914277119505833 0 -0.046781737805588766 -0.023768578911871271 0 -0.047272379359859805 -0.02240246486844983 0 -0.045809344738402633 -0.022568143654019292 0 -0.047421318137753674 -0.021055566260095464 0 -0.047272379359859805 -0.02240246486844983 0 -0.045809344738402633 -0.022568143654019292 0 -0.048280355708784542 -0.020889453700074164 0 -0.049639860779327395 -0.021137282865692147 0 -0.050063284093024296 -0.02041705312845556 0 -0.049180931149838278 -0.01981956552568629 0 -0.049636168920246325 -0.021113054634825244 0 -0.048640433088224737 -0.022468971969329982 0 -0.04827794303964749 -0.021922660744623918 0 -0.049636168920246325 -0.021113054634825244 0 -0.050063284093024296 -0.02041705312845556 0 -0.049636168920246325 -0.021113054634825244 0 -0.049580759595359979 -0.022778766859689346 0 -0.048056428981681651 -0.019805525796675633 0 -0.049180931149838278 -0.01981956552568629 0 -0.049636168920246325 -0.021113054634825244 0 -0.048640433088224737 -0.022468971969329982 0 -0.049580759595359979 -0.022778766859689346 0 -0.048869658238639216 -0.02328197780828278 0 -0.048640433088224737 -0.022468971969329982 0 -0.049636168920246325 -0.021113054634825244 0 -0.049580759595359979 -0.022778766859689346 0 -0.046781737805588766 -0.023768578911871271 0 -0.044749000739167641 -0.025976641075883308 0 -0.047532073673606935 -0.025015391634195527 0 -0.047918878972775622 -0.021506366344740707 0 -0.047140156865376266 -0.024466183938058435 0 -0.044749000739167641 -0.025976641075883308 0 -0.046569218325711467 -0.026758981610871022 0 -0.047532073673606935 -0.025015391634195527 0 -0.046781737805588766 -0.023768578911871271 0 -0.045809344738402633 -0.022568143654019292 0 -0.044749000739167641 -0.025976641075883308 0 -0.044749000739167641 -0.025976641075883308 0 -0.045632695447420664 -0.027712335887580652 0 -0.044994407834915179 -0.028570079816512817 0 -0.044749000739167641 -0.025976641075883308 0 -0.046569218325711467 -0.026758981610871022 0 -0.045632695447420664 -0.027712335887580652 0 -0.045632695447420664 -0.027712335887580652 0 -0.044994407834915179 -0.028570079816512817 0 -0.0463562635665309 -0.028889914688545439 0 -0.046569218325711467 -0.026758981610871022 0 -0.045632695447420664 -0.027712335887580652 0 -0.0463562635665309 -0.028889914688545439 0 -0.049580759595359979 -0.022778766859689346 0 -0.048869658238639216 -0.02328197780828278 0 -0.049159359238694675 -0.023884712527135862 0 -0.044749000739167641 -0.025976641075883308 0 -0.044994407834915179 -0.028570079816512817 0 -0.043820549543855662 -0.029429301177454389 0 -0.047140156865376266 -0.024466183938058435 0 -0.046606498280915024 -0.026163721964470997 0 -0.043105653071657035 -0.032544576840900195 0 -0.043820549543855662 -0.029429301177454389 0 -0.044735174474436312 -0.030052437290463401 0 -0.048746000535234098 -0.023854680290862452 0 -0.048869658238639216 -0.02328197780828278 0 -0.049159359238694675 -0.023884712527135862 0 -0.044994407834915179 -0.028570079816512817 0 -0.043820549543855662 -0.029429301177454389 0 -0.044735174474436312 -0.030052437290463401 0 -0.048712689985833994 -0.024280737301764603 0 -0.048746000535234098 -0.023854680290862452 0 -0.049159359238694675 -0.023884712527135862 0 -0.044735174474436312 -0.030052437290463401 0 -0.0463562635665309 -0.028889914688545439 0 -0.047206494273019414 -0.031141591673011178 0 -0.044994407834915179 -0.028570079816512817 0 -0.044735174474436312 -0.030052437290463401 0 -0.0463562635665309 -0.028889914688545439 0 -0.034920312040425706 -0.030842049100737897 0 -0.033468414099640971 -0.033522542604831465 0 -0.020827332341801685 -0.035281393900687893 0 -0.020641926778451541 -0.03428389755862056 0 -0.02040624643021333 -0.035386526375687656 0 -0.0463562635665309 -0.028889914688545439 0 -0.04898417361370782 -0.027672380429177783 0 -0.047206494273019414 -0.031141591673011178 0 -0.020827332341801685 -0.035281393900687893 0 -0.021199260264439745 -0.034919596565468947 0 -0.020641926778451541 -0.03428389755862056 0 -0.020827332341801685 -0.035281393900687893 0 -0.021199260264439745 -0.034919596565468947 0 -0.021146461414603437 -0.035671549504318445 0 -0.021199260264439745 -0.034919596565468947 0 -0.021305775131385853 -0.034128958814107678 0 -0.020641926778451541 -0.03428389755862056 0 -0.021305775131385853 -0.034128958814107678 0 -0.020641926778451541 -0.03428389755862056 0 -0.021113938809835552 -0.03307902901746216 0 -0.046569218325711467 -0.026758981610871022 0 -0.0463562635665309 -0.028889914688545439 0 -0.04898417361370782 -0.027672380429177783 0 -0.046569218325711467 -0.026758981610871022 0 -0.04898417361370782 -0.027672380429177783 0 -0.047532073673606935 -0.025015391634195527 0 -0.04898417361370782 -0.027672380429177783 0 -0.047532073673606935 -0.025015391634195527 0 -0.050665750670923271 -0.02423757936519487 0 -0.034920312040425706 -0.030842049100737897 0 -0.035665831660580245 -0.028931937260679948 0 -0.03809847311674832 -0.025529567008690301 0 -0.035665831660580245 -0.028931937260679948 0 -0.050665750670923271 -0.02423757936519487 0 -0.050008735767740405 -0.022001373472926519 0 -0.048464558577665191 -0.022914277119505833 0 -0.052088062595808365 -0.021086228229434519 0 -0.050665750670923271 -0.02423757936519487 0 -0.050008735767740405 -0.022001373472926519 0 -0.047532073673606935 -0.025015391634195527 0 -0.050665750670923271 -0.02423757936519487 0 -0.048464558577665191 -0.022914277119505833 0 -0.048566378987615934 -0.02133139415815935 0 -0.050008735767740405 -0.022001373472926519 0 -0.048464558577665191 -0.022914277119505833 0 -0.048566378987615934 -0.02133139415815935 0 -0.047272379359859805 -0.02240246486844983 0 -0.048464558577665191 -0.022914277119505833 0 -0.046781737805588766 -0.023768578911871271 0 -0.047532073673606935 -0.025015391634195527 0 -0.048464558577665191 -0.022914277119505833 0 -0.020854541074089371 -0.030717927836076513 0 -0.022264364680722407 -0.03112748536588256 0 -0.021661108119025572 -0.031971521160435737 0 -0.022264364680722407 -0.03112748536588256 0 -0.021661108119025572 -0.031971521160435737 0 -0.022824608727748271 -0.032144673443733299 0 -0.021686754836857156 -0.03195491366571615 0 -0.021113938809835552 -0.03307902901746216 0 -0.021709155716164358 -0.032720836638911892 0 -0.027455623969296641 -0.02665940930204605 0 -0.021686826822805094 -0.032666049711757406 0 -0.02187634238735851 -0.032024149947311724 0 -0.022265324562406243 -0.032812261087384567 0 -0.021709155716164358 -0.032720836638911892 0 -0.022265324562406243 -0.032812261087384567 0 -0.021709155716164358 -0.032720836638911892 0 -0.021847412557427899 -0.033625312803662044 0 -0.021305775131385853 -0.034128958814107678 0 -0.021113938809835552 -0.03307902901746216 0 -0.021847412557427899 -0.033625312803662044 0 -0.021113938809835552 -0.03307902901746216 0 -0.021709155716164358 -0.032720836638911892 0 -0.021847412557427899 -0.033625312803662044 0 -0.022265324562406243 -0.032812261087384567 0 -0.021847412557427899 -0.033625312803662044 0 -0.022615703656058053 -0.033385734357864454 0 -0.021661108119025572 -0.031971521160435737 0 -0.022615703656058053 -0.033385734357864454 0 -0.022824608727748271 -0.032144673443733299 0 -0.021686826822805094 -0.032666049711757406 0 -0.022589863093356873 -0.033256763729553031 0 -0.022250567961553374 -0.034114248829245679 0 -0.021825888771832835 -0.034721316258019046 0 -0.022737438979119125 -0.034656496890492321 0 -0.021847412557427899 -0.033625312803662044 0 -0.022250567961553374 -0.034114248829245679 0 -0.022615703656058053 -0.033385734357864454 0 -0.021847412557427899 -0.033625312803662044 0 -0.022250567961553374 -0.034114248829245679 0 -0.021825888771832835 -0.034721316258019046 0 -0.021305775131385853 -0.034128958814107678 0 -0.021847412557427899 -0.033625312803662044 0 -0.021825888771832835 -0.034721316258019046 0 -0.021199260264439745 -0.034919596565468947 0 -0.021305775131385853 -0.034128958814107678 0 -0.021825888771832835 -0.034721316258019046 0 -0.021199260264439745 -0.034919596565468947 0 -0.021825888771832835 -0.034721316258019046 0 -0.02156207754718029 -0.035494517890818381 0 -0.021825888771832835 -0.034721316258019046 0 -0.022062047140311285 -0.035392880458346487 0 -0.022737438979119125 -0.034656496890492321 0 -0.021825888771832835 -0.034721316258019046 0 -0.022062047140311285 -0.035392880458346487 0 -0.02156207754718029 -0.035494517890818381 0 -0.022062047140311285 -0.035392880458346487 0 -0.021754647991271352 -0.036169620129807303 0 -0.02156207754718029 -0.035494517890818381 0 -0.022062047140311285 -0.035392880458346487 0 -0.021754647991271352 -0.036169620129807303 0 -0.022152016545108105 -0.036147966712189387 0 -0.022062047140311285 -0.035392880458346487 0 -0.022152016545108105 -0.036147966712189387 0 -0.022496505169142113 -0.035644283440331506 0 -0.021754647991271352 -0.036169620129807303 0 -0.021893816062692039 -0.036625411133643128 0 -0.022152016545108105 -0.036147966712189387 0 -0.021754647991271352 -0.036169620129807303 0 -0.021893816062692039 -0.036625411133643128 0 -0.021616749180226495 -0.036647718406555736 0 -0.021754647991271352 -0.036169620129807303 0 -0.021448299243089275 -0.036418563434245758 0 -0.021616749180226495 -0.036647718406555736 0 -0.021754647991271352 -0.036169620129807303 0 -0.021448299243089275 -0.036418563434245758 0 -0.021425947494052699 -0.036018314135872295 0 -0.021448299243089275 -0.036418563434245758 0 -0.021425947494052699 -0.036018314135872295 0 -0.021144082904068995 -0.036270836507629196 0 -0.021199260264439745 -0.034919596565468947 0 -0.02156207754718029 -0.035494517890818381 0 -0.021146461414603437 -0.035671549504318445 0 -0.021425947494052699 -0.036018314135872295 0 -0.02156207754718029 -0.035494517890818381 0 -0.021146461414603437 -0.035671549504318445 0 -0.021754647991271352 -0.036169620129807303 0 -0.021425947494052699 -0.036018314135872295 0 -0.02156207754718029 -0.035494517890818381 0 -0.020827332341801685 -0.035281393900687893 0 -0.021146461414603437 -0.035671549504318445 0 -0.020758673240951594 -0.035981193230591152 0 -0.020827332341801685 -0.035281393900687893 0 -0.02040624643021333 -0.035386526375687656 0 -0.020758673240951594 -0.035981193230591152 0 -0.020758673240951594 -0.035981193230591152 0 -0.020933830950372597 -0.036426429529723595 0 -0.020647434579848398 -0.036495816246812002 0 -0.020293642455912676 -0.036208410827111251 0 -0.020758673240951594 -0.035981193230591152 0 -0.020647434579848398 -0.036495816246812002 0 -0.021146461414603437 -0.035671549504318445 0 -0.020758673240951594 -0.035981193230591152 0 -0.021144082904068995 -0.036270836507629196 0 -0.021425947494052699 -0.036018314135872295 0 -0.021146461414603437 -0.035671549504318445 0 -0.021144082904068995 -0.036270836507629196 0 -0.021144082904068995 -0.036270836507629196 0 -0.020933830950372597 -0.036426429529723595 0 -0.021081344073862186 -0.036533027795329687 0 -0.020758673240951594 -0.035981193230591152 0 -0.021144082904068995 -0.036270836507629196 0 -0.020933830950372597 -0.036426429529723595 0 -0.021448299243089275 -0.036418563434245758 0 -0.021144082904068995 -0.036270836507629196 0 -0.021235152133396631 -0.036632941428462781 0 -0.021144082904068995 -0.036270836507629196 0 -0.021235152133396631 -0.036632941428462781 0 -0.021081344073862186 -0.036533027795329687 0 -0.020933830950372597 -0.036426429529723595 0 -0.021081344073862186 -0.036533027795329687 0 -0.021019755168080623 -0.036782296227707741 0 -0.021235152133396631 -0.036632941428462781 0 -0.021081344073862186 -0.036533027795329687 0 -0.021019755168080623 -0.036782296227707741 0 -0.022023787646709932 -0.036971660237702139 0 -0.024809301121886188 -0.036767667470900753 0 -0.021235152133396631 -0.036632941428462781 0 -0.021019755168080623 -0.036782296227707741 0 -0.02120210121773471 -0.03689652550102232 0 -0.021235152133396631 -0.036632941428462781 0 -0.021260454487069091 -0.036931451185900951 0 -0.021393213942631557 -0.036827723200322612 0 -0.033913100348474924 -0.033063973034132547 0 -0.032080213292262079 -0.033934781166246666 0 -0.030011918800086093 -0.030927719743477786 0 -0.029557768921987471 -0.032350271266977974 0 -0.032080213292262079 -0.033934781166246666 0 -0.030011918800086093 -0.030927719743477786 0 -0.020933830950372597 -0.036426429529723595 0 -0.021019755168080623 -0.036782296227707741 0 -0.020647434579848398 -0.036495816246812002 0 -0.026702770058224596 -0.035112912454411935 0 -0.025306157739802805 -0.034608269899374197 0 -0.040784767911712573 -0.038153193950765184 0 -0.041480060938721419 -0.038645989137330666 0 -0.039710503470944694 -0.038693153481419489 0 -0.038594890658944239 -0.034573713968200359 0 -0.032803155346108774 -0.036610570951118526 0 -0.040784767911712573 -0.038153193950765184 0 -0.039710503470944694 -0.038693153481419489 0 -0.039964449550568514 -0.037854659819903484 0 -0.032803155346108774 -0.036610570951118526 0 -0.035847968221963143 -0.039611813511838297 0 -0.031104778279501141 -0.038672239225134991 0 -0.030731752145114536 -0.039119868184763609 0 -0.030940309368226362 -0.039692367896346829 0 -0.028822375330476567 -0.038345897035119939 0 -0.027995282729333798 -0.036671461992070123 0 -0.029371875168449149 -0.03518058251286655 0 -0.027643362381157936 -0.036811614113314309 0 -0.028212819297954342 -0.042899699261858541 0 -0.021260454487069091 -0.036931451185900951 0 -0.021416572918916691 -0.036988298619463296 0 -0.021393213942631557 -0.036827723200322612 0 -0.028009120874012645 -0.03617124231890096 0 -0.027953450878542244 -0.036486798527715955 0 -0.028391491665069254 -0.036442934795721846 0 -0.027643362381157936 -0.036811614113314309 0 -0.024809301121886188 -0.036767667470900753 0 -0.027643362381157936 -0.036811614113314309 0 -0.025035577084958283 -0.037191525134614635 0 -0.025658021890374604 -0.037384898628918722 0 -0.025641566784790081 -0.037471146523141007 0 -0.025500014444457986 -0.037384299653028606 0 -0.024809301121886188 -0.036767667470900753 0 -0.025035577084958283 -0.037191525134614635 0 -0.026702770058224596 -0.035112912454411935 0 -0.032803155346108774 -0.036610570951118526 0 -0.027643362381157936 -0.036811614113314309 0 -0.032803155346108774 -0.036610570951118526 0 -0.026702770058224596 -0.035112912454411935 0 -0.024809301121886188 -0.036767667470900753 0 -0.028565639869762609 -0.036872856271070509 0 -0.028391491665069254 -0.036442934795721846 0 -0.028792947754643951 -0.036184125966100669 0 -0.028009120874012645 -0.03617124231890096 0 -0.028391491665069254 -0.036442934795721846 0 -0.028792947754643951 -0.036184125966100669 0 -0.028565639869762609 -0.036872856271070509 0 -0.027953450878542244 -0.036486798527715955 0 -0.028391491665069254 -0.036442934795721846 0 -0.030557315643414799 -0.038663344522805343 0 -0.030731752145114536 -0.039119868184763609 0 -0.030327024993668301 -0.03945085942168966 0 -0.031104778279501141 -0.038672239225134991 0 -0.030557315643414799 -0.038663344522805343 0 -0.030731752145114536 -0.039119868184763609 0 -0.028822375330476567 -0.038345897035119939 0 -0.027995282729333798 -0.036671461992070123 0 -0.027513811302172998 -0.03832829012728052 0 -0.027513811302172998 -0.03832829012728052 0 -0.023261274779886203 -0.035586365561726174 0 -0.026622180719022517 -0.035795028229641368 0 -0.025035577084958283 -0.037191525134614635 0 -0.02325078851457171 -0.035420920018328958 0 -0.021416572918916691 -0.036988298619463296 0 -0.021580515431812799 -0.036949051055477182 0 -0.021532651657041421 -0.036848791278838396 0 -0.027995282729333798 -0.036671461992070123 0 -0.027513811302172998 -0.03832829012728052 0 -0.026622180719022517 -0.035795028229641368 0 -0.025035577084958283 -0.037191525134614635 0 -0.021038919614546448 -0.036907351530926676 0 -0.025778358927957139 -0.037054408746439275 0 -0.021581463638215219 -0.036951442260995393 0 -0.0226471968739273 -0.035036849072120027 0 -0.021416572918916691 -0.036988298619463296 0 -0.021581463638215219 -0.036951442260995393 0 -0.021580515431812799 -0.036949051055477182 0 -0.021581463638215219 -0.036951442260995393 0 -0.0226471968739273 -0.035036849072120027 0 -0.021029707900941892 -0.035951638218598266 0 -0.021581463638215219 -0.036951442260995393 0 -0.021580515431812799 -0.036949051055477182 0 -0.021568595314554028 -0.037131508510266642 0 -0.021580515431812799 -0.036949051055477182 0 -0.021670856975888091 -0.036920704735693206 0 -0.021532651657041421 -0.036848791278838396 0 -0.021580515431812799 -0.036949051055477182 0 -0.021670856975888091 -0.036920704735693206 0 -0.021568595314554028 -0.037131508510266642 0 -0.021670856975888091 -0.036920704735693206 0 -0.021568595314554028 -0.037131508510266642 0 -0.021767945982619802 -0.036974873410374746 0 -0.021893816062692039 -0.036625411133643128 0 -0.021670856975888091 -0.036920704735693206 0 -0.021616749180226495 -0.036647718406555736 0 -0.021893816062692039 -0.036625411133643128 0 -0.021670856975888091 -0.036920704735693206 0 -0.021767945982619802 -0.036974873410374746 0 -0.021670856975888091 -0.036920704735693206 0 -0.021616749180226495 -0.036647718406555736 0 -0.021532651657041421 -0.036848791278838396 0 -0.021616749180226495 -0.036647718406555736 0 -0.02145476710820873 -0.036695020976982004 0 -0.021532651657041421 -0.036848791278838396 0 -0.021448299243089275 -0.036418563434245758 0 -0.021616749180226495 -0.036647718406555736 0 -0.02145476710820873 -0.036695020976982004 0 -0.021448299243089275 -0.036418563434245758 0 -0.021235152133396631 -0.036632941428462781 0 -0.02145476710820873 -0.036695020976982004 0 -0.021235152133396631 -0.036632941428462781 0 -0.02145476710820873 -0.036695020976982004 0 -0.021393213942631557 -0.036827723200322612 0 -0.021416572918916691 -0.036988298619463296 0 -0.021393213942631557 -0.036827723200322612 0 -0.021532651657041421 -0.036848791278838396 0 -0.02145476710820873 -0.036695020976982004 0 -0.021393213942631557 -0.036827723200322612 0 -0.021532651657041421 -0.036848791278838396 0 -0.024069132994997453 -0.051940220563563545 0 -0.02327629437895715 -0.053012578371288956 0 -0.022668266928062369 -0.051831118186259295 0 -0.024069132994997453 -0.051940220563563545 0 -0.02327629437895715 -0.053012578371288956 0 -0.025082598934139725 -0.053532628128961771 0 -0.023981812025133383 -0.043396488793348127 0 -0.020967002182151154 -0.041713464346948274 0 -0.022668266928062369 -0.051831118186259295 0 -0.021275402808194968 -0.052523855908523237 0 -0.021600730249278041 -0.051544795845952222 0 -0.02327629437895715 -0.053012578371288956 0 -0.022668266928062369 -0.051831118186259295 0 -0.021275402808194968 -0.052523855908523237 0 -0.025026677437043402 -0.033469237818820781 0 -0.023261274779886203 -0.035586365561726174 0 -0.020525201636978806 -0.031587004572726868 0 -0.023981812025133383 -0.043396488793348127 0 -0.028212819297954342 -0.042899699261858541 0 -0.025026677437043402 -0.033469237818820781 0 -0.023261274779886203 -0.035586365561726174 0 -0.026622180719022517 -0.035795028229641368 0 -0.025026677437043402 -0.033469237818820781 0 -0.026622180719022517 -0.035795028229641368 0 -0.029371875168449149 -0.03518058251286655 0 -0.027995282729333798 -0.036671461992070123 0 -0.026622180719022517 -0.035795028229641368 0 -0.029371875168449149 -0.03518058251286655 0 -0.030731752145114536 -0.039119868184763609 0 -0.030940309368226362 -0.039692367896346829 0 -0.030327024993668301 -0.03945085942168966 0 -0.028212819297954342 -0.042899699261858541 0 -0.035847968221963143 -0.039611813511838297 0 -0.040246634471060361 -0.037943780636405133 0 -0.040729535302154771 -0.037553563668379752 0 -0.040709644358133776 -0.036784192025093941 0 -0.033320946733599983 -0.042372192494455826 0 -0.032849901921764998 -0.042178913860133581 0 -0.03249351081748552 -0.043409926491772992 0 -0.041188346611077183 -0.038956788603549904 0 -0.035847968221963143 -0.039611813511838297 0 -0.040784767911712573 -0.038153193950765184 0 -0.040246634471060361 -0.037943780636405133 0 -0.040729535302154771 -0.037553563668379752 0 -0.035847968221963143 -0.039611813511838297 0 -0.036627792583551144 -0.039845136007752746 0 -0.033320946733599983 -0.042372192494455826 0 -0.03249351081748552 -0.043409926491772992 0 -0.033142565709402133 -0.043512760561400576 0 -0.024069132994997453 -0.051940220563563545 0 -0.025082598934139725 -0.053532628128961771 0 -0.025403862069828025 -0.051740051395497921 0 -0.028212819297954342 -0.042899699261858541 0 -0.02929814418559339 -0.04868011001562253 0 -0.025403862069828025 -0.051740051395497921 0 -0.025759216184296701 -0.049879122207846585 0 -0.024414796246488169 -0.050420098789346814 0 -0.024069132994997453 -0.051940220563563545 0 -0.025403862069828025 -0.051740051395497921 0 -0.024414796246488169 -0.050420098789346814 0 -0.02929814418559339 -0.04868011001562253 0 -0.029301333152778958 -0.04705259975804299 0 -0.03249351081748552 -0.043409926491772992 0 -0.032786288548504953 -0.043966745552555662 0 -0.032542348122239328 -0.044324318256765666 0 -0.033142565709402133 -0.043512760561400576 0 -0.032786288548504953 -0.043966745552555662 0 -0.032977449339753946 -0.044631179412125993 0 -0.03249351081748552 -0.043409926491772992 0 -0.032542348122239328 -0.044324318256765666 0 -0.032168388880322245 -0.044578072841934276 0 -0.03249351081748552 -0.043409926491772992 0 -0.033142565709402133 -0.043512760561400576 0 -0.032786288548504953 -0.043966745552555662 0 -0.032786288548504953 -0.043966745552555662 0 -0.032542348122239328 -0.044324318256765666 0 -0.032977449339753946 -0.044631179412125993 0 -0.032542348122239328 -0.044324318256765666 0 -0.032977449339753946 -0.044631179412125993 0 -0.032599753996167706 -0.04488984304741294 0 -0.032542348122239328 -0.044324318256765666 0 -0.032599753996167706 -0.04488984304741294 0 -0.032123891198716024 -0.04474085952278832 0 -0.032431243869803041 -0.044929853280471978 0 -0.034607911026465474 -0.043843473562227994 0 -0.025759216184296701 -0.049879122207846585 0 -0.024414796246488169 -0.050420098789346814 0 -0.025093182774443116 -0.048835114216768921 0 -0.024414796246488169 -0.050420098789346814 0 -0.023678601234486393 -0.049478524628761414 0 -0.025093182774443116 -0.048835114216768921 0 -0.024414796246488169 -0.050420098789346814 0 -0.023678601234486393 -0.049478524628761414 0 -0.023236796717557476 -0.050843047374638101 0 -0.024069132994997453 -0.051940220563563545 0 -0.024414796246488169 -0.050420098789346814 0 -0.023236796717557476 -0.050843047374638101 0 -0.024069132994997453 -0.051940220563563545 0 -0.023236796717557476 -0.050843047374638101 0 -0.022668266928062369 -0.051831118186259295 0 -0.022668266928062369 -0.051831118186259295 0 -0.02215959896399794 -0.050885901878842045 0 -0.021600730249278041 -0.051544795845952222 0 -0.023236796717557476 -0.050843047374638101 0 -0.022668266928062369 -0.051831118186259295 0 -0.02215959896399794 -0.050885901878842045 0 -0.02215959896399794 -0.050885901878842045 0 -0.022349878820129662 -0.049913715032778312 0 -0.021305911809492487 -0.050170510561138582 0 -0.023678601234486393 -0.049478524628761414 0 -0.023236796717557476 -0.050843047374638101 0 -0.022349878820129662 -0.049913715032778312 0 -0.023236796717557476 -0.050843047374638101 0 -0.02215959896399794 -0.050885901878842045 0 -0.022349878820129662 -0.049913715032778312 0 -0.022349878820129662 -0.049913715032778312 0 -0.022862457730437765 -0.048870832476621488 0 -0.021427652602715768 -0.049054165612564357 0 -0.022862457730437765 -0.048870832476621488 0 -0.02249458912669574 -0.047962641477644084 0 -0.021427652602715768 -0.049054165612564357 0 -0.023678601234486393 -0.049478524628761414 0 -0.022349878820129662 -0.049913715032778312 0 -0.022862457730437765 -0.048870832476621488 0 -0.023678601234486393 -0.049478524628761414 0 -0.024285488887081295 -0.047977510489821032 0 -0.025093182774443116 -0.048835114216768921 0 -0.023678601234486393 -0.049478524628761414 0 -0.022862457730437765 -0.048870832476621488 0 -0.024285488887081295 -0.047977510489821032 0 -0.024285488887081295 -0.047977510489821032 0 -0.02249458912669574 -0.047962641477644084 0 -0.023706646168768223 -0.046588447905732612 0 -0.022862457730437765 -0.048870832476621488 0 -0.024285488887081295 -0.047977510489821032 0 -0.02249458912669574 -0.047962641477644084 0 -0.023706646168768223 -0.046588447905732612 0 -0.022224784447238126 -0.044999729923077492 0 -0.021870962787805228 -0.046845758602010588 0 -0.02249458912669574 -0.047962641477644084 0 -0.023706646168768223 -0.046588447905732612 0 -0.021870962787805228 -0.046845758602010588 0 -0.023706646168768223 -0.046588447905732612 0 -0.024698094402243985 -0.046981529179932993 0 -0.025099794414091482 -0.046099853679901728 0 -0.024285488887081295 -0.047977510489821032 0 -0.023706646168768223 -0.046588447905732612 0 -0.024698094402243985 -0.046981529179932993 0 -0.02482197584981468 -0.045000271050687775 0 -0.025404075990869454 -0.046277036213869145 0 -0.023706646168768223 -0.046588447905732612 0 -0.024820489834245039 -0.044999848954702534 0 -0.025099794414091482 -0.046099853679901728 0 -0.023706646168768223 -0.046588447905732612 0 -0.024820489834245039 -0.044999848954702534 0 -0.022224784447238126 -0.044999729923077492 0 -0.027033991726354817 -0.044999990386012184 0 -0.026871487862938838 -0.046538312492436798 0 -0.028193015049159262 -0.046893912625243978 0 -0.027033991726354817 -0.044999990386012184 0 -0.025695968167650421 -0.046420993073010196 0 -0.026871487862938838 -0.046538312492436798 0 -0.024821930112529759 -0.044999994600734422 0 -0.027033991726354817 -0.044999990386012184 0 -0.025695968167650421 -0.046420993073010196 0 -0.024698094402243985 -0.046981529179932993 0 -0.025099794414091482 -0.046099853679901728 0 -0.025724952950368318 -0.047260163119869338 0 -0.025404075990869454 -0.046277036213869145 0 -0.026908696590054432 -0.0468801595021867 0 -0.025695968167650421 -0.046420993073010196 0 -0.026871487862938838 -0.046538312492436798 0 -0.026563995314226353 -0.047835805031919129 0 -0.030882893851369057 -0.046257945915901363 0 -0.030392742956348865 -0.046302727361855589 0 -0.030924245916448725 -0.045995879430664577 0 -0.026908696590054432 -0.0468801595021867 0 -0.029797044079243645 -0.046366684044557863 0 -0.026871487862938838 -0.046538312492436798 0 -0.026563995314226353 -0.047835805031919129 0 -0.028193015049159262 -0.046893912625243978 0 -0.030882893851369057 -0.046257945915901363 0 -0.03066009980733644 -0.046398524256667503 0 -0.030961082288831401 -0.046659663500054668 0 -0.030882893851369057 -0.046257945915901363 0 -0.03066009980733644 -0.046398524256667503 0 -0.030392742956348865 -0.046302727361855589 0 -0.030173126993491624 -0.046974435725161752 0 -0.026908696590054432 -0.0468801595021867 0 -0.03066009980733644 -0.046398524256667503 0 -0.030610968338654405 -0.046664070273226881 0 -0.030392742956348865 -0.046302727361855589 0 -0.030463960084261877 -0.046441028155867488 0 -0.030173126993491624 -0.046974435725161752 0 -0.03066009980733644 -0.046398524256667503 0 -0.030645546352950331 -0.046636952071677423 0 -0.030961082288831401 -0.046659663500054668 0 -0.024285488887081295 -0.047977510489821032 0 -0.025552435643591383 -0.047211981724732295 0 -0.02524990542650472 -0.048022306927845218 0 -0.023978563152721153 -0.048130031169961576 0 -0.026908696590054432 -0.0468801595021867 0 -0.024285488887081295 -0.047977510489821032 0 -0.024698094402243985 -0.046981529179932993 0 -0.025724952950368318 -0.047260163119869338 0 -0.026087022041058745 -0.048070364350386731 0 -0.025552435643591383 -0.047211981724732295 0 -0.02524990542650472 -0.048022306927845218 0 -0.024285488887081295 -0.047977510489821032 0 -0.02524990542650472 -0.048022306927845218 0 -0.025093182774443116 -0.048835114216768921 0 -0.025759216184296701 -0.049879122207846585 0 -0.026087022041058745 -0.048070364350386731 0 -0.025093182774443116 -0.048835114216768921 0 -0.026087022041058745 -0.048070364350386731 0 -0.02524990542650472 -0.048022306927845218 0 -0.025093182774443116 -0.048835114216768921 0 -0.030645546352950331 -0.046636952071677423 0 -0.030961082288831401 -0.046659663500054668 0 -0.03107831539720015 -0.04721686620374111 0 -0.032977449339753946 -0.044631179412125993 0 -0.032599753996167706 -0.04488984304741294 0 -0.032760868894172922 -0.045868029399963539 0 -0.029301333152778958 -0.04705259975804299 0 -0.030173126993491624 -0.046974435725161752 0 -0.032599753996167706 -0.04488984304741294 0 -0.032760868894172922 -0.045868029399963539 0 -0.032123891198716024 -0.04474085952278832 0 -0.030173126993491624 -0.046974435725161752 0 -0.034607911026465474 -0.043843473562227994 0 -0.031252059341419808 -0.046809678192966817 0 -0.030961082288831401 -0.046659663500054668 0 -0.031155911653717477 -0.047135449491019832 0 -0.031252059341419808 -0.046809678192966817 0 -0.031666379596784131 -0.046680879053162878 0 -0.031163935029440232 -0.047059826838139349 0 -0.030961082288831401 -0.046659663500054668 0 -0.03107831539720015 -0.04721686620374111 0 -0.031155911653717477 -0.047135449491019832 0 -0.031643375838368633 -0.047960735924642249 0 -0.035726498671134539 -0.044275475599899104 0 -0.043581886011532588 -0.042490304088541715 0 -0.043090645975043231 -0.044259236180025856 0 -0.042223127255323144 -0.04310868940030383 0 -0.037799656689310283 -0.045377512975960016 0 -0.035726498671134539 -0.044275475599899104 0 -0.043581886011532588 -0.042490304088541715 0 -0.043090645975043231 -0.044259236180025856 0 -0.045280616274909313 -0.042074396087001371 0 -0.043581886011532588 -0.042490304088541715 0 -0.042223127255323144 -0.04310868940030383 0 -0.042920031089365811 -0.041763777924061475 0 -0.031666379596784131 -0.046680879053162878 0 -0.031424273806719569 -0.046370209757849605 0 -0.031807940673624788 -0.046173365411568162 0 -0.031252059341419808 -0.046809678192966817 0 -0.031666379596784131 -0.046680879053162878 0 -0.031283035097993302 -0.046576612576718898 0 -0.031666379596784131 -0.046680879053162878 0 -0.031424273806719569 -0.046370209757849605 0 -0.031283035097993302 -0.046576612576718898 0 -0.030961082288831401 -0.046659663500054668 0 -0.031283035097993302 -0.046576612576718898 0 -0.031109983866341086 -0.046353912763654269 0 -0.031252059341419808 -0.046809678192966817 0 -0.030961082288831401 -0.046659663500054668 0 -0.031283035097993302 -0.046576612576718898 0 -0.031424273806719569 -0.046370209757849605 0 -0.031283035097993302 -0.046576612576718898 0 -0.031109983866341086 -0.046353912763654269 0 -0.030882893851369057 -0.046257945915901363 0 -0.030961082288831401 -0.046659663500054668 0 -0.031109983866341086 -0.046353912763654269 0 -0.031109983866341086 -0.046353912763654269 0 -0.030924245916448725 -0.045995879430664577 0 -0.031217845535605138 -0.045959067478241029 0 -0.029797044079243645 -0.046366684044557863 0 -0.030493117083452419 -0.045813733393714376 0 -0.030924245916448725 -0.045995879430664577 0 -0.031217845535605138 -0.045959067478241029 0 -0.031223605936819204 -0.045707915652736887 0 -0.030882893851369057 -0.046257945915901363 0 -0.031109983866341086 -0.046353912763654269 0 -0.030924245916448725 -0.045995879430664577 0 -0.031424273806719569 -0.046370209757849605 0 -0.031109983866341086 -0.046353912763654269 0 -0.031217845535605138 -0.045959067478241029 0 -0.031217845535605138 -0.045959067478241029 0 -0.031807940673624788 -0.046173365411568162 0 -0.032212689075651731 -0.045521391466003099 0 -0.031227679054530673 -0.045933546316711961 0 -0.031911359564076681 -0.045592328626732619 0 -0.031424273806719569 -0.046370209757849605 0 -0.031217845535605138 -0.045959067478241029 0 -0.031807940673624788 -0.046173365411568162 0 -0.031217845535605138 -0.045959067478241029 0 -0.031223605936819204 -0.045707915652736887 0 -0.031542672649309947 -0.045637303573486443 0 -0.029823957553125949 -0.045949229567928858 0 -0.029246058092333011 -0.044999992895325129 0 -0.031458123210827249 -0.044999998222249392 0 -0.031223605936819204 -0.045707915652736887 0 -0.031459046212492056 -0.045000155147649594 0 -0.031542672649309947 -0.045637303573486443 0 -0.030493117083452419 -0.045813733393714376 0 -0.031458065178060574 -0.045000177925724853 0 -0.027033991726354817 -0.044999990386012184 0 -0.028193015049159262 -0.046893912625243978 0 -0.029246058092333011 -0.044999992895325129 0 -0.028193015049159262 -0.046893912625243978 0 -0.029823957553125949 -0.045949229567928858 0 -0.029246058092333011 -0.044999992895325129 0 -0.033573056032098779 -0.045000459273008227 0 -0.032212689075651731 -0.045521391466003099 0 -0.032537362545889174 -0.046172846795831828 0 -0.036000005889935266 -0.045946204254839917 0 -0.034635831095795717 -0.045313269404162207 0 -0.033573056032098779 -0.045000459273008227 0 -0.032537362545889174 -0.046172846795831828 0 -0.034128919863826844 -0.045286052153886647 0 -0.039651002779860028 -0.046122201333679377 0 -0.036843940526702493 -0.045679821063726977 0 -0.034128919863826844 -0.045286052153886647 0 -0.033560296874592194 -0.045000066693912162 0 -0.031911359564076681 -0.045592328626732619 0 -0.036843940526702493 -0.045679821063726977 0 -0.034128919863826844 -0.045286052153886647 0 -0.035724529023711302 -0.045570039607891383 0 -0.033559938746345726 -0.0449999106020521 0 -0.031459046212492056 -0.045000155147649594 0 -0.031542672649309947 -0.045637303573486443 0 -0.031807940673624788 -0.046173365411568162 0 -0.032212689075651731 -0.045521391466003099 0 -0.032537362545889174 -0.046172846795831828 0 -0.031666379596784131 -0.046680879053162878 0 -0.031807940673624788 -0.046173365411568162 0 -0.032537362545889174 -0.046172846795831828 0 -0.039651002779860028 -0.046122201333679377 0 -0.038016536896335669 -0.045273060472482057 0 -0.039468508515712604 -0.044979061291425419 0 -0.039651002779860028 -0.046122201333679377 0 -0.036843940526702493 -0.045679821063726977 0 -0.038016536896335669 -0.045273060472482057 0 -0.036843940526702493 -0.045679821063726977 0 -0.038016536896335669 -0.045273060472482057 0 -0.036559155243180645 -0.045575423747872254 0 -0.038016536896335669 -0.045273060472482057 0 -0.039470698427873693 -0.044383472099979886 0 -0.038057345301628458 -0.044813720403795297 0 -0.038016536896335669 -0.045273060472482057 0 -0.039468508515712604 -0.044979061291425419 0 -0.039470698427873693 -0.044383472099979886 0 -0.039470698427873693 -0.044383472099979886 0 -0.040801038322342206 -0.044275029817678953 0 -0.040859322214813414 -0.042961195099007782 0 -0.039468508515712604 -0.044979061291425419 0 -0.039470698427873693 -0.044383472099979886 0 -0.040801038322342206 -0.044275029817678953 0 -0.039470698427873693 -0.044383472099979886 0 -0.039242090978655067 -0.043932917855828188 0 -0.038057345301628458 -0.044813720403795297 0 -0.037799656689310283 -0.045377512975960016 0 -0.036000005889935266 -0.045946204254839917 0 -0.039651002779860028 -0.046122201333679377 0 -0.039468508515712604 -0.044979061291425419 0 -0.040801038322342206 -0.044275029817678953 0 -0.043090645975043231 -0.044259236180025856 0 -0.040801038322342206 -0.044275029817678953 0 -0.042223127255323144 -0.04310868940030383 0 -0.043090645975043231 -0.044259236180025856 0 -0.039651002779860028 -0.046122201333679377 0 -0.040801038322342206 -0.044275029817678953 0 -0.042223127255323144 -0.04310868940030383 0 -0.040859322214813414 -0.042961195099007782 0 -0.042920031089365811 -0.041763777924061475 0 -0.040801038322342206 -0.044275029817678953 0 -0.042223127255323144 -0.04310868940030383 0 -0.040859322214813414 -0.042961195099007782 0 -0.040859322214813414 -0.042961195099007782 0 -0.040635324430949013 -0.04182411695707302 0 -0.039485515430999533 -0.043204987510066815 0 -0.039242090978655067 -0.043932917855828188 0 -0.040859322214813414 -0.042961195099007782 0 -0.039485515430999533 -0.043204987510066815 0 -0.039470698427873693 -0.044383472099979886 0 -0.039242090978655067 -0.043932917855828188 0 -0.040859322214813414 -0.042961195099007782 0 -0.040859322214813414 -0.042961195099007782 0 -0.040635324430949013 -0.04182411695707302 0 -0.041971892758207202 -0.041116788852054005 0 -0.040635324430949013 -0.04182411695707302 0 -0.041820315381112631 -0.039901757997276827 0 -0.041971892758207202 -0.041116788852054005 0 -0.040635324430949013 -0.04182411695707302 0 -0.041820315381112631 -0.039901757997276827 0 -0.040175555194957226 -0.040945040012901834 0 -0.041820315381112631 -0.039901757997276827 0 -0.043038677972677873 -0.039312126522879708 0 -0.042444092982675416 -0.037641584515820593 0 -0.041820315381112631 -0.039901757997276827 0 -0.042444092982675416 -0.037641584515820593 0 -0.040543954680471936 -0.039466544060186501 0 -0.043038677972677873 -0.039312126522879708 0 -0.041971892758207202 -0.041116788852054005 0 -0.043410582099448258 -0.040230674195674145 0 -0.041820315381112631 -0.039901757997276827 0 -0.043038677972677873 -0.039312126522879708 0 -0.041971892758207202 -0.041116788852054005 0 -0.043038677972677873 -0.039312126522879708 0 -0.043410582099448258 -0.040230674195674145 0 -0.043696177356760034 -0.03871410398481049 0 -0.041971892758207202 -0.041116788852054005 0 -0.042920031089365811 -0.041763777924061475 0 -0.043410582099448258 -0.040230674195674145 0 -0.040859322214813414 -0.042961195099007782 0 -0.041971892758207202 -0.041116788852054005 0 -0.042920031089365811 -0.041763777924061475 0 -0.043581886011532588 -0.042490304088541715 0 -0.042920031089365811 -0.041763777924061475 0 -0.044200376605092899 -0.041425377138723324 0 -0.042920031089365811 -0.041763777924061475 0 -0.044200376605092899 -0.041425377138723324 0 -0.043410582099448258 -0.040230674195674145 0 -0.037325930639485611 -0.041877680593926665 0 -0.043347618958288071 -0.038043898940792978 0 -0.044200376605092899 -0.041425377138723324 0 -0.045408694090055789 -0.041541442562052021 0 -0.044423446158770169 -0.039925917710382862 0 -0.043581886011532588 -0.042490304088541715 0 -0.044200376605092899 -0.041425377138723324 0 -0.045280616274909313 -0.042074396087001371 0 -0.032542348122239328 -0.044324318256765666 0 -0.0322250057908001 -0.04466766143909863 0 -0.032168388880322245 -0.044578072841934276 0 -0.034607911026465474 -0.043843473562227994 0 -0.037325930639485611 -0.041877680593926665 0 -0.037103355701907703 -0.043631724492746646 0 -0.036425720139289811 -0.044342028233789646 0 -0.036801687956718281 -0.043129058302961168 0 -0.034607911026465474 -0.043843473562227994 0 -0.035726498671134539 -0.044275475599899104 0 -0.035726498671134539 -0.044275475599899104 0 -0.037325930639485611 -0.041877680593926665 0 -0.044200376605092899 -0.041425377138723324 0 -0.045280616274909313 -0.042074396087001371 0 -0.045408694090055789 -0.041541442562052021 0 -0.036627792583551144 -0.039845136007752746 0 -0.037325930639485611 -0.041877680593926665 0 -0.040709644358133776 -0.036784192025093941 0 -0.041061420917176433 -0.03581287139165916 0 -0.041526563849776356 -0.036425784784486985 0 -0.044423446158770169 -0.039925917710382862 0 -0.043410582099448258 -0.040230674195674145 0 -0.043696177356760034 -0.03871410398481049 0 -0.044200376605092899 -0.041425377138723324 0 -0.044423446158770169 -0.039925917710382862 0 -0.043410582099448258 -0.040230674195674145 0 -0.043347618958288071 -0.038043898940792978 0 -0.042887345778476159 -0.037943407945411435 0 -0.041526563849776356 -0.036425784784486985 0 -0.042128634120235986 -0.037109293671772126 0 -0.04118786083206491 -0.037355576019817975 0 -0.040729535302154771 -0.037553563668379752 0 -0.040709644358133776 -0.036784192025093941 0 -0.04118786083206491 -0.037355576019817975 0 -0.040709644358133776 -0.036784192025093941 0 -0.041526563849776356 -0.036425784784486985 0 -0.04118786083206491 -0.037355576019817975 0 -0.040784767911712573 -0.038153193950765184 0 -0.040729535302154771 -0.037553563668379752 0 -0.04118786083206491 -0.037355576019817975 0 -0.040784767911712573 -0.038153193950765184 0 -0.04118786083206491 -0.037355576019817975 0 -0.041904445346727458 -0.03792770936604975 0 -0.042128634120235986 -0.037109293671772126 0 -0.04118786083206491 -0.037355576019817975 0 -0.041904445346727458 -0.03792770936604975 0 -0.042128634120235986 -0.037109293671772126 0 -0.041904445346727458 -0.03792770936604975 0 -0.042865639442603444 -0.037902088155044908 0 -0.042887345778476159 -0.037943407945411435 0 -0.042897589085011519 -0.037929221317893572 0 -0.043696177356760034 -0.03871410398481049 0 -0.042865639442603444 -0.037902088155044908 0 -0.043080971943371862 -0.038493100046500521 0 -0.042865639442603444 -0.037902088155044908 0 -0.042902495399764311 -0.03812214081192649 0 -0.043080971943371862 -0.038493100046500521 0 -0.042902495399764311 -0.03812214081192649 0 -0.042630533320620445 -0.038318255482661455 0 -0.043080971943371862 -0.038493100046500521 0 -0.042865639442603444 -0.037902088155044908 0 -0.042902495399764311 -0.03812214081192649 0 -0.042931386849115349 -0.037795283475689861 0 -0.042902495399764311 -0.03812214081192649 0 -0.042931386849115349 -0.037795283475689861 0 -0.042630533320620445 -0.038318255482661455 0 -0.042671591354666423 -0.037067506548225451 0 -0.042931386849115349 -0.037795283475689861 0 -0.042630533320620445 -0.038318255482661455 0 -0.043651466412931474 -0.03477716410048471 0 -0.04275765597979065 -0.035837072233712859 0 -0.043073320435312777 -0.035031500969105234 0 -0.043651466412931474 -0.03477716410048471 0 -0.04275765597979065 -0.035837072233712859 0 -0.04389946935692339 -0.035846181658064302 0 -0.04275765597979065 -0.035837072233712859 0 -0.04389946935692339 -0.035846181658064302 0 -0.042444092982675416 -0.037641584515820593 0 -0.043038677972677873 -0.039312126522879708 0 -0.04389946935692339 -0.035846181658064302 0 -0.042444092982675416 -0.037641584515820593 0 -0.04275765597979065 -0.035837072233712859 0 -0.042444092982675416 -0.037641584515820593 0 -0.041581273462320982 -0.036294253746571165 0 -0.043144589977075862 -0.039026590385255557 0 -0.043216038466030095 -0.037023885174032503 0 -0.043038677972677873 -0.039312126522879708 0 -0.043696177356760034 -0.03871410398481049 0 -0.043080971943371862 -0.038493100046500521 0 -0.043038677972677873 -0.039312126522879708 0 -0.042630533320620445 -0.038318255482661455 0 -0.043080971943371862 -0.038493100046500521 0 -0.041988686865202983 -0.035491505380546018 0 -0.042150623901498277 -0.035209525280226653 0 -0.042276166312763305 -0.035101774178293209 0 -0.041966466672553993 -0.035421159585745536 0 -0.042553747177471068 -0.034950069717982375 0 -0.041988686865202983 -0.035491505380546018 0 -0.041581273462320982 -0.036294253746571165 0 -0.042224054158924024 -0.034967551684873845 0 -0.041988686865202983 -0.035491505380546018 0 -0.042037193397328268 -0.035401854295600686 0 -0.042606317382321887 -0.034841797171493383 0 -0.041490623327305264 -0.036325458181732384 0 -0.039950434487899693 -0.037898870965378632 0 -0.042037193397328268 -0.035401854295600686 0 -0.042056157676236834 -0.035392039056485074 0 -0.042122554030471861 -0.035159246254501356 0 -0.041988686865202983 -0.035491505380546018 0 -0.042037193397328268 -0.035401854295600686 0 -0.042056157676236834 -0.035392039056485074 0 -0.042056157676236834 -0.035392039056485074 0 -0.041991157011969475 -0.035665380807775281 0 -0.042111554120165894 -0.035281170620926408 0 -0.041988686865202983 -0.035491505380546018 0 -0.042056157676236834 -0.035392039056485074 0 -0.041991157011969475 -0.035665380807775281 0 -0.042056157676236834 -0.035392039056485074 0 -0.042122554030471861 -0.035159246254501356 0 -0.042111554120165894 -0.035281170620926408 0 -0.042122554030471861 -0.035159246254501356 0 -0.042184459221228397 -0.034985367130719425 0 -0.042320560309395336 -0.034661108287691894 0 -0.042037193397328268 -0.035401854295600686 0 -0.042122554030471861 -0.035159246254501356 0 -0.042320560309395336 -0.034661108287691894 0 -0.041988686865202983 -0.035491505380546018 0 -0.042150623901498277 -0.035209525280226653 0 -0.042224054158924024 -0.034967551684873845 0 -0.041581273462320982 -0.036294253746571165 0 -0.037232317575641695 -0.040812570511191804 0 -0.040543954680471936 -0.039466544060186501 0 -0.042444092982675416 -0.037641584515820593 0 -0.041581273462320982 -0.036294253746571165 0 -0.040543954680471936 -0.039466544060186501 0 -0.041988686865202983 -0.035491505380546018 0 -0.041581273462320982 -0.036294253746571165 0 -0.041991157011969475 -0.035665380807775281 0 -0.041581273462320982 -0.036294253746571165 0 -0.041991157011969475 -0.035665380807775281 0 -0.042297711581190667 -0.035405791187089627 0 -0.041991157011969475 -0.035665380807775281 0 -0.042297711581190667 -0.035405791187089627 0 -0.042111554120165894 -0.035281170620926408 0 -0.04275765597979065 -0.035837072233712859 0 -0.041581273462320982 -0.036294253746571165 0 -0.042297711581190667 -0.035405791187089627 0 -0.04275765597979065 -0.035837072233712859 0 -0.042297711581190667 -0.035405791187089627 0 -0.043073320435312777 -0.035031500969105234 0 -0.042297711581190667 -0.035405791187089627 0 -0.042824873783715356 -0.034744474513131375 0 -0.042369611851583056 -0.034885077836788049 0 -0.042297711581190667 -0.035405791187089627 0 -0.043073320435312777 -0.035031500969105234 0 -0.042824873783715356 -0.034744474513131375 0 -0.042369611851583056 -0.034885077836788049 0 -0.042111554120165894 -0.035281170620926408 0 -0.042207526504861446 -0.034948923522547248 0 -0.042297711581190667 -0.035405791187089627 0 -0.042369611851583056 -0.034885077836788049 0 -0.042111554120165894 -0.035281170620926408 0 -0.042184459221228397 -0.034985367130719425 0 -0.042207526504861446 -0.034948923522547248 0 -0.042293820776014249 -0.034738144016806395 0 -0.042122554030471861 -0.035159246254501356 0 -0.042111554120165894 -0.035281170620926408 0 -0.042184459221228397 -0.034985367130719425 0 -0.042111554120165894 -0.035281170620926408 0 -0.042184459221228397 -0.034985367130719425 0 -0.042207526504861446 -0.034948923522547248 0 -0.042207526504861446 -0.034948923522547248 0 -0.042242999756509129 -0.034712949401775293 0 -0.042293820776014249 -0.034738144016806395 0 -0.042183666284475271 -0.034491305227355884 0 -0.042369611851583056 -0.034885077836788049 0 -0.042242999756509129 -0.034712949401775293 0 -0.042369611851583056 -0.034885077836788049 0 -0.042207526504861446 -0.034948923522547248 0 -0.042242999756509129 -0.034712949401775293 0 -0.042183666284475271 -0.034491305227355884 0 -0.042242999756509129 -0.034712949401775293 0 -0.04246972187291774 -0.034542034817631899 0 -0.042242999756509129 -0.034712949401775293 0 -0.04246972187291774 -0.034542034817631899 0 -0.042293820776014249 -0.034738144016806395 0 -0.04246972187291774 -0.034542034817631899 0 -0.043101135540437673 -0.034398483735338305 0 -0.042834949586183474 -0.034253306968691472 0 -0.04246972187291774 -0.034542034817631899 0 -0.04249826104854923 -0.034488743886538005 0 -0.042834949586183474 -0.034253306968691472 0 -0.04249826104854923 -0.034488743886538005 0 -0.042293820776014249 -0.034738144016806395 0 -0.042320560309395336 -0.034661108287691894 0 -0.04246972187291774 -0.034542034817631899 0 -0.04249826104854923 -0.034488743886538005 0 -0.042293820776014249 -0.034738144016806395 0 -0.042184459221228397 -0.034985367130719425 0 -0.042293820776014249 -0.034738144016806395 0 -0.042320560309395336 -0.034661108287691894 0 -0.043771409632894998 -0.034417261499701847 0 -0.043101135540437673 -0.034398483735338305 0 -0.043814597596966369 -0.034033095918031657 0 -0.043101135540437673 -0.034398483735338305 0 -0.042834949586183474 -0.034253306968691472 0 -0.043400964696661076 -0.033938422217690785 0 -0.043101135540437673 -0.034398483735338305 0 -0.043400964696661076 -0.033938422217690785 0 -0.043814597596966369 -0.034033095918031657 0 -0.043520455425058273 -0.033504980617050574 0 -0.042702997600298075 -0.033571066713842648 0 -0.044133146312814724 -0.032806059266399221 0 -0.043400964696661076 -0.033938422217690785 0 -0.043520455425058273 -0.033504980617050574 0 -0.044213750221387779 -0.033549132433240515 0 -0.043400964696661076 -0.033938422217690785 0 -0.043017619029774787 -0.033890065654669746 0 -0.043520455425058273 -0.033504980617050574 0 -0.042834949586183474 -0.034253306968691472 0 -0.043400964696661076 -0.033938422217690785 0 -0.043017619029774787 -0.033890065654669746 0 -0.043017619029774787 -0.033890065654669746 0 -0.043520455425058273 -0.033504980617050574 0 -0.042702997600298075 -0.033571066713842648 0 -0.042113772049211406 -0.035154849388129461 0 -0.042799592757720446 -0.034340802633429916 0 -0.042037193397328268 -0.035401854295600686 0 -0.042320560309395336 -0.034661108287691894 0 -0.042702997600298075 -0.033571066713842648 0 -0.042037193397328268 -0.035401854295600686 0 -0.042750116179234202 -0.034912149114298213 0 -0.042606317382321887 -0.034841797171493383 0 -0.04249826104854923 -0.034488743886538005 0 -0.042320560309395336 -0.034661108287691894 0 -0.042666023015635268 -0.03419294268328419 0 -0.042320560309395336 -0.034661108287691894 0 -0.042666023015635268 -0.03419294268328419 0 -0.042702997600298075 -0.033571066713842648 0 -0.043017619029774787 -0.033890065654669746 0 -0.042666023015635268 -0.03419294268328419 0 -0.042702997600298075 -0.033571066713842648 0 -0.042834949586183474 -0.034253306968691472 0 -0.043017619029774787 -0.033890065654669746 0 -0.042666023015635268 -0.03419294268328419 0 -0.04249826104854923 -0.034488743886538005 0 -0.042834949586183474 -0.034253306968691472 0 -0.042666023015635268 -0.03419294268328419 0 -0.042230021007679946 -0.035089423709887907 0 -0.042220816481763734 -0.035114023263005667 0 -0.042224054158924024 -0.034967551684873845 0 -0.042150623901498277 -0.035209525280226653 0 -0.042230021007679946 -0.035089423709887907 0 -0.042276166312763305 -0.035101774178293209 0 -0.042220816481763734 -0.035114023263005667 0 -0.042086224610715088 -0.035598558704241237 0 -0.042224054158924024 -0.034967551684873845 0 -0.042230021007679946 -0.035089423709887907 0 -0.042276166312763305 -0.035101774178293209 0 -0.042220816481763734 -0.035114023263005667 0 -0.042799592757720446 -0.034340802633429916 0 -0.043834271514968826 -0.03360527671269186 0 -0.042553747177471068 -0.034950069717982375 0 -0.042344888031158781 -0.035231128415739263 0 -0.042276166312763305 -0.035101774178293209 0 -0.042220816481763734 -0.035114023263005667 0 -0.042223858507592138 -0.035115395713646885 0 -0.042220816481763734 -0.035114023263005667 0 -0.04187335087059655 -0.035229941543490198 0 -0.042086224610715088 -0.035598558704241237 0 -0.042750116179234202 -0.034912149114298213 0 -0.042606317382321887 -0.034841797171493383 0 -0.043386634306401196 -0.034508352828358006 0 -0.042750116179234202 -0.034912149114298213 0 -0.043386634306401196 -0.034508352828358006 0 -0.043630499372201002 -0.034695091258062562 0 -0.042101575536014645 -0.035121869155051409 0 -0.042344888031158781 -0.035231128415739263 0 -0.04187335087059655 -0.035229941543490198 0 -0.042086224610715088 -0.035598558704241237 0 -0.041672933322262275 -0.035660274697961056 0 -0.037112724757159044 -0.04430117224045256 0 -0.037441188380064092 -0.043075317764293214 0 -0.03742305491300392 -0.04456665760996141 0 -0.039365230959008457 -0.039791683483868336 0 -0.039950434487899693 -0.037898870965378632 0 -0.037112724757159044 -0.04430117224045256 0 -0.037441188380064092 -0.043075317764293214 0 -0.037232317575641695 -0.040812570511191804 0 -0.037441188380064092 -0.043075317764293214 0 -0.038423776789787825 -0.042517869024573642 0 -0.037764671149147978 -0.044215603009912105 0 -0.037441188380064092 -0.043075317764293214 0 -0.038423776789787825 -0.042517869024573642 0 -0.037932998938764173 -0.041966501138168855 0 -0.038423776789787825 -0.042517869024573642 0 -0.037932998938764173 -0.041966501138168855 0 -0.038787147251418241 -0.041176986148124033 0 -0.037932998938764173 -0.041966501138168855 0 -0.038787147251418241 -0.041176986148124033 0 -0.037232317575641695 -0.040812570511191804 0 -0.037441188380064092 -0.043075317764293214 0 -0.037932998938764173 -0.041966501138168855 0 -0.037232317575641695 -0.040812570511191804 0 -0.038787147251418241 -0.041176986148124033 0 -0.037232317575641695 -0.040812570511191804 0 -0.040543954680471936 -0.039466544060186501 0 -0.042150623901498277 -0.035209525280226653 0 -0.042230021007679946 -0.035089423709887907 0 -0.042224054158924024 -0.034967551684873845 0 -0.038787147251418241 -0.041176986148124033 0 -0.040543954680471936 -0.039466544060186501 0 -0.040175555194957226 -0.040945040012901834 0 -0.041820315381112631 -0.039901757997276827 0 -0.040543954680471936 -0.039466544060186501 0 -0.040175555194957226 -0.040945040012901834 0 -0.040635324430949013 -0.04182411695707302 0 -0.040175555194957226 -0.040945040012901834 0 -0.039433821734669194 -0.042524929372822019 0 -0.038423776789787825 -0.042517869024573642 0 -0.038787147251418241 -0.041176986148124033 0 -0.040175555194957226 -0.040945040012901834 0 -0.038423776789787825 -0.042517869024573642 0 -0.040175555194957226 -0.040945040012901834 0 -0.039433821734669194 -0.042524929372822019 0 -0.038423776789787825 -0.042517869024573642 0 -0.039433821734669194 -0.042524929372822019 0 -0.03855301207714399 -0.043522719698677208 0 -0.040635324430949013 -0.04182411695707302 0 -0.039433821734669194 -0.042524929372822019 0 -0.039485515430999533 -0.043204987510066815 0 -0.03855301207714399 -0.043522719698677208 0 -0.038585372996242526 -0.044101910479604989 0 -0.037770850832052012 -0.044790486950396641 0 -0.039433821734669194 -0.042524929372822019 0 -0.039485515430999533 -0.043204987510066815 0 -0.03855301207714399 -0.043522719698677208 0 -0.039485515430999533 -0.043204987510066815 0 -0.03855301207714399 -0.043522719698677208 0 -0.038585372996242526 -0.044101910479604989 0 -0.033573056032098779 -0.045000459273008227 0 -0.036503405846508533 -0.045601692764926906 0 -0.040006139231840522 -0.044998968207300059 0 -0.039242090978655067 -0.043932917855828188 0 -0.039485515430999533 -0.043204987510066815 0 -0.038585372996242526 -0.044101910479604989 0 -0.03855301207714399 -0.043522719698677208 0 -0.037764671149147978 -0.044215603009912105 0 -0.037770850832052012 -0.044790486950396641 0 -0.037764671149147978 -0.044215603009912105 0 -0.037460383132824529 -0.045151580298271654 0 -0.037514369706079388 -0.045132435490482938 0 -0.038423776789787825 -0.042517869024573642 0 -0.03855301207714399 -0.043522719698677208 0 -0.037764671149147978 -0.044215603009912105 0 -0.037764671149147978 -0.044215603009912105 0 -0.037460383132824529 -0.045151580298271654 0 -0.037770850832052012 -0.044790486950396641 0 -0.037460383132824529 -0.045151580298271654 0 -0.037770850832052012 -0.044790486950396641 0 -0.037198239556459352 -0.045425887556063298 0 -0.037770850832052012 -0.044790486950396641 0 -0.037198239556459352 -0.045425887556063298 0 -0.037207705690583938 -0.045344380814375772 0 -0.037460383132824529 -0.045151580298271654 0 -0.037198239556459352 -0.045425887556063298 0 -0.037347092650181324 -0.045500100167971208 0 -0.039242090978655067 -0.043932917855828188 0 -0.038585372996242526 -0.044101910479604989 0 -0.038057345301628458 -0.044813720403795297 0 -0.038585372996242526 -0.044101910479604989 0 -0.037770850832052012 -0.044790486950396641 0 -0.038057345301628458 -0.044813720403795297 0 -0.037770850832052012 -0.044790486950396641 0 -0.038057345301628458 -0.044813720403795297 0 -0.037207705690583938 -0.045344380814375772 0 -0.038057345301628458 -0.044813720403795297 0 -0.037208084428650152 -0.045367836897629216 0 -0.037207705690583938 -0.045344380814375772 0 -0.038016536896335669 -0.045273060472482057 0 -0.038057345301628458 -0.044813720403795297 0 -0.037208084428650152 -0.045367836897629216 0 -0.038016536896335669 -0.045273060472482057 0 -0.037208084428650152 -0.045367836897629216 0 -0.036559155243180645 -0.045575423747872254 0 -0.037208084428650152 -0.045367836897629216 0 -0.036559155243180645 -0.045575423747872254 0 -0.036574191987561948 -0.045595835997749488 0 -0.036559155243180645 -0.045575423747872254 0 -0.036574191987561948 -0.045595835997749488 0 -0.035862848331653756 -0.045618361247647864 0 -0.036559155243180645 -0.045575423747872254 0 -0.035724529023711302 -0.045570039607891383 0 -0.035862848331653756 -0.045618361247647864 0 -0.036843940526702493 -0.045679821063726977 0 -0.036559155243180645 -0.045575423747872254 0 -0.035724529023711302 -0.045570039607891383 0 -0.036574191987561948 -0.045595835997749488 0 -0.036776290011972274 -0.045616652764818237 0 -0.036171707694957402 -0.045663095403056166 0 -0.036574191987561948 -0.045595835997749488 0 -0.035862848331653756 -0.045618361247647864 0 -0.036171707694957402 -0.045663095403056166 0 -0.037208084428650152 -0.045367836897629216 0 -0.036574191987561948 -0.045595835997749488 0 -0.037207705690583938 -0.045344380814375772 0 -0.036574191987561948 -0.045595835997749488 0 -0.037207705690583938 -0.045344380814375772 0 -0.036776290011972274 -0.045616652764818237 0 -0.037198239556459352 -0.045425887556063298 0 -0.037207705690583938 -0.045344380814375772 0 -0.036776290011972274 -0.045616652764818237 0 -0.037198239556459352 -0.045425887556063298 0 -0.037043059989072279 -0.045618889862426182 0 -0.036776290011972274 -0.045616652764818237 0 -0.037198239556459352 -0.045425887556063298 0 -0.037043059989072279 -0.045618889862426182 0 -0.037347092650181324 -0.045500100167971208 0 -0.037043059989072279 -0.045618889862426182 0 -0.036776290011972274 -0.045616652764818237 0 -0.036503405846508533 -0.045601692764926906 0 -0.036776290011972274 -0.045616652764818237 0 -0.036503405846508533 -0.045601692764926906 0 -0.036171707694957402 -0.045663095403056166 0 -0.036503405846508533 -0.045601692764926906 0 -0.034128919863826844 -0.045286052153886647 0 -0.036171707694957402 -0.045663095403056166 0 -0.033573056032098779 -0.045000459273008227 0 -0.036503405846508533 -0.045601692764926906 0 -0.034128919863826844 -0.045286052153886647 0 -0.034128919863826844 -0.045286052153886647 0 -0.035724529023711302 -0.045570039607891383 0 -0.035862848331653756 -0.045618361247647864 0 -0.034128919863826844 -0.045286052153886647 0 -0.035862848331653756 -0.045618361247647864 0 -0.036171707694957402 -0.045663095403056166 0 -0.036503405846508533 -0.045601692764926906 0 -0.037804680523750613 -0.045680566939311558 0 -0.040006139231840522 -0.044998968207300059 0 -0.037804680523750613 -0.045680566939311558 0 -0.038619357312983063 -0.045670198959964013 0 -0.040006139231840522 -0.044998968207300059 0 -0.037043059989072279 -0.045618889862426182 0 -0.036503405846508533 -0.045601692764926906 0 -0.037804680523750613 -0.045680566939311558 0 -0.037043059989072279 -0.045618889862426182 0 -0.037804680523750613 -0.045680566939311558 0 -0.037347092650181324 -0.045500100167971208 0 -0.037804680523750613 -0.045680566939311558 0 -0.037347092650181324 -0.045500100167971208 0 -0.037787718929204385 -0.045618307348838497 0 -0.037804680523750613 -0.045680566939311558 0 -0.038619357312983063 -0.045670198959964013 0 -0.037787718929204385 -0.045618307348838497 0 -0.038619357312983063 -0.045670198959964013 0 -0.038373295075294522 -0.045828190780263303 0 -0.037787718929204385 -0.045618307348838497 0 -0.038373295075294522 -0.045828190780263303 0 -0.037708802571930156 -0.045324167511725418 0 -0.037787718929204385 -0.045618307348838497 0 -0.038373295075294522 -0.045828190780263303 0 -0.037708802571930156 -0.045324167511725418 0 -0.038225212185828535 -0.045714310420311072 0 -0.037347092650181324 -0.045500100167971208 0 -0.037787718929204385 -0.045618307348838497 0 -0.037514369706079388 -0.045132435490482938 0 -0.037708802571930156 -0.045324167511725418 0 -0.037787718929204385 -0.045618307348838497 0 -0.037514369706079388 -0.045132435490482938 0 -0.037460383132824529 -0.045151580298271654 0 -0.037347092650181324 -0.045500100167971208 0 -0.037514369706079388 -0.045132435490482938 0 -0.037764671149147978 -0.044215603009912105 0 -0.037514369706079388 -0.045132435490482938 0 -0.03742305491300392 -0.04456665760996141 0 -0.037708802571930156 -0.045324167511725418 0 -0.037514369706079388 -0.045132435490482938 0 -0.03742305491300392 -0.04456665760996141 0 -0.037441188380064092 -0.043075317764293214 0 -0.037764671149147978 -0.044215603009912105 0 -0.03742305491300392 -0.04456665760996141 0 -0.037112724757159044 -0.04430117224045256 0 -0.03775654674466003 -0.045194281594663377 0 -0.0385591535985488 -0.045999677000273353 0 -0.037708802571930156 -0.045324167511725418 0 -0.038225212185828535 -0.045714310420311072 0 -0.03775654674466003 -0.045194281594663377 0 -0.037708802571930156 -0.045324167511725418 0 -0.03742305491300392 -0.04456665760996141 0 -0.03775654674466003 -0.045194281594663377 0 -0.037112724757159044 -0.04430117224045256 0 -0.03742305491300392 -0.04456665760996141 0 -0.03775654674466003 -0.045194281594663377 0 -0.039365230959008457 -0.039791683483868336 0 -0.041764126798538609 -0.04173636376341263 0 -0.038225212185828535 -0.045714310420311072 0 -0.03775654674466003 -0.045194281594663377 0 -0.0385591535985488 -0.045999677000273353 0 -0.042086224610715088 -0.035598558704241237 0 -0.041576958070953247 -0.036154516685408887 0 -0.041672933322262275 -0.035660274697961056 0 -0.041764126798538609 -0.04173636376341263 0 -0.045513089574049391 -0.036720367264901223 0 -0.048999244241344206 -0.040654131682836291 0 -0.047492430174848443 -0.040210247932680285 0 -0.047916073627179957 -0.03860052766346412 0 -0.041764126798538609 -0.04173636376341263 0 -0.04475675562787048 -0.044177036539532123 0 -0.041303153241780542 -0.046468466589468807 0 -0.038898795960016989 -0.04622040904102917 0 -0.039993198092206993 -0.045781018660692965 0 -0.039306723032679083 -0.046955059691667668 0 -0.041303153241780542 -0.046468466589468807 0 -0.038898795960016989 -0.04622040904102917 0 -0.048999244241344206 -0.040654131682836291 0 -0.047719447554469413 -0.041790473179360119 0 -0.047492430174848443 -0.040210247932680285 0 -0.038373295075294522 -0.045828190780263303 0 -0.038898795960016989 -0.04622040904102917 0 -0.039993198092206993 -0.045781018660692965 0 -0.038225212185828535 -0.045714310420311072 0 -0.0385591535985488 -0.045999677000273353 0 -0.038898795960016989 -0.04622040904102917 0 -0.038373295075294522 -0.045828190780263303 0 -0.038225212185828535 -0.045714310420311072 0 -0.038898795960016989 -0.04622040904102917 0 -0.041764126798538609 -0.04173636376341263 0 -0.041149609590936005 -0.044823280701993956 0 -0.038619357312983063 -0.045670198959964013 0 -0.038373295075294522 -0.045828190780263303 0 -0.039993198092206993 -0.045781018660692965 0 -0.039993198092206993 -0.045781018660692965 0 -0.040006139231840522 -0.044998968207300059 0 -0.043228823740828627 -0.045625977672783341 0 -0.041303153241780542 -0.046468466589468807 0 -0.039993198092206993 -0.045781018660692965 0 -0.043228823740828627 -0.045625977672783341 0 -0.038619357312983063 -0.045670198959964013 0 -0.039993198092206993 -0.045781018660692965 0 -0.040006139231840522 -0.044998968207300059 0 -0.040006139231840522 -0.044998968207300059 0 -0.045002255365483662 -0.044994038982814594 0 -0.043228823740828627 -0.045625977672783341 0 -0.04499995001635481 -0.04428711549680945 0 -0.044779846322237193 -0.044292921337968041 0 -0.045002255365483662 -0.044994038982814594 0 -0.044995772104820371 -0.044297410784502812 0 -0.043228823740828627 -0.045625977672783341 0 -0.04475675562787048 -0.044177036539532123 0 -0.044779846322237193 -0.044292921337968041 0 -0.044999983031830046 -0.044287053103119568 0 -0.04640338815403422 -0.043010194575822988 0 -0.044999919065399581 -0.041984900403048725 0 -0.04640338815403422 -0.043010194575822988 0 -0.044999919065399581 -0.041984900403048725 0 -0.046318440105108584 -0.040850436121568516 0 -0.044999919065399581 -0.041984900403048725 0 -0.046318440105108584 -0.040850436121568516 0 -0.04499996618681415 -0.039683284378931039 0 -0.047719447554469413 -0.041790473179360119 0 -0.04640338815403422 -0.043010194575822988 0 -0.046318440105108584 -0.040850436121568516 0 -0.047719447554469413 -0.041790473179360119 0 -0.046318440105108584 -0.040850436121568516 0 -0.047492430174848443 -0.040210247932680285 0 -0.046318440105108584 -0.040850436121568516 0 -0.047492430174848443 -0.040210247932680285 0 -0.04648450889752332 -0.039175868300076633 0 -0.046318440105108584 -0.040850436121568516 0 -0.04499996618681415 -0.039683284378931039 0 -0.04648450889752332 -0.039175868300076633 0 -0.04500000313376544 -0.039682782344085635 0 -0.045790753238624582 -0.03861746061829905 0 -0.044999970218105874 -0.038337626601318051 0 -0.04500002677874293 -0.038337499365288949 0 -0.045632116981833795 -0.037609427938242644 0 -0.046328007936338109 -0.037902798776462097 0 -0.045000073647808086 -0.039682889821422533 0 -0.046792870797457337 -0.039057455796206592 0 -0.045000309857454762 -0.03833740134223803 0 -0.046407188939058035 -0.037898779648787725 0 -0.04500000313376544 -0.039682782344085635 0 -0.045790753238624582 -0.03861746061829905 0 -0.046523015578642524 -0.038969238636679442 0 -0.045790753238624582 -0.03861746061829905 0 -0.044999970218105874 -0.038337626601318051 0 -0.046324070519274257 -0.038007115664544698 0 -0.045790753238624582 -0.03861746061829905 0 -0.046324070519274257 -0.038007115664544698 0 -0.046523015578642524 -0.038969238636679442 0 -0.045632116981833795 -0.037609427938242644 0 -0.044999813234963597 -0.036044223629188667 0 -0.045913544090490352 -0.036448109869924264 0 -0.04500002677874293 -0.038337499365288949 0 -0.045632116981833795 -0.037609427938242644 0 -0.044999813234963597 -0.036044223629188667 0 -0.045632116981833795 -0.037609427938242644 0 -0.046548974402779907 -0.036906672842692008 0 -0.045913544090490352 -0.036448109869924264 0 -0.046548974402779907 -0.036906672842692008 0 -0.047832300619734078 -0.037531388653112001 0 -0.047001880249493748 -0.03592913308765773 0 -0.046407188939058035 -0.037898779648787725 0 -0.046547675507655602 -0.036211158641428792 0 -0.045632116981833795 -0.037609427938242644 0 -0.046548974402779907 -0.036906672842692008 0 -0.047832300619734078 -0.037531388653112001 0 -0.045632116981833795 -0.037609427938242644 0 -0.046328007936338109 -0.037902798776462097 0 -0.047636406492643994 -0.03752148513425408 0 -0.045496774883552998 -0.032500624655514079 0 -0.045450072314730444 -0.033060288481560479 0 -0.045855314778659693 -0.033327800332706846 0 -0.046547675507655602 -0.036211158641428792 0 -0.046313840326790985 -0.034426766253543725 0 -0.046237455689544328 -0.037844525389851447 0 -0.046547675507655602 -0.036211158641428792 0 -0.046324070519274257 -0.038007115664544698 0 -0.046523015578642524 -0.038969238636679442 0 -0.047564284447267062 -0.03765733181679104 0 -0.046523015578642524 -0.038969238636679442 0 -0.047936037609998934 -0.038348611636167151 0 -0.047564284447267062 -0.03765733181679104 0 -0.047492430174848443 -0.040210247932680285 0 -0.04648450889752332 -0.039175868300076633 0 -0.047916073627179957 -0.03860052766346412 0 -0.046792870797457337 -0.039057455796206592 0 -0.045513089574049391 -0.036720367264901223 0 -0.041576958070953247 -0.036154516685408887 0 -0.041284255967232293 -0.035518932476587647 0 -0.041672933322262275 -0.035660274697961056 0 -0.04187335087059655 -0.035229941543490198 0 -0.041284255967232293 -0.035518932476587647 0 -0.041672933322262275 -0.035660274697961056 0 -0.042344888031158781 -0.035231128415739263 0 -0.045465094147368296 -0.035187424718132923 0 -0.042344888031158781 -0.035231128415739263 0 -0.045513089574049391 -0.036720367264901223 0 -0.043386634306401196 -0.034508352828358006 0 -0.043630499372201002 -0.034695091258062562 0 -0.044571774233795283 -0.034455518357567466 0 -0.044133146312814724 -0.032806059266399221 0 -0.045354581428146107 -0.032527712521823897 0 -0.044847584603568531 -0.033077294384305171 0 -0.042785962803336942 -0.036088953582788991 0 -0.04521584464120141 -0.035113867417269649 0 -0.045381633514589896 -0.035959227287086171 0 -0.043834271514968826 -0.03360527671269186 0 -0.045465094147368296 -0.035187424718132923 0 -0.045513089574049391 -0.036720367264901223 0 -0.046547675507655602 -0.036211158641428792 0 -0.04521584464120141 -0.035113867417269649 0 -0.045640644386941216 -0.035889087817983813 0 -0.045381633514589896 -0.035959227287086171 0 -0.046547675507655602 -0.036211158641428792 0 -0.045465094147368296 -0.035187424718132923 0 -0.045354581428146107 -0.032527712521823897 0 -0.045450072314730444 -0.033060288481560479 0 -0.044847584603568531 -0.033077294384305171 0 -0.045496774883552998 -0.032500624655514079 0 -0.045354581428146107 -0.032527712521823897 0 -0.045450072314730444 -0.033060288481560479 0 -0.045450072314730444 -0.033060288481560479 0 -0.044994401118103752 -0.033469849109740393 0 -0.0456219916002178 -0.033722351599388543 0 -0.045450072314730444 -0.033060288481560479 0 -0.044847584603568531 -0.033077294384305171 0 -0.044994401118103752 -0.033469849109740393 0 -0.043520455425058273 -0.033504980617050574 0 -0.044133146312814724 -0.032806059266399221 0 -0.044213750221387779 -0.033549132433240515 0 -0.044133146312814724 -0.032806059266399221 0 -0.044847584603568531 -0.033077294384305171 0 -0.044213750221387779 -0.033549132433240515 0 -0.044847584603568531 -0.033077294384305171 0 -0.044994401118103752 -0.033469849109740393 0 -0.044213750221387779 -0.033549132433240515 0 -0.044994401118103752 -0.033469849109740393 0 -0.044213750221387779 -0.033549132433240515 0 -0.044747411081048252 -0.033945264434165165 0 -0.043400964696661076 -0.033938422217690785 0 -0.044213750221387779 -0.033549132433240515 0 -0.043814597596966369 -0.034033095918031657 0 -0.044213750221387779 -0.033549132433240515 0 -0.043814597596966369 -0.034033095918031657 0 -0.044747411081048252 -0.033945264434165165 0 -0.043771409632894998 -0.034417261499701847 0 -0.043814597596966369 -0.034033095918031657 0 -0.044747411081048252 -0.033945264434165165 0 -0.046113537249198963 -0.033322053403396591 0 -0.044747411081048252 -0.033945264434165165 0 -0.0456219916002178 -0.033722351599388543 0 -0.044994401118103752 -0.033469849109740393 0 -0.044747411081048252 -0.033945264434165165 0 -0.0456219916002178 -0.033722351599388543 0 -0.046113537249198963 -0.033322053403396591 0 -0.0456219916002178 -0.033722351599388543 0 -0.045931320653281003 -0.03415151873088184 0 -0.044999769502949594 -0.033750817154696355 0 -0.045803125695764897 -0.035399685620467435 0 -0.044999813234963597 -0.036044223629188667 0 -0.045931320653281003 -0.03415151873088184 0 -0.044999769502949594 -0.033750817154696355 0 -0.045803125695764897 -0.035399685620467435 0 -0.045931320653281003 -0.03415151873088184 0 -0.045803125695764897 -0.035399685620467435 0 -0.047001880249493748 -0.03592913308765773 0 -0.045803125695764897 -0.035399685620467435 0 -0.044999813234963597 -0.036044223629188667 0 -0.045913544090490352 -0.036448109869924264 0 -0.045803125695764897 -0.035399685620467435 0 -0.045913544090490352 -0.036448109869924264 0 -0.047001880249493748 -0.03592913308765773 0 -0.0456219916002178 -0.033722351599388543 0 -0.045931320653281003 -0.03415151873088184 0 -0.045855314778659693 -0.033327800332706846 0 -0.046045549107625684 -0.034230570933595383 0 -0.046313840326790985 -0.034426766253543725 0 -0.045450072314730444 -0.033060288481560479 0 -0.0456219916002178 -0.033722351599388543 0 -0.045855314778659693 -0.033327800332706846 0 -0.046548974402779907 -0.036906672842692008 0 -0.045913544090490352 -0.036448109869924264 0 -0.047001880249493748 -0.03592913308765773 0 -0.0005981180663004492 -0.042966242935462154 0 -0.0018516972341130374 -0.040752239739831574 0 0.00065324466114932732 -0.041004979866757087 0 -0.0005981180663004492 -0.042966242935462154 0 0.00065324466114932732 -0.041004979866757087 0 0.0017404862908677301 -0.042167926200493269 0 -0.0005981180663004492 -0.042966242935462154 0 0.0017404862908677301 -0.042167926200493269 0 0.0016350793456786092 -0.043702212992308864 0 -0.0005981180663004492 -0.042966242935462154 0 0.0016350793456786092 -0.043702212992308864 0 -0.00042794703395728336 -0.044321920422174602 0 -0.0005981180663004492 -0.042966242935462154 0 -0.00042794703395728336 -0.044321920422174602 0 -0.0034101426544511011 -0.044618392991451788 0 -0.0005981180663004492 -0.042966242935462154 0 -0.0052159116343970715 -0.043695728133183197 0 -0.0018516972341130374 -0.040752239739831574 0 -0.0005981180663004492 -0.042966242935462154 0 -0.0052159116343970715 -0.043695728133183197 0 -0.0034101426544511011 -0.044618392991451788 0 -0.0052159116343970715 -0.043695728133183197 0 -0.0034101426544511011 -0.044618392991451788 0 -0.0057006481880286534 -0.044890676205971362 0 -0.0052159116343970715 -0.043695728133183197 0 -0.0062546935270348658 -0.044551994643875194 0 -0.0064280814660443572 -0.044251530776345867 0 -0.0052164800784432466 -0.043640228063383836 0 -0.0040567389077141077 -0.042659820967786449 0 -0.0052159116343970715 -0.043695728133183197 0 -0.0062546935270348658 -0.044551994643875194 0 -0.0064848321266665317 -0.044578283717681431 0 -0.0062546935270348658 -0.044551994643875194 0 -0.0065459897932530773 -0.04501329825091293 0 -0.0064848321266665317 -0.044578283717681431 0 -0.0062546935270348658 -0.044551994643875194 0 -0.0065459897932530773 -0.04501329825091293 0 -0.0067984083297090454 -0.044926174512110534 0 -0.0065459897932530773 -0.04501329825091293 0 -0.0064848321266665317 -0.044578283717681431 0 -0.0065480288888558622 -0.045232556476726152 0 -0.0064848321266665317 -0.044578283717681431 0 -0.006466807243314816 -0.045049979912910619 0 -0.0065480288888558622 -0.045232556476726152 0 -0.0040567389077141077 -0.042659820967786449 0 -0.0033728941442487731 -0.042455351930480653 0 -0.0018516972341130374 -0.040752239739831574 0 0.00065324466114932732 -0.041004979866757087 0 0.00055754395882857413 -0.039465484926528661 0 0.00055754395882857413 -0.039465484926528661 0 0.0023489100858295688 -0.039245902929380454 0 0.002339312407981969 -0.038514625784374833 0 -0.0033728941442487731 -0.042455351930480653 0 -0.00013260537897118112 -0.041180091581594074 0 0.00055754395882857413 -0.039465484926528661 0 0.0023489100858295688 -0.039245902929380454 0 0.0016504138565646149 -0.040165981915914001 0 0.0023489100858295688 -0.039245902929380454 0 0.0031122626807101 -0.039647708169393545 0 0.0026702055128999739 -0.040267095646405043 0 0.0023489100858295688 -0.039245902929380454 0 0.0026702055128999739 -0.040267095646405043 0 0.0016504138565646149 -0.040165981915914001 0 0.0023489100858295688 -0.039245902929380454 0 0.0033271154353241234 -0.03898344378259485 0 0.0031122626807101 -0.039647708169393545 0 0.0026702055128999739 -0.040267095646405043 0 0.0019626254154809456 -0.040988132006544067 0 0.0030052414756480848 -0.041390525097675886 0 0.0026702055128999739 -0.040267095646405043 0 0.0033688268622168185 -0.040702085982842202 0 0.0030052414756480848 -0.041390525097675886 0 0.0026702055128999739 -0.040267095646405043 0 0.0033688268622168185 -0.040702085982842202 0 0.0037566535752837811 -0.040137805390329316 0 0.0031122626807101 -0.039647708169393545 0 0.0026702055128999739 -0.040267095646405043 0 0.0037566535752837811 -0.040137805390329316 0 0.00065324466114932732 -0.041004979866757087 0 0.00055754395882857413 -0.039465484926528661 0 0.0016504138565646149 -0.040165981915914001 0 0.0026702055128999739 -0.040267095646405043 0 0.0019626254154809456 -0.040988132006544067 0 0.0016504138565646149 -0.040165981915914001 0 0.00065324466114932732 -0.041004979866757087 0 0.0019626254154809456 -0.040988132006544067 0 0.0016504138565646149 -0.040165981915914001 0 0.0063862103712473859 -0.040640713547656068 0 0.0059009259722464392 -0.039876809124206589 0 0.0066661993947210816 -0.040061439642215334 0 0.0060227665148771216 -0.039869079011570191 0 0.0052528565886038161 -0.03948062798957442 0 0.0042020670512591084 -0.039587646415678454 0 0.0054299047086780418 -0.03997900781015918 0 0.0045165317687116636 -0.038920127158404108 0 0.0031122626807101 -0.039647708169393545 0 0.0042020670512591084 -0.039587646415678454 0 0.0037566535752837811 -0.040137805390329316 0 0.0033271154353241234 -0.03898344378259485 0 0.0031122626807101 -0.039647708169393545 0 0.0042020670512591084 -0.039587646415678454 0 0.0033271154353241234 -0.03898344378259485 0 0.0042020670512591084 -0.039587646415678454 0 0.0045165317687116636 -0.038920127158404108 0 0.0033688268622168185 -0.040702085982842202 0 0.0037566535752837811 -0.040137805390329316 0 0.0041388908386013595 -0.040894092285082811 0 0.0037566535752837811 -0.040137805390329316 0 0.0045917303559482149 -0.040271508368578672 0 0.0041388908386013595 -0.040894092285082811 0 0.0042020670512591084 -0.039587646415678454 0 0.0037566535752837811 -0.040137805390329316 0 0.0045917303559482149 -0.040271508368578672 0 0.0042020670512591084 -0.039587646415678454 0 0.0045917303559482149 -0.040271508368578672 0 0.0054299047086780418 -0.03997900781015918 0 0.0045917303559482149 -0.040271508368578672 0 0.0052114706292815376 -0.040856861158900193 0 0.0041388908386013595 -0.040894092285082811 0 0.0045917303559482149 -0.040271508368578672 0 0.0054299047086780418 -0.03997900781015918 0 0.0052114706292815376 -0.040856861158900193 0 0.0058828237827570637 -0.039336392929919049 0 0.0052114706292815376 -0.040856861158900193 0 0.0062553923822701732 -0.039935245368356069 0 0.0060227665148771216 -0.039869079011570191 0 0.0052434667395315398 -0.040712675880105693 0 0.0052114706292815376 -0.040856861158900193 0 0.0057079009221909054 -0.04200475395100995 0 0.0063152078784145518 -0.041080878344794805 0 0.0052114706292815376 -0.040856861158900193 0 0.0043040687446321132 -0.041862821934067138 0 0.0057079009221909054 -0.04200475395100995 0 0.0052114706292815376 -0.040856861158900193 0 0.0062553923822701732 -0.039935245368356069 0 0.0063152078784145518 -0.041080878344794805 0 0.0033688268622168185 -0.040702085982842202 0 0.0041388908386013595 -0.040894092285082811 0 0.0030052414756480848 -0.041390525097675886 0 0.0043040687446321132 -0.041862821934067138 0 0.0041388908386013595 -0.040894092285082811 0 0.0030052414756480848 -0.041390525097675886 0 0.0052114706292815376 -0.040856861158900193 0 0.0043040687446321132 -0.041862821934067138 0 0.0041388908386013595 -0.040894092285082811 0 0.0043040687446321132 -0.041862821934067138 0 0.0035427856579547711 -0.042953548955599261 0 0.005167807545908276 -0.042897267992160239 0 0.0043040687446321132 -0.041862821934067138 0 0.0030052414756480848 -0.041390525097675886 0 0.0035427856579547711 -0.042953548955599261 0 0.0057079009221909054 -0.04200475395100995 0 0.005167807545908276 -0.042897267992160239 0 0.0064263096605548329 -0.043180955302954765 0 0.0043040687446321132 -0.041862821934067138 0 0.0057079009221909054 -0.04200475395100995 0 0.005167807545908276 -0.042897267992160239 0 0.0019626254154809456 -0.040988132006544067 0 0.0017404862908677301 -0.042167926200493269 0 0.0030052414756480848 -0.041390525097675886 0 0.00065324466114932732 -0.041004979866757087 0 0.0019626254154809456 -0.040988132006544067 0 0.0017404862908677301 -0.042167926200493269 0 0.0017404862908677301 -0.042167926200493269 0 0.0030052414756480848 -0.041390525097675886 0 0.0035427856579547711 -0.042953548955599261 0 0.0017404862908677301 -0.042167926200493269 0 0.0035427856579547711 -0.042953548955599261 0 0.0016350793456786092 -0.043702212992308864 0 0.0035427856579547711 -0.042953548955599261 0 0.0016350793456786092 -0.043702212992308864 0 0.0035597987408292702 -0.044251225657568734 0 0.0017407202510205187 -0.043670198534336541 0 0.0031272828271207876 -0.044290735795942303 0 0.0027712096467958996 -0.044392567860914313 0 0.0018404603493635257 -0.045059122288215112 0 0.0028464633881999965 -0.045195814882345205 0 0.0016350793456786092 -0.043702212992308864 0 0.0027712096467958996 -0.044392567860914313 0 0.0018404603493635257 -0.045059122288215112 0 0.0016350793456786092 -0.043702212992308864 0 0.0018404603493635257 -0.045059122288215112 0 0.00062963172971929721 -0.044842522899834945 0 0.005167807545908276 -0.042897267992160239 0 0.0049050769449302707 -0.043899261823861654 0 0.0064263096605548329 -0.043180955302954765 0 0.0035427856579547711 -0.042953548955599261 0 0.005167807545908276 -0.042897267992160239 0 0.0049050769449302707 -0.043899261823861654 0 0.0035427856579547711 -0.042953548955599261 0 0.0035597987408292702 -0.044251225657568734 0 0.0049050769449302707 -0.043899261823861654 0 0.0031272828271207876 -0.044290735795942303 0 0.0045206541954095746 -0.044656813196241554 0 0.0035597987408292702 -0.044251225657568734 0 0.0049050769449302707 -0.043899261823861654 0 0.0051609444956386662 -0.044641644078609856 0 0.0049050769449302707 -0.043899261823861654 0 0.0051609444956386662 -0.044641644078609856 0 0.0062126349077983797 -0.044110908834791664 0 0.0049050769449302707 -0.043899261823861654 0 0.0062126349077983797 -0.044110908834791664 0 0.0064263096605548329 -0.043180955302954765 0 0.0045206541954095746 -0.044656813196241554 0 0.0057935953159293186 -0.044979266491704847 0 0.0051609444956386662 -0.044641644078609856 0 0.0062845154982036555 -0.044986812482305613 0 0.0062126349077983797 -0.044110908834791664 0 0.0038849663827542433 -0.044669131118154119 0 0.003593764284582213 -0.045565631869581881 0 0.0028464633881999965 -0.045195814882345205 0 0.0027712096467958996 -0.044392567860914313 0 0.0038849663827542433 -0.044669131118154119 0 0.0028464633881999965 -0.045195814882345205 0 0.0038849663827542433 -0.044669131118154119 0 0.003593764284582213 -0.045565631869581881 0 0.0052506035914394707 -0.04490613430426442 0 0.0018404603493635257 -0.045059122288215112 0 0.0020990995509918508 -0.045913087174665052 0 0.00083076244497847667 -0.045613969417047928 0 0.0018404603493635257 -0.045059122288215112 0 0.0028464633881999965 -0.045195814882345205 0 0.0020990995509918508 -0.045913087174665052 0 0.003593764284582213 -0.045565631869581881 0 0.0028464633881999965 -0.045195814882345205 0 0.0020990995509918508 -0.045913087174665052 0 0.0019332090262651571 -0.045966549049051897 0 0.00067166734543787918 -0.045879219734588188 0 0.0011581280625973195 -0.046193294916024336 0 0.0017186197353073114 -0.045945045865882723 0 0.0006856432941036055 -0.046147779481249082 0 0.0017186197353073114 -0.045945045865882723 0 0.0006856432941036055 -0.046147779481249082 0 0.00066564669318292273 -0.046163553578565719 0 0.0006856432941036055 -0.046147779481249082 0 0.00066189908801723703 -0.046197654747865184 0 0.00023914068428637574 -0.046151247895351175 0 0.00066189908801723703 -0.046197654747865184 0 0.00023914068428637574 -0.046151247895351175 0 0.00048336160890273219 -0.046196795813068861 0 0.0011581280625973195 -0.046193294916024336 0 0.0006856432941036055 -0.046147779481249082 0 0.00066189908801723703 -0.046197654747865184 0 0.0009942124318384237 -0.04517622726125109 0 -0.0042110484273822149 -0.043074815003860942 0 -0.00096358433738592375 -0.047541249441050377 0 -0.0042110484273822149 -0.043074815003860942 0 0.00023914068428637574 -0.046151247895351175 0 0.00066564669318292273 -0.046163553578565719 0 -0.00054686538535669643 -0.046072129296472739 0 0.0006856432941036055 -0.046147779481249082 0 0.00023914068428637574 -0.046151247895351175 0 0.00066564669318292273 -0.046163553578565719 0 -0.001481738951287578 -0.048225712964497916 0 -0.00054686538535669643 -0.046072129296472739 0 -0.0024139878582854616 -0.047362268986301186 0 -0.00096358433738592375 -0.047541249441050377 0 -0.00041645589122762521 -0.04602521450907212 0 0.0018404603493635257 -0.045059122288215112 0 0.00083076244497847667 -0.045613969417047928 0 0.00062963172971929721 -0.044842522899834945 0 0.00083076244497847667 -0.045613969417047928 0 0.00062963172971929721 -0.044842522899834945 0 -0.0012572573157007677 -0.045343414119186666 0 0.00066564669318292273 -0.046163553578565719 0 -0.00054686538535669643 -0.046072129296472739 0 -0.0012572573157007677 -0.045343414119186666 0 0.00067166734543787918 -0.045879219734588188 0 -0.0010521871846328602 -0.045267598665274307 0 -0.00054686538535669643 -0.046072129296472739 0 -0.0012572573157007677 -0.045343414119186666 0 -0.0024662191668106412 -0.046339039151069628 0 -0.0012572573157007677 -0.045343414119186666 0 -0.00042794703395728336 -0.044321920422174602 0 -0.0034101426544511011 -0.044618392991451788 0 0.00062963172971929721 -0.044842522899834945 0 -0.0012572573157007677 -0.045343414119186666 0 -0.00042794703395728336 -0.044321920422174602 0 0.0016350793456786092 -0.043702212992308864 0 0.00062963172971929721 -0.044842522899834945 0 -0.00042794703395728336 -0.044321920422174602 0 -0.0045501249594007108 -0.045936539654190374 0 -0.0058025308532583357 -0.046346412842106867 0 -0.0057006481880286534 -0.044890676205971362 0 -0.0034101426544511011 -0.044618392991451788 0 -0.0045501249594007108 -0.045936539654190374 0 -0.0057006481880286534 -0.044890676205971362 0 -0.0034101426544511011 -0.044618392991451788 0 -0.0029121937437378534 -0.04546925080028251 0 -0.0045501249594007108 -0.045936539654190374 0 -0.0012572573157007677 -0.045343414119186666 0 -0.0034101426544511011 -0.044618392991451788 0 -0.0029121937437378534 -0.04546925080028251 0 -0.0029121937437378534 -0.04546925080028251 0 -0.0024662191668106412 -0.046339039151069628 0 -0.0045501249594007108 -0.045936539654190374 0 -0.0024662191668106412 -0.046339039151069628 0 -0.0045501249594007108 -0.045936539654190374 0 -0.0036687047560977743 -0.047182459787322148 0 -0.0012572573157007677 -0.045343414119186666 0 -0.0029121937437378534 -0.04546925080028251 0 -0.0024662191668106412 -0.046339039151069628 0 -0.00054686538535669643 -0.046072129296472739 0 -0.0024662191668106412 -0.046339039151069628 0 -0.0024139878582854616 -0.047362268986301186 0 -0.0045501249594007108 -0.045936539654190374 0 -0.0046142147858927582 -0.047060430503388678 0 -0.0055285104411277458 -0.047242339480955332 0 -0.0045501249594007108 -0.045936539654190374 0 -0.0046142147858927582 -0.047060430503388678 0 -0.0036687047560977743 -0.047182459787322148 0 -0.0045301054684714192 -0.045828725735200727 0 -0.0056542922565944046 -0.048241311004010544 0 -0.0046142147858927582 -0.047060430503388678 0 -0.0046934253130872447 -0.048004279689797709 0 -0.0055285104411277458 -0.047242339480955332 0 -0.0046142147858927582 -0.047060430503388678 0 -0.0036687047560977743 -0.047182459787322148 0 -0.0046934253130872447 -0.048004279689797709 0 -0.0036687047560977743 -0.047182459787322148 0 -0.0046934253130872447 -0.048004279689797709 0 -0.0031637029129040046 -0.048387490708431451 0 -0.0024662191668106412 -0.046339039151069628 0 -0.0036687047560977743 -0.047182459787322148 0 -0.0024139878582854616 -0.047362268986301186 0 -0.0036687047560977743 -0.047182459787322148 0 -0.0024139878582854616 -0.047362268986301186 0 -0.0031637029129040046 -0.048387490708431451 0 -0.001481738951287578 -0.048225712964497916 0 -0.0024139878582854616 -0.047362268986301186 0 -0.0031637029129040046 -0.048387490708431451 0 -0.0042110484273822149 -0.043074815003860942 0 -0.0087184239088203223 -0.042392008660033231 0 -0.011715002122645139 -0.036053567680333451 0 -0.01130487555457086 -0.035869483714958378 0 -0.011968650377647246 -0.035725365897663952 0 -0.0031637029129040046 -0.048387490708431451 0 -0.0021901651101933761 -0.049718029206525599 0 -0.0045992075652163261 -0.049236639967094237 0 -0.001481738951287578 -0.048225712964497916 0 -0.0031637029129040046 -0.048387490708431451 0 -0.0021901651101933761 -0.049718029206525599 0 -0.0046934253130872447 -0.048004279689797709 0 -0.0031637029129040046 -0.048387490708431451 0 -0.0045992075652163261 -0.049236639967094237 0 -0.0087184239088203223 -0.042392008660033231 0 -0.010055873017950086 -0.042552610603531944 0 -0.012487086760092688 -0.036066008185008665 0 -0.011968650377647246 -0.035725365897663952 0 -0.01261900087891674 -0.035636127639587012 0 -0.0046934253130872447 -0.048004279689797709 0 -0.0045992075652163261 -0.049236639967094237 0 -0.0067650503498397655 -0.048810095127863169 0 -0.0046934253130872447 -0.048004279689797709 0 -0.0055285104411277458 -0.047242339480955332 0 -0.0067650503498397655 -0.048810095127863169 0 -0.0056542922565944046 -0.048241311004010544 0 -0.010055873017950086 -0.042552610603531944 0 -0.0056929927795457613 -0.047709401322535899 0 -0.0067032154713323302 -0.048976300018366649 0 -0.0063152823556985272 -0.047275117304341849 0 -0.007416538996868405 -0.04796838262740296 0 -0.0067032154713323302 -0.048976300018366649 0 -0.0063152823556985272 -0.047275117304341849 0 -0.007416538996868405 -0.04796838262740296 0 -0.0067032154713323302 -0.048976300018366649 0 -0.0085059966089987681 -0.04867646249048007 0 -0.0073092571130058664 -0.048206976622519722 0 -0.0081500407687972957 -0.047791664454327983 0 -0.0071806714478525263 -0.047256410254971425 0 -0.0073843810921591256 -0.048063916795758332 0 -0.006446454227238589 -0.047396033958290736 0 -0.010055873017950086 -0.042552610603531944 0 -0.010100246733979251 -0.046316377186340844 0 -0.013461900700979921 -0.035855568242585963 0 -0.010055873017950086 -0.042552610603531944 0 -0.013972599612534815 -0.037111723698410481 0 -0.014158612548685688 -0.03748449596889035 0 -0.013856728975803576 -0.03730710871653875 0 -0.014158612548685688 -0.03748449596889035 0 -0.013856728975803576 -0.03730710871653875 0 -0.013772218887062124 -0.037529845480637813 0 -0.01369261953984933 -0.037194714560310517 0 -0.013856728975803576 -0.03730710871653875 0 -0.013682415647203777 -0.037302466899296144 0 -0.013856728975803576 -0.03730710871653875 0 -0.013772218887062124 -0.037529845480637813 0 -0.013682415647203777 -0.037302466899296144 0 -0.010100246733979251 -0.046316377186340844 0 -0.0089868436326913399 -0.047146854176287049 0 -0.01016593432788067 -0.050076583877537051 0 -0.0098441787389148844 -0.049241518869492795 0 -0.008871762713444406 -0.04897441393053735 0 -0.01016593432788067 -0.050076583877537051 0 -0.0084891318843319172 -0.049032697459589505 0 -0.008871762713444406 -0.04897441393053735 0 -0.01339863018224622 -0.037182970130277743 0 -0.013772218887062124 -0.037529845480637813 0 -0.013682415647203777 -0.037302466899296144 0 -0.01339863018224622 -0.037182970130277743 0 -0.01369261953984933 -0.037194714560310517 0 -0.013682415647203777 -0.037302466899296144 0 -0.01334234141236307 -0.039729682659694607 0 -0.010100246733979251 -0.046316377186340844 0 -0.0098441787389148844 -0.049241518869492795 0 -0.0097668827505039777 -0.048360302576082349 0 -0.010383081411798913 -0.04818367148253698 0 -0.0098441787389148844 -0.049241518869492795 0 -0.009403580618822089 -0.04874169499610348 0 -0.0097668827505039777 -0.048360302576082349 0 -0.009403580618822089 -0.04874169499610348 0 -0.0090614146632020821 -0.048182686888591057 0 -0.008871762713444406 -0.04897441393053735 0 -0.0098441787389148844 -0.049241518869492795 0 -0.009403580618822089 -0.04874169499610348 0 -0.008871762713444406 -0.04897441393053735 0 -0.009403580618822089 -0.04874169499610348 0 -0.0090614146632020821 -0.048182686888591057 0 -0.0097668827505039777 -0.048360302576082349 0 -0.0090614146632020821 -0.048182686888591057 0 -0.0097668827505039777 -0.048360302576082349 0 -0.0098390390053089936 -0.0476316430777627 0 -0.0097668827505039777 -0.048360302576082349 0 -0.0098390390053089936 -0.0476316430777627 0 -0.010383081411798913 -0.04818367148253698 0 -0.0073843810921591256 -0.048063916795758332 0 -0.010100246733979251 -0.046316377186340844 0 -0.0073092571130058664 -0.048206976622519722 0 -0.0084051133748074321 -0.049044490488290203 0 -0.0083608438848041134 -0.048436933180662584 0 -0.0090614146632020821 -0.048182686888591057 0 -0.008871762713444406 -0.04897441393053735 0 -0.0083608438848041134 -0.048436933180662584 0 -0.0084051133748074321 -0.049044490488290203 0 -0.008871762713444406 -0.04897441393053735 0 -0.0083608438848041134 -0.048436933180662584 0 -0.0090614146632020821 -0.048182686888591057 0 -0.0083608438848041134 -0.048436933180662584 0 -0.0081500407687972957 -0.047791664454327983 0 -0.0073092571130058664 -0.048206976622519722 0 -0.0083608438848041134 -0.048436933180662584 0 -0.0081500407687972957 -0.047791664454327983 0 -0.0081500407687972957 -0.047791664454327983 0 -0.0087535974616142799 -0.047083152779456128 0 -0.0074451756941742329 -0.046435593995457089 0 -0.0090614146632020821 -0.048182686888591057 0 -0.0081500407687972957 -0.047791664454327983 0 -0.0087535974616142799 -0.047083152779456128 0 -0.0090614146632020821 -0.048182686888591057 0 -0.0087535974616142799 -0.047083152779456128 0 -0.0098390390053089936 -0.0476316430777627 0 -0.0087535974616142799 -0.047083152779456128 0 -0.0098390390053089936 -0.0476316430777627 0 -0.0097970338760882663 -0.046669766161052242 0 -0.0097970338760882663 -0.046669766161052242 0 -0.0099398459164623254 -0.045699399240342699 0 -0.008416880786872017 -0.04555982627271131 0 -0.0087535974616142799 -0.047083152779456128 0 -0.0097970338760882663 -0.046669766161052242 0 -0.008416880786872017 -0.04555982627271131 0 -0.0087535974616142799 -0.047083152779456128 0 -0.0074451756941742329 -0.046435593995457089 0 -0.008416880786872017 -0.04555982627271131 0 -0.0074451756941742329 -0.046435593995457089 0 -0.0069335273670325858 -0.045055374289806931 0 -0.008416880786872017 -0.04555982627271131 0 -0.0074451756941742329 -0.046435593995457089 0 -0.006471108894883411 -0.045824850955542694 0 -0.0069335273670325858 -0.045055374289806931 0 -0.0074451756941742329 -0.046435593995457089 0 -0.006471108894883411 -0.045824850955542694 0 -0.0067009692777807214 -0.046621661860204153 0 -0.006471108894883411 -0.045824850955542694 0 -0.0058025308532583357 -0.046346412842106867 0 -0.0057006481880286534 -0.044890676205971362 0 -0.006471108894883411 -0.045824850955542694 0 -0.0057006481880286534 -0.044890676205971362 0 -0.0069335273670325858 -0.045055374289806931 0 -0.0045501249594007108 -0.045936539654190374 0 -0.0056929927795457613 -0.047709401322535899 0 -0.0058025308532583357 -0.046346412842106867 0 -0.0058025308532583357 -0.046346412842106867 0 -0.0063152823556985272 -0.047275117304341849 0 -0.0067009692777807214 -0.046621661860204153 0 -0.006471108894883411 -0.045824850955542694 0 -0.0058025308532583357 -0.046346412842106867 0 -0.0067009692777807214 -0.046621661860204153 0 -0.0056929927795457613 -0.047709401322535899 0 -0.0058025308532583357 -0.046346412842106867 0 -0.0063152823556985272 -0.047275117304341849 0 -0.0073092571130058664 -0.048206976622519722 0 -0.0063152823556985272 -0.047275117304341849 0 -0.0071806714478525263 -0.047256410254971425 0 -0.0063152823556985272 -0.047275117304341849 0 -0.0071806714478525263 -0.047256410254971425 0 -0.0067009692777807214 -0.046621661860204153 0 -0.0081500407687972957 -0.047791664454327983 0 -0.0074451756941742329 -0.046435593995457089 0 -0.0071806714478525263 -0.047256410254971425 0 -0.0074451756941742329 -0.046435593995457089 0 -0.0071806714478525263 -0.047256410254971425 0 -0.0067009692777807214 -0.046621661860204153 0 -0.022615703656058053 -0.033385734357864454 0 -0.023800513089154825 -0.032932419549191697 0 -0.023591958880647221 -0.034008673446579069 0 -0.022615703656058053 -0.033385734357864454 0 -0.022824608727748271 -0.032144673443733299 0 -0.023800513089154825 -0.032932419549191697 0 -0.022824608727748271 -0.032144673443733299 0 -0.023823648167659119 -0.031458350090614179 0 -0.023800513089154825 -0.032932419549191697 0 -0.021663525421489999 -0.031029466473045345 0 -0.024118768781245227 -0.03145834105640611 0 -0.022264364680722407 -0.03112748536588256 0 -0.022824608727748271 -0.032144673443733299 0 -0.023823648167659119 -0.031458350090614179 0 -0.02475041342507622 -0.030675363211974522 0 -0.023823648167659119 -0.031458350090614179 0 -0.025364461023722078 -0.031976256558104467 0 -0.023823648167659119 -0.031458350090614179 0 -0.023800513089154825 -0.032932419549191697 0 -0.025364461023722078 -0.031976256558104467 0 -0.021528428092829181 -0.035751623543151326 0 -0.021328903717895798 -0.035699087346833143 0 -0.023800513089154825 -0.032932419549191697 0 -0.025364461023722078 -0.031976256558104467 0 -0.02473278758195082 -0.033663351864539712 0 -0.018134044437469146 -0.036765930746457183 0 -0.018638533381054929 -0.037778386337137863 0 -0.017840117101482575 -0.038279954928674267 0 -0.022102934644635631 -0.025656495504852397 0 -0.021528428092829181 -0.035751623543151326 0 -0.01016593432788067 -0.050076583877537051 0 -0.0098441787389148844 -0.049241518869492795 0 -0.011158723847996498 -0.048529322214044116 0 -0.01334234141236307 -0.039729682659694607 0 -0.015161622526900911 -0.043617304498846876 0 -0.019620595899424234 -0.035799057972175627 0 -0.018134044437469146 -0.036765930746457183 0 -0.018638533381054929 -0.037778386337137863 0 -0.019620595899424234 -0.035799057972175627 0 -0.018828906167050796 -0.035746690454637645 0 -0.018134044437469146 -0.036765930746457183 0 -0.0098441787389148844 -0.049241518869492795 0 -0.011158723847996498 -0.048529322214044116 0 -0.010383081411798913 -0.04818367148253698 0 -0.011158723847996498 -0.048529322214044116 0 -0.010383081411798913 -0.04818367148253698 0 -0.010726407045825162 -0.047400441755026931 0 -0.0098390390053089936 -0.0476316430777627 0 -0.010383081411798913 -0.04818367148253698 0 -0.010726407045825162 -0.047400441755026931 0 -0.0098390390053089936 -0.0476316430777627 0 -0.0097970338760882663 -0.046669766161052242 0 -0.010726407045825162 -0.047400441755026931 0 -0.0097970338760882663 -0.046669766161052242 0 -0.010726407045825162 -0.047400441755026931 0 -0.01103575273453204 -0.046346690468243232 0 -0.010726407045825162 -0.047400441755026931 0 -0.01103575273453204 -0.046346690468243232 0 -0.012958424002645632 -0.046351873595082999 0 -0.0097970338760882663 -0.046669766161052242 0 -0.01103575273453204 -0.046346690468243232 0 -0.0099398459164623254 -0.045699399240342699 0 -0.011116753741358865 -0.047051245538910699 0 -0.012334224891934108 -0.045899176325858444 0 -0.010726407045825162 -0.047400441755026931 0 -0.01288456354034114 -0.045936457024638722 0 -0.012722986359004601 -0.044426316499165883 0 -0.011158723847996498 -0.048529322214044116 0 -0.010726407045825162 -0.047400441755026931 0 -0.01288456354034114 -0.045936457024638722 0 -0.018638533381054929 -0.037778386337137863 0 -0.017894008547714609 -0.039306167087256642 0 -0.017840117101482575 -0.038279954928674267 0 -0.017894008547714609 -0.039306167087256642 0 -0.017840117101482575 -0.038279954928674267 0 -0.017589336179433961 -0.039506443209125129 0 -0.015161622526900911 -0.043617304498846876 0 -0.014812850260835354 -0.043063754961279455 0 -0.021328903717895798 -0.035699087346833143 0 -0.020900992121963228 -0.037072441259736862 0 -0.023800513089154825 -0.032932419549191697 0 -0.02473278758195082 -0.033663351864539712 0 -0.023591958880647221 -0.034008673446579069 0 -0.02473278758195082 -0.033663351864539712 0 -0.023591958880647221 -0.034008673446579069 0 -0.023974163197558646 -0.035006153326938738 0 -0.023591958880647221 -0.034008673446579069 0 -0.023974163197558646 -0.035006153326938738 0 -0.022737438979119125 -0.034656496890492321 0 -0.017894008547714609 -0.039306167087256642 0 -0.017589336179433961 -0.039506443209125129 0 -0.017358289937026216 -0.040522969633123011 0 -0.023974163197558646 -0.035006153326938738 0 -0.022737438979119125 -0.034656496890492321 0 -0.023143488568305299 -0.035455851594831743 0 -0.022062047140311285 -0.035392880458346487 0 -0.022737438979119125 -0.034656496890492321 0 -0.022496505169142113 -0.035644283440331506 0 -0.022737438979119125 -0.034656496890492321 0 -0.022496505169142113 -0.035644283440331506 0 -0.023143488568305299 -0.035455851594831743 0 -0.022250567961553374 -0.034114248829245679 0 -0.022615703656058053 -0.033385734357864454 0 -0.022737438979119125 -0.034656496890492321 0 -0.022615703656058053 -0.033385734357864454 0 -0.023591958880647221 -0.034008673446579069 0 -0.022737438979119125 -0.034656496890492321 0 -0.022622366638553278 -0.03670941341896139 0 -0.023026892755897241 -0.036562407502625495 0 -0.021631634061564067 -0.03719432212754932 0 -0.021893816062692039 -0.036625411133643128 0 -0.022035873561825067 -0.036799700050685294 0 -0.021767945982619802 -0.036974873410374746 0 -0.021893816062692039 -0.036625411133643128 0 -0.022035873561825067 -0.036799700050685294 0 -0.02240890272784081 -0.036403187200847585 0 -0.022035873561825067 -0.036799700050685294 0 -0.022622366638553278 -0.03670941341896139 0 -0.02240890272784081 -0.036403187200847585 0 -0.022622366638553278 -0.03670941341896139 0 -0.02240890272784081 -0.036403187200847585 0 -0.023272907157487088 -0.036110482957772659 0 -0.02240890272784081 -0.036403187200847585 0 -0.022670820334881624 -0.035954197707398335 0 -0.023272907157487088 -0.036110482957772659 0 -0.02240890272784081 -0.036403187200847585 0 -0.022152016545108105 -0.036147966712189387 0 -0.022670820334881624 -0.035954197707398335 0 -0.021893816062692039 -0.036625411133643128 0 -0.02240890272784081 -0.036403187200847585 0 -0.022152016545108105 -0.036147966712189387 0 -0.022152016545108105 -0.036147966712189387 0 -0.022496505169142113 -0.035644283440331506 0 -0.022670820334881624 -0.035954197707398335 0 -0.022496505169142113 -0.035644283440331506 0 -0.022670820334881624 -0.035954197707398335 0 -0.023143488568305299 -0.035455851594831743 0 -0.018615227884502497 -0.040095783901048031 0 -0.012334224891934108 -0.045899176325858444 0 -0.020900992121963228 -0.037072441259736862 0 -0.019268964754707817 -0.039178611933387383 0 -0.023974163197558646 -0.035006153326938738 0 -0.023272907157487088 -0.036110482957772659 0 -0.023143488568305299 -0.035455851594831743 0 -0.016807066540636153 -0.043430762637864641 0 -0.013423625776762347 -0.044062080621023736 0 -0.012958424002645632 -0.046351873595082999 0 -0.01288456354034114 -0.045936457024638722 0 -0.014855522729742323 -0.042345761587216049 0 -0.012722986359004601 -0.044426316499165883 0 -0.014812850260835354 -0.043063754961279455 0 -0.019268964754707817 -0.039178611933387383 0 -0.022670820334881624 -0.035954197707398335 0 -0.023272907157487088 -0.036110482957772659 0 -0.023143488568305299 -0.035455851594831743 0 -0.014855522729742323 -0.042345761587216049 0 -0.01525288654713108 -0.041073303909779126 0 -0.012722986359004601 -0.044426316499165883 0 -0.016807066540636153 -0.043430762637864641 0 -0.015101921441240847 -0.042919953926196346 0 -0.013423625776762347 -0.044062080621023736 0 -0.022622366638553278 -0.03670941341896139 0 -0.023386872154052191 -0.036118624981841346 0 -0.023026892755897241 -0.036562407502625495 0 -0.019268964754707817 -0.039178611933387383 0 -0.018615227884502497 -0.040095783901048031 0 -0.023063191302042246 -0.035449908290043047 0 -0.019268964754707817 -0.039178611933387383 0 -0.016807066540636153 -0.043430762637864641 0 -0.015101921441240847 -0.042919953926196346 0 -0.016548597883904358 -0.042135033112461348 0 -0.015101921441240847 -0.042919953926196346 0 -0.015997838215503969 -0.041522505526126408 0 -0.016548597883904358 -0.042135033112461348 0 -0.013423625776762347 -0.044062080621023736 0 -0.011558413725106001 -0.042821657389695705 0 -0.014003318049678545 -0.041091906106834948 0 -0.015101921441240847 -0.042919953926196346 0 -0.013423625776762347 -0.044062080621023736 0 -0.014003318049678545 -0.041091906106834948 0 -0.013423625776762347 -0.044062080621023736 0 -0.011242682961834487 -0.044985515619542962 0 -0.011558413725106001 -0.042821657389695705 0 -0.013423625776762347 -0.044062080621023736 0 -0.012958424002645632 -0.046351873595082999 0 -0.011242682961834487 -0.044985515619542962 0 -0.01103575273453204 -0.046346690468243232 0 -0.012958424002645632 -0.046351873595082999 0 -0.011242682961834487 -0.044985515619542962 0 -0.01103575273453204 -0.046346690468243232 0 -0.011242682961834487 -0.044985515619542962 0 -0.0099398459164623254 -0.045699399240342699 0 -0.011242682961834487 -0.044985515619542962 0 -0.0099398459164623254 -0.045699399240342699 0 -0.0085193545616788994 -0.043942301508270699 0 -0.011242682961834487 -0.044985515619542962 0 -0.011558413725106001 -0.042821657389695705 0 -0.0085193545616788994 -0.043942301508270699 0 -0.011558413725106001 -0.042821657389695705 0 -0.010529839951296976 -0.039047151718494433 0 -0.014003318049678545 -0.041091906106834948 0 -0.011558413725106001 -0.042821657389695705 0 -0.010529839951296976 -0.039047151718494433 0 -0.0085193545616788994 -0.043942301508270699 0 -0.00931046614073755 -0.042156445836464169 0 -0.0085404324944675803 -0.043695054175782615 0 -0.00931046614073755 -0.042156445836464169 0 -0.010743331946086426 -0.03852425421221959 0 -0.010529839951296976 -0.039047151718494433 0 -0.01336999818405368 -0.038215856893510015 0 -0.013252019700504694 -0.034300762015108524 0 -0.01336999818405368 -0.038215856893510015 0 -0.014003318049678545 -0.041091906106834948 0 -0.015920024303789165 -0.037905160185928349 0 -0.01336999818405368 -0.038215856893510015 0 -0.015920024303789165 -0.037905160185928349 0 -0.013252019700504694 -0.034300762015108524 0 -0.010529839951296976 -0.039047151718494433 0 -0.01336999818405368 -0.038215856893510015 0 -0.014003318049678545 -0.041091906106834948 0 -0.018615227884502497 -0.040095783901048031 0 -0.019760587274696807 -0.0388290203374171 0 -0.014003318049678545 -0.041091906106834948 0 -0.016538142022393367 -0.039957838179875249 0 -0.015920024303789165 -0.037905160185928349 0 -0.016807066540636153 -0.043430762637864641 0 -0.016548597883904358 -0.042135033112461348 0 -0.018407885812976942 -0.040598195315364106 0 -0.014003318049678545 -0.041091906106834948 0 -0.015997838215503969 -0.041522505526126408 0 -0.016538142022393367 -0.039957838179875249 0 -0.015101921441240847 -0.042919953926196346 0 -0.014003318049678545 -0.041091906106834948 0 -0.015997838215503969 -0.041522505526126408 0 -0.015997838215503969 -0.041522505526126408 0 -0.016548597883904358 -0.042135033112461348 0 -0.018407885812976942 -0.040598195315364106 0 -0.015997838215503969 -0.041522505526126408 0 -0.016538142022393367 -0.039957838179875249 0 -0.018407885812976942 -0.040598195315364106 0 -0.016538142022393367 -0.039957838179875249 0 -0.017781148664428974 -0.038425264617981132 0 -0.018407885812976942 -0.040598195315364106 0 -0.016538142022393367 -0.039957838179875249 0 -0.015920024303789165 -0.037905160185928349 0 -0.017781148664428974 -0.038425264617981132 0 -0.015920024303789165 -0.037905160185928349 0 -0.018014113233167258 -0.036741907879119712 0 -0.017020814129367092 -0.035134768657029296 0 -0.018014113233167258 -0.036741907879119712 0 -0.017781148664428974 -0.038425264617981132 0 -0.020222569893897428 -0.036917083934709473 0 -0.015920024303789165 -0.037905160185928349 0 -0.018014113233167258 -0.036741907879119712 0 -0.017781148664428974 -0.038425264617981132 0 -0.020261830513232004 -0.036993843710208307 0 -0.019760587274696807 -0.0388290203374171 0 -0.017781148664428974 -0.038425264617981132 0 -0.020222569893897428 -0.036917083934709473 0 -0.018407885812976942 -0.040598195315364106 0 -0.020222569893897428 -0.036917083934709473 0 -0.021568595314554028 -0.037131508510266642 0 -0.021631634061564067 -0.03719432212754932 0 -0.020222569893897428 -0.036917083934709473 0 -0.021029707900941892 -0.035951638218598266 0 -0.019280889180023075 -0.035529747437752238 0 -0.018014113233167258 -0.036741907879119712 0 -0.020222569893897428 -0.036917083934709473 0 -0.019280889180023075 -0.035529747437752238 0 -0.021581463638215219 -0.036951442260995393 0 -0.020222569893897428 -0.036917083934709473 0 -0.021029707900941892 -0.035951638218598266 0 -0.021581463638215219 -0.036951442260995393 0 -0.020222569893897428 -0.036917083934709473 0 -0.021568595314554028 -0.037131508510266642 0 -0.020222569893897428 -0.036917083934709473 0 -0.021290095793073564 -0.03718781750117494 0 -0.021631634061564067 -0.03719432212754932 0 -0.020995593869413017 -0.038143455104864533 0 -0.021290095793073564 -0.03718781750117494 0 -0.021631634061564067 -0.03719432212754932 0 -0.018615227884502497 -0.040095783901048031 0 -0.02271193715279992 -0.036007750586017288 0 -0.021568595314554028 -0.037131508510266642 0 -0.021631634061564067 -0.03719432212754932 0 -0.021767945982619802 -0.036974873410374746 0 -0.022035873561825067 -0.036799700050685294 0 -0.022622366638553278 -0.03670941341896139 0 -0.021631634061564067 -0.03719432212754932 0 -0.022035873561825067 -0.036799700050685294 0 -0.021631634061564067 -0.03719432212754932 0 -0.021767945982619802 -0.036974873410374746 0 -0.0064280814660443572 -0.044251530776345867 0 -0.0075830634145061969 -0.044371321183765494 0 -0.0071219572037985414 -0.044452666244904439 0 -0.0064280814660443572 -0.044251530776345867 0 -0.0069335273670325858 -0.045055374289806931 0 -0.0075830634145061969 -0.044371321183765494 0 -0.0052159116343970715 -0.043695728133183197 0 -0.0064280814660443572 -0.044251530776345867 0 -0.0057006481880286534 -0.044890676205971362 0 -0.0064280814660443572 -0.044251530776345867 0 -0.0057006481880286534 -0.044890676205971362 0 -0.0069335273670325858 -0.045055374289806931 0 -0.0069335273670325858 -0.045055374289806931 0 -0.008416880786872017 -0.04555982627271131 0 -0.0075830634145061969 -0.044371321183765494 0 -0.0099398459164623254 -0.045699399240342699 0 -0.008416880786872017 -0.04555982627271131 0 -0.0085193545616788994 -0.043942301508270699 0 -0.008416880786872017 -0.04555982627271131 0 -0.0085193545616788994 -0.043942301508270699 0 -0.0075830634145061969 -0.044371321183765494 0 -0.0075830634145061969 -0.044371321183765494 0 -0.0078319392138666583 -0.044576524695834424 0 -0.0071219572037985414 -0.044452666244904439 0 -0.0085193545616788994 -0.043942301508270699 0 -0.0075830634145061969 -0.044371321183765494 0 -0.0078319392138666583 -0.044576524695834424 0 -0.0079824837665949909 -0.044748573029068019 0 -0.0085193545616788994 -0.043942301508270699 0 -0.0078319392138666583 -0.044576524695834424 0 -0.0079824837665949909 -0.044748573029068019 0 -0.0078319392138666583 -0.044576524695834424 0 -0.0080541493596337412 -0.045023346027884277 0 -0.0078319392138666583 -0.044576524695834424 0 -0.0071777625051919315 -0.044743112408890451 0 -0.0071219572037985414 -0.044452666244904439 0 -0.0071777625051919315 -0.044743112408890451 0 -0.0071219572037985414 -0.044452666244904439 0 -0.0067638833631663729 -0.044631603521976815 0 -0.0064280814660443572 -0.044251530776345867 0 -0.0071219572037985414 -0.044452666244904439 0 -0.0067638833631663729 -0.044631603521976815 0 -0.0062546935270348658 -0.044551994643875194 0 -0.0064280814660443572 -0.044251530776345867 0 -0.0067638833631663729 -0.044631603521976815 0 -0.0071777625051919315 -0.044743112408890451 0 -0.0067638833631663729 -0.044631603521976815 0 -0.0067984083297090454 -0.044926174512110534 0 -0.0062546935270348658 -0.044551994643875194 0 -0.0067638833631663729 -0.044631603521976815 0 -0.0067984083297090454 -0.044926174512110534 0 -0.0067984083297090454 -0.044926174512110534 0 -0.0070239940820379723 -0.045045216351220212 0 -0.0068446725326124702 -0.045267982080227802 0 -0.0070239940820379723 -0.045045216351220212 0 -0.007010606218997034 -0.045500923363189547 0 -0.0068446725326124702 -0.045267982080227802 0 -0.0070239940820379723 -0.045045216351220212 0 -0.007546923346787267 -0.044958986066889632 0 -0.0071015181291738593 -0.045176053174326991 0 -0.0071777625051919315 -0.044743112408890451 0 -0.0070239940820379723 -0.045045216351220212 0 -0.007546923346787267 -0.044958986066889632 0 -0.0071777625051919315 -0.044743112408890451 0 -0.0067984083297090454 -0.044926174512110534 0 -0.0070239940820379723 -0.045045216351220212 0 -0.0078319392138666583 -0.044576524695834424 0 -0.0071777625051919315 -0.044743112408890451 0 -0.007546923346787267 -0.044958986066889632 0 -0.0078319392138666583 -0.044576524695834424 0 -0.007546923346787267 -0.044958986066889632 0 -0.0080541493596337412 -0.045023346027884277 0 -0.007546923346787267 -0.044958986066889632 0 -0.0080541493596337412 -0.045023346027884277 0 -0.0077871361870610256 -0.044966402852015523 0 -0.0080541493596337412 -0.045023346027884277 0 -0.0077871361870610256 -0.044966402852015523 0 -0.0085645502777826378 -0.045011842586230102 0 -0.007546923346787267 -0.044958986066889632 0 -0.0077871361870610256 -0.044966402852015523 0 -0.0071015181291738593 -0.045176053174326991 0 -0.0077871361870610256 -0.044966402852015523 0 -0.0074319385591147015 -0.044851801097829838 0 -0.0071015181291738593 -0.045176053174326991 0 -0.0077871361870610256 -0.044966402852015523 0 -0.0074319385591147015 -0.044851801097829838 0 -0.0086782409993319889 -0.044600554726312296 0 -0.014563857112316428 -0.050327558390889204 0 -0.016559221273697258 -0.050931787251192344 0 -0.015868183918192651 -0.048719969597693834 0 -0.011078451374436435 -0.047555897306871403 0 -0.012268761448090935 -0.048333228855508344 0 -0.014563857112316428 -0.050327558390889204 0 -0.011851153116553721 -0.049632708532016984 0 -0.01363036727871437 -0.0487918041538122 0 -0.011078451374436435 -0.047555897306871403 0 -0.0093974282741966248 -0.047679434727436167 0 -0.0068528653581762418 -0.045758796719440366 0 -0.0070168515492792863 -0.04557937243480855 0 -0.0071015181291738593 -0.045176053174326991 0 -0.0074319385591147015 -0.044851801097829838 0 -0.0068528653581762418 -0.045758796719440366 0 -0.0071015181291738593 -0.045176053174326991 0 -0.0068528653581762418 -0.045758796719440366 0 -0.0070168515492792863 -0.04557937243480855 0 -0.0072762232308289125 -0.046035693041083778 0 -0.0070168515492792863 -0.04557937243480855 0 -0.007010606218997034 -0.045500923363189547 0 -0.0072762232308289125 -0.046035693041083778 0 -0.0070168515492792863 -0.04557937243480855 0 -0.007010606218997034 -0.045500923363189547 0 -0.0071015181291738593 -0.045176053174326991 0 -0.0070239940820379723 -0.045045216351220212 0 -0.007010606218997034 -0.045500923363189547 0 -0.0071015181291738593 -0.045176053174326991 0 -0.023261274779886203 -0.035586365561726174 0 -0.020525201636978806 -0.031587004572726868 0 -0.018898653641286893 -0.032556622492222013 0 -0.020525201636978806 -0.031587004572726868 0 -0.018898653641286893 -0.032556622492222013 0 -0.017961695751578396 -0.031701014641341528 0 -0.0226471968739273 -0.035036849072120027 0 -0.018898653641286893 -0.032556622492222013 0 -0.020173236088107865 -0.034622520353480318 0 -0.02325078851457171 -0.035420920018328958 0 -0.018985318098681436 -0.032659578783320008 0 -0.0226471968739273 -0.035036849072120027 0 -0.021029707900941892 -0.035951638218598266 0 -0.020173236088107865 -0.034622520353480318 0 -0.021029707900941892 -0.035951638218598266 0 -0.020173236088107865 -0.034622520353480318 0 -0.019280889180023075 -0.035529747437752238 0 -0.020173236088107865 -0.034622520353480318 0 -0.019280889180023075 -0.035529747437752238 0 -0.018536469580188397 -0.034108636532556427 0 -0.018898653641286893 -0.032556622492222013 0 -0.020173236088107865 -0.034622520353480318 0 -0.018536469580188397 -0.034108636532556427 0 -0.017020814129367092 -0.035134768657029296 0 -0.016404550984352253 -0.032801764859603531 0 -0.013252019700504694 -0.034300762015108524 0 -0.018536469580188397 -0.034108636532556427 0 -0.017020814129367092 -0.035134768657029296 0 -0.016404550984352253 -0.032801764859603531 0 -0.019280889180023075 -0.035529747437752238 0 -0.018536469580188397 -0.034108636532556427 0 -0.017020814129367092 -0.035134768657029296 0 -0.018014113233167258 -0.036741907879119712 0 -0.019280889180023075 -0.035529747437752238 0 -0.017020814129367092 -0.035134768657029296 0 -0.020967002182151154 -0.041713464346948274 0 -0.016570098051265945 -0.044028162074799426 0 -0.020525201636978806 -0.031587004572726868 0 -0.017961695751578396 -0.031701014641341528 0 -0.016009454203600285 -0.029869514354322599 0 -0.018898653641286893 -0.032556622492222013 0 -0.016404550984352253 -0.032801764859603531 0 -0.017961695751578396 -0.031701014641341528 0 -0.018898653641286893 -0.032556622492222013 0 -0.018536469580188397 -0.034108636532556427 0 -0.016404550984352253 -0.032801764859603531 0 -0.016404550984352253 -0.032801764859603531 0 -0.017961695751578396 -0.031701014641341528 0 -0.016009454203600285 -0.029869514354322599 0 -0.0086420211225415825 -0.045192030764393529 0 -0.0085645502777826378 -0.045011842586230102 0 -0.0099908999594815941 -0.044895127478175041 0 -0.010743331946086426 -0.03852425421221959 0 -0.016570098051265945 -0.044028162074799426 0 -0.016404550984352253 -0.032801764859603531 0 -0.013252019700504694 -0.034300762015108524 0 -0.016009454203600285 -0.029869514354322599 0 -0.015920024303789165 -0.037905160185928349 0 -0.017020814129367092 -0.035134768657029296 0 -0.013252019700504694 -0.034300762015108524 0 -0.0079824837665949909 -0.044748573029068019 0 -0.0080541493596337412 -0.045023346027884277 0 -0.0086420211225415825 -0.045192030764393529 0 -0.0080541493596337412 -0.045023346027884277 0 -0.0086420211225415825 -0.045192030764393529 0 -0.0085645502777826378 -0.045011842586230102 0 -0.0077871361870610256 -0.044966402852015523 0 -0.0085645502777826378 -0.045011842586230102 0 -0.0086782409993319889 -0.044600554726312296 0 -0.016559221273697258 -0.050931787251192344 0 -0.01787253352560934 -0.04970780677016521 0 -0.015868183918192651 -0.048719969597693834 0 -0.016559221273697258 -0.050931787251192344 0 -0.01787253352560934 -0.04970780677016521 0 -0.018241017424844467 -0.050754866272728461 0 -0.01787253352560934 -0.04970780677016521 0 -0.018241017424844467 -0.050754866272728461 0 -0.019409010742484925 -0.050302543359809361 0 -0.01787253352560934 -0.04970780677016521 0 -0.019409010742484925 -0.050302543359809361 0 -0.019129210403794877 -0.049275721037015573 0 -0.012268761448090935 -0.048333228855508344 0 -0.016570098051265945 -0.044028162074799426 0 -0.0085645502777826378 -0.045011842586230102 0 -0.0086782409993319889 -0.044600554726312296 0 -0.0099908999594815941 -0.044895127478175041 0 -0.016559221273697258 -0.050931787251192344 0 -0.018241017424844467 -0.050754866272728461 0 -0.018606648186861485 -0.051640180710880369 0 -0.021275402808194968 -0.052523855908523237 0 -0.018959246213343644 -0.051856562966310811 0 -0.020501064720067918 -0.051476449465810592 0 -0.016570098051265945 -0.044028162074799426 0 -0.016731949643371029 -0.050075784545780579 0 -0.018959246213343644 -0.051856562966310811 0 -0.019352383846345623 -0.051108406764859053 0 -0.020501064720067918 -0.051476449465810592 0 -0.019352383846345623 -0.051108406764859053 0 -0.019409010742484925 -0.050302543359809361 0 -0.020355681392193622 -0.050581486174337227 0 -0.019352383846345623 -0.051108406764859053 0 -0.020355681392193622 -0.050581486174337227 0 -0.020501064720067918 -0.051476449465810592 0 -0.018241017424844467 -0.050754866272728461 0 -0.018606648186861485 -0.051640180710880369 0 -0.019352383846345623 -0.051108406764859053 0 -0.018241017424844467 -0.050754866272728461 0 -0.019352383846345623 -0.051108406764859053 0 -0.019409010742484925 -0.050302543359809361 0 -0.019409010742484925 -0.050302543359809361 0 -0.020282646815944782 -0.049659361363549134 0 -0.019129210403794877 -0.049275721037015573 0 -0.019409010742484925 -0.050302543359809361 0 -0.020282646815944782 -0.049659361363549134 0 -0.020355681392193622 -0.050581486174337227 0 -0.020355681392193622 -0.050581486174337227 0 -0.021305911809492487 -0.050170510561138582 0 -0.021220560666913781 -0.05098775433869835 0 -0.020282646815944782 -0.049659361363549134 0 -0.020355681392193622 -0.050581486174337227 0 -0.021305911809492487 -0.050170510561138582 0 -0.020282646815944782 -0.049659361363549134 0 -0.021305911809492487 -0.050170510561138582 0 -0.021427652602715768 -0.049054165612564357 0 -0.022349878820129662 -0.049913715032778312 0 -0.021305911809492487 -0.050170510561138582 0 -0.021427652602715768 -0.049054165612564357 0 -0.02215959896399794 -0.050885901878842045 0 -0.021305911809492487 -0.050170510561138582 0 -0.021220560666913781 -0.05098775433869835 0 -0.02215959896399794 -0.050885901878842045 0 -0.021220560666913781 -0.05098775433869835 0 -0.021600730249278041 -0.051544795845952222 0 -0.020355681392193622 -0.050581486174337227 0 -0.021220560666913781 -0.05098775433869835 0 -0.020501064720067918 -0.051476449465810592 0 -0.021275402808194968 -0.052523855908523237 0 -0.020501064720067918 -0.051476449465810592 0 -0.021600730249278041 -0.051544795845952222 0 -0.021220560666913781 -0.05098775433869835 0 -0.020501064720067918 -0.051476449465810592 0 -0.021600730249278041 -0.051544795845952222 0 -0.02249458912669574 -0.047962641477644084 0 -0.020998861975381727 -0.047939559888459458 0 -0.021870962787805228 -0.046845758602010588 0 -0.020998861975381727 -0.047939559888459458 0 -0.020626158888326519 -0.047020311615646633 0 -0.021870962787805228 -0.046845758602010588 0 -0.020282646815944782 -0.049659361363549134 0 -0.021427652602715768 -0.049054165612564357 0 -0.019923949709272883 -0.048574620968778674 0 -0.02249458912669574 -0.047962641477644084 0 -0.020998861975381727 -0.047939559888459458 0 -0.021427652602715768 -0.049054165612564357 0 -0.020998861975381727 -0.047939559888459458 0 -0.021427652602715768 -0.049054165612564357 0 -0.019923949709272883 -0.048574620968778674 0 -0.020282646815944782 -0.049659361363549134 0 -0.019923949709272883 -0.048574620968778674 0 -0.019129210403794877 -0.049275721037015573 0 -0.020998861975381727 -0.047939559888459458 0 -0.019923949709272883 -0.048574620968778674 0 -0.019534221688227025 -0.047600416333217911 0 -0.020998861975381727 -0.047939559888459458 0 -0.019534221688227025 -0.047600416333217911 0 -0.020626158888326519 -0.047020311615646633 0 -0.019923949709272883 -0.048574620968778674 0 -0.019534221688227025 -0.047600416333217911 0 -0.018175065379851699 -0.048145813293185277 0 -0.019534221688227025 -0.047600416333217911 0 -0.018175065379851699 -0.048145813293185277 0 -0.018925339228867712 -0.046445310725543747 0 -0.01787253352560934 -0.04970780677016521 0 -0.019129210403794877 -0.049275721037015573 0 -0.018175065379851699 -0.048145813293185277 0 -0.019923949709272883 -0.048574620968778674 0 -0.019129210403794877 -0.049275721037015573 0 -0.018175065379851699 -0.048145813293185277 0 -0.01787253352560934 -0.04970780677016521 0 -0.018175065379851699 -0.048145813293185277 0 -0.015868183918192651 -0.048719969597693834 0 -0.018175065379851699 -0.048145813293185277 0 -0.015868183918192651 -0.048719969597693834 0 -0.016445784596941994 -0.046762301047859521 0 -0.018175065379851699 -0.048145813293185277 0 -0.018925339228867712 -0.046445310725543747 0 -0.016445784596941994 -0.046762301047859521 0 -0.01703069521168471 -0.044999750492906769 0 -0.018925339228867712 -0.046445310725543747 0 -0.016708374671868417 -0.04729090564390058 0 -0.018749877487550155 -0.046460688108876352 0 -0.016599281677267694 -0.047022207524287443 0 -0.01703069521168471 -0.044999750492906769 0 -0.019627420380402105 -0.044999699836232698 0 -0.018925339228867712 -0.046445310725543747 0 -0.019534221688227025 -0.047600416333217911 0 -0.018925339228867712 -0.046445310725543747 0 -0.020626158888326519 -0.047020311615646633 0 -0.018925339228867712 -0.046445310725543747 0 -0.020626158888326519 -0.047020311615646633 0 -0.02058594925636751 -0.046052599696178496 0 -0.019627420380402105 -0.044999699836232698 0 -0.018925339228867712 -0.046445310725543747 0 -0.02058594925636751 -0.046052599696178496 0 -0.019627420380402105 -0.044999699836232698 0 -0.02058594925636751 -0.046052599696178496 0 -0.022224784447238126 -0.044999729923077492 0 -0.02058594925636751 -0.046052599696178496 0 -0.022224784447238126 -0.044999729923077492 0 -0.021870962787805228 -0.046845758602010588 0 -0.020626158888326519 -0.047020311615646633 0 -0.02058594925636751 -0.046052599696178496 0 -0.021870962787805228 -0.046845758602010588 0 -0.011576605895673961 -0.047905994335523748 0 -0.01407922672740357 -0.047526707458839142 0 -0.012489126500648335 -0.047068495214112688 0 -0.011359820469245236 -0.047848526333715738 0 -0.014191959632035924 -0.047816865391326138 0 -0.01116968206001393 -0.04696791745354794 0 -0.0097015668422727724 -0.047292494661252397 0 -0.0083376404766441897 -0.045757283487999317 0 -0.012489126500648335 -0.047068495214112688 0 -0.01116968206001393 -0.04696791745354794 0 -0.011625352515449229 -0.046428993408728407 0 -0.01116968206001393 -0.04696791745354794 0 -0.0097015668422727724 -0.047292494661252397 0 -0.011359820469245236 -0.047848526333715738 0 -0.012489126500648335 -0.047068495214112688 0 -0.01116968206001393 -0.04696791745354794 0 -0.011359820469245236 -0.047848526333715738 0 -0.011851153116553721 -0.049632708532016984 0 -0.0097015668422727724 -0.047292494661252397 0 -0.011359820469245236 -0.047848526333715738 0 -0.0093974282741966248 -0.047679434727436167 0 -0.0081438111950477635 -0.047397074063827746 0 -0.0068528653581762418 -0.045758796719440366 0 -0.007979847328996776 -0.047354084636689532 0 -0.0072762232308289125 -0.046035693041083778 0 -0.011851153116553721 -0.049632708532016984 0 -0.0097015668422727724 -0.047292494661252397 0 -0.007979847328996776 -0.047354084636689532 0 -0.011359820469245236 -0.047848526333715738 0 -0.01363036727871437 -0.0487918041538122 0 -0.014052221593607368 -0.047300603268307581 0 -0.011851153116553721 -0.049632708532016984 0 -0.011359820469245236 -0.047848526333715738 0 -0.01363036727871437 -0.0487918041538122 0 -0.014563857112316428 -0.050327558390889204 0 -0.01363036727871437 -0.0487918041538122 0 -0.015868183918192651 -0.048719969597693834 0 -0.01363036727871437 -0.0487918041538122 0 -0.015868183918192651 -0.048719969597693834 0 -0.014052221593607368 -0.047300603268307581 0 -0.01407922672740357 -0.047526707458839142 0 -0.016599281677267694 -0.047022207524287443 0 -0.015868183918192651 -0.048719969597693834 0 -0.014052221593607368 -0.047300603268307581 0 -0.016445784596941994 -0.046762301047859521 0 -0.014191959632035924 -0.047816865391326138 0 -0.015094776524142581 -0.04628082167983532 0 -0.013200107763448286 -0.04621656245365529 0 -0.014191959632035924 -0.047816865391326138 0 -0.015094776524142581 -0.04628082167983532 0 -0.016708374671868417 -0.04729090564390058 0 -0.01703069521168471 -0.044999750492906769 0 -0.015094776524142581 -0.04628082167983532 0 -0.016708374671868417 -0.04729090564390058 0 -0.01703069521168471 -0.044999750492906769 0 -0.015094776524142581 -0.04628082167983532 0 -0.014433167107995575 -0.04499956032786679 0 -0.015094776524142581 -0.04628082167983532 0 -0.014433167107995575 -0.04499956032786679 0 -0.013200107763448286 -0.04621656245365529 0 -0.014433167107995575 -0.04499956032786679 0 -0.013200107763448286 -0.04621656245365529 0 -0.011836172219025177 -0.044999810383273782 0 -0.012489126500648335 -0.047068495214112688 0 -0.013200107763448286 -0.04621656245365529 0 -0.011625352515449229 -0.046428993408728407 0 -0.012489126500648335 -0.047068495214112688 0 -0.014191959632035924 -0.047816865391326138 0 -0.013200107763448286 -0.04621656245365529 0 -0.011625352515449229 -0.046428993408728407 0 -0.011836172219025177 -0.044999810383273782 0 -0.010380523090781097 -0.046818725001859018 0 -0.01116968206001393 -0.04696791745354794 0 -0.011625352515449229 -0.046428993408728407 0 -0.010380523090781097 -0.046818725001859018 0 -0.013200107763448286 -0.04621656245365529 0 -0.011625352515449229 -0.046428993408728407 0 -0.011836172219025177 -0.044999810383273782 0 -0.011836172219025177 -0.044999810383273782 0 -0.0092399754985452338 -0.044999817350651068 0 -0.010380523090781097 -0.046818725001859018 0 -0.0092399754985452338 -0.044999817350651068 0 -0.0085271587267826687 -0.046030113958849171 0 -0.010380523090781097 -0.046818725001859018 0 -0.0073240190854666721 -0.045523951466117249 0 -0.0083376404766441897 -0.045757283487999317 0 -0.0074030200644657684 -0.046260467351376955 0 -0.0079268571132487288 -0.045741862818355031 0 -0.0094062135487357514 -0.046304693432158657 0 -0.0066412446275516731 -0.04499972564012384 0 -0.0066987920576461026 -0.045838182837056589 0 -0.0056314944429242736 -0.046020059922895859 0 -0.0092399754985452338 -0.044999817350651068 0 -0.0085271587267826687 -0.046030113958849171 0 -0.0066425247903042894 -0.04500002551656046 0 -0.0073240190854666721 -0.045523951466117249 0 -0.0066412446275516731 -0.04499972564012384 0 -0.0066987920576461026 -0.045838182837056589 0 -0.0079268571132487288 -0.045741862818355031 0 -0.0066427954487460576 -0.04500014982221686 0 -0.0073240190854666721 -0.045523951466117249 0 -0.0066987920576461026 -0.045838182837056589 0 -0.0074030200644657684 -0.046260467351376955 0 -0.0066987920576461026 -0.045838182837056589 0 -0.0068888409367692952 -0.046561641584215739 0 -0.0074030200644657684 -0.046260467351376955 0 -0.006274521217586761 -0.046529073924776169 0 -0.0056991365215304998 -0.046918740734158498 0 -0.0056314944429242736 -0.046020059922895859 0 -0.0066987920576461026 -0.045838182837056589 0 -0.006274521217586761 -0.046529073924776169 0 -0.0056314944429242736 -0.046020059922895859 0 -0.0066987920576461026 -0.045838182837056589 0 -0.006274521217586761 -0.046529073924776169 0 -0.0068888409367692952 -0.046561641584215739 0 -0.006274521217586761 -0.046529073924776169 0 -0.0069414588685328986 -0.047041109459861945 0 -0.0056991365215304998 -0.046918740734158498 0 -0.006274521217586761 -0.046529073924776169 0 -0.0068888409367692952 -0.046561641584215739 0 -0.0069414588685328986 -0.047041109459861945 0 -0.0068888409367692952 -0.046561641584215739 0 -0.0074030200644657684 -0.046260467351376955 0 -0.0072984736305503365 -0.046932567969927216 0 -0.0069414588685328986 -0.047041109459861945 0 -0.0072984736305503365 -0.046932567969927216 0 -0.007019016443654969 -0.04611733089007311 0 -0.0068888409367692952 -0.046561641584215739 0 -0.0069414588685328986 -0.047041109459861945 0 -0.0072984736305503365 -0.046932567969927216 0 -0.0065183615931307453 -0.046565726578762977 0 -0.0055912482346099062 -0.046749976931112588 0 -0.01102270495295714 -0.046973372414361392 0 -0.0094062135487357514 -0.046304693432158657 0 -0.0097015668422727724 -0.047292494661252397 0 -0.0083376404766441897 -0.045757283487999317 0 -0.007979847328996776 -0.047354084636689532 0 -0.0083376404766441897 -0.045757283487999317 0 -0.0074030200644657684 -0.046260467351376955 0 -0.007979847328996776 -0.047354084636689532 0 -0.0074030200644657684 -0.046260467351376955 0 -0.0072984736305503365 -0.046932567969927216 0 -0.007979847328996776 -0.047354084636689532 0 -0.0072984736305503365 -0.046932567969927216 0 -0.007979847328996776 -0.047354084636689532 0 -0.0073879120506011595 -0.046283798594946475 0 -0.007979847328996776 -0.047354084636689532 0 -0.0073879120506011595 -0.046283798594946475 0 -0.0072762232308289125 -0.046035693041083778 0 -0.007010606218997034 -0.045500923363189547 0 -0.0073879120506011595 -0.046283798594946475 0 -0.0072762232308289125 -0.046035693041083778 0 -0.007010606218997034 -0.045500923363189547 0 -0.0069747565101611585 -0.045675491193282632 0 -0.0068446725326124702 -0.045267982080227802 0 -0.007010606218997034 -0.045500923363189547 0 -0.0073879120506011595 -0.046283798594946475 0 -0.0069747565101611585 -0.045675491193282632 0 -0.0073879120506011595 -0.046283798594946475 0 -0.0069747565101611585 -0.045675491193282632 0 -0.007019016443654969 -0.04611733089007311 0 -0.0069747565101611585 -0.045675491193282632 0 -0.007019016443654969 -0.04611733089007311 0 -0.0066839455946876847 -0.045665530640690302 0 -0.0072984736305503365 -0.046932567969927216 0 -0.0073879120506011595 -0.046283798594946475 0 -0.007019016443654969 -0.04611733089007311 0 -0.0060954626895138673 -0.046112972291285095 0 -0.007019016443654969 -0.04611733089007311 0 -0.0064782097440811131 -0.045966729116270914 0 -0.0065183615931307453 -0.046565726578762977 0 -0.0069253347650372783 -0.046207793033970275 0 -0.0060954626895138673 -0.046112972291285095 0 -0.006094067095060521 -0.046045559487441913 0 -0.0058406486542078818 -0.046273320626783652 0 -0.0060954626895138673 -0.046112972291285095 0 -0.0064782097440811131 -0.045966729116270914 0 -0.006094067095060521 -0.046045559487441913 0 -0.0064782097440811131 -0.045966729116270914 0 -0.0063296095394894834 -0.045805814806585576 0 -0.006094067095060521 -0.046045559487441913 0 -0.0064782097440811131 -0.045966729116270914 0 -0.0063296095394894834 -0.045805814806585576 0 -0.0064591817804282563 -0.045595348324092143 0 -0.007019016443654969 -0.04611733089007311 0 -0.0064782097440811131 -0.045966729116270914 0 -0.0066839455946876847 -0.045665530640690302 0 -0.0066839455946876847 -0.045665530640690302 0 -0.0064591817804282563 -0.045595348324092143 0 -0.0065480288888558622 -0.045232556476726152 0 -0.0064782097440811131 -0.045966729116270914 0 -0.0066839455946876847 -0.045665530640690302 0 -0.0064591817804282563 -0.045595348324092143 0 -0.0066839455946876847 -0.045665530640690302 0 -0.0065480288888558622 -0.045232556476726152 0 -0.0066931713265975757 -0.045362467182370067 0 -0.0063296095394894834 -0.045805814806585576 0 -0.0064591817804282563 -0.045595348324092143 0 -0.006347759038265662 -0.045542946561998497 0 -0.0064591817804282563 -0.045595348324092143 0 -0.0064314786962797934 -0.045338641508487036 0 -0.006347759038265662 -0.045542946561998497 0 -0.006466807243314816 -0.045049979912910619 0 -0.0064314786962797934 -0.045338641508487036 0 -0.0065480288888558622 -0.045232556476726152 0 -0.0064591817804282563 -0.045595348324092143 0 -0.0064314786962797934 -0.045338641508487036 0 -0.0065480288888558622 -0.045232556476726152 0 -0.0065459897932530773 -0.04501329825091293 0 -0.0065480288888558622 -0.045232556476726152 0 -0.0066931713265975757 -0.045362467182370067 0 -0.0065459897932530773 -0.04501329825091293 0 -0.0068446725326124702 -0.045267982080227802 0 -0.0066931713265975757 -0.045362467182370067 0 -0.0065459897932530773 -0.04501329825091293 0 -0.0067984083297090454 -0.044926174512110534 0 -0.0068446725326124702 -0.045267982080227802 0 -0.0069747565101611585 -0.045675491193282632 0 -0.0068446725326124702 -0.045267982080227802 0 -0.0066931713265975757 -0.045362467182370067 0 -0.0069747565101611585 -0.045675491193282632 0 -0.0066839455946876847 -0.045665530640690302 0 -0.0066931713265975757 -0.045362467182370067 0 0.0029373677139178126 -0.038581580845724439 0 0.0029703330115161625 -0.038685093299198212 0 0.0033368542505596566 -0.039148384242580547 0 0.0040299538354313484 -0.038911434174199261 0 0.0030770842601865384 -0.038888749588572191 0 0.0033770464741735584 -0.038346247235546867 0 0.0033933625540461094 -0.038542882488311739 0 0.0033368542505596566 -0.039148384242580547 0 0.0054501177517965122 -0.039008422210548052 0 0.0053884430879838708 -0.039090202082529925 0 0.0060721109066885718 -0.039540981631243317 0 0.0029045863912579837 -0.038629705463586829 0 0.0029373677139178126 -0.038581580845724439 0 0.0029703330115161625 -0.038685093299198212 0 0.0045997988516480043 -0.03935998774877128 0 0.0040299538354313484 -0.038911434174199261 0 0.0045997988516480043 -0.03935998774877128 0 0.004118669912557495 -0.039015275620269518 0 0.0033770464741735584 -0.038346247235546867 0 0.0034591468268325618 -0.038301720114460452 0 0.0033933625540461094 -0.038542882488311739 0 0.0040299538354313484 -0.038911434174199261 0 0.0040140194526505522 -0.038875598889486003 0 0.0034591468268325618 -0.038301720114460452 0 0.0033773069806039327 -0.038413527893748398 0 0.0033933625540461094 -0.038542882488311739 0 0.0034591468268325618 -0.038301720114460452 0 0.0034115735978084761 -0.038418272663331421 0 0.0033773069806039327 -0.038413527893748398 0 0.0029026581831094554 -0.03862148952912979 0 0.0029703330115161625 -0.038685093299198212 0 0.0029344928246661951 -0.039020361970144801 0 0.0069377228139844279 -0.040610489697737805 0 0.007993046472886808 -0.04030215131477264 0 0.0079236218841504166 -0.039342971923414287 0 0.0069377228139844279 -0.040610489697737805 0 0.007993046472886808 -0.04030215131477264 0 0.0077649005704320071 -0.041324796932452709 0 0.0059009259722464392 -0.039876809124206589 0 0.0060721109066885718 -0.039540981631243317 0 0.0066661993947210816 -0.040061439642215334 0 0.0053884430879838708 -0.039090202082529925 0 0.0059009259722464392 -0.039876809124206589 0 0.0060721109066885718 -0.039540981631243317 0 0.0045997988516480043 -0.03935998774877128 0 0.0071590215855936602 -0.040644867892800973 0 0.0071590215855936602 -0.040644867892800973 0 0.0078103742161957177 -0.040321899842229447 0 0.0033271154353241234 -0.03898344378259485 0 0.0045165317687116636 -0.038920127158404108 0 0.0035605313764805217 -0.038583441376641714 0 0.0040299538354313484 -0.038911434174199261 0 0.0052528565886038161 -0.03948062798957442 0 0.0034591468268325618 -0.038301720114460452 0 0.0045165317687116636 -0.038920127158404108 0 0.0035605313764805217 -0.038583441376641714 0 0.0035163737695195377 -0.038220817547214896 0 0.0034591468268325618 -0.038301720114460452 0 0.0045165317687116636 -0.038920127158404108 0 0.0034591468268325618 -0.038301720114460452 0 0.0035605313764805217 -0.038583441376641714 0 0.0034115735978084761 -0.038418272663331421 0 0.0035605313764805217 -0.038583441376641714 0 0.0034115735978084761 -0.038418272663331421 0 0.003233263095508952 -0.038385107271913486 0 0.0033271154353241234 -0.03898344378259485 0 0.0026795875927815198 -0.038599243170470393 0 0.003233263095508952 -0.038385107271913486 0 0.0033271154353241234 -0.03898344378259485 0 0.0035605313764805217 -0.038583441376641714 0 0.003233263095508952 -0.038385107271913486 0 0.0019406229238922519 -0.038480553202545828 0 -0.00013260537897118112 -0.041180091581594074 0 0.0023489100858295688 -0.039245902929380454 0 0.0033271154353241234 -0.03898344378259485 0 0.0026795875927815198 -0.038599243170470393 0 -0.00013260537897118112 -0.041180091581594074 0 0.0032768886225662767 -0.038438365381927457 0 0.0033581455247958495 -0.038283177210652483 0 0.003233263095508952 -0.038385107271913486 0 0.0033426164637080568 -0.038480802574960789 0 0.0034115735978084761 -0.038418272663331421 0 0.003233263095508952 -0.038385107271913486 0 0.0033773069806039327 -0.038413527893748398 0 -0.0064314786962797934 -0.045338641508487036 0 -0.0063599837465497999 -0.045292915914707868 0 -0.006347759038265662 -0.045542946561998497 0 -0.006466807243314816 -0.045049979912910619 0 -0.0064314786962797934 -0.045338641508487036 0 -0.0063599837465497999 -0.045292915914707868 0 -0.006347759038265662 -0.045542946561998497 0 -0.0063767264375109425 -0.045716481637191275 0 -0.0062495495823905274 -0.045809863837620986 0 -0.0063296095394894834 -0.045805814806585576 0 -0.006347759038265662 -0.045542946561998497 0 -0.0062495495823905274 -0.045809863837620986 0 -0.0063599837465497999 -0.045292915914707868 0 -0.006347759038265662 -0.045542946561998497 0 -0.0063767264375109425 -0.045716481637191275 0 0.0033581455247958495 -0.038283177210652483 0 0.0033426164637080568 -0.038480802574960789 0 0.0034948256737445263 -0.03874119619885321 0 -0.00013260537897118112 -0.041180091581594074 0 -0.0015791008215808328 -0.042432515930530483 0 0.0033773069806039327 -0.038413527893748398 0 0.0033426164637080568 -0.038480802574960789 0 0.0033933625540461094 -0.038542882488311739 0 0.003233263095508952 -0.038385107271913486 0 0.0033773069806039327 -0.038413527893748398 0 0.0033426164637080568 -0.038480802574960789 0 0.0033426164637080568 -0.038480802574960789 0 0.0034948256737445263 -0.03874119619885321 0 0.0033933625540461094 -0.038542882488311739 0 0.0034948256737445263 -0.03874119619885321 0 0.0033368542505596566 -0.039148384242580547 0 0.0033224095161474179 -0.039579239326266731 0 -0.0063767264375109425 -0.045716481637191275 0 -0.0061317746719909841 -0.045971029420135805 0 -0.0060553868283808382 -0.046132490325204903 0 0.0034948256737445263 -0.03874119619885321 0 0.0033933625540461094 -0.038542882488311739 0 0.0033368542505596566 -0.039148384242580547 0 -0.0015791008215808328 -0.042432515930530483 0 -0.0012602731172749525 -0.042521092196574801 0 -0.0063296095394894834 -0.045805814806585576 0 -0.0062495495823905274 -0.045809863837620986 0 -0.006094067095060521 -0.046045559487441913 0 -0.0063767264375109425 -0.045716481637191275 0 -0.0062495495823905274 -0.045809863837620986 0 -0.0061317746719909841 -0.045971029420135805 0 -0.0062495495823905274 -0.045809863837620986 0 -0.0061317746719909841 -0.045971029420135805 0 -0.006094067095060521 -0.046045559487441913 0 -0.006094067095060521 -0.046045559487441913 0 -0.0059423471956309981 -0.046166871601778695 0 -0.0058406486542078818 -0.046273320626783652 0 -0.0061317746719909841 -0.045971029420135805 0 -0.006094067095060521 -0.046045559487441913 0 -0.0059423471956309981 -0.046166871601778695 0 -0.0059423471956309981 -0.046166871601778695 0 -0.0058406486542078818 -0.046273320626783652 0 -0.0057029955288713397 -0.046419095386926283 0 0.0033368542505596566 -0.039148384242580547 0 0.0033224095161474179 -0.039579239326266731 0 0.0030495334289301736 -0.039392408591593146 0 -0.0061317746719909841 -0.045971029420135805 0 -0.0059423471956309981 -0.046166871601778695 0 -0.0060553868283808382 -0.046132490325204903 0 -0.0059423471956309981 -0.046166871601778695 0 -0.0060553868283808382 -0.046132490325204903 0 -0.0057029955288713397 -0.046419095386926283 0 0.0028493191416699148 -0.039815679948015201 0 0.0030495334289301736 -0.039392408591593146 0 0.0024303849673567102 -0.039265963027834368 0 0.0033224095161474179 -0.039579239326266731 0 0.0028493191416699148 -0.039815679948015201 0 0.0030495334289301736 -0.039392408591593146 0 0.0030495334289301736 -0.039392408591593146 0 0.0029344928246661951 -0.039020361970144801 0 0.0024303849673567102 -0.039265963027834368 0 0.0029026581831094554 -0.03862148952912979 0 0.0029344928246661951 -0.039020361970144801 0 0.0024303849673567102 -0.039265963027834368 0 0.0033368542505596566 -0.039148384242580547 0 0.0030495334289301736 -0.039392408591593146 0 0.0029344928246661951 -0.039020361970144801 0 0.0029703330115161625 -0.038685093299198212 0 0.0033368542505596566 -0.039148384242580547 0 0.0029344928246661951 -0.039020361970144801 0 0.0045997988516480043 -0.03935998774877128 0 0.0051584510255217849 -0.039445795718217533 0 0.0028493191416699148 -0.039815679948015201 0 0.0024303849673567102 -0.039265963027834368 0 0.0024369829775311032 -0.039925254243562407 0 0.0028493191416699148 -0.039815679948015201 0 0.0024369829775311032 -0.039925254243562407 0 0.0026433463184983288 -0.040322129486881714 0 0.0024369829775311032 -0.039925254243562407 0 0.0026433463184983288 -0.040322129486881714 0 0.0021359736540424151 -0.040383332893385401 0 0.00095403761310682619 -0.044340738610869207 0 -0.0018796478138508807 -0.044761448045992247 0 0.0028493191416699148 -0.039815679948015201 0 0.0026433463184983288 -0.040322129486881714 0 0.0032023570482489689 -0.040263275234973743 0 -0.0024853168342513247 -0.047425561836440276 0 -0.0015699330343976214 -0.048515838768344748 0 -0.0040535055944858839 -0.048862051774661699 0 -0.0024853168342513247 -0.047425561836440276 0 -0.0040535055944858839 -0.048862051774661699 0 -0.0039559160796825013 -0.047104286568396894 0 -0.0024853168342513247 -0.047425561836440276 0 -0.0015699330343976214 -0.048515838768344748 0 -0.0010022061169358272 -0.047093772278398206 0 -0.0015699330343976214 -0.048515838768344748 0 -0.0010022061169358272 -0.047093772278398206 0 0.00041866523996611331 -0.048210443920316662 0 0.00095403761310682619 -0.044340738610869207 0 0.00055907039668435968 -0.044566988459427921 0 -0.0060954626895138673 -0.046112972291285095 0 -0.0058406486542078818 -0.046273320626783652 0 -0.0055945187135130999 -0.04657126302357463 0 -0.0060954626895138673 -0.046112972291285095 0 -0.0055945187135130999 -0.04657126302357463 0 -0.0055611800617836153 -0.046615921288105044 0 -0.0058406486542078818 -0.046273320626783652 0 -0.0055945187135130999 -0.04657126302357463 0 -0.0057029955288713397 -0.046419095386926283 0 -0.0055945187135130999 -0.04657126302357463 0 -0.0052942870024548245 -0.046793198547553622 0 -0.0049224960340244189 -0.046825876992893672 0 0.0033224095161474179 -0.039579239326266731 0 0.0028493191416699148 -0.039815679948015201 0 0.0032023570482489689 -0.040263275234973743 0 -0.0060553868283808382 -0.046132490325204903 0 -0.0057029955288713397 -0.046419095386926283 0 -0.0056026665075858927 -0.046778595379406269 0 -0.0012602731172749525 -0.042521092196574801 0 -0.0018796478138508807 -0.044761448045992247 0 -0.0055945187135130999 -0.04657126302357463 0 -0.0052942870024548245 -0.046793198547553622 0 -0.0057029955288713397 -0.046419095386926283 0 -0.0052942870024548245 -0.046793198547553622 0 -0.0057029955288713397 -0.046419095386926283 0 -0.0056026665075858927 -0.046778595379406269 0 -0.0052942870024548245 -0.046793198547553622 0 -0.0048110782344521321 -0.046947517394595274 0 -0.0047548960454579289 -0.046913134248611522 0 -0.0049313930783935322 -0.045855835767452377 0 -0.0018796478138508807 -0.044761448045992247 0 -0.0039559160796825013 -0.047104286568396894 0 -0.0049224960340244189 -0.046825876992893672 0 -0.0041555881373918019 -0.046355482877765232 0 -0.0048110782344521321 -0.046947517394595274 0 -0.0039559160796825013 -0.047104286568396894 0 -0.0047548960454579289 -0.046913134248611522 0 -0.0018796478138508807 -0.044761448045992247 0 -0.0038512556666596837 -0.047993875073417264 0 -0.0052942870024548245 -0.046793198547553622 0 -0.0049224960340244189 -0.046825876992893672 0 -0.0047548960454579289 -0.046913134248611522 0 -0.0039559160796825013 -0.047104286568396894 0 -0.0049224960340244189 -0.046825876992893672 0 -0.0047548960454579289 -0.046913134248611522 0 -0.0049224960340244189 -0.046825876992893672 0 -0.0055611800617836153 -0.046615921288105044 0 -0.0041555881373918019 -0.046355482877765232 0 -0.0055912482346099062 -0.046749976931112588 0 -0.0043272883018890609 -0.046322357487527534 0 -0.0055945187135130999 -0.04657126302357463 0 -0.0049224960340244189 -0.046825876992893672 0 -0.0055611800617836153 -0.046615921288105044 0 -0.0056991365215304998 -0.046918740734158498 0 -0.0056314944429242736 -0.046020059922895859 0 -0.0041555881373918019 -0.046355482877765232 0 -0.0041555881373918019 -0.046355482877765232 0 -0.0031913587031653472 -0.045640188203445418 0 -0.0024116629325007782 -0.046296547785998163 0 -0.0039559160796825013 -0.047104286568396894 0 -0.0041555881373918019 -0.046355482877765232 0 -0.0024116629325007782 -0.046296547785998163 0 -0.0031913587031653472 -0.045640188203445418 0 -0.0043005191163950768 -0.044999660618953274 0 -0.0019570418297394855 -0.044999556173571896 0 -0.0041555881373918019 -0.046355482877765232 0 -0.0031913587031653472 -0.045640188203445418 0 -0.0043005191163950768 -0.044999660618953274 0 -0.0056314944429242736 -0.046020059922895859 0 -0.0041555881373918019 -0.046355482877765232 0 -0.0043005191163950768 -0.044999660618953274 0 -0.0066412446275516731 -0.04499972564012384 0 -0.0056314944429242736 -0.046020059922895859 0 -0.0043005191163950768 -0.044999660618953274 0 -0.0010022061169358272 -0.047093772278398206 0 -0.0024116629325007782 -0.046296547785998163 0 -0.0006498825376909399 -0.045938560758607361 0 -0.0010022061169358272 -0.047093772278398206 0 -0.0006498825376909399 -0.045938560758607361 0 0.00013817663352946719 -0.046787603543242448 0 -0.0024853168342513247 -0.047425561836440276 0 -0.0010022061169358272 -0.047093772278398206 0 -0.0024116629325007782 -0.046296547785998163 0 -0.0024853168342513247 -0.047425561836440276 0 -0.0039559160796825013 -0.047104286568396894 0 -0.0024116629325007782 -0.046296547785998163 0 -0.0024116629325007782 -0.046296547785998163 0 -0.0019570418297394855 -0.044999556173571896 0 -0.0006498825376909399 -0.045938560758607361 0 -0.0031913587031653472 -0.045640188203445418 0 -0.0024116629325007782 -0.046296547785998163 0 -0.0019570418297394855 -0.044999556173571896 0 -0.0019570418297394855 -0.044999556173571896 0 -0.0006498825376909399 -0.045938560758607361 0 0.00038602800292099923 -0.044999791959086495 0 -0.0006498825376909399 -0.045938560758607361 0 0.00082963072973953121 -0.045852033095234133 0 0.00038602800292099923 -0.044999791959086495 0 0.00082963072973953121 -0.045852033095234133 0 0.00038602800292099923 -0.044999791959086495 0 0.0027292547454924321 -0.04499992571522847 0 -0.0006498825376909399 -0.045938560758607361 0 0.00082963072973953121 -0.045852033095234133 0 0.00013817663352946719 -0.046787603543242448 0 0.0010860040118900872 -0.047004363232924659 0 0.00013817663352946719 -0.046787603543242448 0 0.00041866523996611331 -0.048210443920316662 0 0.00082963072973953121 -0.045852033095234133 0 0.0010860040118900872 -0.047004363232924659 0 0.00013817663352946719 -0.046787603543242448 0 0.00082963072973953121 -0.045852033095234133 0 0.0010860040118900872 -0.047004363232924659 0 0.0020049881726432058 -0.046090547739411819 0 0.0010860040118900872 -0.047004363232924659 0 0.0020049881726432058 -0.046090547739411819 0 0.0021616268581451845 -0.047868706210947021 0 0.00082963072973953121 -0.045852033095234133 0 0.0027292547454924321 -0.04499992571522847 0 0.0023254555947370046 -0.046347360600364873 0 0.0010527042276492463 -0.045914596028156951 0 0.0020458614068735491 -0.046154346342846708 0 0.0027292547454924321 -0.04499992571522847 0 0.0050722476523825917 -0.045000016851289591 0 0.0037415146632682897 -0.046725643961267924 0 0.0027292547454924321 -0.04499992571522847 0 0.0023254555947370046 -0.046347360600364873 0 0.0037415146632682897 -0.046725643961267924 0 0.0050709732046966671 -0.045001803427376939 0 0.0044605978077553376 -0.045589615904009055 0 0.0050724740506681767 -0.044999967918846369 0 0.0056592514795131442 -0.047126364467374657 0 0.0038763992287075147 -0.046644884864141041 0 0.008349379443539473 -0.04077552110326426 0 0.0071491836833965684 -0.041175955478109323 0 0.008349379443539473 -0.04077552110326426 0 0.0044605978077553376 -0.045589615904009055 0 0.0089433196754961745 -0.040493796042333975 0 0.0066690928811586961 -0.039869252072920851 0 0.0066860253949206526 -0.04137489327954115 0 0.0092058117042808536 -0.040334820002090155 0 0.0066860253949206526 -0.04137489327954115 0 0.0081130070025679114 -0.04144503864166512 0 0.0020458614068735491 -0.046154346342846708 0 0.0044605978077553376 -0.045589615904009055 0 0.0044605978077553376 -0.045589615904009055 0 0.0049558786773630983 -0.041224380040532839 0 0.0020049881726432058 -0.046090547739411819 0 0.003266845140221567 -0.046396756463243545 0 0.0021616268581451845 -0.047868706210947021 0 0.0066690928811586961 -0.039869252072920851 0 0.0066860253949206526 -0.04137489327954115 0 0.005009582428771758 -0.041972224196829763 0 0.010227933883750694 -0.0388964059649127 0 0.0049558786773630983 -0.041224380040532839 0 0.01133884867589399 -0.036671260120992193 0 0.011037841938600693 -0.037939980212561099 0 0.0098527491765832975 -0.036920506058058133 0 0.0066860253949206526 -0.04137489327954115 0 0.0081130070025679114 -0.04144503864166512 0 0.005009582428771758 -0.041972224196829763 0 0.01133884867589399 -0.036671260120992193 0 0.011037841938600693 -0.037939980212561099 0 0.012151762482658006 -0.037448466286960677 0 0.011037841938600693 -0.037939980212561099 0 0.012151762482658006 -0.037448466286960677 0 0.011972917961159941 -0.038246532749357458 0 0.011037841938600693 -0.037939980212561099 0 0.0099892356344569912 -0.037972922590990922 0 0.0098527491765832975 -0.036920506058058133 0 0.0099892356344569912 -0.037972922590990922 0 0.0089208836483248514 -0.03810014930446131 0 0.0098527491765832975 -0.036920506058058133 0 0.0057218346956084618 -0.038481889653787626 0 0.0049558786773630983 -0.041224380040532839 0 0.0024369829775311032 -0.039925254243562407 0 0.002030150960703058 -0.039914643183761957 0 0.0021359736540424151 -0.040383332893385401 0 0.002030150960703058 -0.039914643183761957 0 0.0021359736540424151 -0.040383332893385401 0 0.0016949667192806205 -0.040466927742912176 0 -0.0010022061169358272 -0.047093772278398206 0 0.00013817663352946719 -0.046787603543242448 0 0.00041866523996611331 -0.048210443920316662 0 0.0010860040118900872 -0.047004363232924659 0 0.00041866523996611331 -0.048210443920316662 0 0.0021616268581451845 -0.047868706210947021 0 0.00055907039668435968 -0.044566988459427921 0 0.0049558786773630983 -0.041224380040532839 0 0.015628319790227111 -0.036327752904490911 0 0.014419087543025719 -0.035092852684144631 0 0.014353163412604749 -0.036335289927342994 0 0.015628319790227111 -0.036327752904490911 0 0.014353163412604749 -0.036335289927342994 0 0.015138237189328586 -0.037294252731260247 0 0.014153469787771607 -0.040390636349038007 0 0.011178443807447572 -0.043261745472360308 0 0.01242388817983116 -0.045376593821517389 0 0.011638226210761727 -0.045113623632606709 0 0.011381453216609487 -0.044999126949622145 0 0.0095090281612157344 -0.045724405141644699 0 0.0087786665135163155 -0.044999982976028044 0 0.011376748666442754 -0.044999995661578647 0 0.011178443807447572 -0.043261745472360308 0 0.01137524447116528 -0.045001206216788915 0 0.0094967725651708586 -0.045697403409704074 0 0.0087786271903998268 -0.044999941197009494 0 0.0075715726110253505 -0.046426644035298274 0 0.011178443807447572 -0.043261745472360308 0 0.010274768222641116 -0.04086602305605528 0 0.011178443807447572 -0.043261745472360308 0 0.0087801047686269576 -0.044999432365048768 0 0.014419087543025719 -0.035092852684144631 0 0.014353163412604749 -0.036335289927342994 0 0.012630384329482724 -0.035710755631117225 0 0.014353163412604749 -0.036335289927342994 0 0.012630384329482724 -0.035710755631117225 0 0.012218416050932056 -0.036872529663933458 0 0.014353163412604749 -0.036335289927342994 0 0.012936330468418406 -0.036460458747939517 0 0.013337905487840439 -0.036587292465717708 0 0.014403102906705965 -0.036079073618578435 0 0.012265800551300537 -0.037934079289213211 0 0.012265800551300537 -0.037934079289213211 0 0.012884172640437697 -0.037461432792079336 0 0.0087786271903998268 -0.044999941197009494 0 0.0075715726110253505 -0.046426644035298274 0 0.00692542108133675 -0.044999958919756639 0 0.0075715726110253505 -0.046426644035298274 0 0.0063069991810988154 -0.045889722608365414 0 0.00692542108133675 -0.044999958919756639 0 0.0050724740506681767 -0.044999967918846369 0 0.0056592514795131442 -0.047126364467374657 0 0.0063069991810988154 -0.045889722608365414 0 0.0050724740506681767 -0.044999967918846369 0 0.0063069991810988154 -0.045889722608365414 0 0.00692542108133675 -0.044999958919756639 0 0.008349379443539473 -0.04077552110326426 0 0.010274768222641116 -0.04086602305605528 0 0.008349379443539473 -0.04077552110326426 0 0.012265800551300537 -0.037934079289213211 0 0.0056592514795131442 -0.047126364467374657 0 0.0075715726110253505 -0.046426644035298274 0 0.0063069991810988154 -0.045889722608365414 0 0.01061495492391106 -0.036505987057400699 0 0.012630384329482724 -0.035710755631117225 0 0.012218416050932056 -0.036872529663933458 0 0.0092058117042808536 -0.040334820002090155 0 0.0081130070025679114 -0.04144503864166512 0 0.011339648641205558 -0.040858363312786715 0 0.01289701961845164 -0.036449715797158139 0 0.012151762482658006 -0.037448466286960677 0 0.012991865762973513 -0.037194259111875766 0 0.01133884867589399 -0.036671260120992193 0 0.01289701961845164 -0.036449715797158139 0 0.012151762482658006 -0.037448466286960677 0 0.010227933883750694 -0.0388964059649127 0 0.012265800551300537 -0.037934079289213211 0 0.012151762482658006 -0.037448466286960677 0 0.012733564438836623 -0.037975415745687802 0 0.011972917961159941 -0.038246532749357458 0 0.012151762482658006 -0.037448466286960677 0 0.012733564438836623 -0.037975415745687802 0 0.012991865762973513 -0.037194259111875766 0 0.013596946230674638 -0.037633942298250282 0 0.014051658539771136 -0.038104961578109449 0 0.01347786253221857 -0.038477236644608621 0 0.012733564438836623 -0.037975415745687802 0 0.013596946230674638 -0.037633942298250282 0 0.012991865762973513 -0.037194259111875766 0 0.012733564438836623 -0.037975415745687802 0 0.013596946230674638 -0.037633942298250282 0 0.01347786253221857 -0.038477236644608621 0 0.013596946230674638 -0.037633942298250282 0 0.013481271548654375 -0.037096932558101682 0 0.014042297344344114 -0.036961491894003676 0 0.013596946230674638 -0.037633942298250282 0 0.013481271548654375 -0.037096932558101682 0 0.012991865762973513 -0.037194259111875766 0 0.01289701961845164 -0.036449715797158139 0 0.012991865762973513 -0.037194259111875766 0 0.013337905487840439 -0.036587292465717708 0 0.013481271548654375 -0.037096932558101682 0 0.012991865762973513 -0.037194259111875766 0 0.013337905487840439 -0.036587292465717708 0 0.013481271548654375 -0.037096932558101682 0 0.013337905487840439 -0.036587292465717708 0 0.014042297344344114 -0.036961491894003676 0 0.014042297344344114 -0.036961491894003676 0 0.014364971539602632 -0.037588120701150543 0 0.015138237189328586 -0.037294252731260247 0 0.014353163412604749 -0.036335289927342994 0 0.013337905487840439 -0.036587292465717708 0 0.014042297344344114 -0.036961491894003676 0 0.014353163412604749 -0.036335289927342994 0 0.014042297344344114 -0.036961491894003676 0 0.015138237189328586 -0.037294252731260247 0 0.013596946230674638 -0.037633942298250282 0 0.014042297344344114 -0.036961491894003676 0 0.014364971539602632 -0.037588120701150543 0 0.014791369120207464 -0.038196662761348886 0 0.014364971539602632 -0.037588120701150543 0 0.015138237189328586 -0.037294252731260247 0 0.013596946230674638 -0.037633942298250282 0 0.014051658539771136 -0.038104961578109449 0 0.014364971539602632 -0.037588120701150543 0 0.014051658539771136 -0.038104961578109449 0 0.014791369120207464 -0.038196662761348886 0 0.014364971539602632 -0.037588120701150543 0 0.014791369120207464 -0.038196662761348886 0 0.01581937203534375 -0.038353818499648661 0 0.015206585089757032 -0.038866434584814265 0 0.014791369120207464 -0.038196662761348886 0 0.01581937203534375 -0.038353818499648661 0 0.015138237189328586 -0.037294252731260247 0 0.015359728706885631 -0.039525547189590705 0 0.016148259299168122 -0.039155067455652323 0 0.016576566834035345 -0.039873748145697337 0 0.015359728706885631 -0.039525547189590705 0 0.014342886482316835 -0.039772125925234249 0 0.01539083332440818 -0.040289057810136593 0 0.015359728706885631 -0.039525547189590705 0 0.01539083332440818 -0.040289057810136593 0 0.016576566834035345 -0.039873748145697337 0 0.015359728706885631 -0.039525547189590705 0 0.015206585089757032 -0.038866434584814265 0 0.016148259299168122 -0.039155067455652323 0 0.01581937203534375 -0.038353818499648661 0 0.015206585089757032 -0.038866434584814265 0 0.016148259299168122 -0.039155067455652323 0 0.015359728706885631 -0.039525547189590705 0 0.015206585089757032 -0.038866434584814265 0 0.014372977237819079 -0.038912299529626083 0 0.014051658539771136 -0.038104961578109449 0 0.014791369120207464 -0.038196662761348886 0 0.014372977237819079 -0.038912299529626083 0 0.014791369120207464 -0.038196662761348886 0 0.015206585089757032 -0.038866434584814265 0 0.014372977237819079 -0.038912299529626083 0 0.014051658539771136 -0.038104961578109449 0 0.014372977237819079 -0.038912299529626083 0 0.01347786253221857 -0.038477236644608621 0 0.015359728706885631 -0.039525547189590705 0 0.014372977237819079 -0.038912299529626083 0 0.014342886482316835 -0.039772125925234249 0 0.014372977237819079 -0.038912299529626083 0 0.014342886482316835 -0.039772125925234249 0 0.013427809863425634 -0.039287721341241477 0 0.013427809863425634 -0.039287721341241477 0 0.012543944211558846 -0.038800184599354887 0 0.012282612236678741 -0.039597603335750076 0 0.013427809863425634 -0.039287721341241477 0 0.012282612236678741 -0.039597603335750076 0 0.013253356474255346 -0.040119492941862123 0 0.014342886482316835 -0.039772125925234249 0 0.013427809863425634 -0.039287721341241477 0 0.013253356474255346 -0.040119492941862123 0 0.013427809863425634 -0.039287721341241477 0 0.01347786253221857 -0.038477236644608621 0 0.012543944211558846 -0.038800184599354887 0 0.014372977237819079 -0.038912299529626083 0 0.013427809863425634 -0.039287721341241477 0 0.01347786253221857 -0.038477236644608621 0 0.012733564438836623 -0.037975415745687802 0 0.01347786253221857 -0.038477236644608621 0 0.012543944211558846 -0.038800184599354887 0 0.012733564438836623 -0.037975415745687802 0 0.012543944211558846 -0.038800184599354887 0 0.011972917961159941 -0.038246532749357458 0 0.012543944211558846 -0.038800184599354887 0 0.011972917961159941 -0.038246532749357458 0 0.011424343513201971 -0.039055614508328049 0 0.012543944211558846 -0.038800184599354887 0 0.012282612236678741 -0.039597603335750076 0 0.011424343513201971 -0.039055614508328049 0 0.012266299009664465 -0.040313508672668863 0 0.011905256233168574 -0.040813466661065466 0 0.010997472113911505 -0.040117755856629626 0 0.012282612236678741 -0.039597603335750076 0 0.012266299009664465 -0.040313508672668863 0 0.010997472113911505 -0.040117755856629626 0 0.012282612236678741 -0.039597603335750076 0 0.012266299009664465 -0.040313508672668863 0 0.013253356474255346 -0.040119492941862123 0 0.012266299009664465 -0.040313508672668863 0 0.011905256233168574 -0.040813466661065466 0 0.013093584291118416 -0.040953427970456403 0 0.013093584291118416 -0.040953427970456403 0 0.014102396811386671 -0.041747234415106235 0 0.012843376714189491 -0.042216053280895706 0 0.011905256233168574 -0.040813466661065466 0 0.013093584291118416 -0.040953427970456403 0 0.012843376714189491 -0.042216053280895706 0 0.013093584291118416 -0.040953427970456403 0 0.013253356474255346 -0.040119492941862123 0 0.014248504281274776 -0.04077203896428748 0 0.012266299009664465 -0.040313508672668863 0 0.013093584291118416 -0.040953427970456403 0 0.013253356474255346 -0.040119492941862123 0 0.014342886482316835 -0.039772125925234249 0 0.014248504281274776 -0.04077203896428748 0 0.01539083332440818 -0.040289057810136593 0 0.014342886482316835 -0.039772125925234249 0 0.013253356474255346 -0.040119492941862123 0 0.014248504281274776 -0.04077203896428748 0 0.014248504281274776 -0.04077203896428748 0 0.014102396811386671 -0.041747234415106235 0 0.015454389603785798 -0.041661707756392767 0 0.013093584291118416 -0.040953427970456403 0 0.014248504281274776 -0.04077203896428748 0 0.014102396811386671 -0.041747234415106235 0 0.014248504281274776 -0.04077203896428748 0 0.015454389603785798 -0.041661707756392767 0 0.01539083332440818 -0.040289057810136593 0 0.015454389603785798 -0.041661707756392767 0 0.01539083332440818 -0.040289057810136593 0 0.016956161034398752 -0.040565728956726305 0 0.010063911384769808 -0.038931097485185799 0 0.0097401274476340369 -0.040386989914872974 0 0.010125565788261886 -0.038934872913754838 0 0.010718690844403996 -0.039466312844061879 0 0.0097884992733371819 -0.039979804469408214 0 0.0089717153085773528 -0.039221162112795027 0 0.010125565788261886 -0.038934872913754838 0 0.0093266015287344871 -0.040501671770070989 0 0.007993046472886808 -0.04030215131477264 0 0.0079236218841504166 -0.039342971923414287 0 0.0089717153085773528 -0.039221162112795027 0 0.007993046472886808 -0.04030215131477264 0 0.0089717153085773528 -0.039221162112795027 0 0.0093266015287344871 -0.040501671770070989 0 0.0024303849673567102 -0.039265963027834368 0 0.0024369829775311032 -0.039925254243562407 0 0.002030150960703058 -0.039914643183761957 0 0.0051584510255217849 -0.039445795718217533 0 0.0057218346956084618 -0.038481889653787626 0 0.0079236218841504166 -0.039342971923414287 0 0.0089208836483248514 -0.03810014930446131 0 0.0089717153085773528 -0.039221162112795027 0 0.0089208836483248514 -0.03810014930446131 0 0.0089717153085773528 -0.039221162112795027 0 0.010125565788261886 -0.038934872913754838 0 0.0099892356344569912 -0.037972922590990922 0 0.0089208836483248514 -0.03810014930446131 0 0.010125565788261886 -0.038934872913754838 0 0.011037841938600693 -0.037939980212561099 0 0.010125565788261886 -0.038934872913754838 0 0.011424343513201971 -0.039055614508328049 0 0.011037841938600693 -0.037939980212561099 0 0.0099892356344569912 -0.037972922590990922 0 0.010125565788261886 -0.038934872913754838 0 0.011037841938600693 -0.037939980212561099 0 0.011972917961159941 -0.038246532749357458 0 0.011424343513201971 -0.039055614508328049 0 0.012282612236678741 -0.039597603335750076 0 0.011424343513201971 -0.039055614508328049 0 0.010997472113911505 -0.040117755856629626 0 0.011424343513201971 -0.039055614508328049 0 0.010718690844403996 -0.039466312844061879 0 0.010997472113911505 -0.040117755856629626 0 0.010125565788261886 -0.038934872913754838 0 0.011424343513201971 -0.039055614508328049 0 0.010718690844403996 -0.039466312844061879 0 0.010718690844403996 -0.039466312844061879 0 0.010997472113911505 -0.040117755856629626 0 0.0097884992733371819 -0.039979804469408214 0 0.010997472113911505 -0.040117755856629626 0 0.010005426790111223 -0.040473261716897614 0 0.0097884992733371819 -0.039979804469408214 0 0.011905256233168574 -0.040813466661065466 0 0.010997472113911505 -0.040117755856629626 0 0.010886451898144621 -0.04067919603578548 0 0.010997472113911505 -0.040117755856629626 0 0.010005426790111223 -0.040473261716897614 0 0.010886451898144621 -0.04067919603578548 0 0.010005426790111223 -0.040473261716897614 0 0.0097884992733371819 -0.039979804469408214 0 0.0096071366455645416 -0.040578720540627417 0 0.007993046472886808 -0.04030215131477264 0 0.0077649005704320071 -0.041324796932452709 0 0.0093266015287344871 -0.040501671770070989 0 0.0097401274476340369 -0.040386989914872974 0 0.0078103742161957177 -0.040321899842229447 0 0.0077649005704320071 -0.041324796932452709 0 0.0093266015287344871 -0.040501671770070989 0 0.0085707830087360989 -0.042024094335743847 0 0.0059165161089151808 -0.039379472467264469 0 0.006510528314245383 -0.038154214785695077 0 0.0079304594454397952 -0.039365688919028211 0 0.0078103742161957177 -0.040321899842229447 0 0.0088751494158332868 -0.039971717061298075 0 0.0060227665148771216 -0.039869079011570191 0 0.0078103742161957177 -0.040321899842229447 0 0.010005426790111223 -0.040473261716897614 0 0.0098950023607136707 -0.040727395571408191 0 0.010149186766035972 -0.040648136730979785 0 0.010005426790111223 -0.040473261716897614 0 0.0096071366455645416 -0.040578720540627417 0 0.0098950023607136707 -0.040727395571408191 0 0.0079304594454397952 -0.039365688919028211 0 0.0075748960333208932 -0.040780597068331863 0 0.0095449375358080124 -0.040772509380120669 0 0.0088751494158332868 -0.039971717061298075 0 0.009547731393308714 -0.040738351827940208 0 0.0059165161089151808 -0.039379472467264469 0 0.0079304594454397952 -0.039365688919028211 0 0.0062553923822701732 -0.039935245368356069 0 0.0079304594454397952 -0.039365688919028211 0 0.0062553923822701732 -0.039935245368356069 0 0.0075748960333208932 -0.040780597068331863 0 0.0060227665148771216 -0.039869079011570191 0 0.0060561187045790419 -0.039800521394548524 0 0.0057079009221909054 -0.04200475395100995 0 0.0063152078784145518 -0.041080878344794805 0 0.0072363251490616485 -0.041963086910589385 0 0.0063152078784145518 -0.041080878344794805 0 0.0075748960333208932 -0.040780597068331863 0 0.0072363251490616485 -0.041963086910589385 0 0.0062553923822701732 -0.039935245368356069 0 0.0063152078784145518 -0.041080878344794805 0 0.0075748960333208932 -0.040780597068331863 0 0.0075748960333208932 -0.040780597068331863 0 0.0072363251490616485 -0.041963086910589385 0 0.0087476648065217179 -0.041900789171735273 0 0.0075748960333208932 -0.040780597068331863 0 0.0087476648065217179 -0.041900789171735273 0 0.0095449375358080124 -0.040772509380120669 0 0.0072363251490616485 -0.041963086910589385 0 0.0087476648065217179 -0.041900789171735273 0 0.007783243568022423 -0.042858560813043942 0 0.0057079009221909054 -0.04200475395100995 0 0.0072363251490616485 -0.041963086910589385 0 0.0064263096605548329 -0.043180955302954765 0 0.0072363251490616485 -0.041963086910589385 0 0.0064263096605548329 -0.043180955302954765 0 0.007783243568022423 -0.042858560813043942 0 0.010342867050512747 -0.040951792832290841 0 0.0088987835765360311 -0.042295639725734357 0 0.010210362856403544 -0.040403632072784121 0 0.010417628756550302 -0.041701821958259479 0 0.0087838978015378662 -0.041612795863011247 0 0.0087476648065217179 -0.041900789171735273 0 0.010537251870948205 -0.041463023723840024 0 0.0090052901705603913 -0.042983537686194596 0 0.0087476648065217179 -0.041900789171735273 0 0.007783243568022423 -0.042858560813043942 0 0.0090052901705603913 -0.042983537686194596 0 0.0087476648065217179 -0.041900789171735273 0 0.0095449375358080124 -0.040772509380120669 0 0.010537251870948205 -0.041463023723840024 0 0.0095449375358080124 -0.040772509380120669 0 0.010537251870948205 -0.041463023723840024 0 0.010452225118359961 -0.040555061258270318 0 0.010537251870948205 -0.041463023723840024 0 0.010452225118359961 -0.040555061258270318 0 0.011138234804862472 -0.040190916799801975 0 0.0095449375358080124 -0.040772509380120669 0 0.010452225118359961 -0.040555061258270318 0 0.010149186766035972 -0.040648136730979785 0 0.0098950023607136707 -0.040727395571408191 0 0.0095449375358080124 -0.040772509380120669 0 0.010149186766035972 -0.040648136730979785 0 0.010005426790111223 -0.040473261716897614 0 0.010149186766035972 -0.040648136730979785 0 0.010886451898144621 -0.04067919603578548 0 0.010452225118359961 -0.040555061258270318 0 0.010886451898144621 -0.04067919603578548 0 0.011138234804862472 -0.040190916799801975 0 0.010452225118359961 -0.040555061258270318 0 0.010149186766035972 -0.040648136730979785 0 0.010886451898144621 -0.04067919603578548 0 0.010886451898144621 -0.04067919603578548 0 0.011334764469130581 -0.039898890515001208 0 0.011138234804862472 -0.040190916799801975 0 0.011905256233168574 -0.040813466661065466 0 0.010886451898144621 -0.04067919603578548 0 0.012843376714189491 -0.042216053280895706 0 0.011012625791616567 -0.040730683278696105 0 0.012213994918938898 -0.041055373974630736 0 0.011334764469130581 -0.039898890515001208 0 0.011633919875044496 -0.040042107428106086 0 0.012467648199546162 -0.039562290756559683 0 0.011633919875044496 -0.040042107428106086 0 0.011138234804862472 -0.040190916799801975 0 0.011370514200596997 -0.040347694404556406 0 0.011334764469130581 -0.039898890515001208 0 0.011633919875044496 -0.040042107428106086 0 0.011138234804862472 -0.040190916799801975 0 0.011633919875044496 -0.040042107428106086 0 0.012037161571928783 -0.040178383754723553 0 0.011370514200596997 -0.040347694404556406 0 0.015967197259545735 -0.04254276888116449 0 0.014856863987518877 -0.042978500673434755 0 0.01677073337773894 -0.043520821427458549 0 0.015454389603785798 -0.041661707756392767 0 0.015967197259545735 -0.04254276888116449 0 0.014856863987518877 -0.042978500673434755 0 0.015454389603785798 -0.041661707756392767 0 0.015967197259545735 -0.04254276888116449 0 0.016792286435203949 -0.042006068218105104 0 0.014102396811386671 -0.041747234415106235 0 0.012843376714189491 -0.042216053280895706 0 0.014856863987518877 -0.042978500673434755 0 0.014102396811386671 -0.041747234415106235 0 0.015454389603785798 -0.041661707756392767 0 0.014856863987518877 -0.042978500673434755 0 0.012213994918938898 -0.041055373974630736 0 0.013402376137520008 -0.041294182518596949 0 0.011633919875044496 -0.040042107428106086 0 0.012467648199546162 -0.039562290756559683 0 0.012037161571928783 -0.040178383754723553 0 0.012467648199546162 -0.039562290756559683 0 0.012654094882566663 -0.039999379918948225 0 0.012037161571928783 -0.040178383754723553 0 0.012467648199546162 -0.039562290756559683 0 0.013200789002523904 -0.039841042391338677 0 0.013703499199085945 -0.039718347394694084 0 0.013402376137520008 -0.041294182518596949 0 0.016562577781570536 -0.041314266216114406 0 0.012467648199546162 -0.039562290756559683 0 0.012654094882566663 -0.039999379918948225 0 0.013200789002523904 -0.039841042391338677 0 0.012654094882566663 -0.039999379918948225 0 0.013200789002523904 -0.039841042391338677 0 0.012912697848226634 -0.040375782055349314 0 0.013200789002523904 -0.039841042391338677 0 0.012912697848226634 -0.040375782055349314 0 0.01373242662262243 -0.040348028982936719 0 0.012912697848226634 -0.040375782055349314 0 0.013297827522158993 -0.04071966469256625 0 0.01373242662262243 -0.040348028982936719 0 0.012654094882566663 -0.039999379918948225 0 0.012912697848226634 -0.040375782055349314 0 0.012037161571928783 -0.040178383754723553 0 0.012912697848226634 -0.040375782055349314 0 0.012037161571928783 -0.040178383754723553 0 0.012200975502584404 -0.040713728853278348 0 0.012200975502584404 -0.040713728853278348 0 0.013297827522158993 -0.04071966469256625 0 0.01292877130164068 -0.041201608239251647 0 0.012912697848226634 -0.040375782055349314 0 0.012200975502584404 -0.040713728853278348 0 0.013297827522158993 -0.04071966469256625 0 0.010342867050512747 -0.040951792832290841 0 0.01106495884809014 -0.040246314416204083 0 0.010210362856403544 -0.040403632072784121 0 0.011370514200596997 -0.040347694404556406 0 0.011225274511199661 -0.040926043887710754 0 0.010210362856403544 -0.040403632072784121 0 0.011138234804862472 -0.040190916799801975 0 0.011370514200596997 -0.040347694404556406 0 0.012037161571928783 -0.040178383754723553 0 0.012200975502584404 -0.040713728853278348 0 0.011370514200596997 -0.040347694404556406 0 0.012200975502584404 -0.040713728853278348 0 0.011225274511199661 -0.040926043887710754 0 0.01187686596491588 -0.041562269271708557 0 0.012200975502584404 -0.040713728853278348 0 0.011370514200596997 -0.040347694404556406 0 0.011225274511199661 -0.040926043887710754 0 0.010210362856403544 -0.040403632072784121 0 0.011225274511199661 -0.040926043887710754 0 0.010417628756550302 -0.041701821958259479 0 0.011225274511199661 -0.040926043887710754 0 0.010417628756550302 -0.041701821958259479 0 0.01187686596491588 -0.041562269271708557 0 0.01187686596491588 -0.041562269271708557 0 0.012315524870520376 -0.042463490709250026 0 0.010861223786066715 -0.042938392078636749 0 0.010417628756550302 -0.041701821958259479 0 0.01187686596491588 -0.041562269271708557 0 0.010861223786066715 -0.042938392078636749 0 0.010417628756550302 -0.041701821958259479 0 0.010861223786066715 -0.042938392078636749 0 0.0091703111604387374 -0.043159372563284802 0 0.013709846647186961 -0.041050602934044819 0 0.01292877130164068 -0.041201608239251647 0 0.013601297981083831 -0.041796581618062698 0 0.01292877130164068 -0.041201608239251647 0 0.012676724837775341 -0.041749763999796567 0 0.013601297981083831 -0.041796581618062698 0 0.013297827522158993 -0.04071966469256625 0 0.013709846647186961 -0.041050602934044819 0 0.01292877130164068 -0.041201608239251647 0 0.012200975502584404 -0.040713728853278348 0 0.01187686596491588 -0.041562269271708557 0 0.01292877130164068 -0.041201608239251647 0 0.01187686596491588 -0.041562269271708557 0 0.01292877130164068 -0.041201608239251647 0 0.012676724837775341 -0.041749763999796567 0 0.012676724837775341 -0.041749763999796567 0 0.012315524870520376 -0.042463490709250026 0 0.013601297981083831 -0.041796581618062698 0 0.01187686596491588 -0.041562269271708557 0 0.012676724837775341 -0.041749763999796567 0 0.012315524870520376 -0.042463490709250026 0 0.012315524870520376 -0.042463490709250026 0 0.013601297981083831 -0.041796581618062698 0 0.013211079585029246 -0.04292927718992582 0 0.013601297981083831 -0.041796581618062698 0 0.013211079585029246 -0.04292927718992582 0 0.014414403719404487 -0.042747558915443767 0 0.013211079585029246 -0.04292927718992582 0 0.013945678224973543 -0.043795814291820147 0 0.014414403719404487 -0.042747558915443767 0 0.012315524870520376 -0.042463490709250026 0 0.013211079585029246 -0.04292927718992582 0 0.011933380077260747 -0.043729403290758313 0 0.011933380077260747 -0.043729403290758313 0 0.013945678224973543 -0.043795814291820147 0 0.012708432501240404 -0.045064230051047045 0 0.013211079585029246 -0.04292927718992582 0 0.011933380077260747 -0.043729403290758313 0 0.013945678224973543 -0.043795814291820147 0 0.010861223786066715 -0.042938392078636749 0 0.010731984687618209 -0.043952574209786252 0 0.009581916014167852 -0.044163096197338263 0 0.010861223786066715 -0.042938392078636749 0 0.009581916014167852 -0.044163096197338263 0 0.0091703111604387374 -0.043159372563284802 0 0.012315524870520376 -0.042463490709250026 0 0.011933380077260747 -0.043729403290758313 0 0.010861223786066715 -0.042938392078636749 0 0.011933380077260747 -0.043729403290758313 0 0.010861223786066715 -0.042938392078636749 0 0.010731984687618209 -0.043952574209786252 0 0.011933380077260747 -0.043729403290758313 0 0.010731984687618209 -0.043952574209786252 0 0.010551018954801827 -0.044971982367098998 0 0.010731984687618209 -0.043952574209786252 0 0.009581916014167852 -0.044163096197338263 0 0.010551018954801827 -0.044971982367098998 0 0.009581916014167852 -0.044163096197338263 0 0.0079399831899587357 -0.044451952353249856 0 0.008737947617056584 -0.045218931589249639 0 0.009581916014167852 -0.044163096197338263 0 0.0079399831899587357 -0.044451952353249856 0 0.0091703111604387374 -0.043159372563284802 0 0.0079399831899587357 -0.044451952353249856 0 0.0075197689509544788 -0.043676089682284841 0 0.0091703111604387374 -0.043159372563284802 0 0.0079399831899587357 -0.044451952353249856 0 0.0062845154982036555 -0.044986812482305613 0 0.0075197689509544788 -0.043676089682284841 0 0.0079399831899587357 -0.044451952353249856 0 0.0062845154982036555 -0.044986812482305613 0 0.0069937617706547477 -0.045464262892530742 0 0.0057935953159293186 -0.044979266491704847 0 0.0069170945440547105 -0.045490161884542669 0 0.0062845154982036555 -0.044986812482305613 0 0.0075197689509544788 -0.043676089682284841 0 0.0062126349077983797 -0.044110908834791664 0 0.0075197689509544788 -0.043676089682284841 0 0.0062126349077983797 -0.044110908834791664 0 0.0064263096605548329 -0.043180955302954765 0 0.0075197689509544788 -0.043676089682284841 0 0.0064263096605548329 -0.043180955302954765 0 0.007783243568022423 -0.042858560813043942 0 0.0075197689509544788 -0.043676089682284841 0 0.007783243568022423 -0.042858560813043942 0 0.0090052901705603913 -0.042983537686194596 0 0.010417628756550302 -0.041701821958259479 0 0.0087838978015378662 -0.041612795863011247 0 0.0091703111604387374 -0.043159372563284802 0 0.0076465463530792678 -0.043588816295662344 0 0.0088987835765360311 -0.042295639725734357 0 0.0075197689509544788 -0.043676089682284841 0 0.0087838978015378662 -0.041612795863011247 0 0.0091703111604387374 -0.043159372563284802 0 0.022143491248808995 -0.042597957192783233 0 0.021526444161157402 -0.042697650878894981 0 0.021775462358503566 -0.042245270445715903 0 0.022143491248808995 -0.042597957192783233 0 0.022750707903503489 -0.042738770301124357 0 0.022304056656385504 -0.042943625182724411 0 0.022143491248808995 -0.042597957192783233 0 0.021526444161157402 -0.042697650878894981 0 0.022304056656385504 -0.042943625182724411 0 0.021526444161157402 -0.042697650878894981 0 0.020891674705791646 -0.04259011827370552 0 0.020903481296219308 -0.042973627466743977 0 0.021526444161157402 -0.042697650878894981 0 0.020891674705791646 -0.04259011827370552 0 0.021094547128853367 -0.042261135084102147 0 0.021094547128853367 -0.042261135084102147 0 0.02132797300329865 -0.041733922582383773 0 0.020703961506915829 -0.041836937759654969 0 0.021526444161157402 -0.042697650878894981 0 0.021094547128853367 -0.042261135084102147 0 0.021775462358503566 -0.042245270445715903 0 0.020891674705791646 -0.04259011827370552 0 0.021094547128853367 -0.042261135084102147 0 0.020508201149481264 -0.042239036217773855 0 0.021094547128853367 -0.042261135084102147 0 0.020508201149481264 -0.042239036217773855 0 0.020703961506915829 -0.041836937759654969 0 0.021775462358503566 -0.042245270445715903 0 0.022212062705716375 -0.041915324341809057 0 0.02132797300329865 -0.041733922582383773 0 0.021094547128853367 -0.042261135084102147 0 0.021775462358503566 -0.042245270445715903 0 0.02132797300329865 -0.041733922582383773 0 0.022143491248808995 -0.042597957192783233 0 0.021775462358503566 -0.042245270445715903 0 0.022379555957297247 -0.04235105954766967 0 0.021775462358503566 -0.042245270445715903 0 0.022212062705716375 -0.041915324341809057 0 0.022379555957297247 -0.04235105954766967 0 0.022212062705716375 -0.041915324341809057 0 0.02299098149396956 -0.042372333176785175 0 0.02319332282512827 -0.041929564940053662 0 0.022212062705716375 -0.041915324341809057 0 0.02299098149396956 -0.042372333176785175 0 0.022379555957297247 -0.04235105954766967 0 0.02319332282512827 -0.041929564940053662 0 0.023881089164085573 -0.042651245914542092 0 0.024119228472335663 -0.042136400089321804 0 0.02299098149396956 -0.042372333176785175 0 0.02319332282512827 -0.041929564940053662 0 0.023881089164085573 -0.042651245914542092 0 0.02299098149396956 -0.042372333176785175 0 0.023881089164085573 -0.042651245914542092 0 0.023606602094995207 -0.042992768350688611 0 0.023881089164085573 -0.042651245914542092 0 0.023606602094995207 -0.042992768350688611 0 0.024211203480480951 -0.043076255458491822 0 0.02299098149396956 -0.042372333176785175 0 0.023606602094995207 -0.042992768350688611 0 0.022750707903503489 -0.042738770301124357 0 0.022143491248808995 -0.042597957192783233 0 0.022379555957297247 -0.04235105954766967 0 0.022750707903503489 -0.042738770301124357 0 0.02299098149396956 -0.042372333176785175 0 0.022379555957297247 -0.04235105954766967 0 0.022750707903503489 -0.042738770301124357 0 0.022750707903503489 -0.042738770301124357 0 0.022934129885390817 -0.043165260095811467 0 0.022304056656385504 -0.042943625182724411 0 0.023606602094995207 -0.042992768350688611 0 0.022750707903503489 -0.042738770301124357 0 0.022934129885390817 -0.043165260095811467 0 0.023606602094995207 -0.042992768350688611 0 0.024310840492917457 -0.043329933128207744 0 0.02389786726226403 -0.043397884064214201 0 0.023606602094995207 -0.042992768350688611 0 0.022934129885390817 -0.043165260095811467 0 0.02389786726226403 -0.043397884064214201 0 0.023606602094995207 -0.042992768350688611 0 0.024310840492917457 -0.043329933128207744 0 0.024211203480480951 -0.043076255458491822 0 0.02389786726226403 -0.043397884064214201 0 0.024536635829022598 -0.043534761113390247 0 0.023911342847179561 -0.043669751159919112 0 0.024310840492917457 -0.043329933128207744 0 0.02389786726226403 -0.043397884064214201 0 0.024536635829022598 -0.043534761113390247 0 0.022934129885390817 -0.043165260095811467 0 0.02389786726226403 -0.043397884064214201 0 0.022762556471359739 -0.043614541377600846 0 0.02389786726226403 -0.043397884064214201 0 0.022762556471359739 -0.043614541377600846 0 0.023911342847179561 -0.043669751159919112 0 0.022762556471359739 -0.043614541377600846 0 0.022214971871954564 -0.043346050578989284 0 0.02139701625607426 -0.043960294435641693 0 0.022934129885390817 -0.043165260095811467 0 0.022762556471359739 -0.043614541377600846 0 0.022214971871954564 -0.043346050578989284 0 0.022214971871954564 -0.043346050578989284 0 0.022304056656385504 -0.042943625182724411 0 0.021527198690690467 -0.043231270209906018 0 0.021526444161157402 -0.042697650878894981 0 0.022304056656385504 -0.042943625182724411 0 0.021527198690690467 -0.043231270209906018 0 0.022934129885390817 -0.043165260095811467 0 0.022214971871954564 -0.043346050578989284 0 0.022304056656385504 -0.042943625182724411 0 0.021526444161157402 -0.042697650878894981 0 0.021527198690690467 -0.043231270209906018 0 0.020903481296219308 -0.042973627466743977 0 0.021527198690690467 -0.043231270209906018 0 0.020604037964005086 -0.043485489979333575 0 0.02139701625607426 -0.043960294435641693 0 0.022214971871954564 -0.043346050578989284 0 0.021527198690690467 -0.043231270209906018 0 0.02139701625607426 -0.043960294435641693 0 0.018927548588523392 -0.042661411960496678 0 0.018794529876186905 -0.043861157162856469 0 0.020495254616465976 -0.043553254571773399 0 0.019798835301710345 -0.043098402732111851 0 0.020970698635575588 -0.04377783916337151 0 0.017598989875295748 -0.043241284155688425 0 0.017650887139207209 -0.042572284369617082 0 0.018927548588523392 -0.042661411960496678 0 0.017598989875295748 -0.043241284155688425 0 0.016972968367822187 -0.044225573236350776 0 0.018794529876186905 -0.043861157162856469 0 0.017598989875295748 -0.043241284155688425 0 0.018927548588523392 -0.042661411960496678 0 0.018794529876186905 -0.043861157162856469 0 0.018503560823344353 -0.042508597214208646 0 0.019798835301710345 -0.043098402732111851 0 0.017650887139207209 -0.042572284369617082 0 0.017544683544224369 -0.041908934845240657 0 0.018927548588523392 -0.042661411960496678 0 0.017598989875295748 -0.043241284155688425 0 0.017650887139207209 -0.042572284369617082 0 0.0169584464934718 -0.042692082212634194 0 0.017650887139207209 -0.042572284369617082 0 0.017198652308696979 -0.042288889337763869 0 0.0169584464934718 -0.042692082212634194 0 0.017650887139207209 -0.042572284369617082 0 0.017198652308696979 -0.042288889337763869 0 0.017544683544224369 -0.041908934845240657 0 0.017198652308696979 -0.042288889337763869 0 0.017118066820628036 -0.042030778834453629 0 0.016747762791715599 -0.042225297731556088 0 0.017198652308696979 -0.042288889337763869 0 0.017544683544224369 -0.041908934845240657 0 0.017118066820628036 -0.042030778834453629 0 0.017544683544224369 -0.041908934845240657 0 0.017118066820628036 -0.042030778834453629 0 0.01736344008445817 -0.041820321024065014 0 0.019921493112984651 -0.042999445935767426 0 0.020391145181428073 -0.043068673568288474 0 0.019836788311765198 -0.042929206202809135 0 0.019921493112984651 -0.042999445935767426 0 0.020391145181428073 -0.043068673568288474 0 0.020604037964005086 -0.043485489979333575 0 0.020391145181428073 -0.043068673568288474 0 0.020903481296219308 -0.042973627466743977 0 0.020604037964005086 -0.043485489979333575 0 0.021527198690690467 -0.043231270209906018 0 0.020903481296219308 -0.042973627466743977 0 0.020604037964005086 -0.043485489979333575 0 0.013945678224973543 -0.043795814291820147 0 0.015039167892832557 -0.043349728538721162 0 0.014414403719404487 -0.042747558915443767 0 0.013945678224973543 -0.043795814291820147 0 0.015039167892832557 -0.043349728538721162 0 0.015420941919602797 -0.044004086259962778 0 0.015039167892832557 -0.043349728538721162 0 0.015420941919602797 -0.044004086259962778 0 0.016222329614029203 -0.043236924380234021 0 0.015420941919602797 -0.044004086259962778 0 0.016222329614029203 -0.043236924380234021 0 0.016972968367822187 -0.044225573236350776 0 0.017598989875295748 -0.043241284155688425 0 0.016222329614029203 -0.043236924380234021 0 0.016972968367822187 -0.044225573236350776 0 0.017598989875295748 -0.043241284155688425 0 0.016222329614029203 -0.043236924380234021 0 0.0169584464934718 -0.042692082212634194 0 0.016222329614029203 -0.043236924380234021 0 0.0169584464934718 -0.042692082212634194 0 0.016257677287145094 -0.042562489126846396 0 0.0169584464934718 -0.042692082212634194 0 0.016747762791715599 -0.042225297731556088 0 0.016257677287145094 -0.042562489126846396 0 0.017198652308696979 -0.042288889337763869 0 0.0169584464934718 -0.042692082212634194 0 0.016747762791715599 -0.042225297731556088 0 0.016747762791715599 -0.042225297731556088 0 0.016257677287145094 -0.042562489126846396 0 0.015981421063409232 -0.041922929072973542 0 0.017118066820628036 -0.042030778834453629 0 0.016747762791715599 -0.042225297731556088 0 0.016712311021970915 -0.041862978423364519 0 0.016257677287145094 -0.042562489126846396 0 0.015389539495866127 -0.042636576455992725 0 0.015981421063409232 -0.041922929072973542 0 0.016222329614029203 -0.043236924380234021 0 0.016257677287145094 -0.042562489126846396 0 0.015389539495866127 -0.042636576455992725 0 0.015039167892832557 -0.043349728538721162 0 0.016222329614029203 -0.043236924380234021 0 0.015389539495866127 -0.042636576455992725 0 0.015389539495866127 -0.042636576455992725 0 0.014899044249778261 -0.041921966975757848 0 0.015981421063409232 -0.041922929072973542 0 0.015389539495866127 -0.042636576455992725 0 0.014414403719404487 -0.042747558915443767 0 0.014899044249778261 -0.041921966975757848 0 0.015039167892832557 -0.043349728538721162 0 0.015389539495866127 -0.042636576455992725 0 0.014414403719404487 -0.042747558915443767 0 0.013601297981083831 -0.041796581618062698 0 0.014414403719404487 -0.042747558915443767 0 0.014899044249778261 -0.041921966975757848 0 0.013601297981083831 -0.041796581618062698 0 0.014899044249778261 -0.041921966975757848 0 0.014575331874239712 -0.041119454055037793 0 0.014899044249778261 -0.041921966975757848 0 0.015588759686365382 -0.041334689319506984 0 0.014575331874239712 -0.041119454055037793 0 0.016541468756738155 -0.041405444401253218 0 0.015947805416170215 -0.040338216116549724 0 0.01722153770538995 -0.042064054370359941 0 0.0178458043091884 -0.041238865143039753 0 0.018131783238472771 -0.042320657863567944 0 0.015588759686365382 -0.041334689319506984 0 0.015981421063409232 -0.041922929072973542 0 0.016541468756738155 -0.041405444401253218 0 0.014899044249778261 -0.041921966975757848 0 0.015588759686365382 -0.041334689319506984 0 0.015981421063409232 -0.041922929072973542 0 0.016747762791715599 -0.042225297731556088 0 0.015981421063409232 -0.041922929072973542 0 0.016712311021970915 -0.041862978423364519 0 0.015981421063409232 -0.041922929072973542 0 0.016712311021970915 -0.041862978423364519 0 0.016541468756738155 -0.041405444401253218 0 0.015588759686365382 -0.041334689319506984 0 0.016541468756738155 -0.041405444401253218 0 0.015947805416170215 -0.040338216116549724 0 0.015588759686365382 -0.041334689319506984 0 0.015947805416170215 -0.040338216116549724 0 0.014575331874239712 -0.041119454055037793 0 0.013709846647186961 -0.041050602934044819 0 0.014575331874239712 -0.041119454055037793 0 0.013952696310460476 -0.040783572165229612 0 0.014475366962335623 -0.041108354985757517 0 0.014336762228758446 -0.040061551347430308 0 0.015947805416170215 -0.040338216116549724 0 0.014575331874239712 -0.041119454055037793 0 0.014621305695506336 -0.039575387167692232 0 0.013709846647186961 -0.041050602934044819 0 0.013601297981083831 -0.041796581618062698 0 0.014575331874239712 -0.041119454055037793 0 0.020891674705791646 -0.04259011827370552 0 0.020309024340069221 -0.042662574404834355 0 0.020508201149481264 -0.042239036217773855 0 0.020891674705791646 -0.04259011827370552 0 0.020903481296219308 -0.042973627466743977 0 0.020309024340069221 -0.042662574404834355 0 0.020391145181428073 -0.043068673568288474 0 0.020903481296219308 -0.042973627466743977 0 0.020309024340069221 -0.042662574404834355 0 0.020391145181428073 -0.043068673568288474 0 0.020309024340069221 -0.042662574404834355 0 0.020137169585488918 -0.042845369307803187 0 0.019167556703849405 -0.042121395736085053 0 0.019836788311765198 -0.042929206202809135 0 0.0197978565044724 -0.042497580387738869 0 0.020391145181428073 -0.043068673568288474 0 0.020137169585488918 -0.042845369307803187 0 0.019836788311765198 -0.042929206202809135 0 0.020005274475223038 -0.042727345248958978 0 0.019836788311765198 -0.042929206202809135 0 0.0197978565044724 -0.042497580387738869 0 0.020137169585488918 -0.042845369307803187 0 0.020005274475223038 -0.042727345248958978 0 0.019836788311765198 -0.042929206202809135 0 0.020309024340069221 -0.042662574404834355 0 0.020137169585488918 -0.042845369307803187 0 0.020005274475223038 -0.042727345248958978 0 0.016712311021970915 -0.041862978423364519 0 0.016541468756738155 -0.041405444401253218 0 0.01736344008445817 -0.041820321024065014 0 0.016720476806479756 -0.041296374166861313 0 0.018131783238472771 -0.042320657863567944 0 0.017118066820628036 -0.042030778834453629 0 0.016712311021970915 -0.041862978423364519 0 0.01736344008445817 -0.041820321024065014 0 0.018503560823344353 -0.042508597214208646 0 0.018131783238472771 -0.042320657863567944 0 0.020309024340069221 -0.042662574404834355 0 0.0197978565044724 -0.042497580387738869 0 0.01997016104006322 -0.042248010872796594 0 0.020309024340069221 -0.042662574404834355 0 0.020005274475223038 -0.042727345248958978 0 0.0197978565044724 -0.042497580387738869 0 0.0197978565044724 -0.042497580387738869 0 0.01997016104006322 -0.042248010872796594 0 0.019624085479234138 -0.042197423431787388 0 0.019167556703849405 -0.042121395736085053 0 0.0197978565044724 -0.042497580387738869 0 0.019624085479234138 -0.042197423431787388 0 0.01997016104006322 -0.042248010872796594 0 0.019624085479234138 -0.042197423431787388 0 0.019569292531402202 -0.04193432161250054 0 0.019167556703849405 -0.042121395736085053 0 0.019624085479234138 -0.042197423431787388 0 0.019569292531402202 -0.04193432161250054 0 0.01997016104006322 -0.042248010872796594 0 0.02009707562646422 -0.041893494694760107 0 0.019569292531402202 -0.04193432161250054 0 0.01997016104006322 -0.042248010872796594 0 0.020508201149481264 -0.042239036217773855 0 0.02009707562646422 -0.041893494694760107 0 0.020309024340069221 -0.042662574404834355 0 0.01997016104006322 -0.042248010872796594 0 0.020508201149481264 -0.042239036217773855 0 0.020508201149481264 -0.042239036217773855 0 0.02009707562646422 -0.041893494694760107 0 0.020703961506915829 -0.041836937759654969 0 0.02009707562646422 -0.041893494694760107 0 0.019631020835447446 -0.041589751045408241 0 0.020258053215928867 -0.041488284474868541 0 0.02009707562646422 -0.041893494694760107 0 0.020258053215928867 -0.041488284474868541 0 0.020703961506915829 -0.041836937759654969 0 0.02009707562646422 -0.041893494694760107 0 0.019569292531402202 -0.04193432161250054 0 0.019631020835447446 -0.041589751045408241 0 0.019569292531402202 -0.04193432161250054 0 0.019631020835447446 -0.041589751045408241 0 0.019158040574064256 -0.041647374364952097 0 0.019631020835447446 -0.041589751045408241 0 0.019158040574064256 -0.041647374364952097 0 0.01893005420172824 -0.04138325363895258 0 0.019631020835447446 -0.041589751045408241 0 0.01966632612991329 -0.041308909505051124 0 0.01893005420172824 -0.04138325363895258 0 0.01966632612991329 -0.041308909505051124 0 0.020258053215928867 -0.041488284474868541 0 0.020172436685229663 -0.041014587139330719 0 0.019631020835447446 -0.041589751045408241 0 0.01966632612991329 -0.041308909505051124 0 0.020258053215928867 -0.041488284474868541 0 0.013297827522158993 -0.04071966469256625 0 0.013952696310460476 -0.040783572165229612 0 0.01373242662262243 -0.040348028982936719 0 0.015947805416170215 -0.040338216116549724 0 0.014621305695506336 -0.039575387167692232 0 0.014599629938056646 -0.038151976763617292 0 0.014336762228758446 -0.040061551347430308 0 0.015216331700637326 -0.040293088499213973 0 0.013297827522158993 -0.04071966469256625 0 0.013709846647186961 -0.041050602934044819 0 0.013952696310460476 -0.040783572165229612 0 0.019167556703849405 -0.042121395736085053 0 0.019569292531402202 -0.04193432161250054 0 0.019158040574064256 -0.041647374364952097 0 0.019167556703849405 -0.042121395736085053 0 0.019158040574064256 -0.041647374364952097 0 0.018739187272333546 -0.041552448489545125 0 0.0178458043091884 -0.041238865143039753 0 0.015216331700637326 -0.040293088499213973 0 0.019158040574064256 -0.041647374364952097 0 0.01885520540326557 -0.041413158140614081 0 0.018739187272333546 -0.041552448489545125 0 0.019158040574064256 -0.041647374364952097 0 0.01885520540326557 -0.041413158140614081 0 0.01893005420172824 -0.04138325363895258 0 0.01885520540326557 -0.041413158140614081 0 0.018739187272333546 -0.041552448489545125 0 0.018768052314198234 -0.041299338264409922 0 0.015216331700637326 -0.040293088499213973 0 0.016562577781570536 -0.041314266216114406 0 0.013018488902828263 -0.039809105285178725 0 0.015216331700637326 -0.040293088499213973 0 0.013200789002523904 -0.039841042391338677 0 0.013740592157562995 -0.040729970247558346 0 0.013703499199085945 -0.039718347394694084 0 0.018010728993164662 -0.041407922718165451 0 0.01893005420172824 -0.04138325363895258 0 0.018531809987062445 -0.041065387768116308 0 0.016562577781570536 -0.041314266216114406 0 0.019502160860432029 -0.041529942900063774 0 0.01885520540326557 -0.041413158140614081 0 0.018768052314198234 -0.041299338264409922 0 0.01893005420172824 -0.04138325363895258 0 0.018531809987062445 -0.041065387768116308 0 0.018110110142066135 -0.04077810127483121 0 0.019073462978567386 -0.040773841168812386 0 0.018531809987062445 -0.041065387768116308 0 0.017751803596539856 -0.040908472000461341 0 0.018110110142066135 -0.04077810127483121 0 0.018010728993164662 -0.041407922718165451 0 0.018531809987062445 -0.041065387768116308 0 0.017751803596539856 -0.040908472000461341 0 0.016562577781570536 -0.041314266216114406 0 0.017291779362525739 -0.041646058200890866 0 0.015967197259545735 -0.04254276888116449 0 0.01677073337773894 -0.043520821427458549 0 0.016792286435203949 -0.042006068218105104 0 0.01966632612991329 -0.041308909505051124 0 0.019398204250172617 -0.041077723602894384 0 0.020172436685229663 -0.041014587139330719 0 0.01966632612991329 -0.041308909505051124 0 0.01893005420172824 -0.04138325363895258 0 0.019398204250172617 -0.041077723602894384 0 0.01893005420172824 -0.04138325363895258 0 0.018531809987062445 -0.041065387768116308 0 0.019398204250172617 -0.041077723602894384 0 0.018531809987062445 -0.041065387768116308 0 0.019398204250172617 -0.041077723602894384 0 0.019073462978567386 -0.040773841168812386 0 0.019398204250172617 -0.041077723602894384 0 0.01989077224781469 -0.040759941949239459 0 0.019073462978567386 -0.040773841168812386 0 0.019398204250172617 -0.041077723602894384 0 0.01989077224781469 -0.040759941949239459 0 0.020172436685229663 -0.041014587139330719 0 0.01989077224781469 -0.040759941949239459 0 0.020534688333207481 -0.0407171114848323 0 0.020172436685229663 -0.041014587139330719 0 0.020534688333207481 -0.0407171114848323 0 0.02094766671240169 -0.040337727742731283 0 0.02036831152375005 -0.041017113557433628 0 0.020534688333207481 -0.0407171114848323 0 0.021005313451812665 -0.040773912760408211 0 0.020601318672045336 -0.04086874133982335 0 0.020534688333207481 -0.0407171114848323 0 0.021005313451812665 -0.040773912760408211 0 0.02094766671240169 -0.040337727742731283 0 0.021005313451812665 -0.040773912760408211 0 0.020601318672045336 -0.04086874133982335 0 0.020751155395774767 -0.041269321650364246 0 0.020172436685229663 -0.041014587139330719 0 0.020601318672045336 -0.04086874133982335 0 0.020751155395774767 -0.041269321650364246 0 0.020534688333207481 -0.0407171114848323 0 0.020172436685229663 -0.041014587139330719 0 0.020601318672045336 -0.04086874133982335 0 0.020258053215928867 -0.041488284474868541 0 0.020172436685229663 -0.041014587139330719 0 0.020751155395774767 -0.041269321650364246 0 0.021005313451812665 -0.040773912760408211 0 0.020751155395774767 -0.041269321650364246 0 0.021590837964522772 -0.041304918212105475 0 0.022212062705716375 -0.041915324341809057 0 0.021590837964522772 -0.041304918212105475 0 0.02132797300329865 -0.041733922582383773 0 0.020751155395774767 -0.041269321650364246 0 0.021590837964522772 -0.041304918212105475 0 0.02132797300329865 -0.041733922582383773 0 0.020751155395774767 -0.041269321650364246 0 0.02132797300329865 -0.041733922582383773 0 0.020703961506915829 -0.041836937759654969 0 0.020258053215928867 -0.041488284474868541 0 0.020751155395774767 -0.041269321650364246 0 0.020703961506915829 -0.041836937759654969 0 0.02319332282512827 -0.041929564940053662 0 0.023092653651738879 -0.041244746061608342 0 0.022370116140779259 -0.04147818260102528 0 0.02319332282512827 -0.041929564940053662 0 0.023092653651738879 -0.041244746061608342 0 0.023965765245881079 -0.041462836057361285 0 0.02319332282512827 -0.041929564940053662 0 0.023965765245881079 -0.041462836057361285 0 0.024119228472335663 -0.042136400089321804 0 0.022212062705716375 -0.041915324341809057 0 0.021590837964522772 -0.041304918212105475 0 0.022370116140779259 -0.04147818260102528 0 0.022212062705716375 -0.041915324341809057 0 0.02319332282512827 -0.041929564940053662 0 0.022370116140779259 -0.04147818260102528 0 0.021590837964522772 -0.041304918212105475 0 0.022370116140779259 -0.04147818260102528 0 0.022133332487216245 -0.040767253594264308 0 0.021005313451812665 -0.040773912760408211 0 0.021590837964522772 -0.041304918212105475 0 0.022133332487216245 -0.040767253594264308 0 0.023092653651738879 -0.041244746061608342 0 0.022133332487216245 -0.040767253594264308 0 0.024042192855530799 -0.04036637802806526 0 0.023092653651738879 -0.041244746061608342 0 0.022370116140779259 -0.04147818260102528 0 0.022133332487216245 -0.040767253594264308 0 0.022133332487216245 -0.040767253594264308 0 0.02094766671240169 -0.040337727742731283 0 0.02349998078873097 -0.039088683228898607 0 0.022133332487216245 -0.040767253594264308 0 0.024042192855530799 -0.04036637802806526 0 0.02349998078873097 -0.039088683228898607 0 0.021005313451812665 -0.040773912760408211 0 0.022133332487216245 -0.040767253594264308 0 0.02094766671240169 -0.040337727742731283 0 0.02094766671240169 -0.040337727742731283 0 0.02013008659152328 -0.041058708769108998 0 0.02036831152375005 -0.041017113557433628 0 0.02094766671240169 -0.040337727742731283 0 0.02013008659152328 -0.041058708769108998 0 0.02008634135580268 -0.041061856403325742 0 0.02013008659152328 -0.041058708769108998 0 0.020177161154654632 -0.040914451798504128 0 0.02008634135580268 -0.041061856403325742 0 0.02107823263654994 -0.040277223314136294 0 0.021892245477454261 -0.040130893711474387 0 0.02013008659152328 -0.041058708769108998 0 0.020007413815764871 -0.041178590114900812 0 0.019840316183986472 -0.041456058431666033 0 0.02013008659152328 -0.041058708769108998 0 0.020007413815764871 -0.041178590114900812 0 0.020177161154654632 -0.040914451798504128 0 0.020007413815764871 -0.041178590114900812 0 0.020177161154654632 -0.040914451798504128 0 0.020053146999759023 -0.041100459398693542 0 0.020007413815764871 -0.041178590114900812 0 0.019848441991231092 -0.041382438542584402 0 0.020053146999759023 -0.041100459398693542 0 0.020007413815764871 -0.041178590114900812 0 0.019848441991231092 -0.041382438542584402 0 0.019840316183986472 -0.041456058431666033 0 0.019848441991231092 -0.041382438542584402 0 0.019840316183986472 -0.041456058431666033 0 0.019615293241583547 -0.041681237836903133 0 0.019848441991231092 -0.041382438542584402 0 0.019723626961172032 -0.041551630853416129 0 0.019615293241583547 -0.041681237836903133 0 0.019848441991231092 -0.041382438542584402 0 0.019883420766099152 -0.041345971162629454 0 0.020053146999759023 -0.041100459398693542 0 0.019848441991231092 -0.041382438542584402 0 0.019883420766099152 -0.041345971162629454 0 0.019723626961172032 -0.041551630853416129 0 0.019840316183986472 -0.041456058431666033 0 0.019580788155938889 -0.041752857868435203 0 0.019408533039591599 -0.041890154621053818 0 0.019840316183986472 -0.041456058431666033 0 0.019615293241583547 -0.041681237836903133 0 0.019408533039591599 -0.041890154621053818 0 0.019840316183986472 -0.041456058431666033 0 0.02036831152375005 -0.041017113557433628 0 0.019580788155938889 -0.041752857868435203 0 0.02013008659152328 -0.041058708769108998 0 0.019840316183986472 -0.041456058431666033 0 0.02036831152375005 -0.041017113557433628 0 0.02036831152375005 -0.041017113557433628 0 0.019019494633113962 -0.04210919623499302 0 0.019580788155938889 -0.041752857868435203 0 0.020212496668874407 -0.041034581860815919 0 0.019557147694079218 -0.041185178664181789 0 0.020534688333207481 -0.0407171114848323 0 0.02036831152375005 -0.041017113557433628 0 0.020170184703205578 -0.040368817255637741 0 0.01989077224781469 -0.040759941949239459 0 0.020534688333207481 -0.0407171114848323 0 0.020170184703205578 -0.040368817255637741 0 0.019019494633113962 -0.04210919623499302 0 0.019580788155938889 -0.041752857868435203 0 0.019006970188964328 -0.042124618972920712 0 0.019580788155938889 -0.041752857868435203 0 0.019006970188964328 -0.042124618972920712 0 0.019408533039591599 -0.041890154621053818 0 0.019006970188964328 -0.042124618972920712 0 0.019408533039591599 -0.041890154621053818 0 0.019039403004632291 -0.042287349587405841 0 0.019006970188964328 -0.042124618972920712 0 0.01855731523750527 -0.042681971589761128 0 0.019039403004632291 -0.042287349587405841 0 0.019019494633113962 -0.04210919623499302 0 0.018530134669963876 -0.042312401787388265 0 0.018466116775908554 -0.042200062901575339 0 0.019019494633113962 -0.04210919623499302 0 0.019006970188964328 -0.042124618972920712 0 0.018530134669963876 -0.042312401787388265 0 0.019006970188964328 -0.042124618972920712 0 0.018530134669963876 -0.042312401787388265 0 0.018241302795893068 -0.042729099255598993 0 0.018530134669963876 -0.042312401787388265 0 0.018466116775908554 -0.042200062901575339 0 0.018063122596586934 -0.042584853343738002 0 0.018530134669963876 -0.042312401787388265 0 0.018241302795893068 -0.042729099255598993 0 0.018063122596586934 -0.042584853343738002 0 0.018241302795893068 -0.042729099255598993 0 0.01855731523750527 -0.042681971589761128 0 0.017976417121034788 -0.043282730496736047 0 0.018241302795893068 -0.042729099255598993 0 0.018063122596586934 -0.042584853343738002 0 0.017727193561606586 -0.043372237369870163 0 0.018241302795893068 -0.042729099255598993 0 0.017727193561606586 -0.043372237369870163 0 0.017976417121034788 -0.043282730496736047 0 0.019006970188964328 -0.042124618972920712 0 0.018241302795893068 -0.042729099255598993 0 0.01855731523750527 -0.042681971589761128 0 0.01855731523750527 -0.042681971589761128 0 0.018862052980590571 -0.042639060029191135 0 0.019039403004632291 -0.042287349587405841 0 0.01855731523750527 -0.042681971589761128 0 0.018862052980590571 -0.042639060029191135 0 0.018331841367550266 -0.043147531734720398 0 0.018862052980590571 -0.042639060029191135 0 0.019225123502820716 -0.042263035274103196 0 0.019039403004632291 -0.042287349587405841 0 0.018862052980590571 -0.042639060029191135 0 0.019225123502820716 -0.042263035274103196 0 0.019160666003340043 -0.04254753808500459 0 0.019225123502820716 -0.042263035274103196 0 0.01942943857336309 -0.042001136415457191 0 0.019160666003340043 -0.04254753808500459 0 0.019225123502820716 -0.042263035274103196 0 0.01942943857336309 -0.042001136415457191 0 0.019526398840765243 -0.041831066208003892 0 0.01942943857336309 -0.042001136415457191 0 0.01918209271778876 -0.042277865033319734 0 0.019160666003340043 -0.04254753808500459 0 0.01942943857336309 -0.042001136415457191 0 0.019526398840765243 -0.041831066208003892 0 0.019673928973055033 -0.041685053736710671 0 0.019526398840765243 -0.041831066208003892 0 0.019673928973055033 -0.041685053736710671 0 0.019794961836065467 -0.041489837179817073 0 0.019526398840765243 -0.041831066208003892 0 0.019794961836065467 -0.041489837179817073 0 0.019723626961172032 -0.041551630853416129 0 0.019883420766099152 -0.041345971162629454 0 0.019794961836065467 -0.041489837179817073 0 0.019723626961172032 -0.041551630853416129 0 0.019883420766099152 -0.041345971162629454 0 0.019794961836065467 -0.041489837179817073 0 0.020004196075777848 -0.041213971313654736 0 0.019526398840765243 -0.041831066208003892 0 0.019723626961172032 -0.041551630853416129 0 0.019615293241583547 -0.041681237836903133 0 0.019526398840765243 -0.041831066208003892 0 0.019615293241583547 -0.041681237836903133 0 0.019368264951481109 -0.041991600685775801 0 0.019615293241583547 -0.041681237836903133 0 0.019408533039591599 -0.041890154621053818 0 0.019368264951481109 -0.041991600685775801 0 0.019408533039591599 -0.041890154621053818 0 0.019039403004632291 -0.042287349587405841 0 0.019368264951481109 -0.041991600685775801 0 0.019225123502820716 -0.042263035274103196 0 0.019039403004632291 -0.042287349587405841 0 0.019368264951481109 -0.041991600685775801 0 0.019225123502820716 -0.042263035274103196 0 0.019526398840765243 -0.041831066208003892 0 0.019368264951481109 -0.041991600685775801 0 0.016956161034398752 -0.040565728956726305 0 0.017470896082994399 -0.040114787604880991 0 0.016576566834035345 -0.039873748145697337 0 0.01539083332440818 -0.040289057810136593 0 0.016956161034398752 -0.040565728956726305 0 0.016576566834035345 -0.039873748145697337 0 0.017291779362525739 -0.041646058200890866 0 0.01703243429739254 -0.040483744898152381 0 0.015454389603785798 -0.041661707756392767 0 0.016792286435203949 -0.042006068218105104 0 0.016956161034398752 -0.040565728956726305 0 0.017751803596539856 -0.040908472000461341 0 0.016956161034398752 -0.040565728956726305 0 0.018110110142066135 -0.04077810127483121 0 0.016956161034398752 -0.040565728956726305 0 0.018110110142066135 -0.04077810127483121 0 0.018210275334381625 -0.040415439664296171 0 0.016956161034398752 -0.040565728956726305 0 0.018210275334381625 -0.040415439664296171 0 0.017470896082994399 -0.040114787604880991 0 0.018210275334381625 -0.040415439664296171 0 0.017470896082994399 -0.040114787604880991 0 0.018164301521272297 -0.040065980147893601 0 0.018210275334381625 -0.040415439664296171 0 0.018164301521272297 -0.040065980147893601 0 0.019036630459547909 -0.040351123753532551 0 0.018164301521272297 -0.040065980147893601 0 0.019036630459547909 -0.040351123753532551 0 0.018906766346960667 -0.03977821923718633 0 0.018210275334381625 -0.040415439664296171 0 0.019036630459547909 -0.040351123753532551 0 0.019073462978567386 -0.040773841168812386 0 0.018110110142066135 -0.04077810127483121 0 0.018210275334381625 -0.040415439664296171 0 0.019073462978567386 -0.040773841168812386 0 0.01989077224781469 -0.040759941949239459 0 0.020170184703205578 -0.040368817255637741 0 0.019505806033736809 -0.040595199952760307 0 0.019036630459547909 -0.040351123753532551 0 0.019073462978567386 -0.040773841168812386 0 0.019505806033736809 -0.040595199952760307 0 0.01989077224781469 -0.040759941949239459 0 0.019073462978567386 -0.040773841168812386 0 0.019505806033736809 -0.040595199952760307 0 0.020170184703205578 -0.040368817255637741 0 0.019036630459547909 -0.040351123753532551 0 0.019505806033736809 -0.040595199952760307 0 0.020170184703205578 -0.040368817255637741 0 0.019036630459547909 -0.040351123753532551 0 0.018906766346960667 -0.03977821923718633 0 0.019557147694079218 -0.041185178664181789 0 0.018620156630058702 -0.040982793157382895 0 0.019019494633113962 -0.04210919623499302 0 0.018466116775908554 -0.042200062901575339 0 0.018265385074892074 -0.042246797940084367 0 0.018466116775908554 -0.042200062901575339 0 0.018289844960496529 -0.04198126852309185 0 0.018265385074892074 -0.042246797940084367 0 0.018466116775908554 -0.042200062901575339 0 0.018063122596586934 -0.042584853343738002 0 0.018289844960496529 -0.04198126852309185 0 0.018063122596586934 -0.042584853343738002 0 0.017630256190199881 -0.043363384949586123 0 0.017727193561606586 -0.043372237369870163 0 0.018063122596586934 -0.042584853343738002 0 0.017630256190199881 -0.043363384949586123 0 0.018289844960496529 -0.04198126852309185 0 0.018289844960496529 -0.04198126852309185 0 0.01790517682669774 -0.040837579557461194 0 0.017835387404034189 -0.039130590938323342 0 0.017630256190199881 -0.043363384949586123 0 0.018289844960496529 -0.04198126852309185 0 0.016869600659359434 -0.044479481222334478 0 0.018016315014942184 -0.041851864323791566 0 0.017193962501746051 -0.041681171809604817 0 0.018289844960496529 -0.04198126852309185 0 0.01790517682669774 -0.040837579557461194 0 0.018265385074892074 -0.042246797940084367 0 0.01790517682669774 -0.040837579557461194 0 0.018265385074892074 -0.042246797940084367 0 0.017213687934928328 -0.039935015230182315 0 0.018164301521272297 -0.040065980147893601 0 0.018906766346960667 -0.03977821923718633 0 0.017213687934928328 -0.039935015230182315 0 0.018620156630058702 -0.040982793157382895 0 0.017376724899700418 -0.040084633951572121 0 0.017470896082994399 -0.040114787604880991 0 0.018164301521272297 -0.040065980147893601 0 0.017213687934928328 -0.039935015230182315 0 0.017470896082994399 -0.040114787604880991 0 0.017213687934928328 -0.039935015230182315 0 0.016576566834035345 -0.039873748145697337 0 0.01790517682669774 -0.040837579557461194 0 0.017213687934928328 -0.039935015230182315 0 0.017835387404034189 -0.039130590938323342 0 0.017213687934928328 -0.039935015230182315 0 0.016811093752083929 -0.038876340546315953 0 0.017835387404034189 -0.039130590938323342 0 0.017213687934928328 -0.039935015230182315 0 0.016148259299168122 -0.039155067455652323 0 0.016811093752083929 -0.038876340546315953 0 0.01581937203534375 -0.038353818499648661 0 0.016148259299168122 -0.039155067455652323 0 0.016811093752083929 -0.038876340546315953 0 0.017213687934928328 -0.039935015230182315 0 0.016148259299168122 -0.039155067455652323 0 0.016576566834035345 -0.039873748145697337 0 0.014153469787771607 -0.040390636349038007 0 0.015659514913996159 -0.041441443399520557 0 0.015628319790227111 -0.036327752904490911 0 0.015138237189328586 -0.037294252731260247 0 0.016793846966402334 -0.037527479298150333 0 0.01581937203534375 -0.038353818499648661 0 0.016793846966402334 -0.037527479298150333 0 0.016811093752083929 -0.038876340546315953 0 0.01581937203534375 -0.038353818499648661 0 0.015138237189328586 -0.037294252731260247 0 0.016793846966402334 -0.037527479298150333 0 0.014655161538339288 -0.045419144577241617 0 0.016186615617844027 -0.044765607894970826 0 0.016869600659359434 -0.044479481222334478 0 0.016793846966402334 -0.037527479298150333 0 0.016811093752083929 -0.038876340546315953 0 0.017835387404034189 -0.039130590938323342 0 0.015659514913996159 -0.041441443399520557 0 0.017193962501746051 -0.041681171809604817 0 0.014655161538339288 -0.045419144577241617 0 0.016186615617844027 -0.044765607894970826 0 0.015409396641193911 -0.044963825944645236 0 0.016186615617844027 -0.044765607894970826 0 0.017130633846337832 -0.044117336157914938 0 0.016566409476982083 -0.044588078466893423 0 0.016186615617844027 -0.044765607894970826 0 0.016566409476982083 -0.044588078466893423 0 0.015409396641193911 -0.044963825944645236 0 0.017630256190199881 -0.043363384949586123 0 0.016869600659359434 -0.044479481222334478 0 0.017130633846337832 -0.044117336157914938 0 0.016186615617844027 -0.044765607894970826 0 0.016869600659359434 -0.044479481222334478 0 0.017130633846337832 -0.044117336157914938 0 0.017130633846337832 -0.044117336157914938 0 0.017727193561606586 -0.043372237369870163 0 0.017365412960415529 -0.043985376031856344 0 0.017630256190199881 -0.043363384949586123 0 0.017130633846337832 -0.044117336157914938 0 0.017727193561606586 -0.043372237369870163 0 0.016566409476982083 -0.044588078466893423 0 0.017365412960415529 -0.043985376031856344 0 0.016998010350723451 -0.044486773365399787 0 0.017130633846337832 -0.044117336157914938 0 0.016566409476982083 -0.044588078466893423 0 0.017365412960415529 -0.043985376031856344 0 0.016566409476982083 -0.044588078466893423 0 0.016012033899017359 -0.044884542652922299 0 0.016998010350723451 -0.044486773365399787 0 0.016012033899017359 -0.044884542652922299 0 0.015234144361636798 -0.044999205857171848 0 0.017158165056710181 -0.044998417712986336 0 0.016012033899017359 -0.044884542652922299 0 0.016998010350723451 -0.044486773365399787 0 0.017158165056710181 -0.044998417712986336 0 0.015234144361636798 -0.044999205857171848 0 0.014746252111644821 -0.045024503507309355 0 0.01330455539286771 -0.044999079474630721 0 0.016012033899017359 -0.044884542652922299 0 0.015234144361636798 -0.044999205857171848 0 0.014746252111644821 -0.045024503507309355 0 0.016012033899017359 -0.044884542652922299 0 0.014746252111644821 -0.045024503507309355 0 0.015409396641193911 -0.044963825944645236 0 0.016566409476982083 -0.044588078466893423 0 0.016012033899017359 -0.044884542652922299 0 0.015409396641193911 -0.044963825944645236 0 0.014746252111644821 -0.045024503507309355 0 0.015409396641193911 -0.044963825944645236 0 0.013695093983501772 -0.045141769481763766 0 0.014655161538339288 -0.045419144577241617 0 0.015409396641193911 -0.044963825944645236 0 0.013695093983501772 -0.045141769481763766 0 0.014746252111644821 -0.045024503507309355 0 0.013695093983501772 -0.045141769481763766 0 0.01330455539286771 -0.044999079474630721 0 0.01242388817983116 -0.045376593821517389 0 0.013695093983501772 -0.045141769481763766 0 0.011381453216609487 -0.044999126949622145 0 0.013695093983501772 -0.045141769481763766 0 0.01330455539286771 -0.044999079474630721 0 0.011381453216609487 -0.044999126949622145 0 0.01242388817983116 -0.045376593821517389 0 0.014655161538339288 -0.045419144577241617 0 0.013695093983501772 -0.045141769481763766 0 0.019186420495813913 -0.0441565366340455 0 0.019249090136252995 -0.043259142609850677 0 0.018165269446036109 -0.043331977450096565 0 0.019305256594430976 -0.043086265725609765 0 0.018769016853983057 -0.043027633950509181 0 0.020302615524346077 -0.044977928777844678 0 0.019305256594430976 -0.043086265725609765 0 0.019372863585160709 -0.04518941891090824 0 0.019305256594430976 -0.043086265725609765 0 0.019372863585160709 -0.04518941891090824 0 0.018171363942007385 -0.042923120051102701 0 0.019305256594430976 -0.043086265725609765 0 0.01918209271778876 -0.042277865033319734 0 0.018171363942007385 -0.042923120051102701 0 0.019305256594430976 -0.043086265725609765 0 0.019160666003340043 -0.04254753808500459 0 0.018769016853983057 -0.043027633950509181 0 0.019305256594430976 -0.043086265725609765 0 0.01918209271778876 -0.042277865033319734 0 0.019160666003340043 -0.04254753808500459 0 0.018165269446036109 -0.043331977450096565 0 0.018769016853983057 -0.043027633950509181 0 0.018331841367550266 -0.043147531734720398 0 0.018862052980590571 -0.042639060029191135 0 0.019160666003340043 -0.04254753808500459 0 0.018769016853983057 -0.043027633950509181 0 0.018862052980590571 -0.042639060029191135 0 0.018769016853983057 -0.043027633950509181 0 0.018331841367550266 -0.043147531734720398 0 0.01855731523750527 -0.042681971589761128 0 0.018331841367550266 -0.043147531734720398 0 0.017976417121034788 -0.043282730496736047 0 0.018331841367550266 -0.043147531734720398 0 0.017976417121034788 -0.043282730496736047 0 0.017845989896536348 -0.043556364861812143 0 0.017976417121034788 -0.043282730496736047 0 0.017365412960415529 -0.043985376031856344 0 0.017845989896536348 -0.043556364861812143 0 0.017727193561606586 -0.043372237369870163 0 0.017976417121034788 -0.043282730496736047 0 0.017365412960415529 -0.043985376031856344 0 0.017365412960415529 -0.043985376031856344 0 0.017845989896536348 -0.043556364861812143 0 0.017439346804329826 -0.043993744621371532 0 0.017365412960415529 -0.043985376031856344 0 0.016998010350723451 -0.044486773365399787 0 0.017439346804329826 -0.043993744621371532 0 0.018165269446036109 -0.043331977450096565 0 0.017845989896536348 -0.043556364861812143 0 0.017439346804329826 -0.043993744621371532 0 0.018165269446036109 -0.043331977450096565 0 0.018331841367550266 -0.043147531734720398 0 0.017845989896536348 -0.043556364861812143 0 0.018165269446036109 -0.043331977450096565 0 0.017364135320971068 -0.044132433449610313 0 0.017439346804329826 -0.043993744621371532 0 0.019186420495813913 -0.0441565366340455 0 0.018283295444047949 -0.044893540741222739 0 0.017364135320971068 -0.044132433449610313 0 0.016998010350723451 -0.044486773365399787 0 0.017439346804329826 -0.043993744621371532 0 0.017364135320971068 -0.044132433449610313 0 0.016998010350723451 -0.044486773365399787 0 0.017158165056710181 -0.044998417712986336 0 0.018283295444047949 -0.044893540741222739 0 0.017160703231070929 -0.044999878710244891 0 0.019172429148054157 -0.045757384418614599 0 0.017160404968269784 -0.045000221747290382 0 0.019141878026520186 -0.044999196582029451 0 0.019172429148054157 -0.045757384418614599 0 0.019141878026520186 -0.044999196582029451 0 0.020151173896468054 -0.04546407973481998 0 0.019141878026520186 -0.044999196582029451 0 0.020151173896468054 -0.04546407973481998 0 0.021116913394357284 -0.045000521454651186 0 0.020302615524346077 -0.044977928777844678 0 0.019172429148054157 -0.045757384418614599 0 0.020151173896468054 -0.04546407973481998 0 0.020302615524346077 -0.044977928777844678 0 0.020151173896468054 -0.04546407973481998 0 0.019372863585160709 -0.04518941891090824 0 0.022943056383511941 -0.046091026502283534 0 0.021955756621851532 -0.045478313595327426 0 0.023538197221847235 -0.046039561223543392 0 0.02221152169788734 -0.045516971760502761 0 0.023096561996946392 -0.046708640849530074 0 0.021121384535811038 -0.045000256247423702 0 0.021955756621851532 -0.045478313595327426 0 0.023208698405714288 -0.0449994750409324 0 0.020151173896468054 -0.04546407973481998 0 0.019372863585160709 -0.04518941891090824 0 0.021116913394357284 -0.045000521454651186 0 0.022943056383511941 -0.046091026502283534 0 0.021121384535811038 -0.045000256247423702 0 0.021955756621851532 -0.045478313595327426 0 0.020806922860981975 -0.045717930188203491 0 0.021120315465169844 -0.044999497585366734 0 0.021955756621851532 -0.045478313595327426 0 0.023208698405714288 -0.0449994750409324 0 0.023147662111795413 -0.045802014711907604 0 0.023147662111795413 -0.045802014711907604 0 0.024353301801103445 -0.045679304537424227 0 0.023966853936650045 -0.046324475367599323 0 0.023208698405714288 -0.0449994750409324 0 0.023147662111795413 -0.045802014711907604 0 0.024353301801103445 -0.045679304537424227 0 0.023208698405714288 -0.0449994750409324 0 0.025297241021777061 -0.04499969730776545 0 0.024353301801103445 -0.045679304537424227 0 0.024353301801103445 -0.045679304537424227 0 0.02485310230278566 -0.046225245669772742 0 0.025663133583529642 -0.045784775315449472 0 0.025297241021777061 -0.04499969730776545 0 0.024353301801103445 -0.045679304537424227 0 0.025663133583529642 -0.045784775315449472 0 0.02485310230278566 -0.046225245669772742 0 0.026397558769457367 -0.046911941072277911 0 0.025663133583529642 -0.045784775315449472 0 0.02485310230278566 -0.046225245669772742 0 0.024605325692539346 -0.047072183104337195 0 0.026397558769457367 -0.046911941072277911 0 0.024353301801103445 -0.045679304537424227 0 0.02485310230278566 -0.046225245669772742 0 0.023966853936650045 -0.046324475367599323 0 0.02485310230278566 -0.046225245669772742 0 0.024605325692539346 -0.047072183104337195 0 0.023966853936650045 -0.046324475367599323 0 0.021955756621851532 -0.045478313595327426 0 0.023147662111795413 -0.045802014711907604 0 0.023299556801913548 -0.04691647271525376 0 0.023147662111795413 -0.045802014711907604 0 0.023966853936650045 -0.046324475367599323 0 0.023299556801913548 -0.04691647271525376 0 0.024605325692539346 -0.047072183104337195 0 0.023966853936650045 -0.046324475367599323 0 0.023299556801913548 -0.04691647271525376 0 0.020806922860981975 -0.045717930188203491 0 0.023703111712176136 -0.043232726528138421 0 0.023538197221847235 -0.046039561223543392 0 0.024536090675213236 -0.046330448288684267 0 0.024196429048663284 -0.046612210390997853 0 0.022943056383511941 -0.046091026502283534 0 0.023538197221847235 -0.046039561223543392 0 0.024196429048663284 -0.046612210390997853 0 0.024605325692539346 -0.047072183104337195 0 0.023299556801913548 -0.04691647271525376 0 0.024815138072559167 -0.048149369275050487 0 0.023096561996946392 -0.046708640849530074 0 0.028806153787618867 -0.043913311752835547 0 0.031368331928797635 -0.040032020123692134 0 0.032610246124953723 -0.039994008052763139 0 0.032677972766832673 -0.038882465366246746 0 0.024605325692539346 -0.047072183104337195 0 0.024815138072559167 -0.048149369275050487 0 0.026397558769457367 -0.046911941072277911 0 0.028806153787618867 -0.043913311752835547 0 0.029830735508964569 -0.042507518068931154 0 0.033932531732474763 -0.042757167811811533 0 0.033966361461689028 -0.04221546287598673 0 0.034066801041469724 -0.042437490253365247 0 0.031368331928797635 -0.040032020123692134 0 0.032646456102588962 -0.041021566011162337 0 0.032610246124953723 -0.039994008052763139 0 0.028806153787618867 -0.043913311752835547 0 0.033464208823705426 -0.041637253087002619 0 0.033966361461689028 -0.04221546287598673 0 0.034066801041469724 -0.042437490253365247 0 0.03417058738697857 -0.042127923186218434 0 0.034066801041469724 -0.042437490253365247 0 0.034158438654130728 -0.042581272801395481 0 0.03417058738697857 -0.042127923186218434 0 0.018736372001991443 -0.043304295090352829 0 0.023703111712176136 -0.043232726528138421 0 0.01918209271778876 -0.042277865033319734 0 0.019403958186578529 -0.042142585276503039 0 0.019501183045031702 -0.041983638562104367 0 0.028806153787618867 -0.043913311752835547 0 0.023703111712176136 -0.043232726528138421 0 0.033932531732474763 -0.042757167811811533 0 0.034066801041469724 -0.042437490253365247 0 0.034158438654130728 -0.042581272801395481 0 0.034351475043523656 -0.041046122743675383 0 0.035603431052703707 -0.040333919553216711 0 0.035521618281880094 -0.041763180228401559 0 0.034351475043523656 -0.041046122743675383 0 0.035603431052703707 -0.040333919553216711 0 0.03377683121391431 -0.040064621421762238 0 0.032646456102588962 -0.041021566011162337 0 0.034351475043523656 -0.041046122743675383 0 0.03377683121391431 -0.040064621421762238 0 0.032646456102588962 -0.041021566011162337 0 0.03377683121391431 -0.040064621421762238 0 0.032610246124953723 -0.039994008052763139 0 0.03377683121391431 -0.040064621421762238 0 0.032610246124953723 -0.039994008052763139 0 0.032677972766832673 -0.038882465366246746 0 0.03377683121391431 -0.040064621421762238 0 0.034654981585256421 -0.038993199268227745 0 0.032677972766832673 -0.038882465366246746 0 0.035603431052703707 -0.040333919553216711 0 0.034654981585256421 -0.038993199268227745 0 0.036311093243083049 -0.039017326282500306 0 0.035603431052703707 -0.040333919553216711 0 0.03377683121391431 -0.040064621421762238 0 0.034654981585256421 -0.038993199268227745 0 0.034654981585256421 -0.038993199268227745 0 0.034231566071734706 -0.037479361214630608 0 0.035979456795323286 -0.037820908328637576 0 0.034654981585256421 -0.038993199268227745 0 0.034231566071734706 -0.037479361214630608 0 0.032677972766832673 -0.038882465366246746 0 0.029579460973808581 -0.044628211400247864 0 0.032268823322764546 -0.042599103410553757 0 0.029579460973808581 -0.044628211400247864 0 0.029830735508964569 -0.042507518068931154 0 0.027884598498157585 -0.045866725631751731 0 0.026397558769457367 -0.046911941072277911 0 0.026864506336168485 -0.045732432931526068 0 0.026397558769457367 -0.046911941072277911 0 0.025663133583529642 -0.045784775315449472 0 0.026864506336168485 -0.045732432931526068 0 0.025297241021777061 -0.04499969730776545 0 0.026864506336168485 -0.045732432931526068 0 0.027385028077490332 -0.044999626280861842 0 0.025297241021777061 -0.04499969730776545 0 0.025663133583529642 -0.045784775315449472 0 0.026864506336168485 -0.045732432931526068 0 0.027425971896687548 -0.04621519420131865 0 0.026864506336168485 -0.045732432931526068 0 0.027385028077490332 -0.044999626280861842 0 0.027425971896687548 -0.04621519420131865 0 0.027385028077490332 -0.044999626280861842 0 0.029472630402928877 -0.045000174812518223 0 0.029579460973808581 -0.044628211400247864 0 0.027545082276752064 -0.045005056221211696 0 0.027671416049625749 -0.046460452847544888 0 0.02947331001101449 -0.045000007999101192 0 0.028762760258156612 -0.047113037318669365 0 0.029579460973808581 -0.044628211400247864 0 0.02946906712877409 -0.045003047703566001 0 0.02947331001101449 -0.045000007999101192 0 0.030181635233490978 -0.046375020313310061 0 0.028762760258156612 -0.047113037318669365 0 0.02947331001101449 -0.045000007999101192 0 0.030181635233490978 -0.046375020313310061 0 0.031306231429423174 -0.044999962513942213 0 0.030181635233490978 -0.046375020313310061 0 0.031534977811110657 -0.046908861057254225 0 0.02989885138558401 -0.047791811000933486 0 0.032975489707695184 -0.046726098474547832 0 0.033584864307857724 -0.044189896705714188 0 0.030181635233490978 -0.046375020313310061 0 0.028762760258156612 -0.047113037318669365 0 0.02989885138558401 -0.047791811000933486 0 0.032268823322764546 -0.042599103410553757 0 0.033584864307857724 -0.044189896705714188 0 0.033249852762015961 -0.045981347654295797 0 0.033139637734828191 -0.044999975624588247 0 0.032218242892831886 -0.045593987888520052 0 0.031306231429423174 -0.044999962513942213 0 0.032218242892831886 -0.045593987888520052 0 0.031534977811110657 -0.046908861057254225 0 0.030181635233490978 -0.046375020313310061 0 0.031306231429423174 -0.044999962513942213 0 0.031534977811110657 -0.046908861057254225 0 0.033249852762015961 -0.045981347654295797 0 0.032218242892831886 -0.045593987888520052 0 0.031534977811110657 -0.046908861057254225 0 0.033139637734828191 -0.044999975624588247 0 0.031306231429423174 -0.044999962513942213 0 0.032218242892831886 -0.045593987888520052 0 0.03510176192615562 -0.04586402122342409 0 0.035141238021517023 -0.045934711221715489 0 0.035015508446790425 -0.045923826201057588 0 0.03510176192615562 -0.04586402122342409 0 0.035186058915072559 -0.045971358010783656 0 0.035141238021517023 -0.045934711221715489 0 0.034270421377789573 -0.045725810338926878 0 0.032975489707695184 -0.046726098474547832 0 0.035186058915072559 -0.045971358010783656 0 0.035323369330445033 -0.045869879026625947 0 0.035341528412656531 -0.046123613066052116 0 0.03510577769442888 -0.045669321632413239 0 0.035186058915072559 -0.045971358010783656 0 0.035323369330445033 -0.045869879026625947 0 0.03510577769442888 -0.045669321632413239 0 0.03510176192615562 -0.04586402122342409 0 0.035186058915072559 -0.045971358010783656 0 0.040169295224073726 -0.04114766775156186 0 0.039248850640822237 -0.044358806818887035 0 0.044163070185572514 -0.040142836738459725 0 0.043408458383930086 -0.042009543707311171 0 0.043577408769874287 -0.040753415145580819 0 0.044775212626674665 -0.040578240758237745 0 0.044163070185572514 -0.040142836738459725 0 0.043408458383930086 -0.042009543707311171 0 0.035186058915072559 -0.045971358010783656 0 0.035236966736315767 -0.04596597922598776 0 0.035341528412656531 -0.046123613066052116 0 0.035141238021517023 -0.045934711221715489 0 0.035236966736315767 -0.04596597922598776 0 0.035015508446790425 -0.045923826201057588 0 0.040169295224073726 -0.04114766775156186 0 0.033584864307857724 -0.044189896705714188 0 0.035186058915072559 -0.045971358010783656 0 0.035141238021517023 -0.045934711221715489 0 0.035236966736315767 -0.04596597922598776 0 0.04128451233844925 -0.040404459918971083 0 0.043985097036084615 -0.040323508869771631 0 0.039027511856222448 -0.042389311741297467 0 0.03955445118862546 -0.040009039038072715 0 0.040889314571147181 -0.039363508898220004 0 0.037923964412295619 -0.039554156364338004 0 0.03955445118862546 -0.040009039038072715 0 0.04128451233844925 -0.040404459918971083 0 0.039027511856222448 -0.042389311741297467 0 0.03955445118862546 -0.040009039038072715 0 0.04128451233844925 -0.040404459918971083 0 0.042658667495387777 -0.038599690106741649 0 0.040549772739677276 -0.039754802654783025 0 0.040169295224073726 -0.04114766775156186 0 0.04128451233844925 -0.040404459918971083 0 0.042658667495387777 -0.038599690106741649 0 0.043985097036084615 -0.040323508869771631 0 0.042658667495387777 -0.038599690106741649 0 0.044163070185572514 -0.040142836738459725 0 0.043985097036084615 -0.040323508869771631 0 0.040169295224073726 -0.04114766775156186 0 0.043470995034686127 -0.041095964781134912 0 0.043985097036084615 -0.040323508869771631 0 0.043954785081932499 -0.040108341039960922 0 0.044051158510278195 -0.039252403698833295 0 0.044163070185572514 -0.040142836738459725 0 0.043985097036084615 -0.040323508869771631 0 0.043954785081932499 -0.040108341039960922 0 0.043954785081932499 -0.040108341039960922 0 0.044051158510278195 -0.039252403698833295 0 0.043656767782739768 -0.039899112236432256 0 0.043954785081932499 -0.040108341039960922 0 0.043656767782739768 -0.039899112236432256 0 0.043577408769874287 -0.040753415145580819 0 0.044163070185572514 -0.040142836738459725 0 0.043954785081932499 -0.040108341039960922 0 0.043577408769874287 -0.040753415145580819 0 0.035603431052703707 -0.040333919553216711 0 0.036311093243083049 -0.039017326282500306 0 0.037923964412295619 -0.039554156364338004 0 0.036311093243083049 -0.039017326282500306 0 0.037692905018155344 -0.038239967809756949 0 0.037923964412295619 -0.039554156364338004 0 0.034654981585256421 -0.038993199268227745 0 0.035979456795323286 -0.037820908328637576 0 0.036311093243083049 -0.039017326282500306 0 0.035979456795323286 -0.037820908328637576 0 0.036311093243083049 -0.039017326282500306 0 0.037692905018155344 -0.038239967809756949 0 0.040889314571147181 -0.039363508898220004 0 0.037692905018155344 -0.038239967809756949 0 0.037923964412295619 -0.039554156364338004 0 0.03955445118862546 -0.040009039038072715 0 0.037923964412295619 -0.039554156364338004 0 0.037259978266323941 -0.041075054570663051 0 0.03955445118862546 -0.040009039038072715 0 0.037259978266323941 -0.041075054570663051 0 0.039027511856222448 -0.042389311741297467 0 0.035603431052703707 -0.040333919553216711 0 0.037923964412295619 -0.039554156364338004 0 0.037259978266323941 -0.041075054570663051 0 0.035603431052703707 -0.040333919553216711 0 0.037259978266323941 -0.041075054570663051 0 0.035521618281880094 -0.041763180228401559 0 0.037259978266323941 -0.041075054570663051 0 0.036719220161954523 -0.042769038820189953 0 0.035521618281880094 -0.041763180228401559 0 0.04205078804200503 -0.040299848531626853 0 0.041402213176230142 -0.040274128848792744 0 0.037259978266323941 -0.041075054570663051 0 0.039027511856222448 -0.042389311741297467 0 0.036719220161954523 -0.042769038820189953 0 0.044805401333117181 -0.037444657031607972 0 0.044916235835942446 -0.037602614364267123 0 0.044876102028048891 -0.036968671809931061 0 0.045185821117344004 -0.038155714735584531 0 0.044805401333117181 -0.037444657031607972 0 0.044916235835942446 -0.037602614364267123 0 0.043810552977573844 -0.03868929328820879 0 0.044051158510278195 -0.039252403698833295 0 0.044308538199295054 -0.037936804009353627 0 0.043810552977573844 -0.03868929328820879 0 0.044051158510278195 -0.039252403698833295 0 0.043656767782739768 -0.039899112236432256 0 0.043985097036084615 -0.040323508869771631 0 0.044051158510278195 -0.039252403698833295 0 0.044510737000778053 -0.038566944069010442 0 0.044051158510278195 -0.039252403698833295 0 0.044510737000778053 -0.038566944069010442 0 0.044308538199295054 -0.037936804009353627 0 0.043801381581102056 -0.040188180996245174 0 0.04205078804200503 -0.040299848531626853 0 0.044510737000778053 -0.038566944069010442 0 0.044916235835942446 -0.037602614364267123 0 0.044308538199295054 -0.037936804009353627 0 0.043985097036084615 -0.040323508869771631 0 0.045185821117344004 -0.038155714735584531 0 0.044510737000778053 -0.038566944069010442 0 0.045185821117344004 -0.038155714735584531 0 0.044510737000778053 -0.038566944069010442 0 0.044916235835942446 -0.037602614364267123 0 0.044916235835942446 -0.037602614364267123 0 0.044473701924060333 -0.036949892868929891 0 0.044308538199295054 -0.037936804009353627 0 0.044916235835942446 -0.037602614364267123 0 0.044473701924060333 -0.036949892868929891 0 0.044876102028048891 -0.036968671809931061 0 0.043810552977573844 -0.03868929328820879 0 0.044308538199295054 -0.037936804009353627 0 0.04362723437283457 -0.036456182476886437 0 0.044473701924060333 -0.036949892868929891 0 0.044308538199295054 -0.037936804009353627 0 0.04362723437283457 -0.036456182476886437 0 0.044473701924060333 -0.036949892868929891 0 0.044281328467279668 -0.036120959283485188 0 0.04362723437283457 -0.036456182476886437 0 0.044473701924060333 -0.036949892868929891 0 0.044281328467279668 -0.036120959283485188 0 0.044876102028048891 -0.036968671809931061 0 0.044281328467279668 -0.036120959283485188 0 0.044876102028048891 -0.036968671809931061 0 0.044800535295338881 -0.036104472591095171 0 0.044281328467279668 -0.036120959283485188 0 0.044069293455120846 -0.035551950700998557 0 0.043974842226375786 -0.035576597021892774 0 0.044281328467279668 -0.036120959283485188 0 0.044800535295338881 -0.036104472591095171 0 0.044069293455120846 -0.035551950700998557 0 0.044805401333117181 -0.037444657031607972 0 0.044869132491056507 -0.037176065396141982 0 0.043975129850239693 -0.037618267002172252 0 0.044805401333117181 -0.037444657031607972 0 0.044876102028048891 -0.036968671809931061 0 0.044869132491056507 -0.037176065396141982 0 0.039978706870533766 -0.034915568266258773 0 0.039187391573415033 -0.035316702206086951 0 0.035284441701919772 -0.033673511071056733 0 0.032745809488949368 -0.033680203002826078 0 0.032383017655877817 -0.034704980233806158 0 0.044876102028048891 -0.036968671809931061 0 0.044800535295338881 -0.036104472591095171 0 0.044869132491056507 -0.037176065396141982 0 0.032745809488949368 -0.033680203002826078 0 0.031539516671512377 -0.034452747519021221 0 0.032383017655877817 -0.034704980233806158 0 0.031539516671512377 -0.034452747519021221 0 0.031112326716789349 -0.03465905084313247 0 0.032383017655877817 -0.034704980233806158 0 0.031539516671512377 -0.034452747519021221 0 0.03142511797569493 -0.034653295358409629 0 0.031112326716789349 -0.03465905084313247 0 0.031539516671512377 -0.034452747519021221 0 0.031253061217160649 -0.034696272796257095 0 0.03142511797569493 -0.034653295358409629 0 0.032745809488949368 -0.033680203002826078 0 0.031539516671512377 -0.034452747519021221 0 0.031364582422315913 -0.034315668044891438 0 0.031539516671512377 -0.034452747519021221 0 0.031364582422315913 -0.034315668044891438 0 0.031253061217160649 -0.034696272796257095 0 0.039187391573415033 -0.035316702206086951 0 0.035409613378964748 -0.037650714438894659 0 0.031364582422315913 -0.034315668044891438 0 0.030974209078303179 -0.034996188644998212 0 0.031253061217160649 -0.034696272796257095 0 0.035409613378964748 -0.037650714438894659 0 0.031904737756758228 -0.036917535338241263 0 0.031926494467910418 -0.036290778153494505 0 0.030974209078303179 -0.034996188644998212 0 0.031724485880308732 -0.038359414730063164 0 0.031926494467910418 -0.036290778153494505 0 0.030974209078303179 -0.034996188644998212 0 0.031740755571541539 -0.035117332162625602 0 0.031926494467910418 -0.036290778153494505 0 0.032280605223927318 -0.034663098374742282 0 0.032917873997757571 -0.035391809905301552 0 0.029237136688612685 -0.036145718441502057 0 0.030974209078303179 -0.034996188644998212 0 0.031724485880308732 -0.038359414730063164 0 0.030974209078303179 -0.034996188644998212 0 0.03144593647613203 -0.034772244536097924 0 0.031740755571541539 -0.035117332162625602 0 0.030974209078303179 -0.034996188644998212 0 0.031253061217160649 -0.034696272796257095 0 0.03144593647613203 -0.034772244536097924 0 0.031253061217160649 -0.034696272796257095 0 0.03144593647613203 -0.034772244536097924 0 0.03142511797569493 -0.034653295358409629 0 0.03144593647613203 -0.034772244536097924 0 0.031719443229790749 -0.03474396856573797 0 0.03142511797569493 -0.034653295358409629 0 0.03144593647613203 -0.034772244536097924 0 0.031719443229790749 -0.03474396856573797 0 0.031740755571541539 -0.035117332162625602 0 0.031719443229790749 -0.03474396856573797 0 0.032280605223927318 -0.034663098374742282 0 0.03142511797569493 -0.034653295358409629 0 0.031719443229790749 -0.03474396856573797 0 0.031740755571541539 -0.035117332162625602 0 0.032280605223927318 -0.034663098374742282 0 0.031926494467910418 -0.036290778153494505 0 0.031740755571541539 -0.035117332162625602 0 0.032280605223927318 -0.034663098374742282 0 0.021804822213980325 -0.040104260337670783 0 0.023118235883534358 -0.040226523383284807 0 0.024781027595440652 -0.039497678432741962 0 0.032280605223927318 -0.034663098374742282 0 0.03142511797569493 -0.034653295358409629 0 0.031112326716789349 -0.03465905084313247 0 0.021382284065101589 -0.039896824435796722 0 0.021804822213980325 -0.040104260337670783 0 0.024781027595440652 -0.039497678432741962 0 0.026614842068671363 -0.037830051177151991 0 0.028117269861712441 -0.037176756475076358 0 0.021804822213980325 -0.040104260337670783 0 0.021188269536630094 -0.040790720154265186 0 0.023118235883534358 -0.040226523383284807 0 0.021804822213980325 -0.040104260337670783 0 0.020665820127258077 -0.040634233020824875 0 0.021188269536630094 -0.040790720154265186 0 0.021212147877946026 -0.040220681170934483 0 0.020665820127258077 -0.040634233020824875 0 0.020790085608616171 -0.040428288362301307 0 0.021804822213980325 -0.040104260337670783 0 0.021212147877946026 -0.040220681170934483 0 0.020665820127258077 -0.040634233020824875 0 0.021804822213980325 -0.040104260337670783 0 0.021212147877946026 -0.040220681170934483 0 0.021221813503007506 -0.040089999568638353 0 0.021382284065101589 -0.039896824435796722 0 0.021804822213980325 -0.040104260337670783 0 0.021221813503007506 -0.040089999568638353 0 0.020665820127258077 -0.040634233020824875 0 0.020177161154654632 -0.040914451798504128 0 0.02008634135580268 -0.041061856403325742 0 0.020665820127258077 -0.040634233020824875 0 0.020366536367582299 -0.040768414919014298 0 0.020790085608616171 -0.040428288362301307 0 0.020665820127258077 -0.040634233020824875 0 0.020177161154654632 -0.040914451798504128 0 0.020366536367582299 -0.040768414919014298 0 0.020177161154654632 -0.040914451798504128 0 0.020053146999759023 -0.041100459398693542 0 0.020366536367582299 -0.040768414919014298 0 0.020053146999759023 -0.041100459398693542 0 0.020366536367582299 -0.040768414919014298 0 0.020211128286738603 -0.040957458906408346 0 0.020366536367582299 -0.040768414919014298 0 0.020452485704702487 -0.040721294246844841 0 0.020790085608616171 -0.040428288362301307 0 0.020366536367582299 -0.040768414919014298 0 0.020452485704702487 -0.040721294246844841 0 0.020211128286738603 -0.040957458906408346 0 0.020452485704702487 -0.040721294246844841 0 0.020285952836259741 -0.040914254641683814 0 0.020415699075890671 -0.040789788156179368 0 0.020452485704702487 -0.040721294246844841 0 0.020285952836259741 -0.040914254641683814 0 0.020211128286738603 -0.040957458906408346 0 0.020285952836259741 -0.040914254641683814 0 0.020415699075890671 -0.040789788156179368 0 0.020222946686319142 -0.041009267732583038 0 0.020285952836259741 -0.040914254641683814 0 0.020125276168528987 -0.041097815990383493 0 0.020222946686319142 -0.041009267732583038 0 0.020285952836259741 -0.040914254641683814 0 0.020211128286738603 -0.040957458906408346 0 0.020125276168528987 -0.041097815990383493 0 0.019883420766099152 -0.041345971162629454 0 0.020053146999759023 -0.041100459398693542 0 0.020004196075777848 -0.041213971313654736 0 0.020053146999759023 -0.041100459398693542 0 0.020211128286738603 -0.040957458906408346 0 0.020004196075777848 -0.041213971313654736 0 0.020211128286738603 -0.040957458906408346 0 0.020004196075777848 -0.041213971313654736 0 0.020125276168528987 -0.041097815990383493 0 0.020863303145211672 -0.040359680458600708 0 0.021022053448603736 -0.040204135099489641 0 0.021221813503007506 -0.040089999568638353 0 0.020863303145211672 -0.040359680458600708 0 0.020882748072610417 -0.040335049021148477 0 0.021022053448603736 -0.040204135099489641 0 0.020920800274729728 -0.040255239515037344 0 0.021092924048140952 -0.040134348005155467 0 0.020813582254776974 -0.040400527046902515 0 0.020882748072610417 -0.040335049021148477 0 0.021092924048140952 -0.040134348005155467 0 0.021022053448603736 -0.040204135099489641 0 0.020882748072610417 -0.040335049021148477 0 0.021092924048140952 -0.040134348005155467 0 0.020813582254776974 -0.040400527046902515 0 0.021382284065101589 -0.039896824435796722 0 0.021022053448603736 -0.040204135099489641 0 0.021221813503007506 -0.040089999568638353 0 0.021382284065101589 -0.039896824435796722 0 0.021092924048140952 -0.040134348005155467 0 0.021022053448603736 -0.040204135099489641 0 0.026614842068671363 -0.037830051177151991 0 0.026749286920834277 -0.038056213255689669 0 0.021382284065101589 -0.039896824435796722 0 0.020920800274729728 -0.040255239515037344 0 0.021092924048140952 -0.040134348005155467 0 0.020863303145211672 -0.040359680458600708 0 0.021221813503007506 -0.040089999568638353 0 0.021022673413489845 -0.040267474696536312 0 0.021212147877946026 -0.040220681170934483 0 0.021221813503007506 -0.040089999568638353 0 0.021022673413489845 -0.040267474696536312 0 0.021212147877946026 -0.040220681170934483 0 0.021022673413489845 -0.040267474696536312 0 0.020790085608616171 -0.040428288362301307 0 0.020863303145211672 -0.040359680458600708 0 0.021022673413489845 -0.040267474696536312 0 0.020790085608616171 -0.040428288362301307 0 0.020452485704702487 -0.040721294246844841 0 0.020790085608616171 -0.040428288362301307 0 0.020597835075556344 -0.040600217591194011 0 0.020863303145211672 -0.040359680458600708 0 0.020790085608616171 -0.040428288362301307 0 0.020597835075556344 -0.040600217591194011 0 0.020863303145211672 -0.040359680458600708 0 0.020597835075556344 -0.040600217591194011 0 0.020673840415568263 -0.040542265448509286 0 0.020597835075556344 -0.040600217591194011 0 0.020415699075890671 -0.040789788156179368 0 0.020515321726242979 -0.040702763024024216 0 0.020597835075556344 -0.040600217591194011 0 0.020673840415568263 -0.040542265448509286 0 0.020515321726242979 -0.040702763024024216 0 0.020673840415568263 -0.040542265448509286 0 0.020515321726242979 -0.040702763024024216 0 0.020624806172495465 -0.040596187541444985 0 0.020452485704702487 -0.040721294246844841 0 0.020597835075556344 -0.040600217591194011 0 0.020415699075890671 -0.040789788156179368 0 0.020415699075890671 -0.040789788156179368 0 0.020353401769844081 -0.040875327669612153 0 0.020222946686319142 -0.041009267732583038 0 0.020415699075890671 -0.040789788156179368 0 0.020515321726242979 -0.040702763024024216 0 0.020353401769844081 -0.040875327669612153 0 0.020515321726242979 -0.040702763024024216 0 0.020518601626904241 -0.040707971433609394 0 0.020624806172495465 -0.040596187541444985 0 0.020515321726242979 -0.040702763024024216 0 0.020414683337460014 -0.040817862351597421 0 0.020353401769844081 -0.040875327669612153 0 0.020515321726242979 -0.040702763024024216 0 0.020518601626904241 -0.040707971433609394 0 0.020414683337460014 -0.040817862351597421 0 0.020518601626904241 -0.040707971433609394 0 0.020595092008382363 -0.040623688871963451 0 0.020432647668026157 -0.040802889457127595 0 0.020518601626904241 -0.040707971433609394 0 0.020432647668026157 -0.040802889457127595 0 0.020414683337460014 -0.040817862351597421 0 0.020595092008382363 -0.040623688871963451 0 0.020624806172495465 -0.040596187541444985 0 0.020697937249240222 -0.040520645787876119 0 0.020518601626904241 -0.040707971433609394 0 0.020595092008382363 -0.040623688871963451 0 0.020624806172495465 -0.040596187541444985 0 0.020595092008382363 -0.040623688871963451 0 0.020697937249240222 -0.040520645787876119 0 0.020813582254776974 -0.040400527046902515 0 0.020673840415568263 -0.040542265448509286 0 0.020624806172495465 -0.040596187541444985 0 0.020757678175822605 -0.040462287839887139 0 0.020624806172495465 -0.040596187541444985 0 0.020697937249240222 -0.040520645787876119 0 0.020757678175822605 -0.040462287839887139 0 0.020697937249240222 -0.040520645787876119 0 0.020757678175822605 -0.040462287839887139 0 0.020813582254776974 -0.040400527046902515 0 0.020882748072610417 -0.040335049021148477 0 0.020757678175822605 -0.040462287839887139 0 0.020813582254776974 -0.040400527046902515 0 0.020863303145211672 -0.040359680458600708 0 0.020673840415568263 -0.040542265448509286 0 0.020757678175822605 -0.040462287839887139 0 0.020863303145211672 -0.040359680458600708 0 0.020882748072610417 -0.040335049021148477 0 0.020757678175822605 -0.040462287839887139 0 0.020920800274729728 -0.040255239515037344 0 0.020595092008382363 -0.040623688871963451 0 0.020813582254776974 -0.040400527046902515 0 0.026749286920834277 -0.038056213255689669 0 0.027641639957804592 -0.041395545543840034 0 0.020595092008382363 -0.040623688871963451 0 0.020287200330875728 -0.040967028735458627 0 0.019747218992421111 -0.04157423611898256 0 0.031926494467910418 -0.036290778153494505 0 0.032917873997757571 -0.035391809905301552 0 0.034235301893375973 -0.04116042421840211 0 0.032917873997757571 -0.035391809905301552 0 0.034235301893375973 -0.04116042421840211 0 0.034549753023465628 -0.041636531982519619 0 0.020920800274729728 -0.040255239515037344 0 0.020595092008382363 -0.040623688871963451 0 0.019747218992421111 -0.04157423611898256 0 0.020287200330875728 -0.040967028735458627 0 0.020432647668026157 -0.040802889457127595 0 0.020348675321877899 -0.040894118646822179 0 0.020595092008382363 -0.040623688871963451 0 0.020287200330875728 -0.040967028735458627 0 0.020432647668026157 -0.040802889457127595 0 0.020414683337460014 -0.040817862351597421 0 0.020290197538934643 -0.04095515486782722 0 0.020348675321877899 -0.040894118646822179 0 0.020432647668026157 -0.040802889457127595 0 0.020414683337460014 -0.040817862351597421 0 0.020348675321877899 -0.040894118646822179 0 0.020414683337460014 -0.040817862351597421 0 0.020353401769844081 -0.040875327669612153 0 0.020290197538934643 -0.04095515486782722 0 0.020290197538934643 -0.04095515486782722 0 0.020221273340706905 -0.041026469258859159 0 0.020149792246447501 -0.041114492280839604 0 0.020353401769844081 -0.040875327669612153 0 0.020290197538934643 -0.04095515486782722 0 0.020221273340706905 -0.041026469258859159 0 0.020287200330875728 -0.040967028735458627 0 0.020290197538934643 -0.04095515486782722 0 0.020348675321877899 -0.040894118646822179 0 0.020221273340706905 -0.041026469258859159 0 0.020084830181315828 -0.041187223810187371 0 0.020222946686319142 -0.041009267732583038 0 0.020353401769844081 -0.040875327669612153 0 0.020221273340706905 -0.041026469258859159 0 0.020222946686319142 -0.041009267732583038 0 0.020221273340706905 -0.041026469258859159 0 0.020149792246447501 -0.041114492280839604 0 0.020084830181315828 -0.041187223810187371 0 0.020149792246447501 -0.041114492280839604 0 0.020084890118944487 -0.041190679523645683 0 0.020023038829861697 -0.041265578051663948 0 0.020149792246447501 -0.041114492280839604 0 0.020084830181315828 -0.041187223810187371 0 0.020023038829861697 -0.041265578051663948 0 0.020287200330875728 -0.040967028735458627 0 0.020192293954582496 -0.041070868710627255 0 0.019974317928088015 -0.041318349164696934 0 0.020192293954582496 -0.041070868710627255 0 0.020084890118944487 -0.041190679523645683 0 0.019974317928088015 -0.041318349164696934 0 0.020287200330875728 -0.040967028735458627 0 0.020290197538934643 -0.04095515486782722 0 0.020192293954582496 -0.041070868710627255 0 0.020290197538934643 -0.04095515486782722 0 0.020149792246447501 -0.041114492280839604 0 0.020192293954582496 -0.041070868710627255 0 0.020149792246447501 -0.041114492280839604 0 0.020192293954582496 -0.041070868710627255 0 0.020084890118944487 -0.041190679523645683 0 0.020287200330875728 -0.040967028735458627 0 0.019974317928088015 -0.041318349164696934 0 0.019747218992421111 -0.04157423611898256 0 0.020084890118944487 -0.041190679523645683 0 0.019974317928088015 -0.041318349164696934 0 0.020023038829861697 -0.041265578051663948 0 0.020084830181315828 -0.041187223810187371 0 0.020023038829861697 -0.041265578051663948 0 0.019932389614623233 -0.041386953758783845 0 0.019974317928088015 -0.041318349164696934 0 0.020023038829861697 -0.041265578051663948 0 0.019892285999743319 -0.041420592384717923 0 0.020023038829861697 -0.041265578051663948 0 0.019892285999743319 -0.041420592384717923 0 0.019932389614623233 -0.041386953758783845 0 0.019841220878855832 -0.041504499671310147 0 0.019892285999743319 -0.041420592384717923 0 0.019747218992421111 -0.04157423611898256 0 0.019841220878855832 -0.041504499671310147 0 0.019747218992421111 -0.04157423611898256 0 0.019734126803079378 -0.041654315786576301 0 0.019841220878855832 -0.041504499671310147 0 0.019892285999743319 -0.041420592384717923 0 0.019932389614623233 -0.041386953758783845 0 0.034235301893375973 -0.04116042421840211 0 0.034549753023465628 -0.041636531982519619 0 0.034175649470722803 -0.041767544809481361 0 0.019974317928088015 -0.041318349164696934 0 0.019892285999743319 -0.041420592384717923 0 0.019747218992421111 -0.04157423611898256 0 0.034235301893375973 -0.04116042421840211 0 0.034175649470722803 -0.041767544809481361 0 0.034073445772867257 -0.041892468618150838 0 0.034325853615948893 -0.041181848730387494 0 0.032878627076090253 -0.04022564675058974 0 0.034235301893375973 -0.04116042421840211 0 0.034161284456099193 -0.042374897860592835 0 0.034073445772867257 -0.041892468618150838 0 0.019673928973055033 -0.041685053736710671 0 0.019794961836065467 -0.041489837179817073 0 0.019929773013102774 -0.041352589455551904 0 0.019794961836065467 -0.041489837179817073 0 0.020004196075777848 -0.041213971313654736 0 0.019929773013102774 -0.041352589455551904 0 0.020004196075777848 -0.041213971313654736 0 0.019929773013102774 -0.041352589455551904 0 0.020125276168528987 -0.041097815990383493 0 0.019929773013102774 -0.041352589455551904 0 0.020061675303280305 -0.04120095994942824 0 0.019939248943545942 -0.041371680420975762 0 0.019929773013102774 -0.041352589455551904 0 0.020061675303280305 -0.04120095994942824 0 0.020125276168528987 -0.041097815990383493 0 0.020061675303280305 -0.04120095994942824 0 0.020125276168528987 -0.041097815990383493 0 0.020222946686319142 -0.041009267732583038 0 0.020084830181315828 -0.041187223810187371 0 0.020061675303280305 -0.04120095994942824 0 0.020222946686319142 -0.041009267732583038 0 0.020084830181315828 -0.041187223810187371 0 0.020061675303280305 -0.04120095994942824 0 0.019939248943545942 -0.041371680420975762 0 0.019932389614623233 -0.041386953758783845 0 0.019838569951107058 -0.041513844933928998 0 0.019939248943545942 -0.041371680420975762 0 0.020084830181315828 -0.041187223810187371 0 0.019932389614623233 -0.041386953758783845 0 0.019939248943545942 -0.041371680420975762 0 0.019841220878855832 -0.041504499671310147 0 0.019838569951107058 -0.041513844933928998 0 0.019734126803079378 -0.041654315786576301 0 0.019841220878855832 -0.041504499671310147 0 0.019932389614623233 -0.041386953758783845 0 0.019838569951107058 -0.041513844933928998 0 0.019838569951107058 -0.041513844933928998 0 0.019747095810097277 -0.041640194502173683 0 0.019734126803079378 -0.041654315786576301 0 0.019838569951107058 -0.041513844933928998 0 0.019939248943545942 -0.041371680420975762 0 0.019747095810097277 -0.041640194502173683 0 0.019929773013102774 -0.041352589455551904 0 0.019939248943545942 -0.041371680420975762 0 0.019747095810097277 -0.041640194502173683 0 0.019673928973055033 -0.041685053736710671 0 0.019929773013102774 -0.041352589455551904 0 0.019747095810097277 -0.041640194502173683 0 0.019403958186578529 -0.042142585276503039 0 0.019747218992421111 -0.04157423611898256 0 0.019501183045031702 -0.041983638562104367 0 0.023703111712176136 -0.043232726528138421 0 0.027641639957804592 -0.041395545543840034 0 0.01942943857336309 -0.042001136415457191 0 0.019673928973055033 -0.041685053736710671 0 0.019747095810097277 -0.041640194502173683 0 0.01942943857336309 -0.042001136415457191 0 0.019747095810097277 -0.041640194502173683 0 0.019596038779182992 -0.041847928559800504 0 0.019747218992421111 -0.04157423611898256 0 0.019734126803079378 -0.041654315786576301 0 0.019501183045031702 -0.041983638562104367 0 0.019596038779182992 -0.041847928559800504 0 0.019734126803079378 -0.041654315786576301 0 0.019501183045031702 -0.041983638562104367 0 0.019747095810097277 -0.041640194502173683 0 0.019596038779182992 -0.041847928559800504 0 0.019734126803079378 -0.041654315786576301 0 0.01942943857336309 -0.042001136415457191 0 0.01918209271778876 -0.042277865033319734 0 0.019501183045031702 -0.041983638562104367 0 0.01942943857336309 -0.042001136415457191 0 0.019596038779182992 -0.041847928559800504 0 0.019501183045031702 -0.041983638562104367 0 0.034158438654130728 -0.042581272801395481 0 0.034549753023465628 -0.041636531982519619 0 0.03417058738697857 -0.042127923186218434 0 0.034175649470722803 -0.041767544809481361 0 0.034071036781946361 -0.041957738441186623 0 0.034073445772867257 -0.041892468618150838 0 0.034175649470722803 -0.041767544809481361 0 0.03417058738697857 -0.042127923186218434 0 0.034071036781946361 -0.041957738441186623 0 0.034549753023465628 -0.041636531982519619 0 0.034175649470722803 -0.041767544809481361 0 0.03417058738697857 -0.042127923186218434 0 0.033966361461689028 -0.04221546287598673 0 0.03417058738697857 -0.042127923186218434 0 0.034071036781946361 -0.041957738441186623 0 0.033966361461689028 -0.04221546287598673 0 0.034071036781946361 -0.041957738441186623 0 0.034181057594004902 -0.041893741046629934 0 0.033464208823705426 -0.041637253087002619 0 0.033970483640580425 -0.041886191005572053 0 0.032646456102588962 -0.041021566011162337 0 0.034351475043523656 -0.041046122743675383 0 0.034181057594004902 -0.041893741046629934 0 0.034071036781946361 -0.041957738441186623 0 0.034181057594004902 -0.041893741046629934 0 0.034073445772867257 -0.041892468618150838 0 0.034351475043523656 -0.041046122743675383 0 0.034181057594004902 -0.041893741046629934 0 0.035521618281880094 -0.041763180228401559 0 0.034181057594004902 -0.041893741046629934 0 0.035521618281880094 -0.041763180228401559 0 0.034836659456129654 -0.042304556756419975 0 0.041402213176230142 -0.040274128848792744 0 0.035409613378964748 -0.037650714438894659 0 0.036719220161954523 -0.042769038820189953 0 0.035191046651366555 -0.043037826672257175 0 0.034836659456129654 -0.042304556756419975 0 0.036719220161954523 -0.042769038820189953 0 0.035521618281880094 -0.041763180228401559 0 0.034836659456129654 -0.042304556756419975 0 0.035191046651366555 -0.043037826672257175 0 0.034836659456129654 -0.042304556756419975 0 0.034161284456099193 -0.042374897860592835 0 0.035409613378964748 -0.037650714438894659 0 0.032878627076090253 -0.04022564675058974 0 0.031926494467910418 -0.036290778153494505 0 0.034235301893375973 -0.04116042421840211 0 0.031724485880308732 -0.038359414730063164 0 0.034181057594004902 -0.041893741046629934 0 0.034836659456129654 -0.042304556756419975 0 0.034073445772867257 -0.041892468618150838 0 0.034836659456129654 -0.042304556756419975 0 0.034161284456099193 -0.042374897860592835 0 0.034073445772867257 -0.041892468618150838 0 0.04427471879452545 -0.042358221121628403 0 0.044994945243422013 -0.045000476108032053 0 0.044996612970150729 -0.035215907725276531 0 0.04427471879452545 -0.042358221121628403 0 0.043823177939362072 -0.041352616915944378 0 0.044909801372462033 -0.040082603990322832 0 0.04427471879452545 -0.042358221121628403 0 0.044994945243422013 -0.045000476108032053 0 0.041864210808489261 -0.043521723583907601 0 0.044994945243422013 -0.045000476108032053 0 0.041864210808489261 -0.043521723583907601 0 0.040719828728868007 -0.044995033938459467 0 0.040719828728868007 -0.044995033938459467 0 0.040544692423545317 -0.044149269145970726 0 0.03901938014067928 -0.044986637505605789 0 0.041864210808489261 -0.043521723583907601 0 0.040719828728868007 -0.044995033938459467 0 0.040544692423545317 -0.044149269145970726 0 0.041864210808489261 -0.043521723583907601 0 0.040544692423545317 -0.044149269145970726 0 0.040716707032416685 -0.042791334049299391 0 0.041864210808489261 -0.043521723583907601 0 0.042238383712162923 -0.041889586025439733 0 0.040716707032416685 -0.042791334049299391 0 0.04427471879452545 -0.042358221121628403 0 0.041864210808489261 -0.043521723583907601 0 0.042238383712162923 -0.041889586025439733 0 0.04427471879452545 -0.042358221121628403 0 0.042238383712162923 -0.041889586025439733 0 0.043823177939362072 -0.041352616915944378 0 0.042238383712162923 -0.041889586025439733 0 0.043823177939362072 -0.041352616915944378 0 0.04362727591863045 -0.041772292899039408 0 0.042381868338893888 -0.042517691714332777 0 0.043980257354228308 -0.03915082929865088 0 0.042238383712162923 -0.041889586025439733 0 0.04112014233850781 -0.041660334492287884 0 0.04176608209067454 -0.041786872560217458 0 0.042238383712162923 -0.041889586025439733 0 0.04112014233850781 -0.041660334492287884 0 0.040716707032416685 -0.042791334049299391 0 0.040719828728868007 -0.044995033938459467 0 0.03901938014067928 -0.044986637505605789 0 0.034977318619957003 -0.044999221315844148 0 0.04112014233850781 -0.041660334492287884 0 0.041349964128236112 -0.041324426901830753 0 0.040716707032416685 -0.042791334049299391 0 0.04112014233850781 -0.041660334492287884 0 0.041349964128236112 -0.041324426901830753 0 0.041215119940070329 -0.040617759128535484 0 0.041349964128236112 -0.041324426901830753 0 0.040934391534450464 -0.042624915545814754 0 0.040716707032416685 -0.042791334049299391 0 0.040544692423545317 -0.044149269145970726 0 0.040716707032416685 -0.042791334049299391 0 0.03901938014067928 -0.044986637505605789 0 0.040934391534450464 -0.042624915545814754 0 0.040716707032416685 -0.042791334049299391 0 0.03901938014067928 -0.044986637505605789 0 0.039016321465643135 -0.04500151359692868 0 0.039218687671096361 -0.044767970952765704 0 0.040934391534450464 -0.042624915545814754 0 0.03901938014067928 -0.044986637505605789 0 0.042087927243315122 -0.043418344419590763 0 0.03901938014067928 -0.044986637505605789 0 0.036317205384831359 -0.046323292264243816 0 0.034977318619957003 -0.044999221315844148 0 0.03510577769442888 -0.045669321632413239 0 0.034977318619957003 -0.044999221315844148 0 0.035323369330445033 -0.045869879026625947 0 0.033249852762015961 -0.045981347654295797 0 0.033139637734828191 -0.044999975624588247 0 0.034972951780125765 -0.04500000771526258 0 0.034270421377789573 -0.045725810338926878 0 0.034972833692202714 -0.04500025314373169 0 0.036317205384831359 -0.046323292264243816 0 0.034977318619957003 -0.044999221315844148 0 0.035323369330445033 -0.045869879026625947 0 0.036317205384831359 -0.046323292264243816 0 0.035323369330445033 -0.045869879026625947 0 0.035341528412656531 -0.046123613066052116 0 0.042087927243315122 -0.043418344419590763 0 0.043408458383930086 -0.042009543707311171 0 0.04270106532937671 -0.041077674651884465 0 0.039218687671096361 -0.044767970952765704 0 0.039248850640822237 -0.044358806818887035 0 0.043408458383930086 -0.042009543707311171 0 0.043577408769874287 -0.040753415145580819 0 0.04270106532937671 -0.041077674651884465 0 0.040934391534450464 -0.042624915545814754 0 0.042087927243315122 -0.043418344419590763 0 0.04270106532937671 -0.041077674651884465 0 0.041349964128236112 -0.041324426901830753 0 0.040934391534450464 -0.042624915545814754 0 0.04270106532937671 -0.041077674651884465 0 0.04270106532937671 -0.041077674651884465 0 0.043206316349958147 -0.039432661173896474 0 0.041936349574303325 -0.040011307751198016 0 0.041349964128236112 -0.041324426901830753 0 0.04270106532937671 -0.041077674651884465 0 0.041936349574303325 -0.040011307751198016 0 0.043656767782739768 -0.039899112236432256 0 0.04270106532937671 -0.041077674651884465 0 0.043206316349958147 -0.039432661173896474 0 0.043656767782739768 -0.039899112236432256 0 0.043577408769874287 -0.040753415145580819 0 0.04270106532937671 -0.041077674651884465 0 0.043206316349958147 -0.039432661173896474 0 0.041936349574303325 -0.040011307751198016 0 0.04362723437283457 -0.036456182476886437 0 0.043810552977573844 -0.03868929328820879 0 0.043206316349958147 -0.039432661173896474 0 0.04362723437283457 -0.036456182476886437 0 0.043810552977573844 -0.03868929328820879 0 0.043656767782739768 -0.039899112236432256 0 0.043206316349958147 -0.039432661173896474 0 0.043753149764968337 -0.03641982084265178 0 0.043235535588933484 -0.036744657684259809 0 0.041936349574303325 -0.040011307751198016 0 0.04362723437283457 -0.036456182476886437 0 0.041403040259570367 -0.038939624087010911 0 0.044281328467279668 -0.036120959283485188 0 0.04362723437283457 -0.036456182476886437 0 0.043974842226375786 -0.035576597021892774 0 0.04362723437283457 -0.036456182476886437 0 0.043974842226375786 -0.035576597021892774 0 0.044447214593972724 -0.034824833535249199 0 0.043974842226375786 -0.035576597021892774 0 0.044068673883932062 -0.035034971498986996 0 0.044447214593972724 -0.034824833535249199 0 0.044069293455120846 -0.035551950700998557 0 0.044068673883932062 -0.035034971498986996 0 0.043856448908944287 -0.035255930357320393 0 0.044069293455120846 -0.035551950700998557 0 0.043974842226375786 -0.035576597021892774 0 0.044068673883932062 -0.035034971498986996 0 0.044068673883932062 -0.035034971498986996 0 0.044447214593972724 -0.034824833535249199 0 0.044485887189844461 -0.034515446331416358 0 0.044447214593972724 -0.034824833535249199 0 0.045448868067607326 -0.033419065117154916 0 0.044485887189844461 -0.034515446331416358 0 0.04362723437283457 -0.036456182476886437 0 0.044447214593972724 -0.034824833535249199 0 0.044677961548240649 -0.03447332531591013 0 0.044447214593972724 -0.034824833535249199 0 0.045083738608436022 -0.034137476994787697 0 0.044677961548240649 -0.03447332531591013 0 0.044447214593972724 -0.034824833535249199 0 0.045083738608436022 -0.034137476994787697 0 0.045448868067607326 -0.033419065117154916 0 0.045083738608436022 -0.034137476994787697 0 0.045183334854924907 -0.033437156663791733 0 0.045448868067607326 -0.033419065117154916 0 0.045083738608436022 -0.034137476994787697 0 0.045057206936468183 -0.03389895961280863 0 0.045183334854924907 -0.033437156663791733 0 0.045083738608436022 -0.034137476994787697 0 0.045086763392932605 -0.034057935002047339 0 0.045057206936468183 -0.03389895961280863 0 0.043235535588933484 -0.036744657684259809 0 0.043021175543666704 -0.037357306324009833 0 0.045083738608436022 -0.034137476994787697 0 0.044677961548240649 -0.03447332531591013 0 0.045086763392932605 -0.034057935002047339 0 0.041936349574303325 -0.040011307751198016 0 0.041403040259570367 -0.038939624087010911 0 0.041215119940070329 -0.040617759128535484 0 0.041349964128236112 -0.041324426901830753 0 0.041936349574303325 -0.040011307751198016 0 0.041215119940070329 -0.040617759128535484 0 0.041403040259570367 -0.038939624087010911 0 0.041215119940070329 -0.040617759128535484 0 0.041031877701592237 -0.041017128594175556 0 0.04112014233850781 -0.041660334492287884 0 0.041215119940070329 -0.040617759128535484 0 0.041031877701592237 -0.041017128594175556 0 0.04427471879452545 -0.042358221121628403 0 0.044996612970150729 -0.035215907725276531 0 0.044909801372462033 -0.040082603990322832 0 0.04112014233850781 -0.041660334492287884 0 0.041031877701592237 -0.041017128594175556 0 0.04176608209067454 -0.041786872560217458 0 0.043021175543666704 -0.037357306324009833 0 0.043980257354228308 -0.03915082929865088 0 0.043980257354228308 -0.03915082929865088 0 0.045243914400191168 -0.040263248879000166 0 0.043823177939362072 -0.041352616915944378 0 0.04362727591863045 -0.041772292899039408 0 0.044909801372462033 -0.040082603990322832 0 0.047264752507076915 -0.039571631606729947 0 0.04684318840442913 -0.036700382054418168 0 0.044909801372462033 -0.040082603990322832 0 0.04488126736271042 -0.034158945065942872 0 0.045057206936468183 -0.03389895961280863 0 0.044796710651270187 -0.033665995753805793 0 0.043980257354228308 -0.03915082929865088 0 0.046013463372198325 -0.034749766826685319 0 0.045086763392932605 -0.034057935002047339 0 0.04488126736271042 -0.034158945065942872 0 0.045057206936468183 -0.03389895961280863 0 0.045057206936468183 -0.03389895961280863 0 0.045183334854924907 -0.033437156663791733 0 0.044796710651270187 -0.033665995753805793 0 0.045183334854924907 -0.033437156663791733 0 0.045139962401851044 -0.032680826465335655 0 0.045476241301488897 -0.031784188856461955 0 0.045183334854924907 -0.033437156663791733 0 0.045139962401851044 -0.032680826465335655 0 0.044796710651270187 -0.033665995753805793 0 0.045139962401851044 -0.032680826465335655 0 0.044796710651270187 -0.033665995753805793 0 0.044967645757309958 -0.032731688774170105 0 0.046013463372198325 -0.034749766826685319 0 0.045790761935953453 -0.033651792177417678 0 0.04684318840442913 -0.036700382054418168 0 0.044996612970150729 -0.035215907725276531 0 0.046643192565272315 -0.034382223568133405 0 0.044996612970150729 -0.035215907725276531 0 0.046643192565272315 -0.034382223568133405 0 0.045660031795658057 -0.031988902031619547 0 0.04684318840442913 -0.036700382054418168 0 0.044996612970150729 -0.035215907725276531 0 0.044909801372462033 -0.040082603990322832 0 0.045660031795658057 -0.031988902031619547 0 0.04627113434128477 -0.029108437541852383 0 0.044997607537228229 -0.025432148193956346 0 0.044996612970150729 -0.035215907725276531 0 0.045660031795658057 -0.031988902031619547 0 0.044997607537228229 -0.025432148193956346 0 0.045790761935953453 -0.033651792177417678 0 0.045648653291819913 -0.03212676972154014 0 0.045139962401851044 -0.032680826465335655 0 0.044967645757309958 -0.032731688774170105 0 0.045660031795658057 -0.031988902031619547 0 0.045660031795658057 -0.031988902031619547 0 0.045476241301488897 -0.031784188856461955 0 0.045827044689146938 -0.030873790821273232 0 0.045139962401851044 -0.032680826465335655 0 0.045660031795658057 -0.031988902031619547 0 0.045476241301488897 -0.031784188856461955 0 0.045183334854924907 -0.033437156663791733 0 0.045476241301488897 -0.031784188856461955 0 0.045439554110883393 -0.031764261701794402 0 0.045476241301488897 -0.031784188856461955 0 0.045884772007806267 -0.030534690120121756 0 0.045827044689146938 -0.030873790821273232 0 0.045476241301488897 -0.031784188856461955 0 0.045884772007806267 -0.030534690120121756 0 0.045439554110883393 -0.031764261701794402 0 0.045660031795658057 -0.031988902031619547 0 0.045827044689146938 -0.030873790821273232 0 0.04627113434128477 -0.029108437541852383 0 0.045884772007806267 -0.030534690120121756 0 0.045827044689146938 -0.030873790821273232 0 0.04627113434128477 -0.029108437541852383 0 0.045884772007806267 -0.030534690120121756 0 0.04627113434128477 -0.029108437541852383 0 0.046314181659801147 -0.029404917441905116 0 0.046314181659801147 -0.029404917441905116 0 0.046076526905168627 -0.029365056563712473 0 0.046325803987897825 -0.029075358428586988 0 0.046076526905168627 -0.029365056563712473 0 0.045784045861998059 -0.029181482631728761 0 0.046325803987897825 -0.029075358428586988 0 0.045918559620814786 -0.029541441736617598 0 0.04592634854951555 -0.030117239360249681 0 0.045922077633651269 -0.029894069308551593 0 0.046076526905168627 -0.029365056563712473 0 0.045918559620814786 -0.029541441736617598 0 0.04564721347102705 -0.029234377017259196 0 0.046076526905168627 -0.029365056563712473 0 0.045918559620814786 -0.029541441736617598 0 0.04592634854951555 -0.030117239360249681 0 0.046314181659801147 -0.029404917441905116 0 0.046076526905168627 -0.029365056563712473 0 0.04592634854951555 -0.030117239360249681 0 0.045884772007806267 -0.030534690120121756 0 0.046314181659801147 -0.029404917441905116 0 0.04592634854951555 -0.030117239360249681 0 0.045884772007806267 -0.030534690120121756 0 0.04592634854951555 -0.030117239360249681 0 0.045439554110883393 -0.031764261701794402 0 0.04592634854951555 -0.030117239360249681 0 0.045439554110883393 -0.031764261701794402 0 0.045708578127590098 -0.030951385726023833 0 0.045183334854924907 -0.033437156663791733 0 0.045439554110883393 -0.031764261701794402 0 0.045448868067607326 -0.033419065117154916 0 0.045439554110883393 -0.031764261701794402 0 0.045448868067607326 -0.033419065117154916 0 0.045708578127590098 -0.030951385726023833 0 0.045448868067607326 -0.033419065117154916 0 0.045708578127590098 -0.030951385726023833 0 0.045893871527675038 -0.030631612821294174 0 0.04592634854951555 -0.030117239360249681 0 0.045708578127590098 -0.030951385726023833 0 0.045922077633651269 -0.029894069308551593 0 0.045708578127590098 -0.030951385726023833 0 0.045922077633651269 -0.029894069308551593 0 0.045893871527675038 -0.030631612821294174 0 0.045985024281703681 -0.029864636233529168 0 0.045922077633651269 -0.029894069308551593 0 0.045696329028960661 -0.029323500826349824 0 0.045985024281703681 -0.029864636233529168 0 0.045922077633651269 -0.029894069308551593 0 0.045893871527675038 -0.030631612821294174 0 0.045985024281703681 -0.029864636233529168 0 0.046292470297285594 -0.029938978882972183 0 0.045696329028960661 -0.029323500826349824 0 0.045985024281703681 -0.029864636233529168 0 0.046292470297285594 -0.029938978882972183 0 0.045893871527675038 -0.030631612821294174 0 0.045448868067607326 -0.033419065117154916 0 0.046292470297285594 -0.029938978882972183 0 0.045893871527675038 -0.030631612821294174 0 0.045448868067607326 -0.033419065117154916 0 0.044207421080375946 -0.035765543894018967 0 0.044485887189844461 -0.034515446331416358 0 0.045321280735161278 -0.033432263627285005 0 0.045031623033482626 -0.032917695038125375 0 0.044207421080375946 -0.035765543894018967 0 0.044485887189844461 -0.034515446331416358 0 0.043914328086033599 -0.035180707446743661 0 0.044068673883932062 -0.035034971498986996 0 0.044485887189844461 -0.034515446331416358 0 0.043914328086033599 -0.035180707446743661 0 0.043856448908944287 -0.035255930357320393 0 0.04335306154248466 -0.035879680681289404 0 0.04408965625649177 -0.035204515165946464 0 0.043319144827516025 -0.035844689246349967 0 0.041511805534792126 -0.034932356399285519 0 0.044068673883932062 -0.035034971498986996 0 0.043856448908944287 -0.035255930357320393 0 0.043914328086033599 -0.035180707446743661 0 0.043856448908944287 -0.035255930357320393 0 0.043914328086033599 -0.035180707446743661 0 0.04335306154248466 -0.035879680681289404 0 0.04335306154248466 -0.035879680681289404 0 0.04003041781635696 -0.036426659794408546 0 0.03967724132297018 -0.038714011434532701 0 0.044207421080375946 -0.035765543894018967 0 0.04335306154248466 -0.035879680681289404 0 0.03967724132297018 -0.038714011434532701 0 0.046292470297285594 -0.029938978882972183 0 0.045696329028960661 -0.029323500826349824 0 0.043997036662806896 -0.028153319449822693 0 0.04335306154248466 -0.035879680681289404 0 0.038761650140118994 -0.034410361267502507 0 0.04003041781635696 -0.036426659794408546 0 0.045031623033482626 -0.032917695038125375 0 0.041801303277138817 -0.03351387819322766 0 0.044207421080375946 -0.035765543894018967 0 0.043914328086033599 -0.035180707446743661 0 0.04335306154248466 -0.035879680681289404 0 0.045070947080255538 -0.028997861582109152 0 0.045696329028960661 -0.029323500826349824 0 0.043997036662806896 -0.028153319449822693 0 0.045070947080255538 -0.028997861582109152 0 0.044267533690110251 -0.02920100959427006 0 0.043997036662806896 -0.028153319449822693 0 0.045918559620814786 -0.029541441736617598 0 0.045922077633651269 -0.029894069308551593 0 0.045696329028960661 -0.029323500826349824 0 0.045918559620814786 -0.029541441736617598 0 0.045696329028960661 -0.029323500826349824 0 0.04564721347102705 -0.029234377017259196 0 0.045070947080255538 -0.028997861582109152 0 0.045696329028960661 -0.029323500826349824 0 0.04564721347102705 -0.029234377017259196 0 0.046076526905168627 -0.029365056563712473 0 0.04564721347102705 -0.029234377017259196 0 0.045784045861998059 -0.029181482631728761 0 0.045070947080255538 -0.028997861582109152 0 0.04564721347102705 -0.029234377017259196 0 0.045258261372697874 -0.029170916124449626 0 0.04564721347102705 -0.029234377017259196 0 0.045784045861998059 -0.029181482631728761 0 0.045258261372697874 -0.029170916124449626 0 0.045784045861998059 -0.029181482631728761 0 0.045258261372697874 -0.029170916124449626 0 0.045076160728733418 -0.02935509216870048 0 0.045258261372697874 -0.029170916124449626 0 0.044267533690110251 -0.02920100959427006 0 0.045076160728733418 -0.02935509216870048 0 0.045070947080255538 -0.028997861582109152 0 0.045258261372697874 -0.029170916124449626 0 0.044267533690110251 -0.02920100959427006 0 0.044267533690110251 -0.02920100959427006 0 0.043925013106502618 -0.02974200809217542 0 0.043041902363186793 -0.029577779246400294 0 0.044267533690110251 -0.02920100959427006 0 0.043925013106502618 -0.02974200809217542 0 0.045076160728733418 -0.02935509216870048 0 0.043925013106502618 -0.02974200809217542 0 0.045076160728733418 -0.02935509216870048 0 0.044923880063488839 -0.029689221834150351 0 0.045076160728733418 -0.02935509216870048 0 0.044923880063488839 -0.029689221834150351 0 0.045886170145230866 -0.029216816103791062 0 0.045784045861998059 -0.029181482631728761 0 0.045076160728733418 -0.02935509216870048 0 0.045885611888495069 -0.029162229751353238 0 0.045076160728733418 -0.02935509216870048 0 0.045886170145230866 -0.029216816103791062 0 0.045885611888495069 -0.029162229751353238 0 0.044923880063488839 -0.029689221834150351 0 0.045886170145230866 -0.029216816103791062 0 0.045793648506898266 -0.029425266589639714 0 0.044923880063488839 -0.029689221834150351 0 0.045793648506898266 -0.029425266589639714 0 0.044929915439483388 -0.030154114416662409 0 0.044923880063488839 -0.029689221834150351 0 0.043633263828677847 -0.030350644018881018 0 0.044929915439483388 -0.030154114416662409 0 0.043925013106502618 -0.02974200809217542 0 0.044923880063488839 -0.029689221834150351 0 0.043633263828677847 -0.030350644018881018 0 0.043925013106502618 -0.02974200809217542 0 0.043633263828677847 -0.030350644018881018 0 0.042465239655201603 -0.03024207877065099 0 0.043089727225004155 -0.031259302393093151 0 0.044528936527778687 -0.031371495728609186 0 0.044929915439483388 -0.030154114416662409 0 0.043633263828677847 -0.030350644018881018 0 0.043089727225004155 -0.031259302393093151 0 0.044929915439483388 -0.030154114416662409 0 0.043089727225004155 -0.031259302393093151 0 0.044528936527778687 -0.031371495728609186 0 0.042531106196985774 -0.032668950519950703 0 0.044528936527778687 -0.031371495728609186 0 0.045568552966234854 -0.03024049133852913 0 0.046535497687323568 -0.030114199053368158 0 0.044528936527778687 -0.031371495728609186 0 0.046535497687323568 -0.030114199053368158 0 0.04538189063212849 -0.03248483206696489 0 0.045568552966234854 -0.03024049133852913 0 0.044929915439483388 -0.030154114416662409 0 0.046245259385854845 -0.02941337389880562 0 0.044528936527778687 -0.031371495728609186 0 0.045568552966234854 -0.03024049133852913 0 0.044929915439483388 -0.030154114416662409 0 0.045793648506898266 -0.029425266589639714 0 0.044929915439483388 -0.030154114416662409 0 0.046245259385854845 -0.02941337389880562 0 0.045793648506898266 -0.029425266589639714 0 0.046245259385854845 -0.02941337389880562 0 0.046751024903847978 -0.028783926596169462 0 0.046245259385854845 -0.02941337389880562 0 0.047401137707936539 -0.028462422170495164 0 0.046751024903847978 -0.028783926596169462 0 0.046245259385854845 -0.02941337389880562 0 0.046535497687323568 -0.030114199053368158 0 0.047401137707936539 -0.028462422170495164 0 0.045568552966234854 -0.03024049133852913 0 0.046245259385854845 -0.02941337389880562 0 0.046535497687323568 -0.030114199053368158 0 0.046535497687323568 -0.030114199053368158 0 0.048279028014260379 -0.027857754194050975 0 0.047401137707936539 -0.028462422170495164 0 0.046535497687323568 -0.030114199053368158 0 0.048279028014260379 -0.027857754194050975 0 0.047208710011290268 -0.030605781267772268 0 0.0474448442494926 -0.030960804472694645 0 0.046578698543756916 -0.026975323973312638 0 0.046535497687323568 -0.030114199053368158 0 0.047592438293726808 -0.03212968826280084 0 0.04538189063212849 -0.03248483206696489 0 0.048279028014260379 -0.027857754194050975 0 0.047348020307221503 -0.025869567968075716 0 0.048383254838744352 -0.024683985971408424 0 0.048279028014260379 -0.027857754194050975 0 0.047556402458709533 -0.027580097705111176 0 0.047348020307221503 -0.025869567968075716 0 0.048279028014260379 -0.027857754194050975 0 0.048383254838744352 -0.024683985971408424 0 0.050641280345458901 -0.025249786395222178 0 0.048492822506459171 -0.027763789878182642 0 0.046578698543756916 -0.026975323973312638 0 0.048279028014260379 -0.027857754194050975 0 0.047556402458709533 -0.027580097705111176 0 0.047401137707936539 -0.028462422170495164 0 0.047401137707936539 -0.028462422170495164 0 0.047166551246003517 -0.028234655093581265 0 0.046751024903847978 -0.028783926596169462 0 0.047556402458709533 -0.027580097705111176 0 0.047401137707936539 -0.028462422170495164 0 0.047166551246003517 -0.028234655093581265 0 0.047166551246003517 -0.028234655093581265 0 0.046563508378682887 -0.028853005433587112 0 0.046810489243873682 -0.028579835292165439 0 0.047166551246003517 -0.028234655093581265 0 0.046751024903847978 -0.028783926596169462 0 0.046563508378682887 -0.028853005433587112 0 0.045886170145230866 -0.029216816103791062 0 0.045793648506898266 -0.029425266589639714 0 0.046751024903847978 -0.028783926596169462 0 0.045886170145230866 -0.029216816103791062 0 0.046751024903847978 -0.028783926596169462 0 0.046563508378682887 -0.028853005433587112 0 0.046563508378682887 -0.028853005433587112 0 0.045885611888495069 -0.029162229751353238 0 0.046325803987897825 -0.029075358428586988 0 0.045886170145230866 -0.029216816103791062 0 0.046563508378682887 -0.028853005433587112 0 0.045885611888495069 -0.029162229751353238 0 0.045784045861998059 -0.029181482631728761 0 0.045885611888495069 -0.029162229751353238 0 0.046325803987897825 -0.029075358428586988 0 0.046314181659801147 -0.029404917441905116 0 0.046325803987897825 -0.029075358428586988 0 0.046810489243873682 -0.028579835292165439 0 0.046563508378682887 -0.028853005433587112 0 0.046325803987897825 -0.029075358428586988 0 0.046810489243873682 -0.028579835292165439 0 0.04627113434128477 -0.029108437541852383 0 0.046810489243873682 -0.028579835292165439 0 0.046825476544770095 -0.027297899101404233 0 0.04627113434128477 -0.029108437541852383 0 0.046314181659801147 -0.029404917441905116 0 0.046810489243873682 -0.028579835292165439 0 0.047166551246003517 -0.028234655093581265 0 0.046810489243873682 -0.028579835292165439 0 0.046825476544770095 -0.027297899101404233 0 0.047556402458709533 -0.027580097705111176 0 0.047166551246003517 -0.028234655093581265 0 0.046825476544770095 -0.027297899101404233 0 0.047556402458709533 -0.027580097705111176 0 0.046825476544770095 -0.027297899101404233 0 0.047348020307221503 -0.025869567968075716 0 0.046825476544770095 -0.027297899101404233 0 0.047348020307221503 -0.025869567968075716 0 0.046591581682506711 -0.024577978442898 0 0.046591581682506711 -0.024577978442898 0 0.044997607537228229 -0.025432148193956346 0 0.046295082407380304 -0.020771744895287568 0 0.046825476544770095 -0.027297899101404233 0 0.046591581682506711 -0.024577978442898 0 0.044997607537228229 -0.025432148193956346 0 0.04627113434128477 -0.029108437541852383 0 0.046825476544770095 -0.027297899101404233 0 0.044997607537228229 -0.025432148193956346 0 0.026899216391694878 -0.039987274456073453 0 0.026007488108481917 -0.040735421874033534 0 0.025529088509420404 -0.039960529603401171 0 0.026899216391694878 -0.039987274456073453 0 0.025529088509420404 -0.039960529603401171 0 0.026570564415804836 -0.039237172540957002 0 0.026899216391694878 -0.039987274456073453 0 0.029411664959721473 -0.039633983154162042 0 0.027621644512780881 -0.041140144804932478 0 0.026899216391694878 -0.039987274456073453 0 0.029411664959721473 -0.039633983154162042 0 0.027498036472987607 -0.03916800057424099 0 0.029411664959721473 -0.039633983154162042 0 0.029922483759600483 -0.041084386041411292 0 0.027621644512780881 -0.041140144804932478 0 0.029922483759600483 -0.041084386041411292 0 0.027621644512780881 -0.041140144804932478 0 0.029178983491315636 -0.042024712573105819 0 0.029922483759600483 -0.041084386041411292 0 0.031210700586650771 -0.042044439149772628 0 0.029178983491315636 -0.042024712573105819 0 0.027621644512780881 -0.041140144804932478 0 0.025806901431246438 -0.041859695435533209 0 0.026007488108481917 -0.040735421874033534 0 0.026899216391694878 -0.039987274456073453 0 0.027621644512780881 -0.041140144804932478 0 0.026007488108481917 -0.040735421874033534 0 0.025806901431246438 -0.041859695435533209 0 0.024866977454713429 -0.041038849160974208 0 0.024689367589309483 -0.041848461160713987 0 0.025806901431246438 -0.041859695435533209 0 0.024866977454713429 -0.041038849160974208 0 0.026007488108481917 -0.040735421874033534 0 0.024689367589309483 -0.041848461160713987 0 0.023965765245881079 -0.041462836057361285 0 0.024119228472335663 -0.042136400089321804 0 0.024866977454713429 -0.041038849160974208 0 0.024689367589309483 -0.041848461160713987 0 0.023965765245881079 -0.041462836057361285 0 0.024866977454713429 -0.041038849160974208 0 0.023965765245881079 -0.041462836057361285 0 0.024042192855530799 -0.04036637802806526 0 0.024866977454713429 -0.041038849160974208 0 0.024042192855530799 -0.04036637802806526 0 0.025529088509420404 -0.039960529603401171 0 0.023092653651738879 -0.041244746061608342 0 0.023965765245881079 -0.041462836057361285 0 0.024042192855530799 -0.04036637802806526 0 0.024866977454713429 -0.041038849160974208 0 0.026007488108481917 -0.040735421874033534 0 0.025529088509420404 -0.039960529603401171 0 0.024042192855530799 -0.04036637802806526 0 0.025529088509420404 -0.039960529603401171 0 0.025839928462406084 -0.038745338201793683 0 0.025529088509420404 -0.039960529603401171 0 0.025839928462406084 -0.038745338201793683 0 0.026570564415804836 -0.039237172540957002 0 0.024042192855530799 -0.04036637802806526 0 0.02349998078873097 -0.039088683228898607 0 0.025839928462406084 -0.038745338201793683 0 0.021892245477454261 -0.040130893711474387 0 0.023805293237081741 -0.040083051263213522 0 0.02008634135580268 -0.041061856403325742 0 0.02176867984753424 -0.041658764165912042 0 0.021188269536630094 -0.040790720154265186 0 0.020665820127258077 -0.040634233020824875 0 0.02008634135580268 -0.041061856403325742 0 0.021188269536630094 -0.040790720154265186 0 0.02176867984753424 -0.041658764165912042 0 0.021188269536630094 -0.040790720154265186 0 0.023118235883534358 -0.040226523383284807 0 0.023805293237081741 -0.040083051263213522 0 0.026149217734964991 -0.039485586272511732 0 0.023118235883534358 -0.040226523383284807 0 0.026479930633711273 -0.03929832979336248 0 0.024781027595440652 -0.039497678432741962 0 0.02176867984753424 -0.041658764165912042 0 0.023118235883534358 -0.040226523383284807 0 0.026479930633711273 -0.03929832979336248 0 0.025839928462406084 -0.038745338201793683 0 0.026570564415804836 -0.039237172540957002 0 0.026479930633711273 -0.03929832979336248 0 0.026899216391694878 -0.039987274456073453 0 0.026570564415804836 -0.039237172540957002 0 0.027498036472987607 -0.03916800057424099 0 0.029411664959721473 -0.039633983154162042 0 0.027498036472987607 -0.03916800057424099 0 0.028576081079302394 -0.038592798753572043 0 0.026570564415804836 -0.039237172540957002 0 0.027498036472987607 -0.03916800057424099 0 0.026479930633711273 -0.03929832979336248 0 0.027498036472987607 -0.03916800057424099 0 0.026479930633711273 -0.03929832979336248 0 0.028576081079302394 -0.038592798753572043 0 0.028117269861712441 -0.037176756475076358 0 0.030391649711879621 -0.037698779958627651 0 0.031112326716789349 -0.03465905084313247 0 0.032383017655877817 -0.034704980233806158 0 0.031883381679654044 -0.036395521170937514 0 0.026479930633711273 -0.03929832979336248 0 0.024781027595440652 -0.039497678432741962 0 0.028576081079302394 -0.038592798753572043 0 0.033070070081247564 -0.035654569713405283 0 0.032383017655877817 -0.034704980233806158 0 0.031883381679654044 -0.036395521170937514 0 0.035284441701919772 -0.033673511071056733 0 0.033070070081247564 -0.035654569713405283 0 0.032383017655877817 -0.034704980233806158 0 0.035284441701919772 -0.033673511071056733 0 0.033070070081247564 -0.035654569713405283 0 0.034425754718875427 -0.036177351695599637 0 0.034425754718875427 -0.036177351695599637 0 0.037126597943835063 -0.037621824894285678 0 0.033130020673786245 -0.039042169802971559 0 0.030391649711879621 -0.037698779958627651 0 0.032952807641655292 -0.039186413765738434 0 0.034425754718875427 -0.036177351695599637 0 0.031883381679654044 -0.036395521170937514 0 0.033130020673786245 -0.039042169802971559 0 0.033070070081247564 -0.035654569713405283 0 0.034425754718875427 -0.036177351695599637 0 0.031883381679654044 -0.036395521170937514 0 0.044800535295338881 -0.036104472591095171 0 0.044069293455120846 -0.035551950700998557 0 0.04408965625649177 -0.035204515165946464 0 0.044069293455120846 -0.035551950700998557 0 0.043856448908944287 -0.035255930357320393 0 0.04408965625649177 -0.035204515165946464 0 0.035284441701919772 -0.033673511071056733 0 0.034425754718875427 -0.036177351695599637 0 0.038761650140118994 -0.034410361267502507 0 0.039978706870533766 -0.034915568266258773 0 0.041511805534792126 -0.034932356399285519 0 0.034425754718875427 -0.036177351695599637 0 0.038761650140118994 -0.034410361267502507 0 0.037126597943835063 -0.037621824894285678 0 0.038761650140118994 -0.034410361267502507 0 0.037126597943835063 -0.037621824894285678 0 0.04003041781635696 -0.036426659794408546 0 0.037126597943835063 -0.037621824894285678 0 0.04003041781635696 -0.036426659794408546 0 0.03967724132297018 -0.038714011434532701 0 0.041801303277138817 -0.03351387819322766 0 0.038281710684724343 -0.034725029731006045 0 0.037126597943835063 -0.037621824894285678 0 0.03967724132297018 -0.038714011434532701 0 0.036662327541977707 -0.040489889793779973 0 0.037126597943835063 -0.037621824894285678 0 0.036662327541977707 -0.040489889793779973 0 0.033130020673786245 -0.039042169802971559 0 0.039926227875184711 -0.028843255679614613 0 0.042614852336053867 -0.029120586493280108 0 0.041297825304479917 -0.029822270314890056 0 0.043997036662806896 -0.028153319449822693 0 0.039926227875184711 -0.028843255679614613 0 0.042614852336053867 -0.029120586493280108 0 0.044267533690110251 -0.02920100959427006 0 0.043997036662806896 -0.028153319449822693 0 0.042614852336053867 -0.029120586493280108 0 0.044267533690110251 -0.02920100959427006 0 0.042614852336053867 -0.029120586493280108 0 0.043041902363186793 -0.029577779246400294 0 0.029411664959721473 -0.039633983154162042 0 0.028576081079302394 -0.038592798753572043 0 0.033130020673786245 -0.039042169802971559 0 0.029411664959721473 -0.039633983154162042 0 0.033130020673786245 -0.039042169802971559 0 0.032408136481067308 -0.040857029551765768 0 0.036662327541977707 -0.040489889793779973 0 0.032408136481067308 -0.040857029551765768 0 0.033193183759971087 -0.042801871414051743 0 0.036662327541977707 -0.040489889793779973 0 0.033130020673786245 -0.039042169802971559 0 0.032408136481067308 -0.040857029551765768 0 0.029411664959721473 -0.039633983154162042 0 0.029922483759600483 -0.041084386041411292 0 0.032408136481067308 -0.040857029551765768 0 0.029922483759600483 -0.041084386041411292 0 0.032408136481067308 -0.040857029551765768 0 0.031210700586650771 -0.042044439149772628 0 0.032408136481067308 -0.040857029551765768 0 0.031210700586650771 -0.042044439149772628 0 0.033193183759971087 -0.042801871414051743 0 0.031210700586650771 -0.042044439149772628 0 0.033193183759971087 -0.042801871414051743 0 0.029989460874455903 -0.043060387800556488 0 0.038281710684724343 -0.034725029731006045 0 0.034722733047778703 -0.036652298395696135 0 0.039926227875184711 -0.028843255679614613 0 0.036351145247513823 -0.030391741147115642 0 0.038862524319174821 -0.030420637093721864 0 0.036351145247513823 -0.030391741147115642 0 0.038862524319174821 -0.030420637093721864 0 0.037750972988357306 -0.030853670564182888 0 0.036351145247513823 -0.030391741147115642 0 0.037750972988357306 -0.030853670564182888 0 0.036793807670195987 -0.031416265092910671 0 0.036793807670195987 -0.031416265092910671 0 0.039106404568309314 -0.031575805937986673 0 0.038875780564527534 -0.032570621836911069 0 0.036844284831618543 -0.031382862212943258 0 0.037160723323341756 -0.034295281028716131 0 0.037750972988357306 -0.030853670564182888 0 0.036793807670195987 -0.031416265092910671 0 0.039106404568309314 -0.031575805937986673 0 0.038862524319174821 -0.030420637093721864 0 0.037750972988357306 -0.030853670564182888 0 0.039106404568309314 -0.031575805937986673 0 0.036351145247513823 -0.030391741147115642 0 0.036793807670195987 -0.031416265092910671 0 0.03179393131257368 -0.033360330203024084 0 0.033193183759971087 -0.042801871414051743 0 0.029064800321737038 -0.045679395710356167 0 0.029989460874455903 -0.043060387800556488 0 0.036793807670195987 -0.031416265092910671 0 0.034618902330897816 -0.034045095364273491 0 0.035577139560609962 -0.036280617340324318 0 0.034722733047778703 -0.036652298395696135 0 0.030545523808453254 -0.039464690854462629 0 0.036793807670195987 -0.031416265092910671 0 0.034618902330897816 -0.034045095364273491 0 0.03179393131257368 -0.033360330203024084 0 0.043925013106502618 -0.02974200809217542 0 0.042465239655201603 -0.03024207877065099 0 0.043041902363186793 -0.029577779246400294 0 0.042614852336053867 -0.029120586493280108 0 0.043041902363186793 -0.029577779246400294 0 0.041297825304479917 -0.029822270314890056 0 0.042465239655201603 -0.03024207877065099 0 0.043041902363186793 -0.029577779246400294 0 0.041297825304479917 -0.029822270314890056 0 0.042465239655201603 -0.03024207877065099 0 0.041297825304479917 -0.029822270314890056 0 0.040713132441035728 -0.03067494605106506 0 0.039926227875184711 -0.028843255679614613 0 0.038862524319174821 -0.030420637093721864 0 0.041297825304479917 -0.029822270314890056 0 0.038862524319174821 -0.030420637093721864 0 0.041297825304479917 -0.029822270314890056 0 0.040713132441035728 -0.03067494605106506 0 0.039106404568309314 -0.031575805937986673 0 0.040713132441035728 -0.03067494605106506 0 0.041741591812540071 -0.031070264308370812 0 0.038862524319174821 -0.030420637093721864 0 0.039106404568309314 -0.031575805937986673 0 0.040713132441035728 -0.03067494605106506 0 0.043633263828677847 -0.030350644018881018 0 0.042465239655201603 -0.03024207877065099 0 0.041741591812540071 -0.031070264308370812 0 0.042465239655201603 -0.03024207877065099 0 0.040713132441035728 -0.03067494605106506 0 0.041741591812540071 -0.031070264308370812 0 0.043633263828677847 -0.030350644018881018 0 0.043089727225004155 -0.031259302393093151 0 0.041741591812540071 -0.031070264308370812 0 0.043089727225004155 -0.031259302393093151 0 0.041741591812540071 -0.031070264308370812 0 0.041029352787410191 -0.032117500105182294 0 0.039106404568309314 -0.031575805937986673 0 0.041741591812540071 -0.031070264308370812 0 0.041029352787410191 -0.032117500105182294 0 0.041029352787410191 -0.032117500105182294 0 0.038875780564527534 -0.032570621836911069 0 0.040715016142317956 -0.033457111743796897 0 0.043089727225004155 -0.031259302393093151 0 0.041029352787410191 -0.032117500105182294 0 0.042531106196985774 -0.032668950519950703 0 0.041029352787410191 -0.032117500105182294 0 0.042531106196985774 -0.032668950519950703 0 0.040715016142317956 -0.033457111743796897 0 0.033438147969000999 -0.035582850251643677 0 0.034618902330897816 -0.034045095364273491 0 0.035577139560609962 -0.036280617340324318 0 0.033438147969000999 -0.035582850251643677 0 0.034618902330897816 -0.034045095364273491 0 0.03179393131257368 -0.033360330203024084 0 0.039106404568309314 -0.031575805937986673 0 0.041029352787410191 -0.032117500105182294 0 0.038875780564527534 -0.032570621836911069 0 0.038875780564527534 -0.032570621836911069 0 0.039342832372652167 -0.034318955828180134 0 0.040715016142317956 -0.033457111743796897 0 0.037160723323341756 -0.034295281028716131 0 0.037063742116213563 -0.036968359760744807 0 0.035577139560609962 -0.036280617340324318 0 0.033182135057081112 -0.037736108739154429 0 0.03473219724458252 -0.039826200854550679 0 0.033438147969000999 -0.035582850251643677 0 0.035577139560609962 -0.036280617340324318 0 0.033182135057081112 -0.037736108739154429 0 0.033182135057081112 -0.037736108739154429 0 0.031328213818073117 -0.037425199644211357 0 0.03119800258937145 -0.03872436948485488 0 0.031328213818073117 -0.037425199644211357 0 0.03031916319043582 -0.03760510583894805 0 0.03119800258937145 -0.03872436948485488 0 0.031328213818073117 -0.037425199644211357 0 0.030401139332680703 -0.036222699352457324 0 0.031669401873909472 -0.036108424063076371 0 0.031328213818073117 -0.037425199644211357 0 0.03031916319043582 -0.03760510583894805 0 0.030401139332680703 -0.036222699352457324 0 0.033182135057081112 -0.037736108739154429 0 0.031328213818073117 -0.037425199644211357 0 0.031669401873909472 -0.036108424063076371 0 0.033438147969000999 -0.035582850251643677 0 0.033182135057081112 -0.037736108739154429 0 0.031669401873909472 -0.036108424063076371 0 0.029323795081507089 -0.037536493068269623 0 0.028748253508270514 -0.03604517368029702 0 0.027527881124099353 -0.039141563409840444 0 0.029323795081507089 -0.037536493068269623 0 0.03031916319043582 -0.03760510583894805 0 0.029626068349963577 -0.038645664603847142 0 0.03031916319043582 -0.03760510583894805 0 0.029626068349963577 -0.038645664603847142 0 0.03119800258937145 -0.03872436948485488 0 0.029323795081507089 -0.037536493068269623 0 0.03031916319043582 -0.03760510583894805 0 0.030401139332680703 -0.036222699352457324 0 0.029323795081507089 -0.037536493068269623 0 0.028748253508270514 -0.03604517368029702 0 0.030401139332680703 -0.036222699352457324 0 0.026919309611150154 -0.042328848168135293 0 0.026258064531753073 -0.045084755946871502 0 0.028748253508270514 -0.03604517368029702 0 0.030401139332680703 -0.036222699352457324 0 0.03179393131257368 -0.033360330203024084 0 0.025541306649591897 -0.043635750161385281 0 0.026273808841750797 -0.043404526299460115 0 0.025649212947227037 -0.043403090803178702 0 0.026919309611150154 -0.042328848168135293 0 0.030545523808453254 -0.039464690854462629 0 0.02563189504434488 -0.048137315577025212 0 0.029064800321737038 -0.045679395710356167 0 0.026637663545429683 -0.045660623595439959 0 0.026919309611150154 -0.042328848168135293 0 0.025807899971048334 -0.043225001392986816 0 0.030401139332680703 -0.036222699352457324 0 0.031669401873909472 -0.036108424063076371 0 0.03179393131257368 -0.033360330203024084 0 0.033438147969000999 -0.035582850251643677 0 0.031669401873909472 -0.036108424063076371 0 0.03179393131257368 -0.033360330203024084 0 0.029064800321737038 -0.045679395710356167 0 0.026637663545429683 -0.045660623595439959 0 0.027518287210909965 -0.042874463318988691 0 0.029064800321737038 -0.045679395710356167 0 0.027518287210909965 -0.042874463318988691 0 0.029989460874455903 -0.043060387800556488 0 0.026273808841750797 -0.043404526299460115 0 0.027518287210909965 -0.042874463318988691 0 0.025861125425372718 -0.042974405010728793 0 0.026258064531753073 -0.045084755946871502 0 0.027444937163939635 -0.042722037766067839 0 0.026273808841750797 -0.043404526299460115 0 0.025861125425372718 -0.042974405010728793 0 0.025649212947227037 -0.043403090803178702 0 0.027621644512780881 -0.041140144804932478 0 0.025806901431246438 -0.041859695435533209 0 0.027518287210909965 -0.042874463318988691 0 0.025806901431246438 -0.041859695435533209 0 0.027518287210909965 -0.042874463318988691 0 0.025861125425372718 -0.042974405010728793 0 0.027621644512780881 -0.041140144804932478 0 0.027518287210909965 -0.042874463318988691 0 0.029178983491315636 -0.042024712573105819 0 0.031210700586650771 -0.042044439149772628 0 0.029178983491315636 -0.042024712573105819 0 0.029989460874455903 -0.043060387800556488 0 0.027518287210909965 -0.042874463318988691 0 0.029178983491315636 -0.042024712573105819 0 0.029989460874455903 -0.043060387800556488 0 0.023881089164085573 -0.042651245914542092 0 0.024829132324374399 -0.042566160589267064 0 0.024119228472335663 -0.042136400089321804 0 0.024689367589309483 -0.041848461160713987 0 0.024829132324374399 -0.042566160589267064 0 0.024119228472335663 -0.042136400089321804 0 0.025806901431246438 -0.041859695435533209 0 0.024689367589309483 -0.041848461160713987 0 0.024829132324374399 -0.042566160589267064 0 0.025806901431246438 -0.041859695435533209 0 0.024829132324374399 -0.042566160589267064 0 0.025861125425372718 -0.042974405010728793 0 0.024829132324374399 -0.042566160589267064 0 0.025861125425372718 -0.042974405010728793 0 0.02514338698575486 -0.043122966422987206 0 0.02514338698575486 -0.043122966422987206 0 0.025649212947227037 -0.043403090803178702 0 0.02521225531513643 -0.043389143680953084 0 0.025861125425372718 -0.042974405010728793 0 0.02514338698575486 -0.043122966422987206 0 0.025649212947227037 -0.043403090803178702 0 0.02514338698575486 -0.043122966422987206 0 0.024564096348047178 -0.042971489082842408 0 0.024752908431095805 -0.043311238018048037 0 0.023881089164085573 -0.042651245914542092 0 0.024829132324374399 -0.042566160589267064 0 0.024564096348047178 -0.042971489082842408 0 0.024829132324374399 -0.042566160589267064 0 0.02514338698575486 -0.043122966422987206 0 0.024564096348047178 -0.042971489082842408 0 0.024564096348047178 -0.042971489082842408 0 0.024211203480480951 -0.043076255458491822 0 0.024752908431095805 -0.043311238018048037 0 0.023881089164085573 -0.042651245914542092 0 0.024564096348047178 -0.042971489082842408 0 0.024211203480480951 -0.043076255458491822 0 0.024310840492917457 -0.043329933128207744 0 0.024211203480480951 -0.043076255458491822 0 0.024752908431095805 -0.043311238018048037 0 0.024752908431095805 -0.043311238018048037 0 0.025085676595607797 -0.043517268587812324 0 0.024789559343116045 -0.043502961484718439 0 0.024310840492917457 -0.043329933128207744 0 0.024752908431095805 -0.043311238018048037 0 0.024789559343116045 -0.043502961484718439 0 0.025649212947227037 -0.043403090803178702 0 0.02521225531513643 -0.043389143680953084 0 0.025373883123116517 -0.043531152427135185 0 0.025541306649591897 -0.043635750161385281 0 0.025649212947227037 -0.043403090803178702 0 0.025373883123116517 -0.043531152427135185 0 0.02514338698575486 -0.043122966422987206 0 0.024752908431095805 -0.043311238018048037 0 0.02521225531513643 -0.043389143680953084 0 0.024752908431095805 -0.043311238018048037 0 0.02521225531513643 -0.043389143680953084 0 0.025085676595607797 -0.043517268587812324 0 0.025085676595607797 -0.043517268587812324 0 0.025373883123116517 -0.043531152427135185 0 0.025248545550208622 -0.043563551690859077 0 0.02521225531513643 -0.043389143680953084 0 0.025085676595607797 -0.043517268587812324 0 0.025373883123116517 -0.043531152427135185 0 0.025373883123116517 -0.043531152427135185 0 0.025248545550208622 -0.043563551690859077 0 0.02531948849692164 -0.04360688832007658 0 0.025541306649591897 -0.043635750161385281 0 0.025373883123116517 -0.043531152427135185 0 0.02531948849692164 -0.04360688832007658 0 0.02531948849692164 -0.04360688832007658 0 0.025121509050164109 -0.043579996819072521 0 0.025223272243123429 -0.043574528722146004 0 0.026919309611150154 -0.042328848168135293 0 0.026538936305117534 -0.040874945121663731 0 0.025344219608793819 -0.043610613535043245 0 0.02531948849692164 -0.04360688832007658 0 0.025223272243123429 -0.043574528722146004 0 0.025248545550208622 -0.043563551690859077 0 0.02531948849692164 -0.04360688832007658 0 0.025121509050164109 -0.043579996819072521 0 0.025085676595607797 -0.043517268587812324 0 0.025121509050164109 -0.043579996819072521 0 0.024789559343116045 -0.043502961484718439 0 0.025085676595607797 -0.043517268587812324 0 0.025248545550208622 -0.043563551690859077 0 0.025121509050164109 -0.043579996819072521 0 0.025121509050164109 -0.043579996819072521 0 0.024963863764982268 -0.043587420938123289 0 0.025223272243123429 -0.043574528722146004 0 0.024310840492917457 -0.043329933128207744 0 0.024536635829022598 -0.043534761113390247 0 0.024789559343116045 -0.043502961484718439 0 0.025121509050164109 -0.043579996819072521 0 0.024789559343116045 -0.043502961484718439 0 0.024963863764982268 -0.043587420938123289 0 0.024536635829022598 -0.043534761113390247 0 0.024789559343116045 -0.043502961484718439 0 0.024963863764982268 -0.043587420938123289 0 0.024963863764982268 -0.043587420938123289 0 0.025039617859173659 -0.043544433113526237 0 0.025223272243123429 -0.043574528722146004 0 0.025039617859173659 -0.043544433113526237 0 0.025223272243123429 -0.043574528722146004 0 0.02619737996050673 -0.043150443440013467 0 0.024536635829022598 -0.043534761113390247 0 0.024963863764982268 -0.043587420938123289 0 0.025039617859173659 -0.043544433113526237 0 0.026538936305117534 -0.040874945121663731 0 0.026060926426681057 -0.043263561494683724 0 0.027527881124099353 -0.039141563409840444 0 0.02619737996050673 -0.043150443440013467 0 0.029685264141552578 -0.040509873111669738 0 0.02619737996050673 -0.043150443440013467 0 0.02893516021688863 -0.042764462743696177 0 0.029685264141552578 -0.040509873111669738 0 0.025039617859173659 -0.043544433113526237 0 0.02619737996050673 -0.043150443440013467 0 0.025015873051055865 -0.044248241970254912 0 0.02619737996050673 -0.043150443440013467 0 0.02611496061089626 -0.045239991255501912 0 0.025015873051055865 -0.044248241970254912 0 0.02619737996050673 -0.043150443440013467 0 0.02611496061089626 -0.045239991255501912 0 0.028712022789306402 -0.044402043619219421 0 0.02619737996050673 -0.043150443440013467 0 0.028712022789306402 -0.044402043619219421 0 0.02893516021688863 -0.042764462743696177 0 0.02611496061089626 -0.045239991255501912 0 0.028712022789306402 -0.044402043619219421 0 0.027791604640529089 -0.045908282003839097 0 0.0310897491608331 -0.043692996603327712 0 0.032921177483669385 -0.043489462588948521 0 0.031977871401063965 -0.045560923692306694 0 0.0310897491608331 -0.043692996603327712 0 0.028712022789306402 -0.044402043619219421 0 0.029225497017031643 -0.046833875538241254 0 0.0310897491608331 -0.043692996603327712 0 0.028712022789306402 -0.044402043619219421 0 0.02893516021688863 -0.042764462743696177 0 0.0310897491608331 -0.043692996603327712 0 0.02893516021688863 -0.042764462743696177 0 0.031058380579188204 -0.041929346279805955 0 0.0310897491608331 -0.043692996603327712 0 0.031058380579188204 -0.041929346279805955 0 0.032822176592522408 -0.04185268440993288 0 0.031058380579188204 -0.041929346279805955 0 0.032351903154431094 -0.04019309569622876 0 0.032822176592522408 -0.04185268440993288 0 0.031058380579188204 -0.041929346279805955 0 0.029685264141552578 -0.040509873111669738 0 0.032351903154431094 -0.04019309569622876 0 0.02893516021688863 -0.042764462743696177 0 0.031058380579188204 -0.041929346279805955 0 0.029685264141552578 -0.040509873111669738 0 0.029685264141552578 -0.040509873111669738 0 0.029626068349963577 -0.038645664603847142 0 0.03119800258937145 -0.03872436948485488 0 0.029323795081507089 -0.037536493068269623 0 0.027527881124099353 -0.039141563409840444 0 0.029626068349963577 -0.038645664603847142 0 0.027527881124099353 -0.039141563409840444 0 0.029685264141552578 -0.040509873111669738 0 0.029626068349963577 -0.038645664603847142 0 0.033182135057081112 -0.037736108739154429 0 0.032351903154431094 -0.04019309569622876 0 0.03119800258937145 -0.03872436948485488 0 0.029685264141552578 -0.040509873111669738 0 0.032351903154431094 -0.04019309569622876 0 0.03119800258937145 -0.03872436948485488 0 0.033182135057081112 -0.037736108739154429 0 0.032351903154431094 -0.04019309569622876 0 0.03473219724458252 -0.039826200854550679 0 0.037063742116213563 -0.036968359760744807 0 0.037421175973611394 -0.038641521570402321 0 0.039342832372652167 -0.034318955828180134 0 0.039841691286640078 -0.035442752840553579 0 0.040482668522125821 -0.03534873649919034 0 0.03473219724458252 -0.039826200854550679 0 0.032822176592522408 -0.04185268440993288 0 0.034128357866658784 -0.04187910607051254 0 0.032351903154431094 -0.04019309569622876 0 0.03473219724458252 -0.039826200854550679 0 0.032822176592522408 -0.04185268440993288 0 0.040715016142317956 -0.033457111743796897 0 0.040652401420316932 -0.03448535622814991 0 0.042127931276102544 -0.034454757972398657 0 0.042531106196985774 -0.032668950519950703 0 0.040715016142317956 -0.033457111743796897 0 0.042127931276102544 -0.034454757972398657 0 0.039342832372652167 -0.034318955828180134 0 0.040715016142317956 -0.033457111743796897 0 0.040652401420316932 -0.03448535622814991 0 0.039342832372652167 -0.034318955828180134 0 0.040652401420316932 -0.03448535622814991 0 0.039841691286640078 -0.035442752840553579 0 0.040652401420316932 -0.03448535622814991 0 0.041245385179187362 -0.035317410274063585 0 0.039841691286640078 -0.035442752840553579 0 0.042127931276102544 -0.034454757972398657 0 0.041245385179187362 -0.035317410274063585 0 0.042336398860795287 -0.035955417746202818 0 0.040652401420316932 -0.03448535622814991 0 0.042127931276102544 -0.034454757972398657 0 0.041245385179187362 -0.035317410274063585 0 0.042336398860795287 -0.035955417746202818 0 0.041300563686171701 -0.036470500816350622 0 0.042544682159048684 -0.037204454498485244 0 0.041245385179187362 -0.035317410274063585 0 0.042336398860795287 -0.035955417746202818 0 0.041300563686171701 -0.036470500816350622 0 0.036703455284400499 -0.03403970032468244 0 0.039841691286640078 -0.035442752840553579 0 0.039198555280501084 -0.033800852266361911 0 0.03974450497808317 -0.035682578482252654 0 0.039391945992093245 -0.035238095770818975 0 0.041245385179187362 -0.035317410274063585 0 0.041300563686171701 -0.036470500816350622 0 0.039841691286640078 -0.035442752840553579 0 0.039198555280501084 -0.033800852266361911 0 0.038145846067279485 -0.031413994416283571 0 0.039673043002828881 -0.031420241148804817 0 0.038145846067279485 -0.031413994416283571 0 0.039673043002828881 -0.031420241148804817 0 0.039230716867499203 -0.030013968452807772 0 0.038145846067279485 -0.031413994416283571 0 0.0365324411394937 -0.031828843289799541 0 0.037058770784389544 -0.029966286336114836 0 0.036703455284400499 -0.03403970032468244 0 0.039198555280501084 -0.033800852266361911 0 0.038145846067279485 -0.031413994416283571 0 0.036703455284400499 -0.03403970032468244 0 0.038145846067279485 -0.031413994416283571 0 0.0365324411394937 -0.031828843289799541 0 0.0365324411394937 -0.031828843289799541 0 0.034101194651235768 -0.031850449558455965 0 0.037058770784389544 -0.029966286336114836 0 0.036703455284400499 -0.03403970032468244 0 0.0365324411394937 -0.031828843289799541 0 0.034101194651235768 -0.031850449558455965 0 0.03974450497808317 -0.035682578482252654 0 0.038236120753667682 -0.026538701405636526 0 0.0310897491608331 -0.043692996603327712 0 0.032822176592522408 -0.04185268440993288 0 0.032921177483669385 -0.043489462588948521 0 0.032822176592522408 -0.04185268440993288 0 0.034128357866658784 -0.04187910607051254 0 0.032921177483669385 -0.043489462588948521 0 0.039841691286640078 -0.035442752840553579 0 0.039198555280501084 -0.033800852266361911 0 0.040482668522125821 -0.03534873649919034 0 0.039198555280501084 -0.033800852266361911 0 0.040482668522125821 -0.03534873649919034 0 0.039673043002828881 -0.031420241148804817 0 0.040482668522125821 -0.03534873649919034 0 0.039673043002828881 -0.031420241148804817 0 0.040657878287025849 -0.029348849024752377 0 0.037421175973611394 -0.038641521570402321 0 0.036495231476582034 -0.035791094063056965 0 0.034128357866658784 -0.04187910607051254 0 0.032921177483669385 -0.043489462588948521 0 0.03412378751060556 -0.043676651877422909 0 0.036495231476582034 -0.035791094063056965 0 0.03506788702775622 -0.035528393390748862 0 0.03995710253783441 -0.027775216801271846 0 0.03996400837125455 -0.027845787826973421 0 0.038329662771865676 -0.025379167616679292 0 0.032921177483669385 -0.043489462588948521 0 0.03412378751060556 -0.043676651877422909 0 0.031977871401063965 -0.045560923692306694 0 0.03996400837125455 -0.027845787826973421 0 0.039686152012736987 -0.026790529065465911 0 0.038329662771865676 -0.025379167616679292 0 0.039673043002828881 -0.031420241148804817 0 0.040657878287025849 -0.029348849024752377 0 0.040076498576297651 -0.029136948278012637 0 0.039673043002828881 -0.031420241148804817 0 0.039230716867499203 -0.030013968452807772 0 0.040076498576297651 -0.029136948278012637 0 0.040324850064045251 -0.028709029495854788 0 0.040076498576297651 -0.029136948278012637 0 0.03996400837125455 -0.027845787826973421 0 0.036495231476582034 -0.035791094063056965 0 0.036562606452955573 -0.034953976138977091 0 0.036495231476582034 -0.035791094063056965 0 0.037028450938586768 -0.035481434821811125 0 0.040076498576297651 -0.029136948278012637 0 0.039155088808703747 -0.028798344623027394 0 0.039580885039090463 -0.028054574653536345 0 0.039230716867499203 -0.030013968452807772 0 0.040076498576297651 -0.029136948278012637 0 0.039155088808703747 -0.028798344623027394 0 0.039580885039090463 -0.028054574653536345 0 0.03905608566592151 -0.027541590143427479 0 0.039686152012736987 -0.026790529065465911 0 0.039580885039090463 -0.028054574653536345 0 0.03996400837125455 -0.027845787826973421 0 0.039686152012736987 -0.026790529065465911 0 0.039155088808703747 -0.028798344623027394 0 0.039580885039090463 -0.028054574653536345 0 0.03905608566592151 -0.027541590143427479 0 0.040076498576297651 -0.029136948278012637 0 0.039580885039090463 -0.028054574653536345 0 0.03996400837125455 -0.027845787826973421 0 0.039686152012736987 -0.026790529065465911 0 0.038725084355644479 -0.026367355464549536 0 0.039741519778934198 -0.026027458768291767 0 0.03905608566592151 -0.027541590143427479 0 0.039686152012736987 -0.026790529065465911 0 0.039741519778934198 -0.026027458768291767 0 0.039686152012736987 -0.026790529065465911 0 0.038725084355644479 -0.026367355464549536 0 0.038329662771865676 -0.025379167616679292 0 0.034101194651235768 -0.031850449558455965 0 0.037398230477178246 -0.027842639503399404 0 0.037058770784389544 -0.029966286336114836 0 0.035796758127189222 -0.016009458017712339 0 0.035602849249031183 -0.016792617624931949 0 0.035314026002794902 -0.017093301146630414 0 0.038236120753667682 -0.026538701405636526 0 0.035964003006490122 -0.022053512079077246 0 0.034683726138099967 -0.017040450651171844 0 0.035242139906016941 -0.016973510592916005 0 0.035035130870809651 -0.016305103389301683 0 0.039585459599678692 -0.013699175733632531 0 0.036196044437879708 -0.014856850817809752 0 0.035773597055422553 -0.017066969388705798 0 0.035602849249031183 -0.016792617624931949 0 0.035242139906016941 -0.016973510592916005 0 0.035773597055422553 -0.017066969388705798 0 0.035602849249031183 -0.016792617624931949 0 0.036127715498214877 -0.01675132139955399 0 0.039585459599678692 -0.013699175733632531 0 0.037227420271043345 -0.017338000472847021 0 0.035796758127189222 -0.016009458017712339 0 0.035602849249031183 -0.016792617624931949 0 0.036127715498214877 -0.01675132139955399 0 0.035242139906016941 -0.016973510592916005 0 0.035314026002794902 -0.017093301146630414 0 0.035035130870809651 -0.016305103389301683 0 0.035602849249031183 -0.016792617624931949 0 0.035242139906016941 -0.016973510592916005 0 0.035314026002794902 -0.017093301146630414 0 0.037398230477178246 -0.027842639503399404 0 0.037058770784389544 -0.029966286336114836 0 0.038397016483975269 -0.029124419705838601 0 0.038145846067279485 -0.031413994416283571 0 0.037058770784389544 -0.029966286336114836 0 0.038397016483975269 -0.029124419705838601 0 0.038145846067279485 -0.031413994416283571 0 0.039230716867499203 -0.030013968452807772 0 0.038397016483975269 -0.029124419705838601 0 0.039230716867499203 -0.030013968452807772 0 0.039155088808703747 -0.028798344623027394 0 0.038397016483975269 -0.029124419705838601 0 0.039155088808703747 -0.028798344623027394 0 0.03905608566592151 -0.027541590143427479 0 0.038397016483975269 -0.029124419705838601 0 0.03905608566592151 -0.027541590143427479 0 0.037398230477178246 -0.027842639503399404 0 0.038397016483975269 -0.029124419705838601 0 0.03905608566592151 -0.027541590143427479 0 0.037398230477178246 -0.027842639503399404 0 0.039741519778934198 -0.026027458768291767 0 0.035314026002794902 -0.017093301146630414 0 0.035732881534922975 -0.01522005020636733 0 0.035035130870809651 -0.016305103389301683 0 0.035964003006490122 -0.022053512079077246 0 0.039068249144695089 -0.021312721421948077 0 0.035314026002794902 -0.017093301146630414 0 0.035732881534922975 -0.01522005020636733 0 0.037608100541627061 -0.015196626133720094 0 0.046781143302711971 -0.0088720628555633615 0 0.047029578168320277 -0.0085530313725672834 0 0.046855970830691381 -0.0086742264293737086 0 0.039585459599678692 -0.013699175733632531 0 0.040726469673031347 -0.011419417184525936 0 0.034683726138099967 -0.017040450651171844 0 0.035035130870809651 -0.016305103389301683 0 0.034174875190331751 -0.014777701940689981 0 0.035732881534922975 -0.01522005020636733 0 0.035035130870809651 -0.016305103389301683 0 0.034174875190331751 -0.014777701940689981 0 0.034174875190331751 -0.014777701940689981 0 0.035469525584062064 -0.013471255642577716 0 0.034335970446589058 -0.010842246968609639 0 0.040726469673031347 -0.011419417184525936 0 0.041000132358306123 -0.0095533997426455013 0 0.035469525584062064 -0.013471255642577716 0 0.036509513381015768 -0.013444709588133347 0 0.035898813851639559 -0.012236194317883546 0 0.035732881534922975 -0.01522005020636733 0 0.034174875190331751 -0.014777701940689981 0 0.035469525584062064 -0.013471255642577716 0 0.035732881534922975 -0.01522005020636733 0 0.035469525584062064 -0.013471255642577716 0 0.036509513381015768 -0.013444709588133347 0 0.035732881534922975 -0.01522005020636733 0 0.036509513381015768 -0.013444709588133347 0 0.037608100541627061 -0.015196626133720094 0 0.036509513381015768 -0.013444709588133347 0 0.036794181365774302 -0.011884807131303346 0 0.037538612907359173 -0.012285876892048171 0 0.036509513381015768 -0.013444709588133347 0 0.036794181365774302 -0.011884807131303346 0 0.035898813851639559 -0.012236194317883546 0 0.036794181365774302 -0.011884807131303346 0 0.036282072047255406 -0.011104706648146178 0 0.035898813851639559 -0.012236194317883546 0 0.036794181365774302 -0.011884807131303346 0 0.036970925655465024 -0.010845686005225874 0 0.037517324354496305 -0.011073601378799983 0 0.036970925655465024 -0.010845686005225874 0 0.036822903196154562 -0.010008859982433067 0 0.036282072047255406 -0.011104706648146178 0 0.036794181365774302 -0.011884807131303346 0 0.036970925655465024 -0.010845686005225874 0 0.036282072047255406 -0.011104706648146178 0 0.036822903196154562 -0.010008859982433067 0 0.037283395888932438 -0.010273375573586197 0 0.037533317612160583 -0.0094070880638772586 0 0.036970925655465024 -0.010845686005225874 0 0.036822903196154562 -0.010008859982433067 0 0.037283395888932438 -0.010273375573586197 0 0.036822903196154562 -0.010008859982433067 0 0.036159577004440634 -0.010353424827938768 0 0.036282072047255406 -0.011104706648146178 0 0.036159577004440634 -0.010353424827938768 0 0.036282072047255406 -0.011104706648146178 0 0.0358592164157822 -0.010822222221484748 0 0.036282072047255406 -0.011104706648146178 0 0.035592304696368988 -0.011208176318865207 0 0.0358592164157822 -0.010822222221484748 0 0.035400972994689917 -0.010614036702488986 0 0.034335970446589058 -0.010842246968609639 0 0.036058162460963224 -0.0092501403853971816 0 0.035592304696368988 -0.011208176318865207 0 0.0358592164157822 -0.010822222221484748 0 0.035400972994689917 -0.010614036702488986 0 0.036159577004440634 -0.010353424827938768 0 0.0358592164157822 -0.010822222221484748 0 0.035400972994689917 -0.010614036702488986 0 0.036159577004440634 -0.010353424827938768 0 0.035400972994689917 -0.010614036702488986 0 0.036058162460963224 -0.0092501403853971816 0 0.035592304696368988 -0.011208176318865207 0 0.035400972994689917 -0.010614036702488986 0 0.034335970446589058 -0.010842246968609639 0 0.035592304696368988 -0.011208176318865207 0 0.035898813851639559 -0.012236194317883546 0 0.034335970446589058 -0.010842246968609639 0 0.035469525584062064 -0.013471255642577716 0 0.035898813851639559 -0.012236194317883546 0 0.034335970446589058 -0.010842246968609639 0 0.036282072047255406 -0.011104706648146178 0 0.035592304696368988 -0.011208176318865207 0 0.035898813851639559 -0.012236194317883546 0 0.047029578168320277 -0.0085530313725672834 0 0.047003537526696428 -0.0084018939899651174 0 0.047019271380350128 -0.0084006049547017212 0 0.047003537526696428 -0.0084018939899651174 0 0.047019271380350128 -0.0084006049547017212 0 0.047051625859016101 -0.0084216266447820834 0 0.038725084355644479 -0.026367355464549536 0 0.039741519778934198 -0.026027458768291767 0 0.039062927797098745 -0.02716888873881174 0 0.038725084355644479 -0.026367355464549536 0 0.039062927797098745 -0.02716888873881174 0 0.037896451594779564 -0.027017269448147276 0 0.037608100541627061 -0.015196626133720094 0 0.038855490690254325 -0.011671508459700351 0 0.040824495953518128 -0.011423683750856672 0 0.036509513381015768 -0.013444709588133347 0 0.037608100541627061 -0.015196626133720094 0 0.037538612907359173 -0.012285876892048171 0 0.037608100541627061 -0.015196626133720094 0 0.038855490690254325 -0.011671508459700351 0 0.037538612907359173 -0.012285876892048171 0 0.039068249144695089 -0.021312721421948077 0 0.036134216628775508 -0.014647525645563408 0 0.038855490690254325 -0.011671508459700351 0 0.037538612907359173 -0.012285876892048171 0 0.038116500732132789 -0.011297350661501386 0 0.037538612907359173 -0.012285876892048171 0 0.038116500732132789 -0.011297350661501386 0 0.037517324354496305 -0.011073601378799983 0 0.036794181365774302 -0.011884807131303346 0 0.037538612907359173 -0.012285876892048171 0 0.037517324354496305 -0.011073601378799983 0 0.037517324354496305 -0.011073601378799983 0 0.038125633266429766 -0.010650183433719275 0 0.037794577626978049 -0.010237704386581439 0 0.036970925655465024 -0.010845686005225874 0 0.037517324354496305 -0.011073601378799983 0 0.037283395888932438 -0.010273375573586197 0 0.038116500732132789 -0.011297350661501386 0 0.037517324354496305 -0.011073601378799983 0 0.038125633266429766 -0.010650183433719275 0 0.038116500732132789 -0.011297350661501386 0 0.038125633266429766 -0.010650183433719275 0 0.038627009487827345 -0.010612626493568892 0 0.038125633266429766 -0.010650183433719275 0 0.038255071121363546 -0.0099965692015097796 0 0.038627009487827345 -0.010612626493568892 0 0.038125633266429766 -0.010650183433719275 0 0.038255071121363546 -0.0099965692015097796 0 0.037794577626978049 -0.010237704386581439 0 0.037517324354496305 -0.011073601378799983 0 0.037283395888932438 -0.010273375573586197 0 0.037794577626978049 -0.010237704386581439 0 0.038255071121363546 -0.0099965692015097796 0 0.037794577626978049 -0.010237704386581439 0 0.037533317612160583 -0.0094070880638772586 0 0.037283395888932438 -0.010273375573586197 0 0.037794577626978049 -0.010237704386581439 0 0.037533317612160583 -0.0094070880638772586 0 0.038855490690254325 -0.011671508459700351 0 0.039296484326677539 -0.010343833187359666 0 0.039993144195392162 -0.010670321491906328 0 0.038855490690254325 -0.011671508459700351 0 0.038116500732132789 -0.011297350661501386 0 0.038627009487827345 -0.010612626493568892 0 0.038855490690254325 -0.011671508459700351 0 0.038627009487827345 -0.010612626493568892 0 0.039296484326677539 -0.010343833187359666 0 0.038627009487827345 -0.010612626493568892 0 0.038937744481408479 -0.0098681652219298512 0 0.039296484326677539 -0.010343833187359666 0 0.038255071121363546 -0.0099965692015097796 0 0.038627009487827345 -0.010612626493568892 0 0.038937744481408479 -0.0098681652219298512 0 0.038937744481408479 -0.0098681652219298512 0 0.039296484326677539 -0.010343833187359666 0 0.039981644024719314 -0.0090882460534859547 0 0.039296484326677539 -0.010343833187359666 0 0.039993144195392162 -0.010670321491906328 0 0.039981644024719314 -0.0090882460534859547 0 0.039993144195392162 -0.010670321491906328 0 0.040824495953518128 -0.011423683750856672 0 0.039981644024719314 -0.0090882460534859547 0 0.038855490690254325 -0.011671508459700351 0 0.039993144195392162 -0.010670321491906328 0 0.040824495953518128 -0.011423683750856672 0 0.036134216628775508 -0.014647525645563408 0 0.033089633989663775 -0.017974049566491627 0 0.037896451594779564 -0.027017269448147276 0 0.036713214351931096 -0.026504388746325828 0 0.036595245959899561 -0.028614014861944578 0 0.039062927797098745 -0.02716888873881174 0 0.037896451594779564 -0.027017269448147276 0 0.036595245959899561 -0.028614014861944578 0 0.038725084355644479 -0.026367355464549536 0 0.037896451594779564 -0.027017269448147276 0 0.036713214351931096 -0.026504388746325828 0 0.036713214351931096 -0.026504388746325828 0 0.034876623974320349 -0.027823294639057163 0 0.034580587691604429 -0.0263017626839088 0 0.036713214351931096 -0.026504388746325828 0 0.034876623974320349 -0.027823294639057163 0 0.036595245959899561 -0.028614014861944578 0 0.034876623974320349 -0.027823294639057163 0 0.033221706104090698 -0.02715714490422234 0 0.034580587691604429 -0.0263017626839088 0 0.034876623974320349 -0.027823294639057163 0 0.033221706104090698 -0.02715714490422234 0 0.03281652267205748 -0.028722082286138786 0 0.033221706104090698 -0.02715714490422234 0 0.034580587691604429 -0.0263017626839088 0 0.0327297842197498 -0.025004373755870401 0 0.033221706104090698 -0.02715714490422234 0 0.0327297842197498 -0.025004373755870401 0 0.031377424543487395 -0.026959675810268462 0 0.029770771686926007 -0.036267280834601609 0 0.032264528174905209 -0.035853999391543732 0 0.034580587691604429 -0.0263017626839088 0 0.0327297842197498 -0.025004373755870401 0 0.035404332102822664 -0.024845190329384866 0 0.02611496061089626 -0.045239991255501912 0 0.026812968525624203 -0.047534962682070414 0 0.027791604640529089 -0.045908282003839097 0 0.02611496061089626 -0.045239991255501912 0 0.026812968525624203 -0.047534962682070414 0 0.024993641866423191 -0.046559692441792963 0 0.026812968525624203 -0.047534962682070414 0 0.027791604640529089 -0.045908282003839097 0 0.029225497017031643 -0.046833875538241254 0 0.028712022789306402 -0.044402043619219421 0 0.027791604640529089 -0.045908282003839097 0 0.029225497017031643 -0.046833875538241254 0 0.03506788702775622 -0.035528393390748862 0 0.032264528174905209 -0.035853999391543732 0 0.0310897491608331 -0.043692996603327712 0 0.031977871401063965 -0.045560923692306694 0 0.029225497017031643 -0.046833875538241254 0 0.038725084355644479 -0.026367355464549536 0 0.036713214351931096 -0.026504388746325828 0 0.038329662771865676 -0.025379167616679292 0 0.036713214351931096 -0.026504388746325828 0 0.034580587691604429 -0.0263017626839088 0 0.035404332102822664 -0.024845190329384866 0 0.036713214351931096 -0.026504388746325828 0 0.038329662771865676 -0.025379167616679292 0 0.035404332102822664 -0.024845190329384866 0 0.044997607537228229 -0.025432148193956346 0 0.046295082407380304 -0.020771744895287568 0 0.044999134706220918 -0.016512642371068875 0 0.04581284792885465 -0.01750737110439253 0 0.046295082407380304 -0.020771744895287568 0 0.044999134706220918 -0.016512642371068875 0 0.04581284792885465 -0.01750737110439253 0 0.046359908628734889 -0.017912465549880314 0 0.046647046787693144 -0.018733581980179798 0 0.046359908628734889 -0.017912465549880314 0 0.046647046787693144 -0.018733581980179798 0 0.046718641847761984 -0.017939218341885912 0 0.04581284792885465 -0.01750737110439253 0 0.046647046787693144 -0.018733581980179798 0 0.046295082407380304 -0.020771744895287568 0 0.046591581682506711 -0.024577978442898 0 0.046295082407380304 -0.020771744895287568 0 0.047823262078092947 -0.022700264895135092 0 0.046295082407380304 -0.020771744895287568 0 0.047823262078092947 -0.022700264895135092 0 0.04727700898247434 -0.020722338180798473 0 0.047348020307221503 -0.025869567968075716 0 0.047823262078092947 -0.022700264895135092 0 0.048383254838744352 -0.024683985971408424 0 0.047348020307221503 -0.025869567968075716 0 0.046591581682506711 -0.024577978442898 0 0.047823262078092947 -0.022700264895135092 0 0.047868673905279234 -0.022517083045503806 0 0.04779628949161617 -0.020115993947546186 0 0.047823262078092947 -0.022700264895135092 0 0.048073071889015294 -0.021657958625699743 0 0.049034531358913509 -0.022306816054799228 0 0.048073071889015294 -0.021657958625699743 0 0.048044016458829809 -0.020649179811398237 0 0.049034531358913509 -0.022306816054799228 0 0.047823262078092947 -0.022700264895135092 0 0.048073071889015294 -0.021657958625699743 0 0.047437120175290899 -0.020847651470132431 0 0.047823262078092947 -0.022700264895135092 0 0.048118246796975322 -0.019591096340232043 0 0.04727700898247434 -0.020722338180798473 0 0.048073071889015294 -0.021657958625699743 0 0.048044016458829809 -0.020649179811398237 0 0.047437120175290899 -0.020847651470132431 0 0.046647046787693144 -0.018733581980179798 0 0.046295082407380304 -0.020771744895287568 0 0.04705182000874121 -0.019713989012287287 0 0.046295082407380304 -0.020771744895287568 0 0.04727700898247434 -0.020722338180798473 0 0.04705182000874121 -0.019713989012287287 0 0.048118246796975322 -0.019591096340232043 0 0.04727700898247434 -0.020722338180798473 0 0.04705182000874121 -0.019713989012287287 0 0.048118246796975322 -0.019591096340232043 0 0.04705182000874121 -0.019713989012287287 0 0.047224572738658072 -0.018641521791963864 0 0.048118246796975322 -0.019591096340232043 0 0.047224572738658072 -0.018641521791963864 0 0.0473473633019156 -0.017607906312613306 0 0.046647046787693144 -0.018733581980179798 0 0.04705182000874121 -0.019713989012287287 0 0.047224572738658072 -0.018641521791963864 0 0.046647046787693144 -0.018733581980179798 0 0.047224572738658072 -0.018641521791963864 0 0.046718641847761984 -0.017939218341885912 0 0.047224572738658072 -0.018641521791963864 0 0.046718641847761984 -0.017939218341885912 0 0.0473473633019156 -0.017607906312613306 0 0.04779628949161617 -0.020115993947546186 0 0.046221930581369232 -0.01912058801029367 0 0.046628918941238946 -0.021969472071311464 0 0.046221930581369232 -0.01912058801029367 0 0.045067704397387887 -0.022484063935409616 0 0.045056732221820849 -0.022537837082535775 0 0.044914987478574239 -0.022500065307174223 0 0.048044016458829809 -0.020649179811398237 0 0.047437120175290899 -0.020847651470132431 0 0.047048281251235807 -0.018999248626854676 0 0.045056732221820849 -0.022537837082535775 0 0.044927296427623539 -0.022590161478137364 0 0.044918401269241029 -0.022674232770658574 0 0.045067704397387887 -0.022484063935409616 0 0.044927296427623539 -0.022590161478137364 0 0.044760125600881356 -0.022517253117788238 0 0.045067704397387887 -0.022484063935409616 0 0.045056732221820849 -0.022537837082535775 0 0.044927296427623539 -0.022590161478137364 0 0.044760125600881356 -0.022517253117788238 0 0.044352307968048919 -0.022844966747464668 0 0.044211423982523278 -0.022479253771059617 0 0.044927296427623539 -0.022590161478137364 0 0.044760125600881356 -0.022517253117788238 0 0.044725785433195733 -0.022734419538678049 0 0.044927296427623539 -0.022590161478137364 0 0.044918401269241029 -0.022674232770658574 0 0.044725785433195733 -0.022734419538678049 0 0.044760125600881356 -0.022517253117788238 0 0.044725785433195733 -0.022734419538678049 0 0.044352307968048919 -0.022844966747464668 0 0.043775602067469568 -0.022954496559415512 0 0.044211423982523278 -0.022479253771059617 0 0.043597373894182306 -0.02235652857068102 0 0.044352307968048919 -0.022844966747464668 0 0.043775602067469568 -0.022954496559415512 0 0.044381358554344018 -0.023343569138864838 0 0.044352307968048919 -0.022844966747464668 0 0.043775602067469568 -0.022954496559415512 0 0.044211423982523278 -0.022479253771059617 0 0.044211423982523278 -0.022479253771059617 0 0.044144404395117687 -0.021966590718398286 0 0.043597373894182306 -0.02235652857068102 0 0.044211423982523278 -0.022479253771059617 0 0.044144404395117687 -0.021966590718398286 0 0.044575393336943922 -0.022239067379207049 0 0.046628918941238946 -0.021969472071311464 0 0.046734389537188462 -0.021298904261762331 0 0.044144404395117687 -0.021966590718398286 0 0.044575393336943922 -0.022239067379207049 0 0.044624022843857178 -0.021714957026637956 0 0.045067704397387887 -0.022484063935409616 0 0.044575393336943922 -0.022239067379207049 0 0.044624022843857178 -0.021714957026637956 0 0.044760125600881356 -0.022517253117788238 0 0.044211423982523278 -0.022479253771059617 0 0.044575393336943922 -0.022239067379207049 0 0.045067704397387887 -0.022484063935409616 0 0.044760125600881356 -0.022517253117788238 0 0.044575393336943922 -0.022239067379207049 0 0.047823262078092947 -0.022700264895135092 0 0.049034531358913509 -0.022306816054799228 0 0.048383254838744352 -0.024683985971408424 0 0.049034531358913509 -0.022306816054799228 0 0.048383254838744352 -0.024683985971408424 0 0.050641280345458901 -0.025249786395222178 0 0.046734389537188462 -0.021298904261762331 0 0.046578698543756916 -0.026975323973312638 0 0.044159686699503667 -0.020988892386968251 0 0.044125856896643841 -0.02155375316727352 0 0.043558187629105467 -0.02155419603597819 0 0.047592438293726808 -0.03212968826280084 0 0.045420547641909378 -0.03437657234581204 0 0.04538189063212849 -0.03248483206696489 0 0.046578698543756916 -0.026975323973312638 0 0.044409373049188627 -0.027901818878659064 0 0.044624022843857178 -0.021714957026637956 0 0.044159686699503667 -0.020988892386968251 0 0.044125856896643841 -0.02155375316727352 0 0.044144404395117687 -0.021966590718398286 0 0.043558187629105467 -0.02155419603597819 0 0.043597373894182306 -0.02235652857068102 0 0.044144404395117687 -0.021966590718398286 0 0.044624022843857178 -0.021714957026637956 0 0.044125856896643841 -0.02155375316727352 0 0.044144404395117687 -0.021966590718398286 0 0.044125856896643841 -0.02155375316727352 0 0.043558187629105467 -0.02155419603597819 0 0.044409373049188627 -0.027901818878659064 0 0.043645902007045718 -0.029372179698817308 0 0.045420547641909378 -0.03437657234581204 0 0.043728746589944675 -0.033661768768617512 0 0.043870811063500652 -0.035863000022533773 0 0.044528936527778687 -0.031371495728609186 0 0.04538189063212849 -0.03248483206696489 0 0.043728746589944675 -0.033661768768617512 0 0.045420547641909378 -0.03437657234581204 0 0.04538189063212849 -0.03248483206696489 0 0.043728746589944675 -0.033661768768617512 0 0.042531106196985774 -0.032668950519950703 0 0.042127931276102544 -0.034454757972398657 0 0.043728746589944675 -0.033661768768617512 0 0.044528936527778687 -0.031371495728609186 0 0.042531106196985774 -0.032668950519950703 0 0.043728746589944675 -0.033661768768617512 0 0.042127931276102544 -0.034454757972398657 0 0.043728746589944675 -0.033661768768617512 0 0.043870811063500652 -0.035863000022533773 0 0.042336398860795287 -0.035955417746202818 0 0.042544682159048684 -0.037204454498485244 0 0.043870811063500652 -0.035863000022533773 0 0.042127931276102544 -0.034454757972398657 0 0.042336398860795287 -0.035955417746202818 0 0.043870811063500652 -0.035863000022533773 0 0.038236120753667682 -0.026538701405636526 0 0.043645902007045718 -0.029372179698817308 0 0.043558187629105467 -0.02155419603597819 0 0.042769983045969753 -0.022275755004315154 0 0.043597373894182306 -0.02235652857068102 0 0.042769983045969753 -0.022275755004315154 0 0.043597373894182306 -0.02235652857068102 0 0.043017174263433246 -0.022912408777602235 0 0.043775602067469568 -0.022954496559415512 0 0.043597373894182306 -0.02235652857068102 0 0.043017174263433246 -0.022912408777602235 0 0.043775602067469568 -0.022954496559415512 0 0.043017174263433246 -0.022912408777602235 0 0.043124130454193478 -0.023701586533000897 0 0.041977099376838571 -0.023112506682830852 0 0.042769983045969753 -0.022275755004315154 0 0.043017174263433246 -0.022912408777602235 0 0.041977099376838571 -0.023112506682830852 0 0.043017174263433246 -0.022912408777602235 0 0.043124130454193478 -0.023701586533000897 0 0.046781143302711971 -0.0088720628555633615 0 0.046668679863625655 -0.0088266104109822902 0 0.046855970830691381 -0.0086742264293737086 0 0.036008894273219044 -0.017736787788567722 0 0.036127715498214877 -0.01675132139955399 0 0.038605219822231501 -0.017381274948073479 0 0.039585459599678692 -0.013699175733632531 0 0.044154988804942195 -0.017524564877780979 0 0.035796758127189222 -0.016009458017712339 0 0.036127715498214877 -0.01675132139955399 0 0.038605219822231501 -0.017381274948073479 0 0.038236120753667682 -0.026538701405636526 0 0.044154988804942195 -0.017524564877780979 0 0.046668679863625655 -0.0088266104109822902 0 0.046790230917852837 -0.008670028109609677 0 0.046785332405927402 -0.0086564064404289019 0 0.046668679863625655 -0.0088266104109822902 0 0.046790230917852837 -0.008670028109609677 0 0.046855970830691381 -0.0086742264293737086 0 0.044154988804942195 -0.017524564877780979 0 0.04789635687409341 -0.014584067227494535 0 0.046790230917852837 -0.008670028109609677 0 0.046808481315605201 -0.008628767010513707 0 0.046785332405927402 -0.0086564064404289019 0 0.046790230917852837 -0.008670028109609677 0 0.046855970830691381 -0.0086742264293737086 0 0.046889444408166447 -0.0085849719635461928 0 0.046790230917852837 -0.008670028109609677 0 0.046889444408166447 -0.0085849719635461928 0 0.046808481315605201 -0.008628767010513707 0 0.047029578168320277 -0.0085530313725672834 0 0.046993158108068089 -0.0084692467764077347 0 0.047019271380350128 -0.0084006049547017212 0 0.047029578168320277 -0.0085530313725672834 0 0.046855970830691381 -0.0086742264293737086 0 0.046993158108068089 -0.0084692467764077347 0 0.046855970830691381 -0.0086742264293737086 0 0.046993158108068089 -0.0084692467764077347 0 0.046889444408166447 -0.0085849719635461928 0 0.046993158108068089 -0.0084692467764077347 0 0.046980932647444483 -0.0084346428617915851 0 0.046889444408166447 -0.0085849719635461928 0 0.046993158108068089 -0.0084692467764077347 0 0.047143055098786746 -0.0082978085132699719 0 0.046980932647444483 -0.0084346428617915851 0 0.046993158108068089 -0.0084692467764077347 0 0.047019271380350128 -0.0084006049547017212 0 0.047143055098786746 -0.0082978085132699719 0 0.047019271380350128 -0.0084006049547017212 0 0.047143055098786746 -0.0082978085132699719 0 0.047051625859016101 -0.0084216266447820834 0 0.047143055098786746 -0.0082978085132699719 0 0.047268559156495742 -0.0079426804912023693 0 0.047587610384465039 -0.0077358459173702604 0 0.047200290989034159 -0.0082299044980199427 0 0.047233942274320963 -0.0080896976367746346 0 0.047177692508340661 -0.0078689063581596011 0 0.047096968927400222 -0.0079239165391137567 0 0.047151306376413342 -0.0077055785719906114 0 0.047177692508340661 -0.0078689063581596011 0 0.047268559156495742 -0.0079426804912023693 0 0.047110011176082323 -0.0081245933644099877 0 0.047177692508340661 -0.0078689063581596011 0 0.047268559156495742 -0.0079426804912023693 0 0.047327268116121417 -0.0075675085297073463 0 0.047143055098786746 -0.0082978085132699719 0 0.047268559156495742 -0.0079426804912023693 0 0.047110011176082323 -0.0081245933644099877 0 0.047110011176082323 -0.0081245933644099877 0 0.047077137040611373 -0.0080878929343089576 0 0.047096968927400222 -0.0079239165391137567 0 0.047177692508340661 -0.0078689063581596011 0 0.047110011176082323 -0.0081245933644099877 0 0.047096968927400222 -0.0079239165391137567 0 0.046980932647444483 -0.0084346428617915851 0 0.046808481315605201 -0.008628767010513707 0 0.046791803666461358 -0.0086765021479477296 0 0.047110011176082323 -0.0081245933644099877 0 0.046980932647444483 -0.0084346428617915851 0 0.047077137040611373 -0.0080878929343089576 0 0.047081834916507276 -0.0084481346387058395 0 0.046799595166496955 -0.0083561010838195723 0 0.047143055098786746 -0.0082978085132699719 0 0.047110011176082323 -0.0081245933644099877 0 0.046980932647444483 -0.0084346428617915851 0 0.046980932647444483 -0.0084346428617915851 0 0.046889444408166447 -0.0085849719635461928 0 0.046808481315605201 -0.008628767010513707 0 0.046799595166496955 -0.0083561010838195723 0 0.047737296635239047 -0.0091450355062945247 0 0.046808481315605201 -0.008628767010513707 0 0.046831996378750872 -0.0086864695745046648 0 0.046791803666461358 -0.0086765021479477296 0 0.046767684744594182 -0.014237995131597606 0 0.04789635687409341 -0.014584067227494535 0 0.046808481315605201 -0.008628767010513707 0 0.046831996378750872 -0.0086864695745046648 0 0.046785332405927402 -0.0086564064404289019 0 0.046791803666461358 -0.0086765021479477296 0 0.046942722857250867 -0.0088314967966019817 0 0.046913608764491195 -0.0087636689945336695 0 0.046831996378750872 -0.0086864695745046648 0 0.047051108634338597 -0.0087094433230926558 0 0.046785332405927402 -0.0086564064404289019 0 0.046831996378750872 -0.0086864695745046648 0 0.046791803666461358 -0.0086765021479477296 0 0.046913608764491195 -0.0087636689945336695 0 0.047077137040611373 -0.0080878929343089576 0 0.047096968927400222 -0.0079239165391137567 0 0.046896398178242135 -0.0079526080599927156 0 0.047061280006712766 -0.0077181560037984306 0 0.046896398178242135 -0.0079526080599927156 0 0.047012636246373106 -0.0075161718043712843 0 0.047096968927400222 -0.0079239165391137567 0 0.047061280006712766 -0.0077181560037984306 0 0.046896398178242135 -0.0079526080599927156 0 0.047096968927400222 -0.0079239165391137567 0 0.047061280006712766 -0.0077181560037984306 0 0.047151306376413342 -0.0077055785719906114 0 0.046950322907893832 -0.0090083261785645682 0 0.047051108634338597 -0.0087094433230926558 0 0.047704434511592932 -0.0092853074588064455 0 0.047737296635239047 -0.0091450355062945247 0 0.048292478287909057 -0.0086105530351719192 0 0.047737296635239047 -0.0091450355062945247 0 0.047969707613635358 -0.012544303888467959 0 0.046950322907893832 -0.0090083261785645682 0 0.047051108634338597 -0.0087094433230926558 0 0.046913608764491195 -0.0087636689945336695 0 0.046831996378750872 -0.0086864695745046648 0 0.047051108634338597 -0.0087094433230926558 0 0.046913608764491195 -0.0087636689945336695 0 0.047737296635239047 -0.0091450355062945247 0 0.047294246068612593 -0.0087447501249542942 0 0.046839848220543739 -0.019512439949674075 0 0.046298997406137611 -0.020016324851673581 0 0.045977579285056906 -0.019383206985563652 0 0.046839848220543739 -0.019512439949674075 0 0.046298997406137611 -0.020016324851673581 0 0.046972425149117029 -0.020326313282539917 0 0.046298997406137611 -0.020016324851673581 0 0.046506253667146828 -0.020542419291094249 0 0.046972425149117029 -0.020326313282539917 0 0.046839848220543739 -0.019512439949674075 0 0.046972425149117029 -0.020326313282539917 0 0.048100060867542434 -0.020674486286962324 0 0.046298997406137611 -0.020016324851673581 0 0.046506253667146828 -0.020542419291094249 0 0.046003489619761653 -0.020688902396033288 0 0.046506253667146828 -0.020542419291094249 0 0.046397694616534882 -0.02125849699434618 0 0.046003489619761653 -0.020688902396033288 0 0.046506253667146828 -0.020542419291094249 0 0.046397694616534882 -0.02125849699434618 0 0.04710314576321234 -0.020890222217395504 0 0.046397694616534882 -0.02125849699434618 0 0.04710314576321234 -0.020890222217395504 0 0.047491775016745084 -0.021891686000003557 0 0.046506253667146828 -0.020542419291094249 0 0.04710314576321234 -0.020890222217395504 0 0.046972425149117029 -0.020326313282539917 0 0.04710314576321234 -0.020890222217395504 0 0.046972425149117029 -0.020326313282539917 0 0.048100060867542434 -0.020674486286962324 0 0.04710314576321234 -0.020890222217395504 0 0.048100060867542434 -0.020674486286962324 0 0.047491775016745084 -0.021891686000003557 0 0.044154988804942195 -0.017524564877780979 0 0.046298061190722231 -0.023216893126953086 0 0.049169469661395633 -0.021630612964517921 0 0.048100060867542434 -0.020674486286962324 0 0.047491775016745084 -0.021891686000003557 0 0.043775602067469568 -0.022954496559415512 0 0.043124130454193478 -0.023701586533000897 0 0.044381358554344018 -0.023343569138864838 0 0.046397694616534882 -0.02125849699434618 0 0.047491775016745084 -0.021891686000003557 0 0.045265135233602684 -0.022412438189576736 0 0.044918401269241029 -0.022674232770658574 0 0.044725785433195733 -0.022734419538678049 0 0.044381358554344018 -0.023343569138864838 0 0.044725785433195733 -0.022734419538678049 0 0.044352307968048919 -0.022844966747464668 0 0.044381358554344018 -0.023343569138864838 0 0.044918401269241029 -0.022674232770658574 0 0.044381358554344018 -0.023343569138864838 0 0.045265135233602684 -0.022412438189576736 0 0.046298061190722231 -0.023216893126953086 0 0.045073381071887159 -0.022321140918915319 0 0.04688652573208426 -0.013260591411127991 0 0.044999134706220918 -0.016512642371068875 0 0.044999901070780148 -0.0098409974120717992 0 0.045079683001991472 -0.021775351817104542 0 0.045265135233602684 -0.022412438189576736 0 0.044914987478574239 -0.022500065307174223 0 0.045079683001991472 -0.021775351817104542 0 0.045265135233602684 -0.022412438189576736 0 0.045564406380308432 -0.021352532884906714 0 0.046397694616534882 -0.02125849699434618 0 0.045265135233602684 -0.022412438189576736 0 0.045564406380308432 -0.021352532884906714 0 0.045056732221820849 -0.022537837082535775 0 0.044918401269241029 -0.022674232770658574 0 0.045265135233602684 -0.022412438189576736 0 0.045056732221820849 -0.022537837082535775 0 0.045265135233602684 -0.022412438189576736 0 0.044914987478574239 -0.022500065307174223 0 0.045079683001991472 -0.021775351817104542 0 0.044914987478574239 -0.022500065307174223 0 0.044624845238407644 -0.020228817467822503 0 0.046718641847761984 -0.017939218341885912 0 0.046619762131362201 -0.01750291030153852 0 0.046315796057285023 -0.017540335937689434 0 0.046718641847761984 -0.017939218341885912 0 0.0473473633019156 -0.017607906312613306 0 0.046619762131362201 -0.01750291030153852 0 0.046619762131362201 -0.01750291030153852 0 0.046446535476751864 -0.017251473726018731 0 0.04632071500261524 -0.017362385884752047 0 0.0473473633019156 -0.017607906312613306 0 0.046619762131362201 -0.01750291030153852 0 0.046446535476751864 -0.017251473726018731 0 0.046221930581369232 -0.01912058801029367 0 0.045882199764918918 -0.017029484403060756 0 0.045272414091183898 -0.016701853702653646 0 0.045507871228259951 -0.017146448529900049 0 0.04535657519490071 -0.017464618112220748 0 0.046221930581369232 -0.01912058801029367 0 0.044928307039294076 -0.018973563437613149 0 0.045079683001991472 -0.021775351817104542 0 0.044624845238407644 -0.020228817467822503 0 0.045133816264152499 -0.021187567778669668 0 0.045882199764918918 -0.017029484403060756 0 0.046070361201240966 -0.017709550817443211 0 0.045507871228259951 -0.017146448529900049 0 0.04535657519490071 -0.017464618112220748 0 0.045945023370441714 -0.017675326981252775 0 0.044624845238407644 -0.020228817467822503 0 0.045170036417311391 -0.020583741287357144 0 0.045133816264152499 -0.021187567778669668 0 0.044624845238407644 -0.020228817467822503 0 0.045416850583441706 -0.020188779517621731 0 0.045170036417311391 -0.020583741287357144 0 0.045416850583441706 -0.020188779517621731 0 0.045483450919157488 -0.020739112137135994 0 0.045852083955287282 -0.020194075632164001 0 0.045416850583441706 -0.020188779517621731 0 0.045483450919157488 -0.020739112137135994 0 0.045170036417311391 -0.020583741287357144 0 0.045483450919157488 -0.020739112137135994 0 0.045170036417311391 -0.020583741287357144 0 0.045133816264152499 -0.021187567778669668 0 0.045483450919157488 -0.020739112137135994 0 0.045564406380308432 -0.021352532884906714 0 0.045133816264152499 -0.021187567778669668 0 0.045079683001991472 -0.021775351817104542 0 0.045564406380308432 -0.021352532884906714 0 0.045133816264152499 -0.021187567778669668 0 0.046397694616534882 -0.02125849699434618 0 0.045564406380308432 -0.021352532884906714 0 0.046003489619761653 -0.020688902396033288 0 0.045483450919157488 -0.020739112137135994 0 0.045564406380308432 -0.021352532884906714 0 0.046003489619761653 -0.020688902396033288 0 0.046298997406137611 -0.020016324851673581 0 0.046003489619761653 -0.020688902396033288 0 0.045852083955287282 -0.020194075632164001 0 0.045483450919157488 -0.020739112137135994 0 0.046003489619761653 -0.020688902396033288 0 0.045852083955287282 -0.020194075632164001 0 0.046298997406137611 -0.020016324851673581 0 0.045777966068711748 -0.019740267199977925 0 0.045977579285056906 -0.019383206985563652 0 0.046839848220543739 -0.019512439949674075 0 0.045977579285056906 -0.019383206985563652 0 0.045544114179355694 -0.018667670993037174 0 0.046298997406137611 -0.020016324851673581 0 0.045852083955287282 -0.020194075632164001 0 0.045777966068711748 -0.019740267199977925 0 0.045416850583441706 -0.020188779517621731 0 0.045777966068711748 -0.019740267199977925 0 0.045335348350690953 -0.019679975189724089 0 0.045416850583441706 -0.020188779517621731 0 0.045852083955287282 -0.020194075632164001 0 0.045777966068711748 -0.019740267199977925 0 0.045335348350690953 -0.019679975189724089 0 0.045520903545425685 -0.019152362269117443 0 0.045266335789681943 -0.019224120478004848 0 0.045777966068711748 -0.019740267199977925 0 0.045335348350690953 -0.019679975189724089 0 0.045520903545425685 -0.019152362269117443 0 0.045777966068711748 -0.019740267199977925 0 0.045520903545425685 -0.019152362269117443 0 0.045977579285056906 -0.019383206985563652 0 0.050086713869968214 -0.0111726276446835 0 0.048895404145207676 -0.010870293168468407 0 0.049034794898261555 -0.010280842838982153 0 0.046767684744594182 -0.014237995131597606 0 0.047969707613635358 -0.012544303888467959 0 0.045520903545425685 -0.019152362269117443 0 0.045977579285056906 -0.019383206985563652 0 0.045544114179355694 -0.018667670993037174 0 0.045520903545425685 -0.019152362269117443 0 0.045544114179355694 -0.018667670993037174 0 0.045397044525430315 -0.018736918445094956 0 0.047969707613635358 -0.012544303888467959 0 0.048072480828853618 -0.010908060513766065 0 0.048895404145207676 -0.010870293168468407 0 0.048348807642976721 -0.010452797046637475 0 0.049034794898261555 -0.010280842838982153 0 0.048906755164734139 -0.010941191229670355 0 0.047174437126520689 -0.01048294459592683 0 0.047757761500891609 -0.010339657692259445 0 0.048906755164734139 -0.010941191229670355 0 0.048348807642976721 -0.010452797046637475 0 0.047757761500891609 -0.010339657692259445 0 0.047969707613635358 -0.012544303888467959 0 0.046083014656128608 -0.013345645234858755 0 0.045397044525430315 -0.018736918445094956 0 0.045334606477595706 -0.018644527104056931 0 0.045402892468095618 -0.018751686153523246 0 0.045544114179355694 -0.018667670993037174 0 0.045397044525430315 -0.018736918445094956 0 0.045402892468095618 -0.018751686153523246 0 0.045397044525430315 -0.018736918445094956 0 0.045334606477595706 -0.018644527104056931 0 0.045266335789681943 -0.019224120478004848 0 0.045520903545425685 -0.019152362269117443 0 0.045397044525430315 -0.018736918445094956 0 0.045266335789681943 -0.019224120478004848 0 0.04535657519490071 -0.017464618112220748 0 0.045334606477595706 -0.018644527104056931 0 0.045678908825914591 -0.018157318233602834 0 0.044624845238407644 -0.020228817467822503 0 0.045334606477595706 -0.018644527104056931 0 0.045266335789681943 -0.019224120478004848 0 0.044928307039294076 -0.018973563437613149 0 0.045289340151920258 -0.01870431165629325 0 0.044624845238407644 -0.020228817467822503 0 0.045416850583441706 -0.020188779517621731 0 0.045335348350690953 -0.019679975189724089 0 0.044624845238407644 -0.020228817467822503 0 0.045335348350690953 -0.019679975189724089 0 0.045266335789681943 -0.019224120478004848 0 0.04535657519490071 -0.017464618112220748 0 0.045945023370441714 -0.017675326981252775 0 0.045678908825914591 -0.018157318233602834 0 0.04688652573208426 -0.013260591411127991 0 0.047247660809282589 -0.011294723595586371 0 0.044999901070780148 -0.0098409974120717992 0 0.045945023370441714 -0.017675326981252775 0 0.046096227138452163 -0.01793703552575163 0 0.045678908825914591 -0.018157318233602834 0 0.046096227138452163 -0.01793703552575163 0 0.045678908825914591 -0.018157318233602834 0 0.045402892468095618 -0.018751686153523246 0 0.045334606477595706 -0.018644527104056931 0 0.045678908825914591 -0.018157318233602834 0 0.045402892468095618 -0.018751686153523246 0 0.046443616997870966 -0.015895859455502218 0 0.046083014656128608 -0.013345645234858755 0 0.04688652573208426 -0.013260591411127991 0 0.046495791117473352 -0.015214440577823875 0 0.044999134706220918 -0.016512642371068875 0 0.046443616997870966 -0.015895859455502218 0 0.046334830227502913 -0.016230905442859576 0 0.045945023370441714 -0.017675326981252775 0 0.046096227138452163 -0.01793703552575163 0 0.046254412872188178 -0.017288367634034914 0 0.045945023370441714 -0.017675326981252775 0 0.046205179978024834 -0.017389062759841097 0 0.046254412872188178 -0.017288367634034914 0 0.046446535476751864 -0.017251473726018731 0 0.045945023370441714 -0.017675326981252775 0 0.046205179978024834 -0.017389062759841097 0 0.046446535476751864 -0.017251473726018731 0 0.046205179978024834 -0.017389062759841097 0 0.04632071500261524 -0.017362385884752047 0 0.046205179978024834 -0.017389062759841097 0 0.046254412872188178 -0.017288367634034914 0 0.04632071500261524 -0.017362385884752047 0 0.04581284792885465 -0.01750737110439253 0 0.046254412872188178 -0.017288367634034914 0 0.046315796057285023 -0.017540335937689434 0 0.046254412872188178 -0.017288367634034914 0 0.04632071500261524 -0.017362385884752047 0 0.046315796057285023 -0.017540335937689434 0 0.046619762131362201 -0.01750291030153852 0 0.04632071500261524 -0.017362385884752047 0 0.046315796057285023 -0.017540335937689434 0 0.046359908628734889 -0.017912465549880314 0 0.046718641847761984 -0.017939218341885912 0 0.046315796057285023 -0.017540335937689434 0 0.04581284792885465 -0.01750737110439253 0 0.046359908628734889 -0.017912465549880314 0 0.046315796057285023 -0.017540335937689434 0 0.04581284792885465 -0.01750737110439253 0 0.046495791117473352 -0.015214440577823875 0 0.044999134706220918 -0.016512642371068875 0 0.045902965792856659 -0.017447074688731013 0 0.046334830227502913 -0.016230905442859576 0 0.046285007241565083 -0.0073698524167410979 0 0.044999901070780148 -0.0098409974120717992 0 0.044999834927471671 -0.0048884145922675109 0 0.046285007241565083 -0.0073698524167410979 0 0.046598841694544695 -0.0057487136373169804 0 0.044999834927471671 -0.0048884145922675109 0 0.047325619706322389 -0.0071155119359175819 0 0.047512529166814414 -0.0058709392786694091 0 0.046598841694544695 -0.0057487136373169804 0 0.047325619706322389 -0.0071155119359175819 0 0.046285007241565083 -0.0073698524167410979 0 0.046598841694544695 -0.0057487136373169804 0 0.047325619706322389 -0.0071155119359175819 0 0.046285007241565083 -0.0073698524167410979 0 0.047514255599350068 -0.0088619127408874222 0 0.046285007241565083 -0.0073698524167410979 0 0.044999901070780148 -0.0098409974120717992 0 0.046624634078936869 -0.0096946141825847605 0 0.047247660809282589 -0.011294723595586371 0 0.044999901070780148 -0.0098409974120717992 0 0.046624634078936869 -0.0096946141825847605 0 0.046083014656128608 -0.013345645234858755 0 0.047877291834145914 -0.0079192529827076166 0 0.047247660809282589 -0.011294723595586371 0 0.046624634078936869 -0.0096946141825847605 0 0.047514255599350068 -0.0088619127408874222 0 0.046285007241565083 -0.0073698524167410979 0 0.046624634078936869 -0.0096946141825847605 0 0.047514255599350068 -0.0088619127408874222 0 0.047514255599350068 -0.0088619127408874222 0 0.048493039057278302 -0.009113957530915073 0 0.048737801245107557 -0.007853016291328339 0 0.047514255599350068 -0.0088619127408874222 0 0.047891549118018746 -0.0097029758685962912 0 0.048493039057278302 -0.009113957530915073 0 0.047174437126520689 -0.01048294459592683 0 0.047514255599350068 -0.0088619127408874222 0 0.047891549118018746 -0.0097029758685962912 0 0.047891549118018746 -0.0097029758685962912 0 0.048486740863416672 -0.0098815901616268222 0 0.048493039057278302 -0.009113957530915073 0 0.048348807642976721 -0.010452797046637475 0 0.047757761500891609 -0.010339657692259445 0 0.048486740863416672 -0.0098815901616268222 0 0.047891549118018746 -0.0097029758685962912 0 0.047757761500891609 -0.010339657692259445 0 0.048486740863416672 -0.0098815901616268222 0 0.047174437126520689 -0.01048294459592683 0 0.047891549118018746 -0.0097029758685962912 0 0.047757761500891609 -0.010339657692259445 0 0.049034794898261555 -0.010280842838982153 0 0.048486740863416672 -0.0098815901616268222 0 0.049448473096110231 -0.0096710133313372987 0 0.048348807642976721 -0.010452797046637475 0 0.049034794898261555 -0.010280842838982153 0 0.048486740863416672 -0.0098815901616268222 0 0.048486740863416672 -0.0098815901616268222 0 0.049448473096110231 -0.0096710133313372987 0 0.048493039057278302 -0.009113957530915073 0 0.046845512393973873 -0.007312192977195966 0 0.047014109833652992 -0.0065900706241756538 0 0.047123687188395533 -0.0067839466355950626 0 0.048292478287909057 -0.0086105530351719192 0 0.047855698659011639 -0.0072012485215435457 0 0.049448473096110231 -0.0096710133313372987 0 0.048493039057278302 -0.009113957530915073 0 0.048737801245107557 -0.007853016291328339 0 0.047014109833652992 -0.0065900706241756538 0 0.047211647929544631 -0.0064260352306461195 0 0.047322827856230466 -0.0062031930480569535 0 0.047014109833652992 -0.0065900706241756538 0 0.047211647929544631 -0.0064260352306461195 0 0.047123687188395533 -0.0067839466355950626 0 0.047325619706322389 -0.0071155119359175819 0 0.047514255599350068 -0.0088619127408874222 0 0.048737801245107557 -0.007853016291328339 0 0.047855698659011639 -0.0072012485215435457 0 0.047537630564746115 -0.0060090927020394532 0 0.047325619706322389 -0.0071155119359175819 0 0.048737801245107557 -0.007853016291328339 0 0.047512529166814414 -0.0058709392786694091 0 0.047014109833652992 -0.0065900706241756538 0 0.047322827856230466 -0.0062031930480569535 0 0.047512529166814414 -0.0058709392786694091 0 0.047455721378428392 -0.0060178548644126495 0 0.047322827856230466 -0.0062031930480569535 0 0.047512529166814414 -0.0058709392786694091 0 0.047455721378428392 -0.0060178548644126495 0 0.047322827856230466 -0.0062031930480569535 0 0.047270012030600266 -0.0063052944435841324 0 0.047211647929544631 -0.0064260352306461195 0 0.047322827856230466 -0.0062031930480569535 0 0.047270012030600266 -0.0063052944435841324 0 0.047347561675616448 -0.0018179171419664989 0 0.046908831046303043 -0.0016405839497305012 0 0.046561099571794919 -0.0011736103276366052 0 0.047270012030600266 -0.0063052944435841324 0 0.047369463560847758 -0.0065321285256465297 0 0.047238703976363948 -0.0065449651774636694 0 0.047370516982427835 -0.0041511141532796858 0 0.046678771309046276 -0.0030037303293690806 0 0.047211647929544631 -0.0064260352306461195 0 0.047270012030600266 -0.0063052944435841324 0 0.047238703976363948 -0.0065449651774636694 0 0.046908831046303043 -0.0016405839497305012 0 0.046278993060792924 -0.00054370592984252005 0 0.046302453380909298 -0.0020647801652339888 0 0.046381351868830627 -0.0013278916061288484 0 0.046678771309046276 -0.0030037303293690806 0 0.047369463560847758 -0.0065321285256465297 0 0.047293039070554439 -0.0068132913399138783 0 0.047238703976363948 -0.0065449651774636694 0 0.047369463560847758 -0.0065321285256465297 0 0.047293039070554439 -0.0068132913399138783 0 0.047581558373699553 -0.0067717459991252582 0 0.046678771309046276 -0.0030037303293690806 0 0.046692310290916042 -0.0057751584306500164 0 0.047293039070554439 -0.0068132913399138783 0 0.047280989858347111 -0.0070917903326013828 0 0.047394031467679447 -0.0068731934567936 0 0.047480384815615041 -0.0066450536498323899 0 0.046692310290916042 -0.0057751584306500164 0 0.047293039070554439 -0.0068132913399138783 0 0.047238703976363948 -0.0065449651774636694 0 0.047123687188395533 -0.0067839466355950626 0 0.047211647929544631 -0.0064260352306461195 0 0.047238703976363948 -0.0065449651774636694 0 0.047123687188395533 -0.0067839466355950626 0 0.047293039070554439 -0.0068132913399138783 0 0.047123687188395533 -0.0067839466355950626 0 0.047116903374635262 -0.0071350114762431163 0 0.046845512393973873 -0.007312192977195966 0 0.047123687188395533 -0.0067839466355950626 0 0.047116903374635262 -0.0071350114762431163 0 0.046896398178242135 -0.0079526080599927156 0 0.046845512393973873 -0.007312192977195966 0 0.047012636246373106 -0.0075161718043712843 0 0.050086713869968214 -0.0111726276446835 0 0.049034794898261555 -0.010280842838982153 0 0.049448473096110231 -0.0096710133313372987 0 0.046845512393973873 -0.007312192977195966 0 0.047116903374635262 -0.0071350114762431163 0 0.047012636246373106 -0.0075161718043712843 0 0.047061280006712766 -0.0077181560037984306 0 0.047151306376413342 -0.0077055785719906114 0 0.047176727631374225 -0.0074707615538650322 0 0.047061280006712766 -0.0077181560037984306 0 0.047012636246373106 -0.0075161718043712843 0 0.047176727631374225 -0.0074707615538650322 0 0.047116903374635262 -0.0071350114762431163 0 0.047012636246373106 -0.0075161718043712843 0 0.047176727631374225 -0.0074707615538650322 0 0.047176727631374225 -0.0074707615538650322 0 0.047280989858347111 -0.0070917903326013828 0 0.047388395014452765 -0.0072426615088020613 0 0.047116903374635262 -0.0071350114762431163 0 0.047176727631374225 -0.0074707615538650322 0 0.047280989858347111 -0.0070917903326013828 0 0.047293039070554439 -0.0068132913399138783 0 0.047116903374635262 -0.0071350114762431163 0 0.047280989858347111 -0.0070917903326013828 0 0.045391462894147999 -0.0058578212151893551 0 0.045312355891144442 -0.0056653734789929066 0 0.045235851311052996 -0.0056730540360719374 0 0.047280989858347111 -0.0070917903326013828 0 0.047388395014452765 -0.0072426615088020613 0 0.047394031467679447 -0.0068731934567936 0 0.047388395014452765 -0.0072426615088020613 0 0.047715725629909243 -0.0073353267582584617 0 0.047394031467679447 -0.0068731934567936 0 0.045917881146022375 -0.0072465350276137491 0 0.046692310290916042 -0.0057751584306500164 0 0.047176727631374225 -0.0074707615538650322 0 0.047388395014452765 -0.0072426615088020613 0 0.047327268116121417 -0.0075675085297073463 0 0.047388395014452765 -0.0072426615088020613 0 0.047327268116121417 -0.0075675085297073463 0 0.047715725629909243 -0.0073353267582584617 0 0.047268559156495742 -0.0079426804912023693 0 0.047327268116121417 -0.0075675085297073463 0 0.047587610384465039 -0.0077358459173702604 0 0.047177692508340661 -0.0078689063581596011 0 0.047151306376413342 -0.0077055785719906114 0 0.047327268116121417 -0.0075675085297073463 0 0.047151306376413342 -0.0077055785719906114 0 0.047176727631374225 -0.0074707615538650322 0 0.047327268116121417 -0.0075675085297073463 0 0.047327268116121417 -0.0075675085297073463 0 0.047587610384465039 -0.0077358459173702604 0 0.047715725629909243 -0.0073353267582584617 0 0.047003537526696428 -0.0084018939899651174 0 0.047051625859016101 -0.0084216266447820834 0 0.047029605226543085 -0.0084347933329757003 0 0.047233942274320963 -0.0080896976367746346 0 0.045917881146022375 -0.0072465350276137491 0 0.045391462894147999 -0.0058578212151893551 0 0.045418673944167466 -0.0057267062446912376 0 0.045312355891144442 -0.0056653734789929066 0 0.045917881146022375 -0.0072465350276137491 0 0.04333975517738968 -0.0052327653055210203 0 0.044817400623241216 -0.0030327801036378953 0 0.043130848617332074 -0.0016539548394750344 0 0.04333975517738968 -0.0052327653055210203 0 0.043130848617332074 -0.0016539548394750344 0 0.044427365036904226 0.00054116358914543285 0 0.043938964985079945 -7.1220580872885273e-05 0 0.043557304062136044 0.00044778104176744997 0 0.04346450332895091 -0.0028944338368683186 0 0.044252042816265068 -0.0032746228169822319 0 0.043339784250099468 -0.0033606671412948022 0 0.044427365036904226 0.00054116358914543285 0 0.043938964985079945 -7.1220580872885273e-05 0 0.044383609476196177 -8.9406418691518621e-05 0 0.04333975517738968 -0.0052327653055210203 0 0.044817400623241216 -0.0030327801036378953 0 0.046526669207836491 -0.0039053340647848701 0 0.045698610398057823 -0.0035165138733215771 0 0.046092928368026337 -0.0034768078485903015 0 0.046278993060792924 -0.00054370592984252005 0 0.044427365036904226 0.00054116358914543285 0 0.044383609476196177 -8.9406418691518621e-05 0 0.044817400623241216 -0.0030327801036378953 0 0.046692310290916042 -0.0057751584306500164 0 0.046678771309046276 -0.0030037303293690806 0 0.044817400623241216 -0.0030327801036378953 0 0.044454245887102076 -0.00017006182562587609 0 0.045602485504582041 -0.0011844461334150702 0 0.044373158698586108 -0.00034618859681139798 0 0.044383609476196177 -8.9406418691518621e-05 0 0.044623968135365413 -0.00036444728399699769 0 0.046278993060792924 -0.00054370592984252005 0 0.044383609476196177 -8.9406418691518621e-05 0 0.046302453380909298 -0.0020647801652339888 0 0.044383609476196177 -8.9406418691518621e-05 0 0.044623968135365413 -0.00036444728399699769 0 0.044913416449439941 -0.00037793359564366569 0 0.043938964985079945 -7.1220580872885273e-05 0 0.043557304062136044 0.00044778104176744997 0 0.043130010609400631 -0.0007577155584600491 0 0.044373158698586108 -0.00034618859681139798 0 0.044060876897374486 -0.0004035477193902547 0 0.044383609476196177 -8.9406418691518621e-05 0 0.044373158698586108 -0.00034618859681139798 0 0.044060876897374486 -0.0004035477193902547 0 0.044410046746193151 -0.00050511304197823151 0 0.044060876897374486 -0.0004035477193902547 0 0.043938964985079945 -7.1220580872885273e-05 0 0.043130010609400631 -0.0007577155584600491 0 0.044060876897374486 -0.0004035477193902547 0 0.043938964985079945 -7.1220580872885273e-05 0 0.044383609476196177 -8.9406418691518621e-05 0 0.043935471679289059 -0.00072978995146006265 0 0.044410046746193151 -0.00050511304197823151 0 0.044532390879516694 -0.00063749496758745965 0 0.043935471679289059 -0.00072978995146006265 0 0.044184826179772242 -0.00084365949436384226 0 0.043349850263939733 -0.0010157798284348507 0 0.044060876897374486 -0.0004035477193902547 0 0.043935471679289059 -0.00072978995146006265 0 0.043130010609400631 -0.0007577155584600491 0 0.044060876897374486 -0.0004035477193902547 0 0.043935471679289059 -0.00072978995146006265 0 0.044410046746193151 -0.00050511304197823151 0 0.044373158698586108 -0.00034618859681139798 0 0.044410046746193151 -0.00050511304197823151 0 0.044623968135365413 -0.00036444728399699769 0 0.044410046746193151 -0.00050511304197823151 0 0.044623968135365413 -0.00036444728399699769 0 0.044772536225473204 -0.00047284844455008001 0 0.044623968135365413 -0.00036444728399699769 0 0.044772536225473204 -0.00047284844455008001 0 0.044913416449439941 -0.00037793359564366569 0 0.044410046746193151 -0.00050511304197823151 0 0.044772536225473204 -0.00047284844455008001 0 0.044532390879516694 -0.00063749496758745965 0 0.044772536225473204 -0.00047284844455008001 0 0.044532390879516694 -0.00063749496758745965 0 0.044882593832134145 -0.00047772361658085798 0 0.044532390879516694 -0.00063749496758745965 0 0.044882593832134145 -0.00047772361658085798 0 0.044649649350748832 -0.00071274751032992839 0 0.044882593832134145 -0.00047772361658085798 0 0.044649649350748832 -0.00071274751032992839 0 0.044956271477868397 -0.00043062479439673346 0 0.044649649350748832 -0.00071274751032992839 0 0.044184826179772242 -0.00084365949436384226 0 0.044368525536376324 -0.00094202421259927344 0 0.044532390879516694 -0.00063749496758745965 0 0.044649649350748832 -0.00071274751032992839 0 0.044184826179772242 -0.00084365949436384226 0 0.043935471679289059 -0.00072978995146006265 0 0.044532390879516694 -0.00063749496758745965 0 0.044184826179772242 -0.00084365949436384226 0 0.044184826179772242 -0.00084365949436384226 0 0.043349850263939733 -0.0010157798284348507 0 0.043759528166375905 -0.0010638680518507849 0 0.044368525536376324 -0.00094202421259927344 0 0.043759528166375905 -0.0010638680518507849 0 0.043766885835148345 -0.0012491773979670666 0 0.044184826179772242 -0.00084365949436384226 0 0.044368525536376324 -0.00094202421259927344 0 0.043759528166375905 -0.0010638680518507849 0 0.044368525536376324 -0.00094202421259927344 0 0.044610293994968617 -0.0010431181585281583 0 0.043766885835148345 -0.0012491773979670666 0 0.044368525536376324 -0.00094202421259927344 0 0.04475882087499005 -0.00072274499983392647 0 0.044610293994968617 -0.0010431181585281583 0 0.044649649350748832 -0.00071274751032992839 0 0.044368525536376324 -0.00094202421259927344 0 0.04475882087499005 -0.00072274499983392647 0 0.044854457941275516 -0.00054176255230964116 0 0.044610293994968617 -0.0010431181585281583 0 0.044815868859802196 -0.00055953764725721769 0 0.04475882087499005 -0.00072274499983392647 0 0.044854457941275516 -0.00054176255230964116 0 0.044610293994968617 -0.0010431181585281583 0 0.044864002536479701 0.00016736010897696032 0 0.044815868859802196 -0.00055953764725721769 0 0.045233867552290405 -6.6429790580573782e-05 0 0.044978878780930903 0.00059526738271878409 0 0.044867674437930979 -0.00041144568832996397 0 0.045703097390787095 0.00062783249350708452 0 0.044815868859802196 -0.00055953764725721769 0 0.045179537392261493 -7.9162290214224775e-05 0 0.044864002536479701 0.00016736010897696032 0 0.044302426467246331 0.0004614034287547229 0 0.044815868859802196 -0.00055953764725721769 0 0.044854457941275516 -0.00054176255230964116 0 0.044815868859802196 -0.00055953764725721769 0 0.045179537392261493 -7.9162290214224775e-05 0 0.045428160531991474 0.00052227157203275985 0 0.045179537392261493 -7.9162290214224775e-05 0 0.04517264810439816 -2.49744856790668e-05 0 0.045179537392261493 -7.9162290214224775e-05 0 0.04517264810439816 -2.49744856790668e-05 0 0.045004196467050568 -0.00034750802385524 0 0.044854457941275516 -0.00054176255230964116 0 0.045179537392261493 -7.9162290214224775e-05 0 0.045004196467050568 -0.00034750802385524 0 0.04517264810439816 -2.49744856790668e-05 0 0.045004196467050568 -0.00034750802385524 0 0.044956271477868397 -0.00043062479439673346 0 0.04475882087499005 -0.00072274499983392647 0 0.045004196467050568 -0.00034750802385524 0 0.044956271477868397 -0.00043062479439673346 0 0.04475882087499005 -0.00072274499983392647 0 0.044854457941275516 -0.00054176255230964116 0 0.045004196467050568 -0.00034750802385524 0 0.044649649350748832 -0.00071274751032992839 0 0.04475882087499005 -0.00072274499983392647 0 0.044956271477868397 -0.00043062479439673346 0 0.044882593832134145 -0.00047772361658085798 0 0.044956271477868397 -0.00043062479439673346 0 0.045131718029378078 -0.00011133731161554792 0 0.04517264810439816 -2.49744856790668e-05 0 0.044956271477868397 -0.00043062479439673346 0 0.045131718029378078 -0.00011133731161554792 0 0.04517264810439816 -2.49744856790668e-05 0 0.045131718029378078 -0.00011133731161554792 0 0.045324017452961378 0.00047753511274063141 0 0.045428160531991474 0.00052227157203275985 0 0.04517264810439816 -2.49744856790668e-05 0 0.045324017452961378 0.00047753511274063141 0 0.045422684739297975 0.0011222138695511073 0 0.045324017452961378 0.00047753511274063141 0 0.045238141161203602 0.00048848028716648028 0 0.045131718029378078 -0.00011133731161554792 0 0.045324017452961378 0.00047753511274063141 0 0.045238141161203602 0.00048848028716648028 0 0.045131718029378078 -0.00011133731161554792 0 0.045238141161203602 0.00048848028716648028 0 0.04509758271089416 -0.00012759917309778754 0 0.045131718029378078 -0.00011133731161554792 0 0.04509758271089416 -0.00012759917309778754 0 0.045011909685890146 -0.00030495715098852915 0 0.044882593832134145 -0.00047772361658085798 0 0.045131718029378078 -0.00011133731161554792 0 0.045011909685890146 -0.00030495715098852915 0 0.044772536225473204 -0.00047284844455008001 0 0.044882593832134145 -0.00047772361658085798 0 0.045011909685890146 -0.00030495715098852915 0 0.044772536225473204 -0.00047284844455008001 0 0.045011909685890146 -0.00030495715098852915 0 0.044913416449439941 -0.00037793359564366569 0 0.04509758271089416 -0.00012759917309778754 0 0.045011909685890146 -0.00030495715098852915 0 0.044913416449439941 -0.00037793359564366569 0 0.046291901025680163 -0.001416069271189174 0 0.045602485504582041 -0.0011844461334150702 0 0.046908831046303043 -0.0016405839497305012 0 0.047480782158465254 -0.0027563321235952684 0 0.046302453380909298 -0.0020647801652339888 0 0.047347561675616448 -0.0018179171419664989 0 0.046908831046303043 -0.0016405839497305012 0 0.047480782158465254 -0.0027563321235952684 0 0.047347561675616448 -0.0018179171419664989 0 0.047480782158465254 -0.0027563321235952684 0 0.047566624757360447 -0.0024871424806215997 0 0.044999813371936329 0.0015275725603616744 0 0.045327811231297678 -0.0031577406403738399 0 0.044999834927471671 -0.0048884145922675109 0 0.047455721378428392 -0.0060178548644126495 0 0.047270012030600266 -0.0063052944435841324 0 0.047613056852691675 -0.0058198602575303994 0 0.047370516982427835 -0.0041511141532796858 0 0.04752034272820517 -0.0041603730426766862 0 0.047347561675616448 -0.0018179171419664989 0 0.047566624757360447 -0.0024871424806215997 0 0.047668807031232885 -0.0026463204907831773 0 0.047566624757360447 -0.0024871424806215997 0 0.047668807031232885 -0.0026463204907831773 0 0.047604000863155298 -0.0026282760263536577 0 0.047613056852691675 -0.0058198602575303994 0 0.047512529166814414 -0.0058709392786694091 0 0.046931389452561853 -0.0045304933489448643 0 0.047455721378428392 -0.0060178548644126495 0 0.047613056852691675 -0.0058198602575303994 0 0.047512529166814414 -0.0058709392786694091 0 0.04752034272820517 -0.0041603730426766862 0 0.046786848389579548 -0.0037836783315049797 0 0.047668807031232885 -0.0026463204907831773 0 0.047425812487089276 -0.0026545039515851261 0 0.046877281661261941 -0.00310950098291076 0 0.047425812487089276 -0.0026545039515851261 0 0.047604000863155298 -0.0026282760263536577 0 0.047739808462348821 -0.0020550725488510421 0 0.047668807031232885 -0.0026463204907831773 0 0.047425812487089276 -0.0026545039515851261 0 0.047604000863155298 -0.0026282760263536577 0 0.047480782158465254 -0.0027563321235952684 0 0.047604000863155298 -0.0026282760263536577 0 0.047739808462348821 -0.0020550725488510421 0 0.047480782158465254 -0.0027563321235952684 0 0.047566624757360447 -0.0024871424806215997 0 0.047604000863155298 -0.0026282760263536577 0 0.045238141161203602 0.00048848028716648028 0 0.04509758271089416 -0.00012759917309778754 0 0.045089859575624142 0.00056464903703151259 0 0.046291901025680163 -0.001416069271189174 0 0.046400563360989688 -0.00072999904651712213 0 0.045422684739297975 0.0011222138695511073 0 0.045307541236566884 0.0012839655393862598 0 0.045238141161203602 0.00048848028716648028 0 0.045307541236566884 0.0012839655393862598 0 0.045238141161203602 0.00048848028716648028 0 0.045089859575624142 0.00056464903703151259 0 0.046400563360989688 -0.00072999904651712213 0 0.045890184607888712 0.00047950954898801345 0 0.045307541236566884 0.0012839655393862598 0 0.045089859575624142 0.00056464903703151259 0 0.045096346835233649 0.0013274478299044083 0 0.047425812487089276 -0.0026545039515851261 0 0.047739808462348821 -0.0020550725488510421 0 0.046967160193784836 -0.0023603914892371867 0 0.046967160193784836 -0.0023603914892371867 0 0.046738579583000997 -0.00032690622167472368 0 0.045327811231297678 -0.0031577406403738399 0 0.044999813371936329 0.0015275725603616744 0 0.046738579583000997 -0.00032690622167472368 0 0.045327811231297678 -0.0031577406403738399 0 0.047739808462348821 -0.0020550725488510421 0 0.046967160193784836 -0.0023603914892371867 0 0.046738579583000997 -0.00032690622167472368 0 0.045397763186266947 -0.0031637667321551708 0 0.046786848389579548 -0.0037836783315049797 0 0.045327811231297678 -0.0031577406403738399 0 0.046931389452561853 -0.0045304933489448643 0 0.044999834927471671 -0.0048884145922675109 0 0.046967160193784836 -0.0023603914892371867 0 0.045327811231297678 -0.0031577406403738399 0 0.046877281661261941 -0.00310950098291076 0 0.047425812487089276 -0.0026545039515851261 0 0.046967160193784836 -0.0023603914892371867 0 0.046877281661261941 -0.00310950098291076 0 0.047512529166814414 -0.0058709392786694091 0 0.046931389452561853 -0.0045304933489448643 0 0.046598841694544695 -0.0057487136373169804 0 0.046931389452561853 -0.0045304933489448643 0 0.046598841694544695 -0.0057487136373169804 0 0.044999834927471671 -0.0048884145922675109 0 0.043208820945902816 -0.0036880676232559028 0 0.042114736424151235 -0.0030681390590623879 0 0.042405339652095003 -0.0024501030002057594 0 0.043208820945902816 -0.0036880676232559028 0 0.042114736424151235 -0.0030681390590623879 0 0.04208622566715324 -0.0045994821958431518 0 0.042114736424151235 -0.0030681390590623879 0 0.041754593390362804 -0.0021598115401168976 0 0.042405339652095003 -0.0024501030002057594 0 0.043208820945902816 -0.0036880676232559028 0 0.042405339652095003 -0.0024501030002057594 0 0.042768773008450001 -0.002868442978164703 0 0.030386214764784369 -0.005480339155672957 0 0.030368018293744973 -0.0058548101714455706 0 0.03032767124429896 -0.005677801356841399 0 0.030386214764784369 -0.005480339155672957 0 0.030626370051066429 -0.0049839379922787018 0 0.03032767124429896 -0.005677801356841399 0 0.030179290694316491 -0.0058702561854841592 0 0.030368018293744973 -0.0058548101714455706 0 0.03032767124429896 -0.005677801356841399 0 0.036690530232652223 -0.005000261186827659 0 0.036782067934931308 -0.0044721125683407177 0 0.030375237394612755 -0.0058809850734796347 0 0.030386214764784369 -0.005480339155672957 0 0.030368018293744973 -0.0058548101714455706 0 0.030375237394612755 -0.0058809850734796347 0 0.030368018293744973 -0.0058548101714455706 0 0.030461079215297705 -0.0060201118658231387 0 0.032841619032546267 -0.028990528080395893 0 0.034266933940136156 -0.029230098756135883 0 0.03281652267205748 -0.028722082286138786 0 0.030179290694316491 -0.0058702561854841592 0 0.030368018293744973 -0.0058548101714455706 0 0.030461079215297705 -0.0060201118658231387 0 0.031644436083701856 -0.018485883498345131 0 0.032510197201381277 -0.017353638430934654 0 0.034876623974320349 -0.027823294639057163 0 0.034266933940136156 -0.029230098756135883 0 0.03281652267205748 -0.028722082286138786 0 0.034876623974320349 -0.027823294639057163 0 0.034266933940136156 -0.029230098756135883 0 0.036595245959899561 -0.028614014861944578 0 0.030461079215297705 -0.0060201118658231387 0 0.030353196901590766 -0.0063229978973985135 0 0.030417673328028225 -0.0064373165662793613 0 0.032510197201381277 -0.017353638430934654 0 0.033089633989663775 -0.017974049566491627 0 0.036690530232652223 -0.005000261186827659 0 0.036823166247243917 -0.0054746022093929451 0 0.030375237394612755 -0.0058809850734796347 0 0.030461079215297705 -0.0060201118658231387 0 0.030353196901590766 -0.0063229978973985135 0 0.043208820945902816 -0.0036880676232559028 0 0.04208622566715324 -0.0045994821958431518 0 0.043152174757085847 -0.0064848406376844959 0 0.04208622566715324 -0.0045994821958431518 0 0.043152174757085847 -0.0064848406376844959 0 0.040617847660280058 -0.0064825003368768289 0 0.036134216628775508 -0.014647525645563408 0 0.036823166247243917 -0.0054746022093929451 0 0.030281556774092184 -0.0069457685768670712 0 0.030353196901590766 -0.0063229978973985135 0 0.030417673328028225 -0.0064373165662793613 0 0.043152174757085847 -0.0064848406376844959 0 0.039981644024719314 -0.0090882460534859547 0 0.040617847660280058 -0.0064825003368768289 0 0.040824495953518128 -0.011423683750856672 0 0.043152174757085847 -0.0064848406376844959 0 0.039981644024719314 -0.0090882460534859547 0 0.038937744481408479 -0.0098681652219298512 0 0.039981644024719314 -0.0090882460534859547 0 0.038503836641978706 -0.0092105040687621206 0 0.039981644024719314 -0.0090882460534859547 0 0.038503836641978706 -0.0092105040687621206 0 0.038455140244488296 -0.0079843020980217439 0 0.038255071121363546 -0.0099965692015097796 0 0.038937744481408479 -0.0098681652219298512 0 0.038503836641978706 -0.0092105040687621206 0 0.037533317612160583 -0.0094070880638772586 0 0.038455140244488296 -0.0079843020980217439 0 0.0369850481181963 -0.00813263193061293 0 0.038255071121363546 -0.0099965692015097796 0 0.037533317612160583 -0.0094070880638772586 0 0.038503836641978706 -0.0092105040687621206 0 0.037533317612160583 -0.0094070880638772586 0 0.038503836641978706 -0.0092105040687621206 0 0.038455140244488296 -0.0079843020980217439 0 0.039981644024719314 -0.0090882460534859547 0 0.038455140244488296 -0.0079843020980217439 0 0.040617847660280058 -0.0064825003368768289 0 0.038849699932478859 -0.0058670551948275451 0 0.040515134166214502 -0.0049895531782651889 0 0.040617847660280058 -0.0064825003368768289 0 0.038455140244488296 -0.0079843020980217439 0 0.038849699932478859 -0.0058670551948275451 0 0.040617847660280058 -0.0064825003368768289 0 0.038455140244488296 -0.0079843020980217439 0 0.038849699932478859 -0.0058670551948275451 0 0.037009306601140234 -0.0068273595659960823 0 0.038849699932478859 -0.0058670551948275451 0 0.037009306601140234 -0.0068273595659960823 0 0.037502820053479782 -0.005138030532637808 0 0.038849699932478859 -0.0058670551948275451 0 0.04002173208438109 -0.0039576554264162496 0 0.038607389870084698 -0.0041903213823095455 0 0.038849699932478859 -0.0058670551948275451 0 0.037502820053479782 -0.005138030532637808 0 0.038607389870084698 -0.0041903213823095455 0 0.038849699932478859 -0.0058670551948275451 0 0.040515134166214502 -0.0049895531782651889 0 0.04002173208438109 -0.0039576554264162496 0 0.04208622566715324 -0.0045994821958431518 0 0.040515134166214502 -0.0049895531782651889 0 0.040617847660280058 -0.0064825003368768289 0 0.04208622566715324 -0.0045994821958431518 0 0.040515134166214502 -0.0049895531782651889 0 0.041120116654762728 -0.0033851064816662144 0 0.04210066657982954 -0.0074786184433032771 0 0.041972808860195734 -0.007302205357814332 0 0.042142472145362909 -0.0072694487506303395 0 0.041000132358306123 -0.0095533997426455013 0 0.045917881146022375 -0.0072465350276137491 0 0.034335970446589058 -0.010842246968609639 0 0.036058162460963224 -0.0092501403853971816 0 0.035464197607436479 -0.0061188128321278895 0 0.041000132358306123 -0.0095533997426455013 0 0.038929673804579137 -0.0062895253912226227 0 0.036058162460963224 -0.0092501403853971816 0 0.0369850481181963 -0.00813263193061293 0 0.035464197607436479 -0.0061188128321278895 0 0.037533317612160583 -0.0094070880638772586 0 0.036058162460963224 -0.0092501403853971816 0 0.0369850481181963 -0.00813263193061293 0 0.036822903196154562 -0.010008859982433067 0 0.037533317612160583 -0.0094070880638772586 0 0.036058162460963224 -0.0092501403853971816 0 0.036822903196154562 -0.010008859982433067 0 0.036159577004440634 -0.010353424827938768 0 0.036058162460963224 -0.0092501403853971816 0 0.0369850481181963 -0.00813263193061293 0 0.037009306601140234 -0.0068273595659960823 0 0.035464197607436479 -0.0061188128321278895 0 0.038455140244488296 -0.0079843020980217439 0 0.0369850481181963 -0.00813263193061293 0 0.037009306601140234 -0.0068273595659960823 0 0.038929673804579137 -0.0062895253912226227 0 0.040468610544357408 -0.0024138936095693775 0 0.037502820053479782 -0.005138030532637808 0 0.035810990023400088 -0.0062298584622552007 0 0.036997976831974574 -0.0022810452937102937 0 0.037009306601140234 -0.0068273595659960823 0 0.037502820053479782 -0.005138030532637808 0 0.035810990023400088 -0.0062298584622552007 0 0.036840835620429016 -0.0060151375891719658 0 0.038929673804579137 -0.0062895253912226227 0 0.04333975517738968 -0.0052327653055210203 0 0.038929673804579137 -0.0062895253912226227 0 0.041972808860195734 -0.007302205357814332 0 0.042000453315261935 -0.0071784072236250954 0 0.042142472145362909 -0.0072694487506303395 0 0.041661824343213374 -0.0040471181431953529 0 0.041200608035103128 -0.0038424763503226802 0 0.041338764499792256 -0.0040940969307936394 0 0.043245053156327859 -2.5854952636759221e-05 0 0.04179188377307539 -3.4963148085236135e-05 0 0.042499472843929638 -0.0006380822673947526 0 0.041616163752895119 -0.0042140970069075448 0 0.041338764499792256 -0.0040940969307936394 0 0.041097046822579253 -0.00425817586397431 0 0.043130848617332074 -0.0016539548394750344 0 0.040468610544357408 -0.0024138936095693775 0 0.041661824343213374 -0.0040471181431953529 0 0.041616163752895119 -0.0042140970069075448 0 0.041338764499792256 -0.0040940969307936394 0 0.041200608035103128 -0.0038424763503226802 0 0.041338764499792256 -0.0040940969307936394 0 0.041097046822579253 -0.00425817586397431 0 0.037502820053479782 -0.005138030532637808 0 0.036997976831974574 -0.0022810452937102937 0 0.038607389870084698 -0.0041903213823095455 0 0.040869902461328829 -0.0016624342019629734 0 0.041358623292874687 -0.0012563682284126017 0 0.040278743346935111 -0.002153004038178931 0 0.041358623292874687 -0.0012563682284126017 0 0.042499472843929638 -0.0006380822673947526 0 0.042256029110201994 -0.0012960141566062853 0 0.040468610544357408 -0.0024138936095693775 0 0.041318355043715733 -0.00081616510917872334 0 0.04179188377307539 -3.4963148085236135e-05 0 0.041358623292874687 -0.0012563682284126017 0 0.042499472843929638 -0.0006380822673947526 0 0.043130848617332074 -0.0016539548394750344 0 0.043300525923226425 3.906140646805054e-05 0 0.043245053156327859 -2.5854952636759221e-05 0 0.042499472843929638 -0.0006380822673947526 0 0.043130010609400631 -0.0007577155584600491 0 0.042114736424151235 -0.0030681390590623879 0 0.04208622566715324 -0.0045994821958431518 0 0.041120116654762728 -0.0033851064816662144 0 0.041120116654762728 -0.0033851064816662144 0 0.040278743346935111 -0.002153004038178931 0 0.041288296557043018 -0.002225779036054126 0 0.042114736424151235 -0.0030681390590623879 0 0.041120116654762728 -0.0033851064816662144 0 0.041288296557043018 -0.002225779036054126 0 0.040515134166214502 -0.0049895531782651889 0 0.041120116654762728 -0.0033851064816662144 0 0.04002173208438109 -0.0039576554264162496 0 0.041120116654762728 -0.0033851064816662144 0 0.04002173208438109 -0.0039576554264162496 0 0.040278743346935111 -0.002153004038178931 0 0.04002173208438109 -0.0039576554264162496 0 0.038607389870084698 -0.0041903213823095455 0 0.040278743346935111 -0.002153004038178931 0 0.036997976831974574 -0.0022810452937102937 0 0.038607389870084698 -0.0041903213823095455 0 0.040278743346935111 -0.002153004038178931 0 0.040468610544357408 -0.0024138936095693775 0 0.039714543378522003 -0.0021682349862990453 0 0.040278743346935111 -0.002153004038178931 0 0.041080546375955741 -0.0016972910823903661 0 0.041288296557043018 -0.002225779036054126 0 0.041358623292874687 -0.0012563682284126017 0 0.040278743346935111 -0.002153004038178931 0 0.041080546375955741 -0.0016972910823903661 0 0.041358623292874687 -0.0012563682284126017 0 0.041080546375955741 -0.0016972910823903661 0 0.04151483411437059 -0.0014870270320114004 0 0.041754593390362804 -0.0021598115401168976 0 0.041288296557043018 -0.002225779036054126 0 0.041461755529289226 -0.0017169434098691743 0 0.041080546375955741 -0.0016972910823903661 0 0.041288296557043018 -0.002225779036054126 0 0.041461755529289226 -0.0017169434098691743 0 0.042114736424151235 -0.0030681390590623879 0 0.041754593390362804 -0.0021598115401168976 0 0.041288296557043018 -0.002225779036054126 0 0.041461755529289226 -0.0017169434098691743 0 0.041645911060372243 -0.0017024419787502714 0 0.041804643662976163 -0.0018802530013389514 0 0.041754593390362804 -0.0021598115401168976 0 0.041461755529289226 -0.0017169434098691743 0 0.041804643662976163 -0.0018802530013389514 0 0.04151483411437059 -0.0014870270320114004 0 0.041741736673068755 -0.0015757794472011769 0 0.042256029110201994 -0.0012960141566062853 0 0.041080546375955741 -0.0016972910823903661 0 0.041461755529289226 -0.0017169434098691743 0 0.04151483411437059 -0.0014870270320114004 0 0.041461755529289226 -0.0017169434098691743 0 0.04151483411437059 -0.0014870270320114004 0 0.041741736673068755 -0.0015757794472011769 0 0.041741736673068755 -0.0015757794472011769 0 0.041645911060372243 -0.0017024419787502714 0 0.041871248604259302 -0.0018180167856001637 0 0.041741736673068755 -0.0015757794472011769 0 0.042362947500730143 -0.0017139341468217625 0 0.041871248604259302 -0.0018180167856001637 0 0.041461755529289226 -0.0017169434098691743 0 0.041741736673068755 -0.0015757794472011769 0 0.041645911060372243 -0.0017024419787502714 0 0.043349850263939733 -0.0010157798284348507 0 0.043130010609400631 -0.0007577155584600491 0 0.042256029110201994 -0.0012960141566062853 0 0.042499472843929638 -0.0006380822673947526 0 0.043130010609400631 -0.0007577155584600491 0 0.042256029110201994 -0.0012960141566062853 0 0.043935471679289059 -0.00072978995146006265 0 0.043349850263939733 -0.0010157798284348507 0 0.043130010609400631 -0.0007577155584600491 0 0.041358623292874687 -0.0012563682284126017 0 0.04151483411437059 -0.0014870270320114004 0 0.042256029110201994 -0.0012960141566062853 0 0.041741736673068755 -0.0015757794472011769 0 0.042256029110201994 -0.0012960141566062853 0 0.042362947500730143 -0.0017139341468217625 0 0.042256029110201994 -0.0012960141566062853 0 0.043064849562131906 -0.0013200725870234646 0 0.042362947500730143 -0.0017139341468217625 0 0.043349850263939733 -0.0010157798284348507 0 0.042256029110201994 -0.0012960141566062853 0 0.043064849562131906 -0.0013200725870234646 0 0.043064849562131906 -0.0013200725870234646 0 0.043759528166375905 -0.0010638680518507849 0 0.043766885835148345 -0.0012491773979670666 0 0.043349850263939733 -0.0010157798284348507 0 0.043064849562131906 -0.0013200725870234646 0 0.043759528166375905 -0.0010638680518507849 0 0.044610293994968617 -0.0010431181585281583 0 0.044815868859802196 -0.00055953764725721769 0 0.045638257388465123 -0.0004360594816374467 0 0.044610293994968617 -0.0010431181585281583 0 0.043766885835148345 -0.0012491773979670666 0 0.042855761331879724 -0.0021876331699456093 0 0.044559366964058621 -0.0010992516214552207 0 0.044208201124899996 -0.0012776301164563613 0 0.043064849562131906 -0.0013200725870234646 0 0.043766885835148345 -0.0012491773979670666 0 0.042855761331879724 -0.0021876331699456093 0 0.042362947500730143 -0.0017139341468217625 0 0.042855761331879724 -0.0021876331699456093 0 0.04201409163184263 -0.0022719877496106882 0 0.043064849562131906 -0.0013200725870234646 0 0.042362947500730143 -0.0017139341468217625 0 0.042855761331879724 -0.0021876331699456093 0 0.044208201124899996 -0.0012776301164563613 0 0.044353876441227028 -0.0012518185468501188 0 0.045714779518405746 0.00038514209422777103 0 0.045638257388465123 -0.0004360594816374467 0 0.046316340592103045 -7.7265444931264059e-05 0 0.044815868859802196 -0.00055953764725721769 0 0.045638257388465123 -0.0004360594816374467 0 0.045233867552290405 -6.6429790580573782e-05 0 0.045714779518405746 0.00038514209422777103 0 0.045638257388465123 -0.0004360594816374467 0 0.045233867552290405 -6.6429790580573782e-05 0 0.041645911060372243 -0.0017024419787502714 0 0.041871248604259302 -0.0018180167856001637 0 0.041715659922141109 -0.0020144886121697342 0 0.041645911060372243 -0.0017024419787502714 0 0.041715659922141109 -0.0020144886121697342 0 0.041587848937274623 -0.0017832293605933168 0 0.042362947500730143 -0.0017139341468217625 0 0.041871248604259302 -0.0018180167856001637 0 0.04201409163184263 -0.0022719877496106882 0 0.041871248604259302 -0.0018180167856001637 0 0.04201409163184263 -0.0022719877496106882 0 0.041715659922141109 -0.0020144886121697342 0 0.041634031395095382 -0.002274335806521127 0 0.041715659922141109 -0.0020144886121697342 0 0.041517160785551337 -0.0021481993442747731 0 0.041634031395095382 -0.002274335806521127 0 0.04201409163184263 -0.0022719877496106882 0 0.041715659922141109 -0.0020144886121697342 0 0.0432086257343458 5.2261467624137051e-05 0 0.044353876441227028 -0.0012518185468501188 0 0.04195748411121538 0.00084204685224824414 0 0.04177290684338255 -0.00068389262239459145 0 0.0432086257343458 5.2261467624137051e-05 0 0.04177290684338255 -0.00068389262239459145 0 0.040744952815329319 0.00078203684154958171 0 0.040786586695019972 0.00010398449619142928 0 0.041544240443664421 0.00030764590972383332 0 0.040786586695019972 0.00010398449619142928 0 0.041544240443664421 0.00030764590972383332 0 0.041531989209403347 -0.00050574702849899762 0 0.04177290684338255 -0.00068389262239459145 0 0.041684554005281871 -0.00072529599626002255 0 0.041531989209403347 -0.00050574702849899762 0 0.042193223600548092 -0.0011787394783598962 0 0.042347601260809643 5.4376368150826646e-05 0 0.041544240443664421 0.00030764590972383332 0 0.041531989209403347 -0.00050574702849899762 0 0.042347601260809643 5.4376368150826646e-05 0 0.041684554005281871 -0.00072529599626002255 0 0.042175412242186155 -0.0011477923235460729 0 0.041978516179735269 -0.0010500798518170817 0 0.041998347925798277 -0.0013014222354303605 0 0.042193223600548092 -0.0011787394783598962 0 0.041998347925798277 -0.0013014222354303605 0 0.042193223600548092 -0.0011787394783598962 0 0.042090870998303394 -0.0016910939701339756 0 0.041715659922141109 -0.0020144886121697342 0 0.041517160785551337 -0.0021481993442747731 0 0.041587848937274623 -0.0017832293605933168 0 0.04169426134661959 -0.00081849869875524537 0 0.041978516179735269 -0.0010500798518170817 0 0.041711544451012168 -0.0013550888477158614 0 0.04177290684338255 -0.00068389262239459145 0 0.041652344870335846 -0.0017626363270734249 0 0.041978516179735269 -0.0010500798518170817 0 0.041998347925798277 -0.0013014222354303605 0 0.041711544451012168 -0.0013550888477158614 0 0.041652344870335846 -0.0017626363270734249 0 0.041771155162067843 -0.0017929610974295627 0 0.041645911060372243 -0.0017024419787502714 0 0.041587848937274623 -0.0017832293605933168 0 0.041804643662976163 -0.0018802530013389514 0 0.041711544451012168 -0.0013550888477158614 0 0.042090870998303394 -0.0016910939701339756 0 0.041804643662976163 -0.0018802530013389514 0 0.042193223600548092 -0.0011787394783598962 0 0.042090870998303394 -0.0016910939701339756 0 0.042522488796519202 -0.0016862350160789465 0 0.041998347925798277 -0.0013014222354303605 0 0.041711544451012168 -0.0013550888477158614 0 0.042090870998303394 -0.0016910939701339756 0 0.042405339652095003 -0.0024501030002057594 0 0.042090870998303394 -0.0016910939701339756 0 0.041804643662976163 -0.0018802530013389514 0 0.042405339652095003 -0.0024501030002057594 0 0.042090870998303394 -0.0016910939701339756 0 0.042518449767233665 -0.002224317190492044 0 0.041754593390362804 -0.0021598115401168976 0 0.042405339652095003 -0.0024501030002057594 0 0.041804643662976163 -0.0018802530013389514 0 0.042768773008450001 -0.002868442978164703 0 0.042739034852266725 -0.0021989311196317749 0 0.04293413094007123 -0.0023435963034960684 0 0.036782067934931308 -0.0044721125683407177 0 0.0352857704848051 -0.0016253973624253001 0 0.042768773008450001 -0.002868442978164703 0 0.042739034852266725 -0.0021989311196317749 0 0.042518449767233665 -0.002224317190492044 0 0.042405339652095003 -0.0024501030002057594 0 0.042768773008450001 -0.002868442978164703 0 0.042518449767233665 -0.002224317190492044 0 0.042739034852266725 -0.0021989311196317749 0 0.042518449767233665 -0.002224317190492044 0 0.042522488796519202 -0.0016862350160789465 0 0.042090870998303394 -0.0016910939701339756 0 0.042518449767233665 -0.002224317190492044 0 0.042522488796519202 -0.0016862350160789465 0 0.042739034852266725 -0.0021989311196317749 0 0.042940325194299224 -0.0016642125245817931 0 0.04293413094007123 -0.0023435963034960684 0 0.042739034852266725 -0.0021989311196317749 0 0.042522488796519202 -0.0016862350160789465 0 0.042940325194299224 -0.0016642125245817931 0 0.043355041313901818 -0.0033355580406769841 0 0.0352857704848051 -0.0016253973624253001 0 0.042940325194299224 -0.0016642125245817931 0 0.042762159305062726 -0.00086180730547412172 0 0.043374869491723089 -0.00076879263658157339 0 0.042522488796519202 -0.0016862350160789465 0 0.042940325194299224 -0.0016642125245817931 0 0.042762159305062726 -0.00086180730547412172 0 0.042193223600548092 -0.0011787394783598962 0 0.042762159305062726 -0.00086180730547412172 0 0.042347601260809643 5.4376368150826646e-05 0 0.042193223600548092 -0.0011787394783598962 0 0.042522488796519202 -0.0016862350160789465 0 0.042762159305062726 -0.00086180730547412172 0 0.042762159305062726 -0.00086180730547412172 0 0.042347601260809643 5.4376368150826646e-05 0 0.043142918801858866 6.6860787103993589e-05 0 0.042762159305062726 -0.00086180730547412172 0 0.043142918801858866 6.6860787103993589e-05 0 0.043374869491723089 -0.00076879263658157339 0 0.043142918801858866 6.6860787103993589e-05 0 0.043922952917602683 -0.00018763600713853825 0 0.043374869491723089 -0.00076879263658157339 0 0.043818242962529494 0.00063864059084744356 0 0.043142918801858866 6.6860787103993589e-05 0 0.043922952917602683 -0.00018763600713853825 0 0.044446459209492445 0.00074095598472748668 0 0.043922952917602683 -0.00018763600713853825 0 0.044617624375521775 -0.00031921338453803249 0 0.023181902411262386 0.0030123950548356809 0 0.024073320200015284 0.0041725650770697191 0 0.024610101471718354 0.0032392546583746669 0 0.043922952917602683 -0.00018763600713853825 0 0.043954526734825562 -0.001390145038411726 0 0.044617624375521775 -0.00031921338453803249 0 0.03327896404978728 0.00088810544789388272 0 0.034978454432531295 0.0017052390139080775 0 0.043922952917602683 -0.00018763600713853825 0 0.043954526734825562 -0.001390145038411726 0 0.043374869491723089 -0.00076879263658157339 0 0.042940325194299224 -0.0016642125245817931 0 0.043954526734825562 -0.001390145038411726 0 0.043374869491723089 -0.00076879263658157339 0 0.0030747896601505966 0.015775239334788884 0 0.0033507873600464619 0.014133585881336822 0 0.0040571242505161092 0.015899228740017205 0 0.028589377874845806 0.0070258260289175973 0 0.018310959235678159 0.0092833807340618139 0 0.025326679201934113 0.004692860526202546 0 0.024073320200015284 0.0041725650770697191 0 0.024610101471718354 0.0032392546583746669 0 0.025074755814789018 0.005404574059260538 0 0.025326679201934113 0.004692860526202546 0 0.024073320200015284 0.0041725650770697191 0 0.028589377874845806 0.0070258260289175973 0 0.034978454432531295 0.0017052390139080775 0 0.018310959235678159 0.0092833807340618139 0 0.024585773310126371 0.0021884145506567564 0 0.023990869218605545 0.0034376506882524667 0 0.023720914443501079 0.0025305312975264951 0 0.024421234313116078 0.0023101536619806779 0 0.018310959235678159 0.0092833807340618139 0 0.013247224043968915 0.007819675083882786 0 0.023720914443501079 0.0025305312975264951 0 0.023970671101480347 0.0020840508502345144 0 0.024421234313116078 0.0023101536619806779 0 0.023970671101480347 0.0020840508502345144 0 0.024421234313116078 0.0023101536619806779 0 0.024070274812278077 0.0015790713902808472 0 0.023720914443501079 0.0025305312975264951 0 0.023970671101480347 0.0020840508502345144 0 0.023718385580008428 0.0018637069171106714 0 0.023970671101480347 0.0020840508502345144 0 0.023718385580008428 0.0018637069171106714 0 0.024070274812278077 0.0015790713902808472 0 0.024585773310126371 0.0021884145506567564 0 0.023737716890152628 0.0021842284270218704 0 0.024070274812278077 0.0015790713902808472 0 0.023735293932619882 0.0011712870129371954 0 0.02406909329058568 0.00084321027815927507 0 0.023718385580008428 0.0018637069171106714 0 0.024070274812278077 0.0015790713902808472 0 0.023735293932619882 0.0011712870129371954 0 0.024070274812278077 0.0015790713902808472 0 0.02406909329058568 0.00084321027815927507 0 0.024691358904337015 0.0011643402455582591 0 0.024421234313116078 0.0023101536619806779 0 0.024070274812278077 0.0015790713902808472 0 0.024691358904337015 0.0011643402455582591 0 0.042940325194299224 -0.0016642125245817931 0 0.043954526734825562 -0.001390145038411726 0 0.043188498093045098 -0.0024201528171148797 0 0.03327896404978728 0.00088810544789388272 0 0.0352857704848051 -0.0016253973624253001 0 0.023181902411262386 0.0030123950548356809 0 0.022612421999704091 0.0020986128127402919 0 0.023142335410663153 0.0020321491887276355 0 0.023181902411262386 0.0030123950548356809 0 0.024610101471718354 0.0032392546583746669 0 0.023718385580008428 0.0018637069171106714 0 0.023181902411262386 0.0030123950548356809 0 0.023718385580008428 0.0018637069171106714 0 0.023142335410663153 0.0020321491887276355 0 0.023718385580008428 0.0018637069171106714 0 0.023142335410663153 0.0020321491887276355 0 0.023316577349156722 0.0012217380613818627 0 0.023718385580008428 0.0018637069171106714 0 0.023316577349156722 0.0012217380613818627 0 0.023735293932619882 0.0011712870129371954 0 0.023142335410663153 0.0020321491887276355 0 0.023316577349156722 0.0012217380613818627 0 0.022906492687768711 0.0013426336433865059 0 0.030626370051066429 -0.0049839379922787018 0 0.030395934030509008 -0.0055004451550283509 0 0.03032767124429896 -0.005677801356841399 0 0.022612421999704091 0.0020986128127402919 0 0.023142335410663153 0.0020321491887276355 0 0.022906492687768711 0.0013426336433865059 0 0.0352857704848051 -0.0016253973624253001 0 0.025411362706033103 -0.00035344878085938889 0 0.030395934030509008 -0.0055004451550283509 0 0.03032767124429896 -0.005677801356841399 0 0.029964549926521738 -0.0058975290243337228 0 0.032841619032546267 -0.028990528080395893 0 0.032525043256961574 -0.028435707712573439 0 0.032254900581468397 -0.028806051428316298 0 0.031644436083701856 -0.018485883498345131 0 0.029142434812414231 -0.0099770090972606893 0 0.030179290694316491 -0.0058702561854841592 0 0.03032767124429896 -0.005677801356841399 0 0.029964549926521738 -0.0058975290243337228 0 0.032525043256961574 -0.028435707712573439 0 0.032099037920430652 -0.028587998632504118 0 0.032254900581468397 -0.028806051428316298 0 0.029142434812414231 -0.0099770090972606893 0 0.027482157185899667 -0.013662994849350817 0 0.023225901101013198 0.0006522681739198501 0 0.023500051466936723 0.00091906945801381687 0 0.023667861708959528 0.00059382323097706803 0 0.023316577349156722 0.0012217380613818627 0 0.022906492687768711 0.0013426336433865059 0 0.023225901101013198 0.0006522681739198501 0 0.025411362706033103 -0.00035344878085938889 0 0.029142434812414231 -0.0099770090972606893 0 0.023316577349156722 0.0012217380613818627 0 0.023500051466936723 0.00091906945801381687 0 0.023735293932619882 0.0011712870129371954 0 0.023316577349156722 0.0012217380613818627 0 0.023225901101013198 0.0006522681739198501 0 0.023500051466936723 0.00091906945801381687 0 0.023667861708959528 0.00059382323097706803 0 0.02406909329058568 0.00084321027815927507 0 0.023990088092459321 0.00014306660058601022 0 0.023500051466936723 0.00091906945801381687 0 0.023735293932619882 0.0011712870129371954 0 0.023667861708959528 0.00059382323097706803 0 0.023735293932619882 0.0011712870129371954 0 0.023667861708959528 0.00059382323097706803 0 0.02406909329058568 0.00084321027815927507 0 0.023990088092459321 0.00014306660058601022 0 0.024274820572228958 -0.00027671167622119039 0 0.024352692364771118 0.00034243917677429479 0 0.02406909329058568 0.00084321027815927507 0 0.023990088092459321 0.00014306660058601022 0 0.024352692364771118 0.00034243917677429479 0 0.023667861708959528 0.00059382323097706803 0 0.023990088092459321 0.00014306660058601022 0 0.023531768146491591 -1.9620082220669318e-05 0 0.023990088092459321 0.00014306660058601022 0 0.023531768146491591 -1.9620082220669318e-05 0 0.02385046682964358 -0.00060001265914786349 0 0.023225901101013198 0.0006522681739198501 0 0.023667861708959528 0.00059382323097706803 0 0.023531768146491591 -1.9620082220669318e-05 0 0.032099037920430652 -0.028587998632504118 0 0.032027273656049293 -0.02864741839154961 0 0.031518367808362195 -0.028685385609550328 0 0.027482157185899667 -0.013662994849350817 0 0.02671870047526434 -0.023377428634181036 0 0.02671870047526434 -0.023377428634181036 0 0.02697365738838365 -0.014011211573380188 0 0.026988017936816346 -0.028713497462644545 0 0.026244440891624022 -0.028565713872425895 0 0.026253976274765493 -0.029011675996578612 0 0.023990088092459321 0.00014306660058601022 0 0.02385046682964358 -0.00060001265914786349 0 0.024274820572228958 -0.00027671167622119039 0 0.02671870047526434 -0.023377428634181036 0 0.027554853427090655 -0.030252646467284938 0 0.026988017936816346 -0.028713497462644545 0 0.026608494258605765 -0.028028258611970596 0 0.026244440891624022 -0.028565713872425895 0 0.028361147662066662 -0.030309969678521623 0 0.026608494258605765 -0.028028258611970596 0 0.028541718933171905 -0.028276354790638183 0 0.028361147662066662 -0.030309969678521623 0 0.028541718933171905 -0.028276354790638183 0 0.031518367808362195 -0.028685385609550328 0 0.02671870047526434 -0.023377428634181036 0 0.032441301607196549 -0.03016945677192908 0 0.028541718933171905 -0.028276354790638183 0 0.031518367808362195 -0.028685385609550328 0 0.029460601109731858 -0.027009697395921357 0 0.03281652267205748 -0.028722082286138786 0 0.031518367808362195 -0.028685385609550328 0 0.031377424543487395 -0.026959675810268462 0 0.03281652267205748 -0.028722082286138786 0 0.031518367808362195 -0.028685385609550328 0 0.032254900581468397 -0.028806051428316298 0 0.032841619032546267 -0.028990528080395893 0 0.03281652267205748 -0.028722082286138786 0 0.032254900581468397 -0.028806051428316298 0 0.032099037920430652 -0.028587998632504118 0 0.031518367808362195 -0.028685385609550328 0 0.032254900581468397 -0.028806051428316298 0 0.0068407809232501997 -0.021936608035133802 0 0.0093781401446339906 -0.023861741047057138 0 0.0072259240777055121 -0.025174678343276899 0 0.0079348722523375648 -0.020554971056967707 0 0.0072259240777055121 -0.025174678343276899 0 0.0047201893191007403 -0.023173133385301786 0 0.0073513409947748845 -0.023801243178709398 0 0.0072801112824016955 -0.023785743700056233 0 0.0093781401446339906 -0.023861741047057138 0 0.0093542852703683132 -0.02035474718246465 0 0.012178650155534636 -0.021414603033923518 0 0.0068407809232501997 -0.021936608035133802 0 0.0093781401446339906 -0.023861741047057138 0 0.0093542852703683132 -0.02035474718246465 0 0.0093781401446339906 -0.023861741047057138 0 0.0072259240777055121 -0.025174678343276899 0 0.0085841306716119697 -0.026987125387438009 0 0.0093781401446339906 -0.023861741047057138 0 0.010387948789748023 -0.026630647125551292 0 0.0085841306716119697 -0.026987125387438009 0 0.0093781401446339906 -0.023861741047057138 0 0.010387948789748023 -0.026630647125551292 0 0.011926334985662814 -0.024169232529619559 0 0.015550403767694721 -0.028816065866603333 0 0.014594153757791391 -0.025167753406620127 0 0.0072259240777055121 -0.025174678343276899 0 0.0047201893191007403 -0.023173133385301786 0 0.0065964323455495509 -0.027221740154961128 0 0.0072259240777055121 -0.025174678343276899 0 0.0065964323455495509 -0.027221740154961128 0 0.0085841306716119697 -0.026987125387438009 0 0.025343981963987901 -0.028121397707543842 0 0.024695390904690046 -0.028662312944549333 0 0.023897633363663864 -0.027778571244169124 0 0.025343981963987901 -0.028121397707543842 0 0.025517731618866078 -0.028830312157251393 0 0.024695390904690046 -0.028662312944549333 0 0.026608494258605765 -0.028028258611970596 0 0.025343981963987901 -0.028121397707543842 0 0.026244440891624022 -0.028565713872425895 0 0.025343981963987901 -0.028121397707543842 0 0.026244440891624022 -0.028565713872425895 0 0.025517731618866078 -0.028830312157251393 0 0.025517731618866078 -0.028830312157251393 0 0.026253976274765493 -0.029011675996578612 0 0.025338334475089222 -0.029257596281386765 0 0.026244440891624022 -0.028565713872425895 0 0.025517731618866078 -0.028830312157251393 0 0.026253976274765493 -0.029011675996578612 0 0.015550403767694721 -0.028816065866603333 0 0.01428341763537447 -0.0083522773216478993 0 0.0079348722523375648 -0.020554971056967707 0 0.0047201893191007403 -0.023173133385301786 0 0.0027161497572123793 -0.017756363887232427 0 0.025517731618866078 -0.028830312157251393 0 0.024695390904690046 -0.028662312944549333 0 0.025338334475089222 -0.029257596281386765 0 0.0045558427909264138 0.0085389700374077279 0 0.0053219467850051678 0.010518137416468653 0 0.0065892385884437571 0.0094727720737219061 0 0.01428341763537447 -0.0083522773216478993 0 0.0053608138619939448 -0.0026334678085489622 0 0.02697365738838365 -0.014011211573380188 0 0.01428341763537447 -0.0083522773216478993 0 0.024274820572228958 -0.00027671167622119039 0 0.024712865412320442 -6.1015015151250132e-05 0 0.024352692364771118 0.00034243917677429479 0 0.01428341763537447 -0.0083522773216478993 0 0.014004323091338885 0.0091049528747211127 0 0.02406909329058568 0.00084321027815927507 0 0.024352692364771118 0.00034243917677429479 0 0.024691358904337015 0.0011643402455582591 0 0.024712865412320442 -6.1015015151250132e-05 0 0.024352692364771118 0.00034243917677429479 0 0.024691358904337015 0.0011643402455582591 0 0.0053219467850051678 0.010518137416468653 0 0.0064466290186638055 0.01224122244597 0 0.003696290235963952 0.011698061518737625 0 0.0045558427909264138 0.0085389700374077279 0 0.0053219467850051678 0.010518137416468653 0 0.003696290235963952 0.011698061518737625 0 0.0053219467850051678 0.010518137416468653 0 0.0065892385884437571 0.0094727720737219061 0 0.0064466290186638055 0.01224122244597 0 0.0053608138619939448 -0.0026334678085489622 0 0.0060515305416160726 0.015524074324006288 0 0.0068407809232501997 -0.021936608035133802 0 0.0067706666989668486 -0.018327222651540284 0 0.0093542852703683132 -0.02035474718246465 0 0.0079348722523375648 -0.020554971056967707 0 0.0027161497572123793 -0.017756363887232427 0 0.0081838127871266802 -0.015367266122187638 0 0.0073513409947748845 -0.023801243178709398 0 0.0053608138619939448 -0.0026334678085489622 0 0.0067706666989668486 -0.018327222651540284 0 0.0093542852703683132 -0.02035474718246465 0 0.011604782124435562 -0.0161926453133024 0 0.0053608138619939448 -0.0026334678085489622 0 0.0099570807847694509 -0.0023931399178579761 0 0.0053664537614167788 0.010900905164401134 0 0.0054825308730089293 0.013014680380819876 0 0.0072337770150810981 0.011822552884300818 0 0.0054825308730089293 0.013014680380819876 0 0.0073891575249341521 0.013170279245513455 0 0.0072337770150810981 0.011822552884300818 0 0.0054825308730089293 0.013014680380819876 0 0.0068687457937186861 0.014393252377849386 0 0.0073891575249341521 0.013170279245513455 0 0.0060515305416160726 0.015524074324006288 0 0.0059051619547313581 0.013223774215671731 0 0.0064466290186638055 0.01224122244597 0 0.0048110187784341733 0.013692858241462193 0 0.005921465721617252 0.014608083705165044 0 0.0054825308730089293 0.013014680380819876 0 0.0068687457937186861 0.014393252377849386 0 0.005921465721617252 0.014608083705165044 0 0.013247224043968915 0.007819675083882786 0 0.014004323091338885 0.0091049528747211127 0 0.0064466290186638055 0.01224122244597 0 0.003696290235963952 0.011698061518737625 0 0.0048110187784341733 0.013692858241462193 0 0.0033507873600464619 0.014133585881336822 0 0.003696290235963952 0.011698061518737625 0 0.0048110187784341733 0.013692858241462193 0 0.0033507873600464619 0.014133585881336822 0 0.0048206082118095878 0.015146481285584816 0 0.0040571242505161092 0.015899228740017205 0 0.0033507873600464619 0.014133585881336822 0 0.0048110187784341733 0.013692858241462193 0 0.0048206082118095878 0.015146481285584816 0 0.0048110187784341733 0.013692858241462193 0 0.0048206082118095878 0.015146481285584816 0 0.005921465721617252 0.014608083705165044 0 0.0050669185501515277 0.016368967903227963 0 0.0048206082118095878 0.015146481285584816 0 0.0057662120359215389 0.015795263186626926 0 0.0050669185501515277 0.016368967903227963 0 0.0048206082118095878 0.015146481285584816 0 0.0040571242505161092 0.015899228740017205 0 0.0068687457937186861 0.014393252377849386 0 0.0067393603072737089 0.015724205406660266 0 0.005921465721617252 0.014608083705165044 0 0.0067393603072737089 0.015724205406660266 0 0.005921465721617252 0.014608083705165044 0 0.0057662120359215389 0.015795263186626926 0 0.0048206082118095878 0.015146481285584816 0 0.005921465721617252 0.014608083705165044 0 0.0057662120359215389 0.015795263186626926 0 0.006111919723991284 0.016703235458626394 0 0.0067393603072737089 0.015724205406660266 0 0.0057662120359215389 0.015795263186626926 0 0.0064669574178277843 0.016697855362556222 0 0.0066973355312683683 0.015768098906784971 0 0.0073117904395414348 0.016730697066885843 0 0.0065692251689626821 0.016775053437098553 0 0.0067393603072737089 0.015724205406660266 0 0.0073117904395414348 0.016730697066885843 0 0.0067393603072737089 0.015724205406660266 0 0.0073727921871816048 0.016250256347964138 0 0.0068687457937186861 0.014393252377849386 0 0.0067393603072737089 0.015724205406660266 0 0.0075055048723663316 0.01548032125469357 0 0.0067393603072737089 0.015724205406660266 0 0.0073727921871816048 0.016250256347964138 0 0.0075055048723663316 0.01548032125469357 0 0.0075055048723663316 0.01548032125469357 0 0.0082896383924195242 0.015334185228767073 0 0.0079125954493741279 0.016868154336735386 0 0.0073727921871816048 0.016250256347964138 0 0.0075055048723663316 0.01548032125469357 0 0.0079125954493741279 0.016868154336735386 0 0.0073117904395414348 0.016730697066885843 0 0.0073727921871816048 0.016250256347964138 0 0.0079125954493741279 0.016868154336735386 0 0.0079125954493741279 0.016868154336735386 0 0.0070900890719994515 0.017293129883348812 0 0.006219789370060843 0.019439193328277458 0 0.0061153107882179463 0.016709320576544014 0 0.0070900890719994515 0.017293129883348812 0 0.006219789370060843 0.019439193328277458 0 0.0074525928972308782 0.016815307632531862 0 0.0079125954493741279 0.016868154336735386 0 0.0070900890719994515 0.017293129883348812 0 0.0023744589130679458 0.023720169158381241 0 0.0038086687772132355 0.021743053190466537 0 0.0037216972137355635 0.020086839020351355 0 0.0061153107882179463 0.016709320576544014 0 0.006219789370060843 0.019439193328277458 0 0.0037216972137355635 0.020086839020351355 0 0.0043150411094694174 0.020242833469015006 0 0.0037999789360652408 0.020114099306409759 0 0.0094956265523466182 0.016017855678395074 0 0.0092694472363594582 0.014872382060654953 0 0.010306293956703415 0.015020380932673202 0 0.0077548625364547144 0.017610856833654997 0 0.0071966593576033135 0.018290917510742199 0 0.006219789370060843 0.019439193328277458 0 0.0037216972137355635 0.020086839020351355 0 0.0036758435723591347 0.020490332788348064 0 0.0094956265523466182 0.016017855678395074 0 0.010306293956703415 0.015020380932673202 0 0.010625385040508724 0.015308489447262557 0 0.0082896383924195242 0.015334185228767073 0 0.0079125954493741279 0.016868154336735386 0 0.0094956265523466182 0.016017855678395074 0 0.0082896383924195242 0.015334185228767073 0 0.0094956265523466182 0.016017855678395074 0 0.0092694472363594582 0.014872382060654953 0 0.007837159864266887 0.017132845389283922 0 0.0077548625364547144 0.017610856833654997 0 0.0082896383924195242 0.015334185228767073 0 0.0092694472363594582 0.014872382060654953 0 0.0086262999378144828 0.014278962754303789 0 0.0092694472363594582 0.014872382060654953 0 0.0086262999378144828 0.014278962754303789 0 0.009633243966703349 0.013806409094863342 0 0.0088222381179505639 0.0052479883089085492 0 0.011433019921672704 0.0067722293584700942 0 0.010306293956703415 0.015020380932673202 0 0.009633243966703349 0.013806409094863342 0 0.011050730206394811 0.014380926374177219 0 0.0092694472363594582 0.014872382060654953 0 0.010306293956703415 0.015020380932673202 0 0.009633243966703349 0.013806409094863342 0 0.008971833737168285 -0.0036285250469039786 0 0.013781067442651082 -0.0056245956891284622 0 0.010971907304859587 -0.0085177794189545981 0 0.008971833737168285 -0.0036285250469039786 0 0.0076404037162403895 -0.0073738682653692973 0 0.010971907304859587 -0.0085177794189545981 0 0.0088222381179505639 0.0052479883089085492 0 0.010485065079086236 0.0004043308649093927 0 0.0086262999378144828 0.014278962754303789 0 0.009633243966703349 0.013806409094863342 0 0.0082178996062924111 0.013164972194974157 0 0.008971833737168285 -0.0036285250469039786 0 0.0040163649892852133 -0.0057200544272033435 0 0.0076404037162403895 -0.0073738682653692973 0 0.0090679152868546366 0.012595118449797136 0 0.0073891575249341521 0.013170279245513455 0 0.0084160417114848875 0.01400948207446406 0 0.010485065079086236 0.0004043308649093927 0 0.0072019925797401612 0.016387251087908443 0 0.0086262999378144828 0.014278962754303789 0 0.0082178996062924111 0.013164972194974157 0 0.0077282491333294746 0.014477024621897934 0 0.0090679152868546366 0.012595118449797136 0 0.0073891575249341521 0.013170279245513455 0 0.0072337770150810981 0.011822552884300818 0 0.0068687457937186861 0.014393252377849386 0 0.0073891575249341521 0.013170279245513455 0 0.0084160417114848875 0.01400948207446406 0 0.0068687457937186861 0.014393252377849386 0 0.0075055048723663316 0.01548032125469357 0 0.0084160417114848875 0.01400948207446406 0 0.0075055048723663316 0.01548032125469357 0 0.0082896383924195242 0.015334185228767073 0 0.0077282491333294746 0.014477024621897934 0 0.00791183199929852 0.014573016144000856 0 0.0072019925797401612 0.016387251087908443 0 0.0082896383924195242 0.015334185228767073 0 0.0086262999378144828 0.014278962754303789 0 0.0077282491333294746 0.014477024621897934 0 -0.0082903036571028883 0.010440972939444996 0 -0.0063954398640826008 0.01939452292654241 0 -0.0055191109367162313 0.0037392961242395189 0 -0.0077757887692899742 0.0034569885228692841 0 -0.0088723087938258546 0.0056036392829229061 0 -0.010171224944307694 0.018668943606051872 0 -0.01024385332439488 0.018381151089962817 0 -0.010306440580807657 0.018553108264305902 0 -0.0055191109367162313 0.0037392961242395189 0 -0.0077757887692899742 0.0034569885228692841 0 -0.0063430809072244163 0.001569193445698291 0 -0.0083994029535192794 0.026144175192524474 0 -0.0063954398640826008 0.01939452292654241 0 -0.0070439653710976371 0.032132525691792674 0 -0.0049245023235769819 0.031352419764316644 0 -0.0032751476816688481 0.033762215694535289 0 -0.0049245023235769819 0.031352419764316644 0 -0.0032751476816688481 0.033762215694535289 0 -0.003036229445583035 0.031975812058499781 0 -0.0020268805816390577 0.030430789441862931 0 -0.003036229445583035 0.031975812058499781 0 -0.0014005162394631881 0.032952774840606505 0 -0.00047606002089843445 0.016699553208916661 0 0.00018877140426214585 0.023510806426665028 0 -0.0032751476816688481 0.033762215694535289 0 -0.003036229445583035 0.031975812058499781 0 -0.0014005162394631881 0.032952774840606505 0 -0.005366500661456582 0.019547937287130765 0 -0.0034770627397337933 0.020296114032058735 0 -0.002473971297117327 0.018175469132540343 0 -0.0063954398640826008 0.01939452292654241 0 0.00018877140426214585 0.023510806426665028 0 -0.00047606002089843445 0.016699553208916661 0 0.00062157305613135265 0.011378472770509558 0 -0.0063954398640826008 0.01939452292654241 0 -0.00047606002089843445 0.016699553208916661 0 -0.0077757887692899742 0.0034569885228692841 0 -0.0088723087938258546 0.0056036392829229061 0 -0.009975376344931515 0.0051776604535870895 0 -0.0077757887692899742 0.0034569885228692841 0 -0.009975376344931515 0.0051776604535870895 0 -0.0092165645733501538 0.0033586221420500882 0 0.0051862877877443953 0.020439416063841625 0 0.0053802188169043133 0.020017741793603539 0 0.0049784167626402542 0.020130104334930784 0 0.0051862877877443953 0.020439416063841625 0 0.0049784167626402542 0.020130104334930784 0 0.0045489337320078274 0.020330928204231446 0 -0.00047606002089843445 0.016699553208916661 0 0.0068790627848239706 0.02120414732498135 0 0.0061282875181545675 0.020874212478298928 0 0.0045489337320078274 0.020330928204231446 0 0.0050790991214027257 0.021174430912753336 0 0.0053802188169043133 0.020017741793603539 0 0.0049784167626402542 0.020130104334930784 0 0.00476783349649055 0.019710330161973148 0 0.0049784167626402542 0.020130104334930784 0 0.0045489337320078274 0.020330928204231446 0 0.00476783349649055 0.019710330161973148 0 0.0045489337320078274 0.020330928204231446 0 0.0050790991214027257 0.021174430912753336 0 0.0043648324742313841 0.021172515280843771 0 0.0025333714820392731 0.027251519975940483 0 0.00018877140426214585 0.023510806426665028 0 0.0058001578242714204 0.021660064421294877 0 0.0051212626148920094 0.022052873444487475 0 0.0050790991214027257 0.021174430912753336 0 0.0061282875181545675 0.020874212478298928 0 0.0058001578242714204 0.021660064421294877 0 0.0050790991214027257 0.021174430912753336 0 0.0047973959476189862 0.023855584784378513 0 0.0060189878541620058 0.021631826398170472 0 0.0051212626148920094 0.022052873444487475 0 0.00018877140426214585 0.023510806426665028 0 0.0050726622573116472 0.021574093239051014 0 0.0051212626148920094 0.022052873444487475 0 0.0047422123665806139 0.021650468985762953 0 0.0043599823682030376 0.022255797803500538 0 0.0047973959476189862 0.023855584784378513 0 0.0051212626148920094 0.022052873444487475 0 0.0043599823682030376 0.022255797803500538 0 0.0047422123665806139 0.021650468985762953 0 0.0043648324742313841 0.021172515280843771 0 0.0043599823682030376 0.022255797803500538 0 0.0050790991214027257 0.021174430912753336 0 0.0047422123665806139 0.021650468985762953 0 0.0043648324742313841 0.021172515280843771 0 0.0051212626148920094 0.022052873444487475 0 0.0050790991214027257 0.021174430912753336 0 0.0047422123665806139 0.021650468985762953 0 0.0043648324742313841 0.021172515280843771 0 0.0038086687772132355 0.021743053190466537 0 0.003965240307137032 0.020500509507205451 0 0.0036257474238987259 0.023125860694590831 0 0.0023744589130679458 0.023720169158381241 0 0.0038086687772132355 0.021743053190466537 0 0.0043648324742313841 0.021172515280843771 0 0.0043599823682030376 0.022255797803500538 0 0.0038086687772132355 0.021743053190466537 0 0.0036257474238987259 0.023125860694590831 0 0.0043599823682030376 0.022255797803500538 0 0.0038086687772132355 0.021743053190466537 0 0.0045489337320078274 0.020330928204231446 0 0.0036758435723591347 0.020490332788348064 0 0.00476783349649055 0.019710330161973148 0 0.0038086687772132355 0.021743053190466537 0 0.0037216972137355635 0.020086839020351355 0 0.003965240307137032 0.020500509507205451 0 0.0037216972137355635 0.020086839020351355 0 0.003965240307137032 0.020500509507205451 0 0.0036758435723591347 0.020490332788348064 0 0.0045489337320078274 0.020330928204231446 0 0.0043648324742313841 0.021172515280843771 0 0.003965240307137032 0.020500509507205451 0 0.0045489337320078274 0.020330928204231446 0 0.003965240307137032 0.020500509507205451 0 0.0036758435723591347 0.020490332788348064 0 0.0071966593576033135 0.018290917510742199 0 0.0064214497534005044 0.01067973119313778 0 0.010625385040508724 0.015308489447262557 0 0.010801073589828292 0.014618012062256158 0 0.011386431831925739 0.014861619576937744 0 0.0087937377299911815 0.015022018965090372 0 0.011433019921672704 0.0067722293584700942 0 0.010306293956703415 0.015020380932673202 0 0.010625385040508724 0.015308489447262557 0 0.010801073589828292 0.014618012062256158 0 0.011433019921672704 0.0067722293584700942 0 0.0064214497534005044 0.01067973119313778 0 0.013911301530050971 -0.0015172719633225655 0 0.013781067442651082 -0.0056245956891284622 0 0.017589174257680976 -0.0044852257153875962 0 0.008971833737168285 -0.0036285250469039786 0 0.013911301530050971 -0.0015172719633225655 0 0.013781067442651082 -0.0056245956891284622 0 0.007172945023398449 0.00098525047323873012 0 0.0052682508530239557 0.0023950677523033189 0 0.0052248698064288699 0.002208278524240573 0 0.013781067442651082 -0.0056245956891284622 0 0.017589174257680976 -0.0044852257153875962 0 0.016830588917395278 -0.0080832544653702543 0 0.011433019921672704 0.0067722293584700942 0 0.0091443382929094971 -0.0032307010451676152 0 0.0091443382929094971 -0.0032307010451676152 0 0.011368217419909175 -0.0072800453415235384 0 0.005265861591359184 0.0023895910345083258 0 0.0040820908898268763 0.0019056998018658925 0 0.0038358077336547642 0.0034605608609666015 0 0.0066991330458483558 -0.0048228674148038837 0 0.0084592981953017145 -0.006246348463135278 0 0.006198147447389067 -0.0071278252916793421 0 0.0091443382929094971 -0.0032307010451676152 0 0.0010388698054572942 -0.004398676401795319 0 0.005265861591359184 0.0023895910345083258 0 0.0052248698064288699 0.002208278524240573 0 0.0040820908898268763 0.0019056998018658925 0 0.0091443382929094971 -0.0032307010451676152 0 0.0091137308407767629 -0.0027614331187553491 0 0.007172945023398449 0.00098525047323873012 0 0.0052248698064288699 0.002208278524240573 0 0.0053922614435123854 0.00023881259726542777 0 0.0052248698064288699 0.002208278524240573 0 0.0053922614435123854 0.00023881259726542777 0 0.0040820908898268763 0.0019056998018658925 0 0.00062157305613135265 0.011378472770509558 0 0.0064214497534005044 0.01067973119313778 0 -0.0077757887692899742 0.0034569885228692841 0 -0.0092165645733501538 0.0033586221420500882 0 -0.007994490213568831 0.00059073724336461376 0 0.0053922614435123854 0.00023881259726542777 0 0.0024872382176528143 0.0013514844682695028 0 0.0040820908898268763 0.0019056998018658925 0 0.0017043383560376847 0.0071017679014327767 0 0.002919748087292734 0.0076165635206573937 0 0.0011264575105661703 0.0082766455920594579 0 0.0064214497534005044 0.01067973119313778 0 -0.001881982781604106 0.001980491247745329 0 0.00062157305613135265 0.011378472770509558 0 -0.001881982781604106 0.001980491247745329 0 -0.0066361579405713102 -0.00075473483817927096 0 -0.0061297435453452507 -0.0019126910357801358 0 -0.0079889466512350037 -0.0023150793968067527 0 -0.0038440987642101953 0.0012522978272055539 0 0.0010388698054572942 -0.004398676401795319 0 0.0040820908898268763 0.0019056998018658925 0 0.0022856220409541331 0.0017802814315095361 0 0.0038358077336547642 0.0034605608609666015 0 0.0024872382176528143 0.0013514844682695028 0 0.0040820908898268763 0.0019056998018658925 0 0.0022856220409541331 0.0017802814315095361 0 -0.0052368935618828617 -0.00090394576593422974 0 -0.0052518343055491376 0.00104050445097293 0 -0.0067077529743732461 -0.00061421944177546533 0 -0.0061297435453452507 -0.0019126910357801358 0 -0.0059180816773098275 -0.0011155569703689167 0 -0.0045804891730943835 -0.0010696018981078089 0 -0.0059180816773098275 -0.0011155569703689167 0 -0.0064906031426811396 -0.00038908318877385237 0 -0.0038440987642101953 0.0012522978272055539 0 -0.0053998672503636535 -0.0014014614819976622 0 -0.001881982781604106 0.001980491247745329 0 -0.0038440987642101953 0.0012522978272055539 0 -0.003406540429581475 0.0022037084389458315 0 -0.0030762373503564508 0.0014774323743436076 0 -0.0026936073805267332 0.0019087535111502396 0 -0.0038440987642101953 0.0012522978272055539 0 -0.0052518343055491376 0.00104050445097293 0 -0.0067077529743732461 -0.00061421944177546533 0 -0.0059180816773098275 -0.0011155569703689167 0 -0.0064906031426811396 -0.00038908318877385237 0 -0.0061297435453452507 -0.0019126910357801358 0 -0.0059180816773098275 -0.0011155569703689167 0 -0.0052305893866761944 -0.0022078492940188041 0 -0.0045804891730943835 -0.0010696018981078089 0 -0.0059180816773098275 -0.0011155569703689167 0 -0.0052305893866761944 -0.0022078492940188041 0 -0.0077757887692899742 0.0034569885228692841 0 -0.007994490213568831 0.00059073724336461376 0 -0.0063430809072244163 0.001569193445698291 0 -0.0045804891730943835 -0.0010696018981078089 0 -0.0075557161983668209 0.00020082883719957576 0 -0.0063430809072244163 0.001569193445698291 0 -0.007994490213568831 0.00059073724336461376 0 -0.0074316458717996981 0.00035783497758954628 0 -0.0063430809072244163 0.001569193445698291 0 -0.0052518343055491376 0.00104050445097293 0 -0.0064828789407521533 0.00077733031448905037 0 -0.001881982781604106 0.001980491247745329 0 -0.0052518343055491376 0.00104050445097293 0 -0.0032687804207291366 -0.01716547259635608 0 -0.0027012765197133278 -0.012626272387469236 0 0.0017928841866595199 -0.0278363251230156 0 0.0016423771277475159 -0.027638630875786933 0 0.0016479706544365944 -0.027900081662340048 0 -0.0061297435453452507 -0.0019126910357801358 0 -0.0062670507247425252 -0.0038279068362803543 0 -0.0079889466512350037 -0.0023150793968067527 0 -0.0061297435453452507 -0.0019126910357801358 0 -0.0062670507247425252 -0.0038279068362803543 0 -0.0052305893866761944 -0.0022078492940188041 0 -0.0027012765197133278 -0.012626272387469236 0 0.0010388698054572942 -0.004398676401795319 0 0.0025294406287378422 -0.013221983720708347 0 0.001971111328068458 -0.01271628476619952 0 0.0019150800888179508 -0.013593713055172273 0 0.0016423771277475159 -0.027638630875786933 0 0.0015384617959542859 -0.027806996579625192 0 0.0016479706544365944 -0.027900081662340048 0 -0.0027012765197133278 -0.012626272387469236 0 0.0015913288553858576 -0.021188132955016502 0 0.0019150800888179508 -0.013593713055172273 0 0.0013601311322425642 -0.013542237699284032 0 0.0012882311840169418 -0.014003535361082911 0 0.0015913288553858576 -0.021188132955016502 0 0.0049118384676264506 -0.022261298033177532 0 0.0083178622516785171 -0.01276935185534272 0 0.0049118384676264506 -0.022261298033177532 0 0.0010388698054572942 -0.004398676401795319 0 0.0083178622516785171 -0.01276935185534272 0 0.001971111328068458 -0.01271628476619952 0 0.0019150800888179508 -0.013593713055172273 0 0.0013601311322425642 -0.013542237699284032 0 0.0084592981953017145 -0.006246348463135278 0 0.0057135255714359833 -0.0094481622631436418 0 0.006198147447389067 -0.0071278252916793421 0 0.0083178622516785171 -0.01276935185534272 0 0.011368217419909175 -0.0072800453415235384 0 0.01605514567768156 -0.011702315151313449 0 0.016830588917395278 -0.0080832544653702543 0 0.013841525894076182 -0.0092756118389663474 0 0.013841525894076182 -0.0092756118389663474 0 0.010971907304859587 -0.0085177794189545981 0 0.01156826600820284 -0.012463779031083007 0 0.013781067442651082 -0.0056245956891284622 0 0.016830588917395278 -0.0080832544653702543 0 0.013841525894076182 -0.0092756118389663474 0 0.013781067442651082 -0.0056245956891284622 0 0.013841525894076182 -0.0092756118389663474 0 0.010971907304859587 -0.0085177794189545981 0 0.01605514567768156 -0.011702315151313449 0 0.012360628668285096 -0.015970922073744998 0 0.01156826600820284 -0.012463779031083007 0 0.0083178622516785171 -0.01276935185534272 0 0.010657252504203431 -0.021988456037752225 0 0.0092915541054643738 -0.017318523545139297 0 0.0089262660662607508 -0.019090635495747039 0 0.00689569593978009 -0.020146059740500103 0 0.01605514567768156 -0.011702315151313449 0 0.013841525894076182 -0.0092756118389663474 0 0.01156826600820284 -0.012463779031083007 0 0.0049118384676264506 -0.022261298033177532 0 0.0074791466318861639 -0.039515873988586449 0 0.010176594530545998 -0.028928122949501294 0 0.0088517333426660193 -0.029634025030973534 0 0.0097790824305289143 -0.030895643584242172 0 0.0049118384676264506 -0.022261298033177532 0 0.010657252504203431 -0.021988456037752225 0 0.0088517333426660193 -0.029634025030973534 0 0.0097790824305289143 -0.030895643584242172 0 0.0078688826165495915 -0.031098877883546323 0 0.011911804084956457 -0.049622457311275438 0 0.010207166473403964 -0.050969218266693921 0 0.0139275980303091 -0.050667998157120094 0 0.0074791466318861639 -0.039515873988586449 0 0.012071247704089213 -0.037920804212950278 0 0.011911804084956457 -0.049622457311275438 0 0.010207166473403964 -0.050969218266693921 0 0.010797188337252059 -0.048635968997025852 0 0.0074791466318861639 -0.039515873988586449 0 0.0092769951972653877 -0.051490413833277002 0 0.010022180461953864 -0.051136494991347196 0 0.0073443193509741284 -0.050174133942204657 0 0.010797188337252059 -0.048635968997025852 0 0.0074791466318861639 -0.039515873988586449 0 0.0036545754112125039 -0.039656058674619216 0 0.010022180461953864 -0.051136494991347196 0 0.0073443193509741284 -0.050174133942204657 0 0.0066761293847048958 -0.051302196544185136 0 0.0015384617959542859 -0.027806996579625192 0 0.0014379078957274367 -0.027943573147338561 0 0.00158972547769252 -0.028102333804880402 0 0.0014379078957274367 -0.027943573147338561 0 0.0014325350996837864 -0.028186741128765663 0 0.00158972547769252 -0.028102333804880402 0 0.0015384617959542859 -0.027806996579625192 0 0.00158972547769252 -0.028102333804880402 0 0.0016479706544365944 -0.027900081662340048 0 0.0073443193509741284 -0.050174133942204657 0 0.0066761293847048958 -0.051302196544185136 0 0.0066585190496370808 -0.050011527367467695 0 0.0066761293847048958 -0.051302196544185136 0 0.0057302797701693844 -0.050390697091051061 0 0.0066585190496370808 -0.050011527367467695 0 0.0051717743536790536 -0.051132513722790846 0 0.0066761293847048958 -0.051302196544185136 0 0.0057302797701693844 -0.050390697091051061 0 0.0049998702549615354 -0.050403109279654384 0 0.0051717743536790536 -0.051132513722790846 0 0.0057302797701693844 -0.050390697091051061 0 0.0041821699036398673 -0.040267669837171664 0 0.0036545754112125039 -0.039656058674619216 0 0.0017453331258929035 -0.028057473735558267 0 0.00158972547769252 -0.028102333804880402 0 0.0016479706544365944 -0.027900081662340048 0 0.0017928841866595199 -0.0278363251230156 0 0.0017453331258929035 -0.028057473735558267 0 0.0016479706544365944 -0.027900081662340048 0 0.014801274663205671 -0.01858821624198315 0 0.015688281931786199 -0.022001390327422241 0 0.012178650155534636 -0.021414603033923518 0 0.014801274663205671 -0.01858821624198315 0 0.018660686254755213 -0.01895204964439182 0 0.015688281931786199 -0.022001390327422241 0 0.014801274663205671 -0.01858821624198315 0 0.011604782124435562 -0.0161926453133024 0 0.012178650155534636 -0.021414603033923518 0 0.0093542852703683132 -0.02035474718246465 0 0.011604782124435562 -0.0161926453133024 0 0.012178650155534636 -0.021414603033923518 0 0.016484087479458492 -0.013987746007998923 0 0.014801274663205671 -0.01858821624198315 0 0.011604782124435562 -0.0161926453133024 0 0.010485065079086236 0.0004043308649093927 0 0.0099570807847694509 -0.0023931399178579761 0 0.016484087479458492 -0.013987746007998923 0 0.014801274663205671 -0.01858821624198315 0 0.018660686254755213 -0.01895204964439182 0 0.0040163649892852133 -0.0057200544272033435 0 0.0076404037162403895 -0.0073738682653692973 0 0.0065947833611504393 -0.01165005302991412 0 0.010485065079086236 0.0004043308649093927 0 0.01319778966318432 -0.01695339963244711 0 0.0076404037162403895 -0.0073738682653692973 0 0.010971907304859587 -0.0085177794189545981 0 0.0065947833611504393 -0.01165005302991412 0 0.010971907304859587 -0.0085177794189545981 0 0.01156826600820284 -0.012463779031083007 0 0.0065947833611504393 -0.01165005302991412 0 0.01156826600820284 -0.012463779031083007 0 0.0065947833611504393 -0.01165005302991412 0 0.0092066722092679371 -0.017569392012022511 0 0.018660686254755213 -0.01895204964439182 0 0.018013681971697389 -0.022625822764008121 0 0.020744964630732447 -0.023802841654858332 0 0.018660686254755213 -0.01895204964439182 0 0.018013681971697389 -0.022625822764008121 0 0.015688281931786199 -0.022001390327422241 0 0.01319778966318432 -0.01695339963244711 0 0.012576277458738364 -0.022948033238403897 0 0.012360628668285096 -0.015970922073744998 0 0.01156826600820284 -0.012463779031083007 0 0.0092066722092679371 -0.017569392012022511 0 0.012322231461740425 -0.024378944988860351 0 0.010810245877045255 -0.025160920879773434 0 0.011100212916127243 -0.025814688146081774 0 0.010657252504203431 -0.021988456037752225 0 0.011343090683963563 -0.032562210682784878 0 0.010657252504203431 -0.021988456037752225 0 0.012576277458738364 -0.022948033238403897 0 0.0088517333426660193 -0.029634025030973534 0 0.0078688826165495915 -0.031098877883546323 0 0.0077887524204227881 -0.030915848980901047 0 0.012071247704089213 -0.037920804212950278 0 0.01119372274160369 -0.034704035018570369 0 0.01119372274160369 -0.034704035018570369 0 0.011343090683963563 -0.032562210682784878 0 0.0077264375464383946 -0.035200181892621168 0 0.012846720581419951 -0.034677867794018581 0 0.0092911949895565608 -0.038670565453827604 0 0.012071247704089213 -0.037920804212950278 0 0.011343090683963563 -0.032562210682784878 0 0.012576277458738364 -0.022948033238403897 0 0.011343090683963563 -0.032562210682784878 0 0.011480211912088168 -0.029259180226968228 0 0.011401033720208972 -0.028430224097779955 0 0.011199723986470981 -0.028653662260180877 0 0.014330718793266124 -0.051078527345495242 0 0.015016859758777494 -0.051006272373596118 0 0.013335891506784776 -0.049127368285986316 0 0.012071247704089213 -0.037920804212950278 0 0.015162835186657005 -0.048988687506556695 0 0.011911804084956457 -0.049622457311275438 0 0.0139275980303091 -0.050667998157120094 0 0.013335891506784776 -0.049127368285986316 0 0.011480211912088168 -0.029259180226968228 0 0.011401033720208972 -0.028430224097779955 0 0.013659417417315 -0.02819215993859233 0 0.012576277458738364 -0.022948033238403897 0 0.013732768973101864 -0.027400034413221211 0 0.018013681971697389 -0.022625822764008121 0 0.020744964630732447 -0.023802841654858332 0 0.016966451317956596 -0.025723912422838589 0 0.0097480738683662915 -0.029262658223134289 0 0.010943357580343071 -0.028829261487973747 0 0.01093631720238839 -0.028168775180382043 0 0.01119372274160369 -0.034704035018570369 0 0.013732768973101864 -0.027400034413221211 0 0.013732768973101864 -0.027400034413221211 0 0.010793300505922181 -0.028420966357732964 0 0.016966451317956596 -0.025723912422838589 0 0.014114174870715398 -0.023889562637709607 0 0.013774151446976609 -0.02612835341306689 0 0.012635512028660832 -0.027415035100606559 0 0.011285304708023662 -0.027557281135604263 0 0.011350997006778255 -0.02803225637599506 0 0.013732768973101864 -0.027400034413221211 0 0.012640087112271447 -0.026759739915413881 0 0.016966451317956596 -0.025723912422838589 0 0.015688281931786199 -0.022001390327422241 0 0.014114174870715398 -0.023889562637709607 0 0.018013681971697389 -0.022625822764008121 0 0.016966451317956596 -0.025723912422838589 0 0.015688281931786199 -0.022001390327422241 0 0.015688281931786199 -0.022001390327422241 0 0.014114174870715398 -0.023889562637709607 0 0.012178650155534636 -0.021414603033923518 0 0.014114174870715398 -0.023889562637709607 0 0.012178650155534636 -0.021414603033923518 0 0.011926334985662814 -0.024169232529619559 0 0.0093781401446339906 -0.023861741047057138 0 0.012178650155534636 -0.021414603033923518 0 0.011926334985662814 -0.024169232529619559 0 0.010387948789748023 -0.026630647125551292 0 0.011926334985662814 -0.024169232529619559 0 0.013774151446976609 -0.02612835341306689 0 0.010498667893956776 -0.026768067648838635 0 0.012640087112271447 -0.026759739915413881 0 0.010387948789748023 -0.026630647125551292 0 0.011285304708023662 -0.027557281135604263 0 0.010938923558866947 -0.027726004595493441 0 0.014114174870715398 -0.023889562637709607 0 0.011926334985662814 -0.024169232529619559 0 0.013774151446976609 -0.02612835341306689 0 0.011285304708023662 -0.027557281135604263 0 0.010938923558866947 -0.027726004595493441 0 0.011350997006778255 -0.02803225637599506 0 0.010938923558866947 -0.027726004595493441 0 0.011183578939443875 -0.028554871889356424 0 0.011350997006778255 -0.02803225637599506 0 0.010938923558866947 -0.027726004595493441 0 0.011183578939443875 -0.028554871889356424 0 0.0098599529220263649 -0.027971016248365378 0 0.013212160383479016 -0.04659663505725152 0 0.01357508279221336 -0.047346197560849755 0 0.012843371534724772 -0.047427870254709743 0 0.012157791146975697 -0.049266662864031897 0 0.014193653477011644 -0.043742543731231244 0 0.011830687331674857 -0.049324407638801047 0 0.010753940896860357 -0.050420978759187204 0 0.010692873797804555 -0.049266117418419839 0 0.013212160383479016 -0.04659663505725152 0 0.01357508279221336 -0.047346197560849755 0 0.014443648886794195 -0.046315613505315267 0 0.010943357580343071 -0.028829261487973747 0 0.011350997006778255 -0.02803225637599506 0 0.01093631720238839 -0.028168775180382043 0 0.011183578939443875 -0.028554871889356424 0 0.011350997006778255 -0.02803225637599506 0 0.01093631720238839 -0.028168775180382043 0 0.010898812185086065 -0.036856964468140338 0 0.014193653477011644 -0.043742543731231244 0 0.01119372274160369 -0.034704035018570369 0 0.014193653477011644 -0.043742543731231244 0 0.015016859758777494 -0.051006272373596118 0 0.013335891506784776 -0.049127368285986316 0 0.019607636776125162 -0.045601320465670343 0 0.010753940896860357 -0.050420978759187204 0 0.0095306168478171763 -0.04996526429837967 0 0.0089080635827172832 -0.050585900176660141 0 0.013335891506784776 -0.049127368285986316 0 0.019607636776125162 -0.045601320465670343 0 0.01199264241289944 -0.047702422788101884 0 0.014193653477011644 -0.043742543731231244 0 0.01069153098745663 -0.049769231100275729 0 0.011911804084956457 -0.049622457311275438 0 0.013335891506784776 -0.049127368285986316 0 0.01199264241289944 -0.047702422788101884 0 0.0095306168478171763 -0.04996526429837967 0 0.0089080635827172832 -0.050585900176660141 0 0.0088011828123482176 -0.049870677678925043 0 0.0095306168478171763 -0.04996526429837967 0 0.0092527803119437039 -0.049413496058932492 0 0.0088011828123482176 -0.049870677678925043 0 0.0092527803119437039 -0.049413496058932492 0 0.010000972068315682 -0.049596438359829104 0 0.0098155937858913234 -0.048987703816826059 0 0.0095306168478171763 -0.04996526429837967 0 0.0092527803119437039 -0.049413496058932492 0 0.010000972068315682 -0.049596438359829104 0 0.010753940896860357 -0.050420978759187204 0 0.0095306168478171763 -0.04996526429837967 0 0.010000972068315682 -0.049596438359829104 0 0.010753940896860357 -0.050420978759187204 0 0.010000972068315682 -0.049596438359829104 0 0.010692873797804555 -0.049266117418419839 0 0.010692873797804555 -0.049266117418419839 0 0.010655789622293976 -0.048580093935872704 0 0.0098155937858913234 -0.048987703816826059 0 0.010000972068315682 -0.049596438359829104 0 0.010692873797804555 -0.049266117418419839 0 0.0098155937858913234 -0.048987703816826059 0 0.010655789622293976 -0.048580093935872704 0 0.0098155937858913234 -0.048987703816826059 0 0.0099022066734366695 -0.048406572522000695 0 0.010692873797804555 -0.049266117418419839 0 0.010655789622293976 -0.048580093935872704 0 0.011291137766842579 -0.048753638786613353 0 0.0098155937858913234 -0.048987703816826059 0 0.0099022066734366695 -0.048406572522000695 0 0.0087591430081435315 -0.048679143173346269 0 0.0092527803119437039 -0.049413496058932492 0 0.0098155937858913234 -0.048987703816826059 0 0.0087591430081435315 -0.048679143173346269 0 0.0099022066734366695 -0.048406572522000695 0 0.0087591430081435315 -0.048679143173346269 0 0.0095770257556335586 -0.047831123431215684 0 0.0099022066734366695 -0.048406572522000695 0 0.010730809941269594 -0.047930670855940077 0 0.0095770257556335586 -0.047831123431215684 0 0.010655789622293976 -0.048580093935872704 0 0.010730809941269594 -0.047930670855940077 0 0.011467656185873242 -0.048173093766776191 0 0.010655789622293976 -0.048580093935872704 0 0.0099022066734366695 -0.048406572522000695 0 0.010730809941269594 -0.047930670855940077 0 0.011467656185873242 -0.048173093766776191 0 0.012166310891048296 -0.047958067271265933 0 0.011851362792814518 -0.04736661002687588 0 0.010655789622293976 -0.048580093935872704 0 0.011467656185873242 -0.048173093766776191 0 0.011291137766842579 -0.048753638786613353 0 0.011467656185873242 -0.048173093766776191 0 0.012166310891048296 -0.047958067271265933 0 0.011918112644357491 -0.048428473352198347 0 0.011467656185873242 -0.048173093766776191 0 0.011918112644357491 -0.048428473352198347 0 0.011291137766842579 -0.048753638786613353 0 0.012166310891048296 -0.047958067271265933 0 0.012704617836207625 -0.04772770423172748 0 0.012658017677523739 -0.048043789604778148 0 0.012166310891048296 -0.047958067271265933 0 0.011918112644357491 -0.048428473352198347 0 0.012658017677523739 -0.048043789604778148 0 0.01357508279221336 -0.047346197560849755 0 0.012843371534724772 -0.047427870254709743 0 0.012658017677523739 -0.048043789604778148 0 0.011830687331674857 -0.049324407638801047 0 0.011918112644357491 -0.048428473352198347 0 0.012658017677523739 -0.048043789604778148 0 0.012157791146975697 -0.049266662864031897 0 0.012941759023143408 -0.047703129848959899 0 0.011830687331674857 -0.049324407638801047 0 0.011918112644357491 -0.048428473352198347 0 0.011291137766842579 -0.048753638786613353 0 0.011830687331674857 -0.049324407638801047 0 0.010692873797804555 -0.049266117418419839 0 0.011291137766842579 -0.048753638786613353 0 0.004979733535159383 -0.049851125411426223 0 0.0055249375245352041 -0.049355216180854491 0 0.0061135021764946373 -0.049726270201453822 0 0.0055249375245352041 -0.049355216180854491 0 0.0062703829515316518 -0.049258150006783047 0 0.0056047978263765851 -0.04886198776398061 0 0.0055249375245352041 -0.049355216180854491 0 0.0061135021764946373 -0.049726270201453822 0 0.0062703829515316518 -0.049258150006783047 0 0.004979733535159383 -0.049851125411426223 0 0.0057302797701693844 -0.050390697091051061 0 0.0061135021764946373 -0.049726270201453822 0 0.0049998702549615354 -0.050403109279654384 0 0.004979733535159383 -0.049851125411426223 0 0.0057302797701693844 -0.050390697091051061 0 0.0057302797701693844 -0.050390697091051061 0 0.0061135021764946373 -0.049726270201453822 0 0.0066585190496370808 -0.050011527367467695 0 0.0073443193509741284 -0.050174133942204657 0 0.0066585190496370808 -0.050011527367467695 0 0.0074042400342861281 -0.049751914258810918 0 0.0061135021764946373 -0.049726270201453822 0 0.0066585190496370808 -0.050011527367467695 0 0.0067765542685796236 -0.049605258255611205 0 0.0066585190496370808 -0.050011527367467695 0 0.0067765542685796236 -0.049605258255611205 0 0.0074042400342861281 -0.049751914258810918 0 0.0067765542685796236 -0.049605258255611205 0 0.0071014200601657628 -0.049227831713737277 0 0.0074042400342861281 -0.049751914258810918 0 0.0061135021764946373 -0.049726270201453822 0 0.0067765542685796236 -0.049605258255611205 0 0.0062703829515316518 -0.049258150006783047 0 0.0067765542685796236 -0.049605258255611205 0 0.0062703829515316518 -0.049258150006783047 0 0.0071014200601657628 -0.049227831713737277 0 0.0071014200601657628 -0.049227831713737277 0 0.0074042400342861281 -0.049751914258810918 0 0.007914300243288399 -0.049227369455552929 0 0.0074042400342861281 -0.049751914258810918 0 0.0081429469683233727 -0.049711984978386081 0 0.007914300243288399 -0.049227369455552929 0 0.0074042400342861281 -0.049751914258810918 0 0.0078563783002180854 -0.049974759142052197 0 0.0081429469683233727 -0.049711984978386081 0 0.0073443193509741284 -0.050174133942204657 0 0.0074042400342861281 -0.049751914258810918 0 0.0078563783002180854 -0.049974759142052197 0 0.0073443193509741284 -0.050174133942204657 0 0.0078563783002180854 -0.049974759142052197 0 0.0083289139935651731 -0.050165254182893151 0 0.0078563783002180854 -0.049974759142052197 0 0.0083289139935651731 -0.050165254182893151 0 0.0081429469683233727 -0.049711984978386081 0 0.0073443193509741284 -0.050174133942204657 0 0.010797188337252059 -0.048635968997025852 0 0.01199264241289944 -0.047702422788101884 0 0.0075147121049681563 -0.049888912150935251 0 0.01069153098745663 -0.049769231100275729 0 0.0073443193509741284 -0.050174133942204657 0 0.0083289139935651731 -0.050165254182893151 0 0.0089080635827172832 -0.050585900176660141 0 0.011911804084956457 -0.049622457311275438 0 0.010797188337252059 -0.048635968997025852 0 0.01199264241289944 -0.047702422788101884 0 0.0083289139935651731 -0.050165254182893151 0 0.0089080635827172832 -0.050585900176660141 0 0.0088011828123482176 -0.049870677678925043 0 0.0088011828123482176 -0.049870677678925043 0 0.0081429469683233727 -0.049711984978386081 0 0.0085729963707413172 -0.049372272563474012 0 0.0083289139935651731 -0.050165254182893151 0 0.0088011828123482176 -0.049870677678925043 0 0.0081429469683233727 -0.049711984978386081 0 0.0081429469683233727 -0.049711984978386081 0 0.0085729963707413172 -0.049372272563474012 0 0.007914300243288399 -0.049227369455552929 0 0.0092527803119437039 -0.049413496058932492 0 0.0088011828123482176 -0.049870677678925043 0 0.0085729963707413172 -0.049372272563474012 0 0.0085729963707413172 -0.049372272563474012 0 0.0087591430081435315 -0.048679143173346269 0 0.007914300243288399 -0.049227369455552929 0 0.0092527803119437039 -0.049413496058932492 0 0.0085729963707413172 -0.049372272563474012 0 0.0087591430081435315 -0.048679143173346269 0 0.0087591430081435315 -0.048679143173346269 0 0.008367505789118105 -0.048018918388100663 0 0.0075432424007680762 -0.048614962119887951 0 0.0087591430081435315 -0.048679143173346269 0 0.008367505789118105 -0.048018918388100663 0 0.0095770257556335586 -0.047831123431215684 0 0.008367505789118105 -0.048018918388100663 0 0.0074957016112895221 -0.048033065401485261 0 0.0075432424007680762 -0.048614962119887951 0 0.0074957016112895221 -0.048033065401485261 0 0.0075432424007680762 -0.048614962119887951 0 0.0066473143531702999 -0.048228793814139789 0 0.0087591430081435315 -0.048679143173346269 0 0.0075432424007680762 -0.048614962119887951 0 0.007914300243288399 -0.049227369455552929 0 0.0071014200601657628 -0.049227831713737277 0 0.0075432424007680762 -0.048614962119887951 0 0.007914300243288399 -0.049227369455552929 0 0.0071014200601657628 -0.049227831713737277 0 0.0075432424007680762 -0.048614962119887951 0 0.0064749960031729335 -0.048758740849864812 0 0.0062703829515316518 -0.049258150006783047 0 0.0071014200601657628 -0.049227831713737277 0 0.0064749960031729335 -0.048758740849864812 0 0.0066473143531702999 -0.048228793814139789 0 0.0056783724556182099 -0.048255624057659791 0 0.0064610724242004031 -0.047625308743724788 0 0.0074957016112895221 -0.048033065401485261 0 0.0066473143531702999 -0.048228793814139789 0 0.0064610724242004031 -0.047625308743724788 0 0.0075432424007680762 -0.048614962119887951 0 0.0064749960031729335 -0.048758740849864812 0 0.0066473143531702999 -0.048228793814139789 0 0.0064749960031729335 -0.048758740849864812 0 0.0066473143531702999 -0.048228793814139789 0 0.0056783724556182099 -0.048255624057659791 0 0.0049115316722353848 -0.048499991870321189 0 0.0056783724556182099 -0.048255624057659791 0 0.0056047978263765851 -0.04886198776398061 0 0.0064749960031729335 -0.048758740849864812 0 0.0056783724556182099 -0.048255624057659791 0 0.0056047978263765851 -0.04886198776398061 0 0.0062703829515316518 -0.049258150006783047 0 0.0064749960031729335 -0.048758740849864812 0 0.0056047978263765851 -0.04886198776398061 0 0.0053907857053451594 -0.047195649658106263 0 0.0070607256551529669 -0.046912596850867176 0 0.0060772422519216251 -0.04640307250220449 0 0.0056783724556182099 -0.048255624057659791 0 0.0053907857053451594 -0.047195649658106263 0 0.0064610724242004031 -0.047625308743724788 0 0.0074957016112895221 -0.048033065401485261 0 0.0064610724242004031 -0.047625308743724788 0 0.0076981266595549406 -0.04738446841652795 0 0.0064610724242004031 -0.047625308743724788 0 0.0070607256551529669 -0.046912596850867176 0 0.0076981266595549406 -0.04738446841652795 0 0.0053907857053451594 -0.047195649658106263 0 0.0064610724242004031 -0.047625308743724788 0 0.0070607256551529669 -0.046912596850867176 0 0.0070607256551529669 -0.046912596850867176 0 0.0084276344555669295 -0.046830965015860267 0 0.0077966394209095973 -0.046160537167271594 0 0.0070607256551529669 -0.046912596850867176 0 0.0076981266595549406 -0.04738446841652795 0 0.0084276344555669295 -0.046830965015860267 0 0.008367505789118105 -0.048018918388100663 0 0.0074957016112895221 -0.048033065401485261 0 0.0076981266595549406 -0.04738446841652795 0 0.0076981266595549406 -0.04738446841652795 0 0.0088156212167278571 -0.047414730366281396 0 0.0084276344555669295 -0.046830965015860267 0 0.008367505789118105 -0.048018918388100663 0 0.0076981266595549406 -0.04738446841652795 0 0.0088156212167278571 -0.047414730366281396 0 0.008367505789118105 -0.048018918388100663 0 0.0088156212167278571 -0.047414730366281396 0 0.0095770257556335586 -0.047831123431215684 0 0.0084276344555669295 -0.046830965015860267 0 0.0096994169757051909 -0.047017923094363173 0 0.0094349115239784863 -0.046125577218702384 0 0.0088156212167278571 -0.047414730366281396 0 0.0084276344555669295 -0.046830965015860267 0 0.0096994169757051909 -0.047017923094363173 0 0.008737947617056584 -0.045218931589249639 0 0.0077966394209095973 -0.046160537167271594 0 0.0094349115239784863 -0.046125577218702384 0 0.0084276344555669295 -0.046830965015860267 0 0.0077966394209095973 -0.046160537167271594 0 0.0094349115239784863 -0.046125577218702384 0 0.008737947617056584 -0.045218931589249639 0 0.0077966394209095973 -0.046160537167271594 0 0.0069937617706547477 -0.045464262892530742 0 0.0079399831899587357 -0.044451952353249856 0 0.008737947617056584 -0.045218931589249639 0 0.0069937617706547477 -0.045464262892530742 0 0.0077966394209095973 -0.046160537167271594 0 0.0069937617706547477 -0.045464262892530742 0 0.0060772422519216251 -0.04640307250220449 0 0.0070607256551529669 -0.046912596850867176 0 0.0077966394209095973 -0.046160537167271594 0 0.0060772422519216251 -0.04640307250220449 0 0.0047047847636442087 -0.046145193201173558 0 0.0052506035914394707 -0.04490613430426442 0 0.0069937617706547477 -0.045464262892530742 0 0.0047047847636442087 -0.046145193201173558 0 0.0053907857053451594 -0.047195649658106263 0 0.0060772422519216251 -0.04640307250220449 0 0.0047047847636442087 -0.046145193201173558 0 0.0069937617706547477 -0.045464262892530742 0 0.0060772422519216251 -0.04640307250220449 0 0.012590275018220465 -0.046480477188930898 0 0.011851362792814518 -0.04736661002687588 0 0.011168469646160908 -0.046331614733726198 0 0.011851362792814518 -0.04736661002687588 0 0.01069619440671803 -0.047262718054889581 0 0.011168469646160908 -0.046331614733726198 0 0.013369957609400126 -0.046576947120572969 0 0.013884422136541638 -0.047481368700914892 0 0.012166310891048296 -0.047958067271265933 0 0.011851362792814518 -0.04736661002687588 0 0.012704617836207625 -0.04772770423172748 0 0.012590275018220465 -0.046480477188930898 0 0.011851362792814518 -0.04736661002687588 0 0.012704617836207625 -0.04772770423172748 0 0.010730809941269594 -0.047930670855940077 0 0.011467656185873242 -0.048173093766776191 0 0.011851362792814518 -0.04736661002687588 0 0.010730809941269594 -0.047930670855940077 0 0.01069619440671803 -0.047262718054889581 0 0.0095770257556335586 -0.047831123431215684 0 0.010730809941269594 -0.047930670855940077 0 0.011851362792814518 -0.04736661002687588 0 0.01069619440671803 -0.047262718054889581 0 0.01069619440671803 -0.047262718054889581 0 0.0095770257556335586 -0.047831123431215684 0 0.0096994169757051909 -0.047017923094363173 0 0.0088156212167278571 -0.047414730366281396 0 0.0095770257556335586 -0.047831123431215684 0 0.0096994169757051909 -0.047017923094363173 0 0.0096994169757051909 -0.047017923094363173 0 0.011168469646160908 -0.046331614733726198 0 0.0094349115239784863 -0.046125577218702384 0 0.01069619440671803 -0.047262718054889581 0 0.0096994169757051909 -0.047017923094363173 0 0.011168469646160908 -0.046331614733726198 0 0.011168469646160908 -0.046331614733726198 0 0.0094349115239784863 -0.046125577218702384 0 0.010551018954801827 -0.044971982367098998 0 0.008737947617056584 -0.045218931589249639 0 0.0094349115239784863 -0.046125577218702384 0 0.010551018954801827 -0.044971982367098998 0 0.009581916014167852 -0.044163096197338263 0 0.008737947617056584 -0.045218931589249639 0 0.010551018954801827 -0.044971982367098998 0 0.011168469646160908 -0.046331614733726198 0 0.010551018954801827 -0.044971982367098998 0 0.012708432501240404 -0.045064230051047045 0 0.011933380077260747 -0.043729403290758313 0 0.010551018954801827 -0.044971982367098998 0 0.012708432501240404 -0.045064230051047045 0 0.012590275018220465 -0.046480477188930898 0 0.011168469646160908 -0.046331614733726198 0 0.012708432501240404 -0.045064230051047045 0 0.013369957609400126 -0.046576947120572969 0 0.012713346759277979 -0.045040829452772768 0 0.014138104629760666 -0.046616826377234744 0 0.012708432501240404 -0.045064230051047045 0 0.015202472837436403 -0.045169802549247767 0 0.013945678224973543 -0.043795814291820147 0 0.012708432501240404 -0.045064230051047045 0 0.015202472837436403 -0.045169802549247767 0 0.015420941919602797 -0.044004086259962778 0 0.015202472837436403 -0.045169802549247767 0 0.016972968367822187 -0.044225573236350776 0 0.013945678224973543 -0.043795814291820147 0 0.015420941919602797 -0.044004086259962778 0 0.015202472837436403 -0.045169802549247767 0 0.016972968367822187 -0.044225573236350776 0 0.017220975383497102 -0.045588498600766414 0 0.018362750513118302 -0.044769464365907494 0 0.015202472837436403 -0.045169802549247767 0 0.016972968367822187 -0.044225573236350776 0 0.017220975383497102 -0.045588498600766414 0 0.014138104629760666 -0.046616826377234744 0 0.015202472837436403 -0.045169802549247767 0 0.015986689320493377 -0.046732598207653658 0 0.015202472837436403 -0.045169802549247767 0 0.017220975383497102 -0.045588498600766414 0 0.015986689320493377 -0.046732598207653658 0 0.014138104629760666 -0.046616826377234744 0 0.015986689320493377 -0.046732598207653658 0 0.01533416542261741 -0.048207645423967466 0 0.017220975383497102 -0.045588498600766414 0 0.015986689320493377 -0.046732598207653658 0 0.017623226255106466 -0.047347193765862119 0 0.015986689320493377 -0.046732598207653658 0 0.017623226255106466 -0.047347193765862119 0 0.016413448696839483 -0.047842506964810468 0 0.017623226255106466 -0.047347193765862119 0 0.017256589107451314 -0.04842580880762385 0 0.018320559185817473 -0.048835937339712206 0 0.017623226255106466 -0.047347193765862119 0 0.017256589107451314 -0.04842580880762385 0 0.016413448696839483 -0.047842506964810468 0 0.017256589107451314 -0.04842580880762385 0 0.016413448696839483 -0.047842506964810468 0 0.016513160915487626 -0.04870625040066838 0 0.01533416542261741 -0.048207645423967466 0 0.016413448696839483 -0.047842506964810468 0 0.016513160915487626 -0.04870625040066838 0 0.015986689320493377 -0.046732598207653658 0 0.01533416542261741 -0.048207645423967466 0 0.016413448696839483 -0.047842506964810468 0 0.02010080163144732 -0.046321745609447601 0 0.02184445397600715 -0.046362172447050175 0 0.020455896738474175 -0.047418682551221447 0 0.017623226255106466 -0.047347193765862119 0 0.019205368442308163 -0.047739025096374205 0 0.018320559185817473 -0.048835937339712206 0 0.017623226255106466 -0.047347193765862119 0 0.019205368442308163 -0.047739025096374205 0 0.019193604006277194 -0.045609469164367485 0 0.017220975383497102 -0.045588498600766414 0 0.017623226255106466 -0.047347193765862119 0 0.019193604006277194 -0.045609469164367485 0 0.02010080163144732 -0.046321745609447601 0 0.019193604006277194 -0.045609469164367485 0 0.021054210288607284 -0.045542295870840563 0 0.019595392802722728 -0.046477533163513864 0 0.019284729150048745 -0.045841415834590074 0 0.020117410387357662 -0.044670151581540869 0 0.019193604006277194 -0.045609469164367485 0 0.018362750513118302 -0.044769464365907494 0 0.020117410387357662 -0.044670151581540869 0 0.019193604006277194 -0.045609469164367485 0 0.021054210288607284 -0.045542295870840563 0 0.017220975383497102 -0.045588498600766414 0 0.019193604006277194 -0.045609469164367485 0 0.018362750513118302 -0.044769464365907494 0 0.016972968367822187 -0.044225573236350776 0 0.018362750513118302 -0.044769464365907494 0 0.018794529876186905 -0.043861157162856469 0 0.020117410387357662 -0.044670151581540869 0 0.018362750513118302 -0.044769464365907494 0 0.018794529876186905 -0.043861157162856469 0 0.020117410387357662 -0.044670151581540869 0 0.018794529876186905 -0.043861157162856469 0 0.020495254616465976 -0.043553254571773399 0 0.020117410387357662 -0.044670151581540869 0 0.020495254616465976 -0.043553254571773399 0 0.022061787369780671 -0.044385547195486617 0 0.020970698635575588 -0.04377783916337151 0 0.021936597565368227 -0.044405106032291336 0 0.022762556471359739 -0.043614541377600846 0 0.022061787369780671 -0.044385547195486617 0 0.023080979284007454 -0.044060049986172051 0 0.022762556471359739 -0.043614541377600846 0 0.02139701625607426 -0.043960294435641693 0 0.022061787369780671 -0.044385547195486617 0 0.022061787369780671 -0.044385547195486617 0 0.023080979284007454 -0.044060049986172051 0 0.022711699986366435 -0.044918600685466499 0 0.020117410387357662 -0.044670151581540869 0 0.022061787369780671 -0.044385547195486617 0 0.021054210288607284 -0.045542295870840563 0 0.022061787369780671 -0.044385547195486617 0 0.021054210288607284 -0.045542295870840563 0 0.022711699986366435 -0.044918600685466499 0 0.025039617859173659 -0.043544433113526237 0 0.023911342847179561 -0.043669751159919112 0 0.024052116528310911 -0.044073187487389871 0 0.024536635829022598 -0.043534761113390247 0 0.025039617859173659 -0.043544433113526237 0 0.023911342847179561 -0.043669751159919112 0 0.022762556471359739 -0.043614541377600846 0 0.023911342847179561 -0.043669751159919112 0 0.023080979284007454 -0.044060049986172051 0 0.023911342847179561 -0.043669751159919112 0 0.023080979284007454 -0.044060049986172051 0 0.024052116528310911 -0.044073187487389871 0 0.023080979284007454 -0.044060049986172051 0 0.024052116528310911 -0.044073187487389871 0 0.022711699986366435 -0.044918600685466499 0 0.025039617859173659 -0.043544433113526237 0 0.024052116528310911 -0.044073187487389871 0 0.025015873051055865 -0.044248241970254912 0 0.02611496061089626 -0.045239991255501912 0 0.025015873051055865 -0.044248241970254912 0 0.024042389638653888 -0.04535701641980279 0 0.024052116528310911 -0.044073187487389871 0 0.025015873051055865 -0.044248241970254912 0 0.024042389638653888 -0.04535701641980279 0 0.024052116528310911 -0.044073187487389871 0 0.024042389638653888 -0.04535701641980279 0 0.022711699986366435 -0.044918600685466499 0 0.02611496061089626 -0.045239991255501912 0 0.024042389638653888 -0.04535701641980279 0 0.024993641866423191 -0.046559692441792963 0 0.021054210288607284 -0.045542295870840563 0 0.022711699986366435 -0.044918600685466499 0 0.02184445397600715 -0.046362172447050175 0 0.024042389638653888 -0.04535701641980279 0 0.022711699986366435 -0.044918600685466499 0 0.02184445397600715 -0.046362172447050175 0 0.024042389638653888 -0.04535701641980279 0 0.02184445397600715 -0.046362172447050175 0 0.023276376597729798 -0.047017981649065892 0 0.02010080163144732 -0.046321745609447601 0 0.021054210288607284 -0.045542295870840563 0 0.02184445397600715 -0.046362172447050175 0 0.02184445397600715 -0.046362172447050175 0 0.021666392030749972 -0.047552992496409541 0 0.020455896738474175 -0.047418682551221447 0 0.02184445397600715 -0.046362172447050175 0 0.023276376597729798 -0.047017981649065892 0 0.021666392030749972 -0.047552992496409541 0 0.023276376597729798 -0.047017981649065892 0 0.022432699847559058 -0.048499284876499314 0 0.021666392030749972 -0.047552992496409541 0 0.023276376597729798 -0.047017981649065892 0 0.022432699847559058 -0.048499284876499314 0 0.02458779197435703 -0.048094160573165824 0 0.025431459783821806 -0.036695063900407623 0 0.027537632920434815 -0.036646024049734965 0 0.022432699847559058 -0.048499284876499314 0 0.021666392030749972 -0.047552992496409541 0 0.020647654719487481 -0.048743280100787864 0 0.024042389638653888 -0.04535701641980279 0 0.023276376597729798 -0.047017981649065892 0 0.024993641866423191 -0.046559692441792963 0 0.023276376597729798 -0.047017981649065892 0 0.024993641866423191 -0.046559692441792963 0 0.02458779197435703 -0.048094160573165824 0 0.029770771686926007 -0.036267280834601609 0 0.027537632920434815 -0.036646024049734965 0 0.026812968525624203 -0.047534962682070414 0 0.024993641866423191 -0.046559692441792963 0 0.02458779197435703 -0.048094160573165824 0 0.0327297842197498 -0.025004373755870401 0 0.030591075319106292 -0.025157528124293921 0 0.031377424543487395 -0.026959675810268462 0 0.030591075319106292 -0.025157528124293921 0 0.031377424543487395 -0.026959675810268462 0 0.029460601109731858 -0.027009697395921357 0 0.031518367808362195 -0.028685385609550328 0 0.031377424543487395 -0.026959675810268462 0 0.029460601109731858 -0.027009697395921357 0 0.033221706104090698 -0.02715714490422234 0 0.03281652267205748 -0.028722082286138786 0 0.031377424543487395 -0.026959675810268462 0 0.02821920739986274 -0.025265052904209842 0 0.027349496959364141 -0.026762812093460476 0 0.025637390663636694 -0.025663197350834114 0 0.025431459783821806 -0.036695063900407623 0 0.02277433954180071 -0.038707526910215007 0 0.02821920739986274 -0.025265052904209842 0 0.030591075319106292 -0.025157528124293921 0 0.029460601109731858 -0.027009697395921357 0 0.02821920739986274 -0.025265052904209842 0 0.029460601109731858 -0.027009697395921357 0 0.027349496959364141 -0.026762812093460476 0 0.028541718933171905 -0.028276354790638183 0 0.029460601109731858 -0.027009697395921357 0 0.027349496959364141 -0.026762812093460476 0 0.026608494258605765 -0.028028258611970596 0 0.028541718933171905 -0.028276354790638183 0 0.027349496959364141 -0.026762812093460476 0 0.026608494258605765 -0.028028258611970596 0 0.027349496959364141 -0.026762812093460476 0 0.025759858987369409 -0.027333098005588887 0 0.026608494258605765 -0.028028258611970596 0 0.025343981963987901 -0.028121397707543842 0 0.025759858987369409 -0.027333098005588887 0 0.025759858987369409 -0.027333098005588887 0 0.025344753844868433 -0.02633798900981606 0 0.024696054979347411 -0.027342038390173511 0 0.025343981963987901 -0.028121397707543842 0 0.025759858987369409 -0.027333098005588887 0 0.024696054979347411 -0.027342038390173511 0 0.025424334634668366 -0.022900305889956962 0 0.02277433954180071 -0.038707526910215007 0 0.027349496959364141 -0.026762812093460476 0 0.025759858987369409 -0.027333098005588887 0 0.025637390663636694 -0.025663197350834114 0 0.024254854058354449 -0.02652130964374342 0 0.024696054979347411 -0.027342038390173511 0 0.023110502556675499 -0.026761529597972591 0 0.019661058921851285 -0.050593805170077687 0 0.018592648833004741 -0.050833381215673899 0 0.01889391605092982 -0.050092963185453379 0 0.02277433954180071 -0.038707526910215007 0 0.022233924251721101 -0.038525697105413072 0 0.025344753844868433 -0.02633798900981606 0 0.024254854058354449 -0.02652130964374342 0 0.024696054979347411 -0.027342038390173511 0 0.025343981963987901 -0.028121397707543842 0 0.024696054979347411 -0.027342038390173511 0 0.023897633363663864 -0.027778571244169124 0 0.014594153757791391 -0.025167753406620127 0 0.014918262997295094 -0.038592080584846887 0 0.0065964323455495509 -0.027221740154961128 0 0.0085841306716119697 -0.026987125387438009 0 0.008067281470163213 -0.02982477247727373 0 0.024696054979347411 -0.027342038390173511 0 0.023897633363663864 -0.027778571244169124 0 0.023110502556675499 -0.026761529597972591 0 0.0098599529220263649 -0.027971016248365378 0 0.0085841306716119697 -0.026987125387438009 0 0.008067281470163213 -0.02982477247727373 0 0.011183578939443875 -0.028554871889356424 0 0.0098599529220263649 -0.027971016248365378 0 0.008067281470163213 -0.02982477247727373 0 0.010387948789748023 -0.026630647125551292 0 0.0098599529220263649 -0.027971016248365378 0 0.0085841306716119697 -0.026987125387438009 0 0.010387948789748023 -0.026630647125551292 0 0.010938923558866947 -0.027726004595493441 0 0.0098599529220263649 -0.027971016248365378 0 0.013212160383479016 -0.04659663505725152 0 0.01205841524743906 -0.046809852709126194 0 0.012843371534724772 -0.047427870254709743 0 0.010898812185086065 -0.036856964468140338 0 0.014918262997295094 -0.038592080584846887 0 0.022233924251721101 -0.038525697105413072 0 0.014918262997295094 -0.038592080584846887 0 0.018592648833004741 -0.050833381215673899 0 0.01742961011382432 -0.05103246124336145 0 0.017470273042171358 -0.050149458260655595 0 0.01742961011382432 -0.05103246124336145 0 0.017470273042171358 -0.050149458260655595 0 0.016460557743841267 -0.049700054271466364 0 0.018592648833004741 -0.050833381215673899 0 0.017470273042171358 -0.050149458260655595 0 0.017994168072272849 -0.049672205623086149 0 0.017470273042171358 -0.050149458260655595 0 0.016460557743841267 -0.049700054271466364 0 0.017158020871659282 -0.049305685874380466 0 0.017470273042171358 -0.050149458260655595 0 0.017994168072272849 -0.049672205623086149 0 0.017158020871659282 -0.049305685874380466 0 0.012843371534724772 -0.047427870254709743 0 0.012582763005865886 -0.047994609736838077 0 0.012658017677523739 -0.048043789604778148 0 0.01205841524743906 -0.046809852709126194 0 0.012843371534724772 -0.047427870254709743 0 0.012582763005865886 -0.047994609736838077 0 0.014918262997295094 -0.038592080584846887 0 0.014865641240177389 -0.050899652709958838 0 0.012704617836207625 -0.04772770423172748 0 0.012582763005865886 -0.047994609736838077 0 0.012658017677523739 -0.048043789604778148 0 0.01533416542261741 -0.048207645423967466 0 0.016460557743841267 -0.049700054271466364 0 0.016513160915487626 -0.04870625040066838 0 0.013884422136541638 -0.047481368700914892 0 0.014865641240177389 -0.050899652709958838 0 0.016460557743841267 -0.049700054271466364 0 0.016513160915487626 -0.04870625040066838 0 0.017158020871659282 -0.049305685874380466 0 0.017994168072272849 -0.049672205623086149 0 0.017158020871659282 -0.049305685874380466 0 0.018320559185817473 -0.048835937339712206 0 0.017256589107451314 -0.04842580880762385 0 0.017158020871659282 -0.049305685874380466 0 0.018320559185817473 -0.048835937339712206 0 0.017256589107451314 -0.04842580880762385 0 0.016513160915487626 -0.04870625040066838 0 0.017158020871659282 -0.049305685874380466 0 0.017994168072272849 -0.049672205623086149 0 0.018320559185817473 -0.048835937339712206 0 0.019328636321572785 -0.049289989752867115 0 0.019205368442308163 -0.047739025096374205 0 0.018320559185817473 -0.048835937339712206 0 0.019328636321572785 -0.049289989752867115 0 0.019595392802722728 -0.046477533163513864 0 0.019801369040747072 -0.050626980224530764 0 0.019661058921851285 -0.050593805170077687 0 0.019328636321572785 -0.049289989752867115 0 0.01889391605092982 -0.050092963185453379 0 0.02277433954180071 -0.038707526910215007 0 0.019801369040747072 -0.050626980224530764 0 0.021666392030749972 -0.047552992496409541 0 0.020647654719487481 -0.048743280100787864 0 0.020455896738474175 -0.047418682551221447 0 0.018592648833004741 -0.050833381215673899 0 0.017994168072272849 -0.049672205623086149 0 0.01889391605092982 -0.050092963185453379 0 0.017994168072272849 -0.049672205623086149 0 0.019328636321572785 -0.049289989752867115 0 0.01889391605092982 -0.050092963185453379 0 
</DataArray>
</PointData>
<CellData Scalars="region_id,cross_section_updated," Vectors="" Tensors="stress,">
<DataArray type="Float64" Name="region_id" format="ascii">
5 5 5 5 5 5 5 5 5 6 5 5 5 5 5 6 6 5 5 5 6 5 5 5 5 6 5 5 5 6 6 5 5 5 5 5 5 5 5 6 5 6 5 6 5 5 6 5 5 6 5 5 6 5 5 5 5 6 5 6 5 6 6 5 5 5 6 6 5 5 5 5 5 6 6 5 5 5 6 6 5 5 6 6 5 5 6 5 5 6 6 5 5 5 5 5 5 5 5 5 5 5 5 5 5 6 5 5 5 5 5 5 5 5 5 5 5 5 5 5 5 5 5 5 5 5 5 5 5 5 6 5 5 5 5 5 5 5 5 5 5 5 5 5 6 6 5 6 5 6 5 6 5 6 5 5 6 5 5 5 5 6 5 5 5 6 5 5 6 5 5 5 5 5 5 5 6 5 5 5 5 5 5 6 5 5 5 5 5 5 5 5 5 6 5 5 5 5 6 6 5 5 5 5 5 5 5 5 5 5 5 5 5 5 5 6 5 5 5 5 6 5 5 6 5 5 5 6 5 5 6 5 5 6 5 5 5 6 5 5 5 5 5 5 5 5 5 5 5 6 5 5 5 5 5 5 5 5 5 5 5 5 5 5 5 5 6 5 5 5 5 5 5 5 5 5 5 5 5 5 5 5 6 5 5 5 5 5 5 6 5 5 5 5 5 5 5 5 6 5 5 5 6 5 5 5 5 6 5 5 5 5 5 5 6 5 5 6 5 5 5 5 5 5 5 5 5 6 5 5 6 5 5 6 6 5 6 5 5 5 5 5 5 5 5 5 5 5 5 5 5 5 5 6 5 6 5 5 6 5 6 5 5 5 6 5 5 5 5 5 5 5 5 5 5 5 5 6 5 5 5 5 5 5 5 5 5 5 5 5 5 5 5 5 5 5 5 5 5 5 5 5 5 5 5 6 5 5 5 6 5 6 5 6 5 6 5 5 5 6 5 6 5 5 5 5 5 5 5 5 5 6 5 6 5 5 5 5 5 5 5 5 5 6 6 5 5 5 5 5 5 5 6 5 5 5 5 5 5 6 5 5 6 6 5 5 5 5 5 5 6 5 5 5 5 5 5 5 6 5 5 6 6 5 5 6 5 5 6 5 5 6 5 5 6 6 5 5 5 6 5 5 5 5 6 5 5 5 5 5 5 6 5 5 5 5 5 5 5 5 6 5 5 5 5 5 5 6 5 5 5 5 5 5 5 5 5 5 5 6 5 5 5 6 5 5 5 5 6 5 5 5 5 5 6 5 5 5 5 5 5 5 5 6 5 6 5 6 5 5 5 5 5 5 5 5 5 5 6 5 5 5 5 5 6 5 5 5 5 5 5 5 5 6 5 5 5 5 6 5 5 5 5 5 5 5 6 5 5 5 5 5 5 5 5 5 5 5 5 5 5 6 5 5 6 5 5 5 5 5 5 5 5 5 5 5 5 5 5 5 5 5 5 5 5 6 5 5 5 6 5 5 5 5 5 5 5 5 5 5 5 5 5 5 5 5 5 5 5 5 5 5 5 5 5 5 5 5 5 5 5 5 5 5 5 5 5 5 5 5 5 5 5 5 5 5 5 5 5 5 5 5 5 5 5 5 5 5 5 5 5 5 5 5 5 5 5 5 5 5 5 5 5 5 5 5 5 5 5 5 5 5 5 5 5 5 5 5 5 5 5 6 5 5 6 5 5 5 5 5 6 6 5 5 5 5 5 6 5 5 6 6 5 5 5 5 5 5 5 5 5 5 6 5 5 5 5 6 5 5 5 5 5 5 5 5 5 5 5 5 5 5 5 5 5 5 5 5 5 5 5 5 5 5 5 5 5 5 5 5 5 5 5 5 5 5 5 5 5 5 5 5 5 5 5 6 5 5 5 5 5 5 5 5 5 5 5 5 5 5 5 5 5 5 5 5 5 5 5 5 5 5 5 5 5 5 5 5 5 5 5 5 5 5 5 5 5 5 5 5 5 5 5 5 5 5 5 5 5 5 5 5 5 5 5 5 5 5 5 5 5 5 5 5 5 5 5 5 5 5 5 5 5 5 5 5 5 5 5 5 5 6 5 5 5 5 5 5 5 5 5 5 5 6 5 6 5 5 5 5 5 5 5 5 5 5 5 5 5 5 5 5 5 5 5 5 5 5 5 5 5 5 5 6 5 5 5 5 5 5 5 5 5 5 6 5 5 5 5 5 5 5 5 6 5 5 5 5 5 5 6 5 6 5 6 5 5 6 5 5 5 5 5 5 5 6 5 5 6 6 5 5 5 5 5 5 6 5 5 5 5 5 5 5 5 5 6 5 5 5 5 5 5 5 5 5 5 5 5 5 5 5 5 5 5 5 5 6 5 5 6 5 5 5 5 5 5 5 5 5 5 5 5 5 5 5 5 5 5 5 5 6 5 6 5 5 5 5 5 5 5 5 5 5 6 5 5 6 5 5 5 5 5 6 5 5 5 5 5 6 5 5 5 5 6 5 5 5 5 5 5 6 5 5 5 6 5 5 5 6 5 5 5 5 6 5 5 5 5 5 6 5 5 6 5 5 6 5 5 5 5 5 5 5 5 5 5 5 5 5 5 5 6 5 5 5 5 6 5 5 5 5 5 5 5 5 5 5 5 5 5 5 6 5 5 5 5 5 5 5 5 5 5 5 5 6 5 5 5 5 5 5 5 6 5 5 5 5 5 5 5 5 5 6 5 5 5 5 5 5 5 5 5 5 6 5 6 5 5 6 5 5 5 5 5 6 5 6 5 5 5 5 6 5 5 5 6 6 5 5 6 5 5 5 5 5 5 5 5 5 5 5 5 5 5 6 5 5 5 5 5 5 5 6 6 5 6 6 5 6 5 5 5 5 5 5 5 5 5 6 5 5 5 5 5 5 5 5 5 5 5 5 5 5 5 5 6 5 5 6 5 6 5 5 5 5 5 5 5 5 5 5 5 5 6 5 5 5 5 5 5 5 6 5 6 5 5 5 6 5 5 5 5 5 5 5 5 5 5 5 5 5 5 5 5 5 6 5 5 5 5 5 5 5 6 5 5 5 5 5 5 6 5 5 5 6 5 6 5 5 5 6 5 5 6 5 5 5 6 5 5 5 6 5 6 5 5 5 6 5 5 5 5 6 5 5 5 5 5 5 5 5 5 5 5 5 5 5 5 5 5 5 5 5 5 5 5 5 5 5 5 6 5 5 5 5 5 5 5 6 5 5 5 5 5 5 5 5 5 5 5 5 5 6 5 5 5 5 5 5 6 5 5 5 5 5 5 5 5 6 5 5 5 5 5 6 5 5 5 5 5 6 5 5 5 5 6 5 5 5 5 5 5 5 5 5 5 5 5 5 5 5 5 5 5 5 5 5 5 5 5 5 5 5 5 5 5 5 5 5 5 5 6 6 5 5 5 5 5 5 5 5 6 5 5 5 5 5 5 5 5 5 5 5 6 5 5 5 6 5 5 5 6 5 5 5 5 5 6 5 5 5 5 5 5 5 5 5 6 5 5 5 5 5 5 5 5 5 5 5 5 5 5 6 5 5 6 5 5 5 5 5 5 5 5 5 5 5 5 5 5 5 5 5 5 5 5 5 5 5 5 5 5 5 5 5 5 5 5 5 5 5 5 5 6 5 5 6 5 5 5 5 5 5 5 5 5 6 5 5 6 5 5 5 6 6 6 5 5 5 5 5 5 5 5 5 5 6 5 5 5 5 5 5 5 5 5 5 5 5 5 5 5 5 5 5 6 5 5 5 5 5 5 5 5 6 5 5 5 5 6 5 5 5 5 5 5 6 5 5 5 5 5 5 5 5 5 6 5 5 5 5 5 5 5 5 5 5 5 5 5 6 5 5 6 5 6 6 5 5 5 5 5 5 5 6 5 5 5 5 5 5 5 6 5 5 5 5 5 5 6 6 5 5 6 5 6 5 5 5 5 6 5 5 6 5 6 5 5 5 6 5 5 6 6 5 5 5 6 5 5 5 5 5 5 5 5 6 5 5 5 5 5 5 5 5 5 5 5 5 6 5 6 5 5 5 5 6 5 5 6 5 5 5 5 5 5 5 6 5 5 5 5 6 5 5 6 5 5 6 5 5 5 6 5 5 5 6 5 5 5 5 5 5 5 6 5 5 5 5 5 6 5 5 5 5 5 6 5 5 6 5 6 5 5 5 5 5 5 5 5 5 5 6 5 5 6 5 5 5 5 5 5 5 5 5 5 5 6 6 5 5 5 5 5 5 6 5 5 5 6 5 5 6 5 5 6 5 5 5 5 5 5 5 5 5 5 5 6 5 5 5 5 5 5 5 5 6 5 5 5 5 5 6 5 6 5 5 5 6 5 6 5 5 6 5 5 5 5 5 5 6 5 5 5 5 5 5 5 6 6 5 5 5 5 5 5 5 5 5 5 5 5 5 5 5 6 5 5 5 6 5 5 5 5 5 5 5 5 5 5 5 5 5 5 5 6 5 5 6 5 5 5 5 5 5 5 5 5 5 6 5 5 5 6 5 5 5 5 5 5 5 5 5 5 5 5 5 5 6 5 5 5 6 5 5 5 5 5 5 5 5 6 5 5 5 5 5 5 5 5 5 5 5 5 5 5 5 5 5 5 6 5 5 5 5 5 5 6 5 5 5 5 5 5 5 5 5 5 6 6 5 5 5 6 5 6 5 5 5 5 5 5 5 5 5 5 5 5 5 5 5 5 5 5 6 5 5 5 5 5 5 6 5 5 5 5 5 5 6 5 5 5 5 5 5 5 5 5 5 5 5 5 5 5 5 5 5 5 5 6 5 5 5 5 5 5 5 5 5 5 5 5 5 5 5 5 5 5 5 5 5 5 5 5 5 5 5 5 5 5 5 5 5 5 5 5 5 5 5 5 5 5 5 5 5 5 5 5 5 6 5 6 5 5 5 5 5 5 5 5 5 6 5 5 5 5 6 6 5 5 5 5 5 5 6 5 5 5 5 5 5 6 5 5 5 5 5 5 6 5 5 5 5 5 5 6 5 5 5 5 5 6 6 5 6 5 6 6 5 5 5 5 5 5 6 5 5 5 5 6 5 5 6 5 5 6 5 5 5 5 5 5 5 5 5 5 5 5 5 5 6 6 5 6 5 5 5 5 5 5 5 6 5 5 5 5 5 5 5 5 5 5 5 5 5 5 5 5 5 5 5 5 5 5 5 5 5 5 5 5 5 5 5 6 5 5 5 6 5 5 5 6 5 5 5 5 5 5 5 5 5 5 5 5 5 5 5 5 5 5 5 5 5 5 5 5 5 5 5 5 5 5 5 6 5 5 5 5 5 5 5 5 5 6 5 5 5 6 5 5 5 5 5 5 5 5 5 6 6 5 5 5 5 5 5 5 5 5 5 5 5 5 5 5 6 5 5 5 5 5 5 5 5 5 5 5 5 5 5 5 5 5 5 5 5 5 5 5 5 5 5 5 5 5 5 5 5 5 5 5 5 5 5 6 5 5 6 5 5 6 5 5 5 5 6 5 5 5 5 5 5 5 5 5 5 5 5 6 5 5 5 5 5 5 5 5 5 5 5 5 5 5 5 5 6 5 5 5 5 5 5 5 5 5 5 5 5 6 5 5 5 5 5 6 5 5 6 5 5 5 5 5 6 5 6 6 5 5 5 5 5 6 5 5 5 5 5 5 5 5 6 5 5 5 5 5 5 5 5 5 5 5 5 5 5 5 5 5 5 5 5 5 6 6 5 5 5 5 5 5 5 5 5 6 5 5 5 5 5 5 5 5 5 6 5 5 5 5 5 5 5 5 5 5 5 6 5 5 5 5 5 5 5 5 5 6 6 5 5 5 5 5 5 6 5 5 5 5 6 5 5 5 5 6 5 6 5 5 5 5 5 6 6 5 6 5 5 5 5 6 5 5 5 5 5 5 5 5 5 5 5 5 5 5 5 6 5 5 5 5 5 5 6 5 5 5 6 5 5 5 5 5 5 5 5 5 5 5 5 6 5 5 5 5 5 5 6 5 5 5 6 5 6 5 6 5 5 5 5 5 5 5 6 5 5 5 5 5 6 5 5 5 5 5 5 5 5 6 5 5 6 5 5 5 6 6 6 5 5 6 5 5 5 5 5 6 5 5 6 5 6 5 5 5 6 6 5 5 5 5 5 5 5 5 5 5 5 5 5 5 5 6 5 5 6 5 5 5 5 5 5 5 5 5 5 5 5 6 5 5 5 5 5 6 5 5 5 5 5 5 5 5 6 5 5 5 5 5 5 5 5 5 5 5 5 6 5 5 6 5 5 5 5 5 5 5 5 5 5 5 5 5 5 5 5 5 5 5 5 5 6 5 6 5 5 6 6 5 5 5 5 5 6 5 6 5 5 6 6 6 6 5 5 5 5 5 5 5 5 6 5 5 5 6 6 5 5 5 5 6 5 5 5 5 5 5 5 5 5 5 5 5 5 5 6 5 5 5 6 5 5 5 6 5 6 5 5 5 6 5 5 6 5 5 5 5 5 5 5 5 5 5 5 5 5 5 6 5 6 5 5 5 5 5 5 5 5 5 6 6 5 6 5 5 6 5 5 5 6 5 5 6 6 5 5 6 5 5 5 5 5 6 5 5 5 5 5 5 5 5 5 5 5 5 5 5 5 5 5 5 5 5 5 5 5 5 5 5 5 5 5 5 5 5 5 6 5 5 6 5 5 5 5 5 5 5 5 5 5 5 6 5 5 5 5 5 6 5 5 6 5 5 5 6 5 5 5 5 6 5 5 5 5 5 5 5 6 5 5 5 5 5 5 5 5 5 5 6 5 6 5 5 6 5 5 6 5 5 5 5 6 5 6 5 5 5 5 5 5 6 5 5 5 5 5 6 5 5 6 5 6 5 5 5 6 6 6 5 5 5 6 5 5 5 6 5 5 5 5 6 5 5 5 5 5 5 5 5 6 5 5 5 5 5 6 5 5 5 5 5 5 5 5 6 5 5 6 6 5 5 5 5 5 5 6 5 6 6 5 5 5 5 5 5 6 5 5 5 5 5 5 5 5 5 5 6 5 5 5 5 5 5 6 5 5 6 5 5 5 5 5 5 5 5 5 5 5 5 5 5 5 5 6 5 5 5 5 5 5 5 5 5 5 5 5 6 5 5 5 5 5 5 5 5 5 5 5 5 5 5 5 5 5 5 5 5 5 5 5 5 5 5 5 5 5 5 5 5 6 6 5 5 5 5 5 5 6 5 5 5 5 5 5 6 5 5 5 5 5 5 5 5 5 6 5 5 5 6 5 6 5 5 5 6 5 5 5 5 5 5 6 5 5 5 5 5 5 5 5 5 5 5 5 6 5 5 5 5 5 5 6 5 5 5 6 5 6 5 5 5 5 5 5 5 5 5 5 5 5 5 5 5 6 5 5 5 5 5 6 5 5 5 5 5 5 5 5 5 5 5 6 6 5 6 5 5 5 6 5 5 5 5 5 5 5 5 5 6 6 6 5 5 5 5 5 5 5 6 5 5 6 5 5 6 5 5 5 6 5 5 5 6 5 5 5 5 5 5 5 5 5 5 5 5 5 5 5 5 5 5 5 5 5 5 5 6 5 5 5 5 5 5 6 5 5 5 5 5 5 5 6 5 5 5 5 5 5 5 5 5 5 5 5 5 6 5 5 5 5 5 5 5 6 5 5 5 5 5 5 5 5 5 6 5 5 5 5 6 5 5 5 5 5 5 5 5 5 5 5 6 6 5 5 5 5 5 6 5 6 5 5 5 6 5 5 5 6 5 5 5 5 6 5 5 6 5 6 5 6 5 5 5 6 5 5 6 5 5 5 5 5 6 5 5 6 6 5 5 5 6 5 5 6 5 6 5 5 5 6 5 5 5 6 5 5 6 6 5 5 5 5 5 5 5 5 5 5 6 5 5 5 5 5 5 5 6 5 5 5 5 5 5 5 6 5 5 5 5 5 5 5 5 5 5 5 5 5 5 5 5 6 5 5 5 5 5 5 6 5 5 6 5 5 5 5 5 5 5 5 5 5 5 5 5 5 5 5 6 5 5 6 5 5 5 5 5 5 6 5 5 6 5 5 5 5 5 5 5 5 5 5 5 6 5 5 5 5 6 5 5 6 5 6 5 5 5 5 5 5 5 5 6 5 5 5 5 5 5 5 5 6 5 5 5 5 5 6 5 5 5 5 5 5 5 5 5 5 5 5 5 5 5 5 5 5 6 5 5 5 5 5 5 5 5 5 6 5 5 5 5 5 5 5 5 5 5 5 5 5 5 5 5 5 5 5 5 5 6 5 5 5 5 5 5 5 5 5 5 5 6 5 5 5 5 6 6 5 5 5 5 6 6 5 6 6 5 6 5 5 5 6 6 6 5 6 5 5 5 5 5 6 5 5 6 5 6 5 5 6 5 5 5 5 5 5 5 5 5 5 5 5 5 5 6 5 5 5 5 5 5 5 5 5 5 5 5 5 5 5 5 5 5 5 5 5 6 5 5 5 5 5 6 5 5 6 5 5 5 5 5 5 5 5 5 5 6 5 5 6 5 6 5 5 5 6 5 6 5 5 5 6 5 5 6 5 5 5 5 5 5 5 5 5 5 5 5 5 5 6 5 6 5 5 6 5 5 5 5 5 5 5 5 5 5 5 5 5 5 5 5 5 6 6 5 5 5 5 5 5 5 5 5 5 5 5 5 5 5 5 6 5 5 5 5 5 5 5 5 5 5 5 5 5 5 5 5 6 6 5 5 5 5 5 5 5 5 5 5 5 5 5 6 5 5 5 5 5 5 5 5 5 5 5 5 5 5 5 6 6 5 5 5 5 5 5 5 5 5 5 5 5 5 5 5 5 5 5 5 5 5 5 5 5 5 5 5 5 6 6 5 5 5 5 5 6 5 5 5 5 5 5 5 6 5 5 5 5 5 6 6 5 5 5 5 5 6 5 5 5 5 5 5 5 6 5 5 6 5 5 5 5 5 5 5 5 5 5 5 5 5 5 5 6 5 5 5 5 5 5 5 5 5 5 5 5 5 5 5 5 5 5 5 6 5 5 5 5 6 5 6 5 5 5 5 5 5 5 5 5 5 5 5 5 5 5 5 5 5 5 5 5 6 5 5 5 5 5 5 5 5 6 5 6 6 5 5 5 5 5 5 5 6 5 5 5 6 5 5 6 5 5 5 5 5 6 5 5 5 6 5 5 6 5 5 5 6 5 5 5 5 5 5 5 6 5 5 5 5 5 5 5 5 5 5 5 5 5 6 5 6 5 5 5 5 5 6 5 5 6 5 5 5 5 6 5 5 5 5 5 5 5 5 5 5 5 5 5 5 5 5 5 5 5 5 5 5 5 5 5 5 5 6 5 5 5 6 5 5 5 5 5 5 5 5 5 5 5 5 5 5 5 5 5 5 5 5 5 5 5 5 5 5 5 5 5 5 5 5 6 5 5 5 5 5 5 5 5 5 5 5 5 5 5 5 5 5 5 5 5 6 5 5 5 6 5 5 5 6 6 5 5 5 6 5 5 5 5 6 5 5 5 5 5 5 5 5 5 5 5 5 5 5 5 5 5 5 5 5 5 5 5 5 5 5 5 5 5 5 5 5 5 5 5 5 5 5 5 5 5 5 5 5 5 5 5 5 5 5 5 5 5 5 5 5 5 5 6 5 5 5 5 6 5 5 5 5 5 5 5 5 5 5 5 5 5 5 5 5 5 5 5 5 6 5 6 5 5 5 6 5 5 6 5 5 5 6 6 5 5 5 5 5 5 5 5 5 5 5 5 5 6 5 6 5 5 5 5 5 5 5 6 5 5 5 5 6 6 5 5 5 6 5 5 6 6 5 5 6 5 6 5 5 5 5 5 5 6 5 5 6 5 5 6 5 5 5 6 5 5 5 5 5 5 5 5 5 5 5 6 5 5 5 5 6 5 5 5 5 6 5 5 5 5 6 5 5 5 5 5 5 6 5 5 5 5 5 5 6 6 5 5 5 5 5 6 5 5 5 5 6 5 5 5 6 5 6 6 6 5 5 5 6 5 5 5 5 5 5 5 5 6 5 5 5 5 5 5 5 5 5 5 5 6 5 5 5 6 5 5 5 5 5 6 6 6 5 6 5 6 5 5 5 5 5 6 5 5 5 5 5 5 5 5 5 5 5 5 5 5 5 5 5 5 5 5 6 5 5 5 5 5 5 5 6 5 6 5 5 5 6 5 5 5 5 5 5 5 5 5 6 6 5 5 5 5 5 6 5 5 5 5 6 5 5 5 5 5 5 5 6 5 5 5 5 6 5 5 5 5 5 5 5 5 5 5 5 5 5 5 5 5 5 5 5 5 6 5 5 6 5 5 5 5 5 5 6 5 5 5 5 5 5 5 6 5 5 5 5 5 6 5 5 5 5 6 5 5 5 5 5 6 5 5 5 5 5 5 6 5 6 6 5 5 6 5 6 6 5 6 5 5 6 5 5 5 5 5 5 6 6 5 6 5 5 6 5 5 5 5 6 5 5 5 5 5 5 5 6 5 6 5 6 5 5 5 5 6 5 5 6 5 5 5 5 5 5 5 5 5 6 5 5 5 5 5 5 5 6 5 6 5 5 5 5 5 5 5 5 5 5 6 5 5 6 5 5 5 5 6 6 5 6 6 5 5 6 6 5 5 5 6 5 5 5 5 5 5 5 5 6 5 5 5 5 5 5 5 6 5 5 6 5 5 5 6 5 6 5 5 5 5 6 6 6 5 5 5 5 5 5 5 5 5 5 5 5 5 5 5 5 5 5 5 5 5 5 5 5 5 5 5 5 5 6 5 5 6 5 6 6 5 5 6 5 6 5 5 6 5 5 5 5 5 5 5 5 6 5 5 5 5 6 5 5 5 5 5 5 5 5 6 5 5 5 5 5 5 5 5 5 5 5 6 6 5 5 5 5 5 6 5 5 5 5 6 6 5 5 5 5 5 5 5 5 5 5 5 6 5 5 5 5 5 5 5 5 6 5 6 6 5 5 6 5 5 6 5 5 6 5 5 5 5 5 5 5 5 5 5 5 6 5 5 6 5 5 5 5 5 5 5 5 5 5 5 5 5 5 5 5 5 5 6 5 5 6 5 5 5 6 5 5 6 5 5 5 5 5 6 6 5 5 6 5 6 5 5 5 5 5 5 5 5 5 5 5 5 5 5 5 5 5 5 5 5 5 5 5 5 5 5 5 5 5 5 6 5 5 5 5 6 5 5 5 5 5 5 5 5 5 5 5 5 5 5 5 6 5 6 5 5 5 5 5 5 5 5 6 5 5 5 5 6 5 6 5 5 5 5 5 5 5 5 5 5 5 5 5 5 5 5 5 5 5 5 5 5 5 6 5 5 5 5 5 5 5 5 6 5 5 5 6 5 5 6 6 5 5 5 5 5 5 6 5 5 5 6 6 5 6 6 5 6 5 5 5 6 5 5 5 5 5 5 6 5 6 5 5 5 6 5 6 6 5 6 5 5 5 5 5 5 5 5 5 5 5 5 5 5 6 5 5 5 5 5 5 6 5 5 5 5 5 5 5 6 5 5 5 6 5 5 5 5 5 5 5 5 5 5 5 5 5 5 5 5 5 5 5 5 5 5 5 5 5 5 5 5 6 5 5 5 5 5 5 5 5 6 5 5 5 5 6 5 5 6 5 5 6 5 5 5 6 6 5 6 5 5 5 6 5 5 5 5 5 5 5 5 6 5 6 5 5 5 5 5 5 5 5 5 5 5 6 5 5 5 6 5 5 6 5 5 5 5 5 6 5 5 5 5 5 5 5 5 5 5 5 5 5 5 5 5 5 5 5 5 6 5 5 6 5 6 5 6 5 5 5 5 6 6 5 5 6 6 5 5 6 5 5 5 6 5 6 5 5 5 6 5 5 5 5 5 5 5 5 6 5 5 5 5 6 5 5 5 5 5 5 5 5 6 5 5 5 5 5 5 5 6 5 6 5 5 5 6 5 5 5 5 5 6 5 6 5 6 5 5 6 5 5 5 5 5 5 5 5 6 5 5 5 5 5 5 5 5 5 5 5 6 5 6 5 5 5 5 5 5 5 5 5 5 5 5 6 5 5 5 5 5 5 5 5 5 5 5 5 6 5 5 5 5 5 6 6 5 6 6 6 5 5 5 5 5 5 5 6 5 5 5 5 6 5 5 5 5 5 5 5 5 5 5 5 5 5 5 5 5 5 5 5 5 5 5 5 5 5 5 6 5 5 5 5 5 5 5 5 5 5 5 5 5 5 5 5 5 5 5 5 5 5 6 5 5 5 5 5 6 5 6 5 5 5 5 5 5 6 5 5 5 5 5 5 5 5 5 5 5 5 5 5 5 5 5 5 5 5 5 5 6 5 5 5 6 5 5 5 5 5 5 5 5 5 5 5 5 5 5 5 5 5 5 6 6 5 5 5 5 6 5 5 5 5 6 5 5 6 5 5 5 5 5 5 5 6 5 5 5 5 6 5 5 5 5 5 6 5 5 5 5 5 5 5 5 5 5 5 5 5 5 5 5 5 5 5 5 5 5 6 5 5 6 5 5 5 5 5 5 6 6 6 5 5 5 5 5 5 5 5 5 5 5 6 5 5 5 6 5 5 5 5 5 5 6 5 5 5 5 6 6 5 5 6 5 5 6 5 5 5 5 5 5 5 5 5 6 5 5 5 5 5 5 5 5 5 5 6 5 5 6 5 6 6 5 6 5 5 5 5 5 5 6 5 5 5 5 5 5 5 5 6 5 5 5 5 5 5 5 5 5 5 6 5 5 6 5 5 5 6 5 5 5 5 5 5 5 5 5 5 5 5 5 6 5 6 5 6 5 5 5 5 5 5 5 5 5 6 5 5 5 6 5 5 6 5 5 5 5 5 5 5 5 5 5 5 5 5 5 5 5 5 5 5 5 5 5 5 5 5 6 5 5 5 6 6 5 6 5 5 5 5 5 5 5 5 5 5 6 5 5 6 6 5 6 5 5 6 5 6 5 5 5 5 5 5 6 5 5 5 6 5 5 6 5 5 6 5 5 5 6 5 5 5 5 5 5 6 5 5 5 6 5 5 6 5 5 5 5 5 5 5 6 5 5 5 5 6 6 5 5 5 5 6 6 6 6 5 5 5 5 5 5 5 5 5 5 5 6 5 5 5 6 5 6 6 6 5 5 5 5 5 6 5 5 5 6 5 5 5 5 5 5 6 5 5 6 5 5 5 6 5 5 6 5 5 6 5 6 5 6 5 5 6 5 5 6 5 5 6 5 5 5 6 5 5 5 5 5 5 5 5 6 6 5 6 5 5 5 5 6 5 5 6 5 5 5 6 5 5 5 5 6 6 5 5 5 5 5 5 5 5 5 5 5 5 5 6 5 5 5 5 5 5 5 6 5 5 5 6 6 5 5 5 5 5 6 5 5 5 5 5 5 5 5 5 6 5 5 5 6 5 5 6 5 5 5 5 6 5 5 6 5 5 5 5 5 5 5 5 5 5 5 5 5 5 5 5 5 5 5 5 6 5 5 5 5 5 5 5 6 5 5 5 6 6 6 5 5 6 5 5 5 5 6 5 5 5 6 5 6 5 5 5 6 5 5 5 5 5 6 5 5 5 5 6 5 6 5 5 5 5 6 5 5 5 5 5 5 5 5 5 5 5 6 5 5 5 5 5 5 5 5 5 5 5 6 5 5 5 6 5 5 5 5 5 5 5 5 5 5 5 5 5 5 5 5 5 5 5 5 5 5 5 6 6 5 5 5 5 6 5 6 5 5 5 5 5 6 5 5 5 5 5 6 5 6 5 6 5 6 5 6 5 5 5 5 5 5 6 5 5 5 5 5 5 6 5 5 5 5 5 5 5 5 5 6 5 5 5 5 6 5 5 5 5 5 5 5 6 5 5 5 5 6 5 5 5 6 5 5 5 6 5 5 5 5 5 5 5 5 5 5 6 6 5 5 6 5 5 5 6 6 5 5 5 5 6 5 5 6 5 5 5 5 5 5 5 5 5 5 5 5 5 5 5 5 5 5 5 5 5 5 5 5 5 5 5 5 5 5 5 5 5 5 5 5 5 5 5 5 6 5 5 6 5 5 5 5 5 5 5 5 5 5 5 5 5 5 5 5 5 6 5 5 5 6 5 5 5 5 5 5 5 5 5 5 5 5 6 5 5 5 5 5 5 5 5 6 5 5 5 5 5 5 5 5 5 5 5 5 5 5 5 5 5 5 5 6 6 5 5 5 5 5 5 5 5 5 5 5 5 5 5 5 5 5 5 5 5 5 6 5 5 5 5 5 5 5 5 5 5 5 5 5 5 5 5 5 5 5 5 5 5 5 5 5 5 5 5 5 5 5 5 5 5 5 5 5 5 5 5 5 5 5 5 5 5 5 5 5 5 5 5 5 5 5 5 5 5 5 6 5 5 5 5 5 5 6 6 5 5 5 5 5 5 5 5 5 5 5 5 5 5 5 5 5 5 5 5 5 5 5 5 5 5 5 5 5 5 5 5 5 5 5 5 5 5 5 5 5 5 5 5 5 5 5 5 5 5 5 5 5 5 5 6 5 5 5 5 5 5 5 6 5 5 5 5 5 5 6 5 5 5 5 5 5 5 5 6 5 5 5 6 5 5 5 5 6 5 5 5 6 5 5 5 6 5 5 5 5 6 6 5 5 5 5 5 5 5 5 5 5 5 5 5 5 5 5 5 5 6 5 5 5 5 5 5 5 5 5 5 6 6 5 5 6 6 5 5 5 5 6 5 5 5 5 6 5 5 6 5 5 5 5 5 5 5 5 5 5 5 5 5 5 5 5 5 5 5 5 5 5 5 5 5 5 6 5 5 6 5 6 6 5 5 5 5 5 5 5 5 5 6 6 5 5 5 5 5 5 5 5 5 6 5 5 5 5 5 5 6 6 5 5 5 5 5 5 5 6 5 5 5 5 5 5 5 5 5 6 5 5 5 5 5 5 6 6 5 5 5 5 5 5 5 5 5 5 6 5 5 5 6 5 5 5 6 5 5 5 5 5 5 5 5 5 5 5 5 6 5 5 5 5 5 5 6 5 5 5 5 6 5 5 6 5 6 5 5 5 5 5 5 5 5 5 5 5 5 6 5 5 5 5 5 5 5 5 5 5 5 5 6 5 6 5 5 6 5 5 5 5 5 5 5 5 5 5 5 6 6 5 5 5 5 6 5 5 5 5 5 5 5 5 5 5 5 5 5 5 5 5 6 5 5 5 5 5 6 5 5 5 5 5 5 5 5 5 6 5 5 5 5 5 5 5 5 5 5 5 5 5 5 5 5 5 6 5 6 5 5 5 6 5 5 5 5 5 5 5 5 5 5 5 6 5 6 5 5 5 5 5 5 6 5 6 5 5 5 5 5 5 5 5 6 5 5 5 5 5 5 5 5 5 5 5 5 5 6 5 5 5 6 5 6 5 5 5 5 6 5 6 5 6 5 5 5 5 5 5 5 5 5 5 5 5 5 5 5 5 5 5 5 5 5 5 5 6 5 5 5 5 5 5 6 5 5 6 5 5 5 5 6 5 5 5 5 5 5 5 5 5 5 5 5 5 5 5 6 5 5 5 5 5 5 5 6 5 5 5 5 6 5 5 5 5 6 6 6 5 6 5 5 5 6 5 5 5 5 5 6 5 5 6 5 5 5 5 5 5 6 5 5 5 5 5 5 5 5 5 6 5 5 5 5 5 5 5 5 5 5 5 5 6 5 5 5 5 5 5 5 5 5 5 5 6 5 5 5 5 5 5 5 5 5 5 6 5 5 5 5 5 5 5 5 5 5 5 5 5 5 5 5 5 5 5 5 5 5 5 6 5 5 6 5 5 6 5 5 5 5 5 6 5 5 5 5 5 5 5 5 5 5 5 5 5 5 5 5 5 5 5 5 5 5 5 5 5 5 5 5 5 5 5 5 5 5 5 5 6 5 6 5 5 5 6 5 5 5 5 5 5 5 6 5 6 5 5 5 5 6 5 5 5 5 6 5 5 5 5 5 6 6 6 5 5 5 5 5 5 5 6 5 5 5 5 5 5 5 5 5 5 6 5 5 6 5 5 5 5 5 5 5 5 5 5 5 6 5 5 5 5 5 5 5 5 5 5 5 5 5 5 5 5 5 5 5 6 5 5 5 5 6 5 5 5 5 5 5 5 6 5 5 5 5 6 5 5 5 5 5 5 6 5 5 5 5 5 5 6 5 5 5 5 5 6 5 5 5 5 5 6 5 5 5 5 5 5 6 5 5 5 5 5 5 5 5 5 5 6 5 5 6 5 5 6 6 5 5 5 5 6 5 5 5 5 5 5 5 5 5 6 5 5 5 5 5 5 5 5 5 5 5 5 5 5 5 5 5 6 5 5 5 6 5 5 5 5 5 5 5 5 5 5 5 6 5 5 5 5 6 5 5 5 5 5 5 5 5 6 5 5 5 5 6 5 5 5 5 5 5 5 5 5 5 5 6 5 5 5 5 6 5 6 6 5 5 5 5 6 6 5 5 6 6 5 5 6 5 5 5 5 5 5 5 5 5 5 5 5 5 5 5 5 5 5 5 6 5 5 5 5 5 5 5 5 5 5 5 5 5 5 5 5 5 5 6 5 5 5 6 5 5 5 5 5 5 5 6 5 5 5 5 5 5 5 5 6 5 5 5 5 5 5 6 5 5 5 5 5 5 5 5 5 6 6 5 5 5 5 5 5 5 5 5 6 5 5 5 5 5 5 6 5 5 5 5 5 5 5 5 5 5 5 5 5 5 5 5 5 5 5 5 5 5 5 5 5 5 5 5 5 5 5 6 5 5 5 5 5 6 5 6 5 6 5 5 6 5 5 6 6 5 6 6 6 6 5 5 5 5 5 5 5 6 5 5 6 5 5 5 5 5 5 5 5 5 5 5 5 5 5 5 5 5 5 6 5 5 5 6 5 5 5 5 6 5 5 6 5 6 5 5 6 5 5 6 5 5 5 5 5 5 5 6 5 5 5 5 5 5 5 5 5 5 5 5 5 5 5 5 5 5 5 5 5 6 5 5 5 5 5 5 6 5 5 6 5 5 5 6 5 6 5 5 6 5 5 5 5 5 5 5 6 5 6 5 5 5 6 5 6 5 5 5 5 5 5 5 5 5 5 6 5 5 5 5 6 5 5 5 5 6 5 5 5 6 5 5 6 5 5 5 5 5 5 5 5 5 5 5 5 6 5 5 5 5 5 5 5 5 5 5 5 5 5 5 5 5 5 5 5 5 6 5 5 5 6 5 6 6 5 6 5 5 5 6 5 5 5 5 5 5 5 6 5 5 5 5 5 5 5 5 5 5 5 6 5 5 5 6 5 5 6 5 5 5 5 5 5 5 5 5 5 5 5 5 5 5 5 5 5 5 5 5 5 5 5 5 5 5 5 5 5 5 5 5 5 5 5 5 5 5 5 6 5 5 5 5 5 5 5 5 5 5 5 6 6 5 5 5 5 6 5 5 6 5 5 5 5 5 5 5 5 5 5 5 5 5 5 5 5 5 5 5 5 5 5 5 5 5 5 5 5 5 5 5 5 5 5 5 5 5 5 5 5 5 5 5 5 5 5 5 5 5 5 5 5 5 5 5 5 5 5 5 5 5 5 5 5 5 5 5 5 5 6 5 5 6 5 6 5 5 5 5 5 5 6 5 5 5 5 5 6 5 6 5 5 5 5 5 5 5 5 5 6 6 5 5 5 5 5 5 5 6 5 5 5 6 6 5 5 5 6 5 5 6 6 5 5 5 6 6 5 6 5 5 5 5 5 5 5 5 5 5 5 5 5 5 5 5 5 5 5 5 6 5 5 5 5 5 5 5 5 5 5 5 6 5 5 5 5 5 6 5 5 6 5 5 5 5 5 5 5 5 5 5 5 5 6 5 5 5 5 5 5 5 5 5 5 5 6 5 5 5 5 5 5 5 5 5 5 5 5 5 5 5 6 5 5 5 5 5 5 6 5 5 5 6 5 5 5 5 5 5 5 6 5 5 5 5 5 6 6 5 5 5 6 5 5 5 6 5 5 5 5 5 5 5 5 5 5 5 5 5 5 6 5 5 5 5 5 5 6 5 5 5 5 6 5 5 5 6 5 5 5 5 6 6 6 5 5 5 5 6 5 5 5 5 6 5 5 5 5 5 5 5 6 5 5 5 5 5 5 5 5 5 5 5 5 5 5 5 5 5 5 5 5 5 5 5 5 5 5 5 5 6 5 5 5 6 5 5 6 5 6 5 5 5 5 5 5 5 5 5 6 5 5 5 5 6 6 5 5 5 5 5 5 5 5 5 5 5 5 5 5 5 5 5 5 5 6 6 5 5 5 6 5 5 5 5 6 6 5 5 5 5 5 5 5 5 5 5 5 5 6 6 5 5 5 5 6 5 5 5 5 5 5 5 5 5 5 5 6 5 5 5 5 5 5 5 5 6 5 5 5 5 5 5 5 5 5 5 5 5 5 5 5 5 5 5 5 5 5 5 5 5 5 5 5 5 5 5 5 5 5 6 5 6 5 5 5 5 5 5 5 5 5 6 5 5 5 5 5 5 5 5 6 5 5 5 5 5 6 5 5 5 5 5 5 5 5 5 6 5 5 5 6 5 5 5 5 5 5 5 5 5 5 5 5 5 5 5 5 5 5 5 5 5 5 5 5 5 5 5 5 5 5 5 5 6 5 5 5 5 5 5 5 6 5 5 5 5 5 5 6 5 5 5 5 5 5 6 5 5 5 5 5 5 5 5 5 5 5 5 5 5 5 6 5 5 5 6 5 5 5 5 5 5 5 5 5 5 6 6 5 5 5 5 5 5 5 5 5 5 5 5 6 5 5 5 5 5 5 5 5 5 5 5 5 5 5 5 5 5 5 6 5 5 5 6 6 5 6 5 5 5 5 5 5 5 6 6 5 6 5 5 5 5 5 5 6 5 6 5 5 5 5 5 5 5 5 6 5 5 5 5 5 5 6 5 5 5 5 5 5 5 5 5 5 5 5 5 5 5 6 5 5 5 6 5 5 5 5 5 6 5 5 5 5 5 5 6 5 5 5 6 5 5 6 5 5 5 6 5 5 5 5 5 5 5 5 5 5 5 5 5 5 5 5 5 5 5 5 5 5 5 6 5 5 6 5 6 6 5 5 6 6 5 5 6 5 5 5 5 5 5 6 5 5 5 5 6 5 5 6 5 5 6 5 6 6 5 5 5 6 6 5 5 5 5 6 6 5 5 5 5 5 6 5 5 5 5 5 5 5 5 5 5 5 5 5 5 5 5 5 5 5 5 5 5 5 5 5 5 5 5 5 5 5 5 5 5 5 5 5 5 5 5 5 5 5 5 5 5 5 5 5 5 5 5 5 6 5 5 5 5 5 6 5 5 5 5 5 5 5 5 5 5 5 5 5 5 5 6 5 5 6 6 5 5 5 6 5 5 6 5 5 5 5 5 5 5 5 6 5 5 5 5 5 5 5 5 5 5 5 5 5 6 5 5 5 5 5 5 5 5 5 6 5 5 5 6 5 5 5 5 5 5 5 5 6 5 5 5 5 5 5 5 5 5 5 5 5 5 5 5 5 5 5 5 5 5 5 5 5 5 5 5 5 5 5 5 5 5 5 6 5 5 5 5 5 6 5 5 5 5 5 5 5 5 5 5 5 5 5 5 5 5 5 5 5 5 5 5 5 5 5 5 5 5 5 5 5 5 5 5 5 5 5 5 5 5 5 6 5 5 5 6 5 5 5 5 5 5 5 5 5 5 5 5 5 5 5 5 5 5 5 5 5 5 5 5 5 5 5 5 5 5 5 5 6 5 5 5 5 5 5 5 6 5 5 5 5 5 5 5 5 5 5 5 5 6 5 6 5 5 5 5 5 5 5 5 5 5 5 5 5 5 5 5 5 5 5 5 6 5 5 5 6 5 5 5 6 6 5 5 6 5 5 5 5 6 5 5 5 5 5 5 5 5 5 5 5 5 5 5 5 5 5 5 5 5 5 5 5 5 5 5 5 5 5 5 5 5 5 5 5 6 5 5 5 5 5 5 5 5 5 5 5 5 5 5 6 5 5 5 5 5 5 5 5 5 5 5 5 5 5 5 5 5 5 5 5 5 5 5 5 5 5 5 5 5 5 5 5 5 5 5 6 5 5 5 5 5 5 5 5 5 5 5 5 5 5 6 5 5 5 5 5 5 5 6 5 5 5 6 5 5 5 5 5 5 5 6 5 5 5 5 5 6 5 5 5 5 5 5 5 5 5 5 5 5 5 5 5 5 5 5 5 5 5 5 6 5 5 5 5 5 5 5 5 5 5 5 5 5 5 5 5 5 5 6 5 5 6 5 5 5 5 5 5 6 5 5 5 6 5 5 5 5 5 5 5 5 5 5 5 5 5 6 5 5 5 6 5 5 6 5 5 6 5 5 6 5 6 5 5 5 5 5 5 5 5 5 5 5 6 6 5 5 5 5 5 5 6 5 6 5 5 5 6 5 6 5 5 5 5 5 5 5 6 5 5 5 6 5 5 5 5 6 5 5 5 5 5 6 5 5 6 5 5 5 5 5 5 5 5 5 5 5 5 5 5 5 6 5 5 5 5 5 5 5 6 5 5 5 5 5 5 5 5 5 5 5 5 5 5 6 5 5 5 5 5 5 5 5 6 5 6 5 5 5 5 5 5 5 5 5 5 5 5 5 5 5 6 5 5 5 5 5 5 5 5 5 5 5 5 5 5 5 5 5 5 5 5 5 5 5 5 5 5 5 5 6 5 5 5 5 5 5 5 5 5 5 5 5 5 5 5 5 5 5 5 5 5 5 5 5 5 5 5 5 5 6 5 5 5 5 5 5 5 5 5 5 5 5 5 5 5 5 5 5 5 5 5 5 5 5 5 5 5 5 5 5 5 5 5 6 5 5 5 5 5 5 5 5 5 5 5 5 5 5 5 5 5 5 6 5 5 5 5 5 5 5 5 5 5 5 5 5 6 5 5 5 5 6 5 5 5 6 5 5 5 5 5 5 5 5 5 5 5 5 5 5 6 5 5 5 5 5 5 5 5 6 5 5 5 5 6 5 5 5 6 5 5 5 5 5 5 5 5 5 5 6 5 5 5 5 5 5 5 5 5 5 5 5 5 5 6 5 5 5 5 5 5 5 6 6 5 5 5 6 5 5 5 5 5 6 5 5 5 5 5 6 5 5 5 5 5 5 5 5 5 5 5 5 5 5 5 5 5 5 5 5 5 5 5 5 5 5 5 5 5 6 5 5 5 6 5 5 5 5 5 5 6 5 5 5 5 5 5 5 5 5 5 5 5 5 5 5 5 5 5 5 5 5 5 5 5 5 5 5 5 5 5 5 5 5 5 5 5 5 6 5 5 5 5 6 5 5 5 5 5 5 5 5 5 5 5 5 5 5 5 5 5 5 5 5 5 5 5 5 5 5 5 5 5 5 5 5 5 5 5 5 5 5 5 5 5 6 5 5 5 6 5 5 5 5 5 5 5 6 5 5 5 5 5 5 6 5 5 5 5 5 6 5 5 5 6 5 5 5 5 5 5 5 5 5 5 5 5 5 5 6 5 5 5 5 6 5 5 5 5 5 6 5 5 5 5 5 5 5 5 5 5 5 5 5 5 5 5 5 5 5 5 5 6 5 5 5 5 5 5 5 5 5 5 5 5 5 6 5 5 6 5 6 5 5 5 5 5 6 5 5 5 5 5 5 5 5 5 5 5 5 5 5 5 5 5 5 5 5 5 5 5 5 5 5 5 5 5 5 6 5 5 5 5 5 5 5 5 5 5 5 6 5 5 5 5 5 5 5 5 5 5 5 5 5 5 5 5 5 5 5 5 5 6 5 5 5 5 5 5 5 5 5 5 5 5 5 6 5 5 5 5 5 5 5 5 6 5 5 5 5 5 6 5 6 5 5 5 5 5 5 6 6 5 5 5 5 5 5 5 5 5 5 5 6 5 6 5 5 6 5 5 5 5 5 5 5 5 5 5 5 6 5 5 6 5 5 5 6 5 5 5 5 5 5 5 5 5 5 5 5 5 5 5 5 5 5 5 5 5 5 5 5 5 5 5 5 5 5 6 5 5 5 5 5 5 5 5 5 5 5 5 5 5 5 5 5 5 5 5 5 6 5 5 5 5 5 5 5 5 5 6 5 5 5 5 5 6 5 5 5 5 5 5 5 5 5 5 5 5 5 6 5 5 5 5 5 5 5 5 5 5 5 5 5 6 6 5 5 5 5 5 5 5 5 5 5 5 5 5 5 6 5 5 5 5 5 5 6 5 5 6 5 5 5 5 6 5 5 5 5 5 5 5 5 6 5 5 5 5 5 5 5 5 6 5 6 5 5 6 5 5 5 5 5 5 5 5 5 5 5 6 5 5 5 5 5 5 5 5 6 5 5 6 5 6 5 5 5 5 5 5 5 5 5 6 6 5 5 6 5 5 5 5 5 5 5 5 5 5 5 6 5 5 5 5 5 5 6 5 5 5 5 5 5 5 5 5 5 5 6 5 6 5 6 5 5 5 5 5 5 5 5 5 5 5 5 5 5 5 5 5 5 5 5 5 6 5 5 6 5 5 5 6 5 5 5 5 5 5 6 5 5 5 5 5 5 5 6 5 6 5 5 5 5 5 5 5 5 5 5 5 6 5 5 5 5 5 5 5 6 5 5 5 5 5 5 5 5 5 5 5 5 5 6 5 5 5 5 6 5 5 5 5 5 5 5 6 5 5 6 5 5 6 5 6 5 5 5 5 5 5 5 5 5 5 5 5 5 5 5 5 6 5 5 5 5 5 5 5 6 5 6 6 6 5 5 5 6 5 5 6 6 6 5 5 5 5 5 5 5 5 5 5 5 5 5 5 5 5 5 5 5 5 5 5 5 5 5 5 5 5 5 5 5 6 5 5 5 5 5 5 5 5 5 5 5 5 5 5 5 5 5 5 5 5 5 5 6 5 5 5 5 5 6 5 5 5 5 6 5 5 5 5 5 5 6 5 5 6 5 5 5 5 5 6 5 5 5 5 5 5 5 5 5 5 5 5 6 5 5 5 5 6 5 5 5 6 6 5 5 5 6 5 5 5 5 5 5 5 5 5 5 5 5 5 5 5 5 5 5 5 5 6 5 6 5 5 5 5 5 5 6 5 5 6 6 5 5 5 5 6 5 5 5 5 5 6 5 6 5 5 5 5 5 5 5 5 6 5 5 5 5 5 5 5 5 5 5 5 5 5 5 5 5 5 5 5 5 5 5 5 5 5 6 5 5 5 6 5 5 5 5 5 5 5 5 5 6 6 6 5 5 6 5 5 6 5 5 5 5 6 5 6 5 5 5 5 5 5 5 5 6 5 5 5 5 5 5 6 5 5 5 5 5 5 5 5 5 5 5 6 5 5 5 6 5 5 6 6 5 6 5 5 5 5 6 5 5 5 5 5 6 5 5 5 5 5 5 5 5 6 5 5 6 5 5 6 5 5 6 5 5 5 5 5 5 5 5 5 5 5 6 6 5 5 6 5 5 5 6 5 5 5 5 5 5 5 6 5 5 5 5 5 6 5 5 5 5 5 5 5 5 6 5 5 5 6 6 5 6 5 5 5 5 5 6 5 5 6 5 6 5 5 5 6 5 5 6 5 5 5 5 5 5 5 5 5 5 5 6 5 5 5 5 5 5 5 5 5 5 5 5 6 5 6 5 5 5 5 6 5 5 6 5 5 5 5 6 5 5 5 6 5 5 5 5 5 6 5 6 5 5 5 6 5 5 5 6 5 5 6 6 6 5 5 5 5 6 5 5 5 5 6 5 5 5 6 5 5 5 5 5 5 5 5 5 5 5 5 5 5 6 5 6 5 6 5 5 5 5 6 6 5 5 6 5 6 5 5 6 5 5 5 6 6 5 6 5 5 6 5 5 6 6 5 6 5 5 5 5 5 5 6 6 6 5 5 5 6 5 5 6 5 6 6 6 5 5 6 5 5 5 5 5 6 5 5 6 5 6 5 5 6 5 6 5 6 5 5 5 5 5 5 5 5 6 5 5 5 5 5 5 5 6 5 5 6 5 5 5 5 5 6 5 5 6 6 5 6 6 5 6 6 5 5 6 5 5 6 5 5 6 6 5 5 6 5 5 5 5 5 5 6 5 5 5 5 5 5 6 5 5 5 5 6 6 5 5 5 6 5 5 5 5 5 5 5 5 5 5 5 5 5 5 5 5 5 5 5 5 5 5 5 5 5 6 5 5 5 5 5 5 5 5 5 5 5 5 5 5 5 5 5 5 5 5 5 6 5 5 5 5 5 5 5 5 5 5 5 5 5 5 5 5 5 5 5 5 5 5 5 5 5 5 5 5 5 5 5 5 5 5 5 5 5 5 5 5 5 5 5 5 5 5 5 5 6 5 5 5 5 5 5 5 5 5 5 5 5 5 5 5 6 5 5 5 5 5 5 5 5 5 5 5 5 5 5 5 5 5 5 5 5 5 6 5 5 5 5 5 5 5 6 5 5 5 5 5 5 5 5 5 5 5 5 5 5 5 5 5 5 5 5 5 5 5 6 5 5 5 6 5 5 5 5 5 5 6 5 5 5 5 5 5 5 5 6 5 5 5 6 5 5 6 5 5 5 5 5 5 5 6 6 5 5 5 5 5 5 5 6 5 5 6 5 5 5 5 5 5 6 5 6 5 5 5 
</DataArray>
<DataArray type="Float64" Name="stress" NumberOfComponents="9" format="ascii">
3.1847640242049238 -3447.3496341912251 0 -3447.3496341912251 1084.9783439608254 0 0 0 0 2286.443739696826 -2472.2597802454561 0 -2472.2597802454561 431.36354573322023 0 0 0 0 2473.0409668453067 -1082.9737997949342 0 -1082.9737997949342 -2.9227041032572743 0 0 0 0 2118.6682945711364 -1776.2446859529446 0 -1776.2446859529446 307.25577709038771 0 0 0 0 2290.1605035358516 -1811.5396893048237 0 -1811.5396893048237 203.94550921866175 0 0 0 0 3420.276597865166 -3596.8771426107996 0 -3596.8771426107996 -1.4359932101069717 0 0 0 0 9334.3836473850533 -1045.9237777288363 0 -1045.9237777288363 -331.38572293230391 0 0 0 0 3276.5819896795656 -1965.1836300125142 0 -1965.1836300125142 -439.3091497321002 0 0 0 0 -150.77095473307418 -131.92567373749625 0 -131.92567373749625 0.06026605356841043 0 0 0 0 15.123462584472321 -12.456811598238104 0 -12.456811598238104 14.176831003787299 0 0 0 0 -25.830337758969108 -34.712721095413144 0 -34.712721095413144 9.5419519650458824 0 0 0 0 69.519749695005885 -126.43988444457136 0 -126.43988444457136 -0.057675242715049535 0 0 0 0 113.34705684531218 -47.808343716998934 0 -47.808343716998934 10.646064509841381 0 0 0 0 -0.94464264866837766 -134.42060445254901 0 -134.42060445254901 -13.173557637841441 0 0 0 0 -152.81358541683585 -140.19842849142151 0 -140.19842849142151 56.512844491866417 0 0 0 0 26.8756592494627 -36.946817850184914 0 -36.946817850184914 44.546642315231338 0 0 0 0 1.8036739518414606 -0.33779321365346959 0 -0.33779321365346959 -5.0068784158788731 0 0 0 0 -550.08112848631572 -59.545276853779797 0 -59.545276853779797 31.761788519579568 0 0 0 0 199.73711216646188 -110.1987428645989 0 -110.1987428645989 0.10149960943090264 0 0 0 0 148.35702299315017 -57.975352467801713 0 -57.975352467801713 29.375036383702536 0 0 0 0 -1.0494192349203786 -2.9041113486860581 0 -2.9041113486860581 -8.552764992298421 0 0 0 0 201.49153065342398 -170.42300863106357 0 -170.42300863106357 42.974757320233948 0 0 0 0 -91.735529448866146 -26.36360402502396 0 -26.36360402502396 13.018734199227765 0 0 0 0 -32.942696056459681 -90.368164156250714 0 -90.368164156250714 26.288609940776951 0 0 0 0 25.608472875450389 -23.755025438411394 0 -23.755025438411394 4.4897740405140212 0 0 0 0 -10.52166056480371 -10.124492934249076 0 -10.124492934249076 -9.8633443030950616 0 0 0 0 -19.939276579316356 -82.865607052070118 0 -82.865607052070118 3.9395046679419465 0 0 0 0 0.1282657798656146 -41.684718043434259 0 -41.684718043434259 51.811050153453834 0 0 0 0 25.953159061260521 -57.819469478010433 0 -57.819469478010433 38.446626159391599 0 0 0 0 -10.763796524181316 -22.338301042126432 0 -22.338301042126432 -2.4518203888797814 0 0 0 0 3.447625384150399 -11.356470336323468 0 -11.356470336323468 -5.2687015193965863 0 0 0 0 63.914228405425092 -128.2519002885092 0 -128.2519002885092 109.22334676948958 0 0 0 0 52.164918483656948 -162.38999013544162 0 -162.38999013544162 213.54934883382521 0 0 0 0 80.237786263831367 -120.85360678549478 0 -120.85360678549478 97.444881281029666 0 0 0 0 5308.0879068270151 -267.385373678615 0 -267.385373678615 -204.66029957524734 0 0 0 0 124.78835722945223 -203.19490346113162 0 -203.19490346113162 69.372973398400063 0 0 0 0 -6.0377633793686982 -40.846559190817061 0 -40.846559190817061 -38.137831759930123 0 0 0 0 31.154602233174955 -137.05540029263648 0 -137.05540029263648 131.84702816948993 0 0 0 0 79.364509882900165 -184.65968112534028 0 -184.65968112534028 21.846570539506502 0 0 0 0 24.564765737878929 -60.755341108610864 0 -60.755341108610864 73.712223263412056 0 0 0 0 -31.198338711459655 -135.75807228614576 0 -135.75807228614576 161.34876526216976 0 0 0 0 10.340498095625748 -6.5277893792739405 0 -6.5277893792739405 -11.816708585238416 0 0 0 0 122.5721239841223 -89.870142143408884 0 -89.870142143408884 198.47051652322989 0 0 0 0 -0.4540315221775586 -48.00881525759219 0 -48.00881525759219 14.345405709540557 0 0 0 0 25.29342192679178 -39.303063607017975 0 -39.303063607017975 14.731811076242593 0 0 0 0 17.040924561937572 -44.552368505246704 0 -44.552368505246704 15.941083860816434 0 0 0 0 52.624427189860569 -51.025467652906457 0 -51.025467652906457 0.16259977812370607 0 0 0 0 -47.74738018255448 -4.390102071891306 0 -4.390102071891306 -46.594519626756664 0 0 0 0 657.04660136683378 -249.18397761762026 0 -249.18397761762026 89.346907509308949 0 0 0 0 11.413355682280184 -37.549180815036493 0 -37.549180815036493 8.05460009058163 0 0 0 0 1925.4356768764846 -612.92267474450637 0 -612.92267474450637 -227.68049644375606 0 0 0 0 1995.5937142618423 -457.56648560225221 0 -457.56648560225221 114.6134686639416 0 0 0 0 -12.703807225866001 -19.494771132432675 0 -19.494771132432675 15.459073183383055 0 0 0 0 1044.0166635244095 -355.88166993924824 0 -355.88166993924824 126.06622513011098 0 0 0 0 1617.5774455603969 -877.89261899635676 0 -877.89261899635676 269.06480294492212 0 0 0 0 774.34791143061739 -841.12020300743097 0 -841.12020300743097 331.65176650258945 0 0 0 0 1495.6260193554917 -598.34224384202753 0 -598.34224384202753 211.57650218464551 0 0 0 0 13.047994898101649 -13.325051922228056 0 -13.325051922228056 7.4231563826845104 0 0 0 0 47.667036783648655 -44.155321909944178 0 -44.155321909944178 -37.316493597987574 0 0 0 0 30.213706917753314 -31.727226803733402 0 -31.727226803733402 -9.5079039851064522 0 0 0 0 27.68370387336472 -39.104920671950822 0 -39.104920671950822 8.8386211765537155 0 0 0 0 45.535118321190851 -35.149727536802658 0 -35.149727536802658 8.4350504505033257 0 0 0 0 11.285022234058175 -45.812329085157728 0 -45.812329085157728 40.070235467205578 0 0 0 0 48.067030217673164 -46.570589759678114 0 -46.570589759678114 19.090273984125815 0 0 0 0 28.947805747040547 -37.689183475566097 0 -37.689183475566097 2.9892442130803829 0 0 0 0 35.250046790206397 -57.974040722056088 0 -57.974040722056088 -11.641569817322306 0 0 0 0 25.025062595332429 -60.357036804036909 0 -60.357036804036909 40.541516861190416 0 0 0 0 23.455906428258118 -17.893999378891891 0 -17.893999378891891 0.59943196163814605 0 0 0 0 389.88444764370797 -989.81632901195553 0 -989.81632901195553 -1177.9794946464754 0 0 0 0 32.386818330334791 -38.874719225248555 0 -38.874719225248555 -4.6274934146058513 0 0 0 0 -534.28438740489946 205.12520210682851 0 205.12520210682851 -687.05281837083749 0 0 0 0 1311.608845235256 -837.21997392838239 0 -837.21997392838239 -4122.6272942324504 0 0 0 0 1216.3593202549091 -1481.8048022412986 0 -1481.8048022412986 1169.6676077119191 0 0 0 0 -1.0333147475610645 -6.2873064481723588 0 -6.2873064481723588 5.3001635024115288 0 0 0 0 42.74794349034255 -60.532600844395716 0 -60.532600844395716 -61.301000988266395 0 0 0 0 36.976808420484303 4.0554200956103159 0 4.0554200956103159 -115.8951556705797 0 0 0 0 66.40945527452277 -115.50297029910143 0 -115.50297029910143 97.605771783783439 0 0 0 0 52.516590783576248 -123.73334978391358 0 -123.73334978391358 109.86724935868006 0 0 0 0 29.198873190781086 -59.654413410277421 0 -59.654413410277421 24.350169664277871 0 0 0 0 12.059881678780187 -10.368531411834567 0 -10.368531411834567 -9.610659987469063 0 0 0 0 38.34184225336503 -35.606910521207283 0 -35.606910521207283 -21.446891977611813 0 0 0 0 39.987587063122191 -26.605305805009266 0 -26.605305805009266 -49.412350845181209 0 0 0 0 31.85537306597314 -5.9971226060350347 0 -5.9971226060350347 -39.561243476731818 0 0 0 0 35.412379492730054 -15.551625760476213 0 -15.551625760476213 -12.229289279373418 0 0 0 0 11.455395283650432 -9.7427127656847006 0 -9.7427127656847006 -18.820208427379839 0 0 0 0 49.996681997712585 -26.603666850591253 0 -26.603666850591253 -100.25459353816768 0 0 0 0 23.13141674854603 -18.466797612148028 0 -18.466797612148028 -5.2192143130126851 0 0 0 0 20.039210737748363 -23.999735000234068 0 -23.999735000234068 -7.2951650200266158 0 0 0 0 68.62208514356098 -55.490204418822032 0 -55.490204418822032 1.3557688651926583 0 0 0 0 22.764405113791099 -20.172500213899724 0 -20.172500213899724 0.36432763405328217 0 0 0 0 5.6582182829216094 -0.70138374727176256 0 -0.70138374727176256 -0.40711622140509007 0 0 0 0 -781.74396790863102 -211.62374972271937 0 -211.62374972271937 -58.717794476804556 0 0 0 0 100.3610719897697 11.485483014977945 0 11.485483014977945 -26.57193550808006 0 0 0 0 -619.43708758521825 -276.92893768570502 0 -276.92893768570502 -34.161451890191529 0 0 0 0 -253.45195389085166 -119.58240852544395 0 -119.58240852544395 16.566979265131522 0 0 0 0 60.269341374529176 -81.264757265773369 0 -81.264757265773369 -7.293414634099463 0 0 0 0 -256.97781362651676 -68.896043044462658 0 -68.896043044462658 1.1471554324962199 0 0 0 0 1389.3684730549576 -1612.6981405235711 0 -1612.6981405235711 685.62868958781473 0 0 0 0 36.701393312949222 -798.19310108348145 0 -798.19310108348145 496.71634297942364 0 0 0 0 736.9912086523691 -1503.3242499338521 0 -1503.3242499338521 -611.06568828749005 0 0 0 0 -810.00225548722665 -227.24062050665088 0 -227.24062050665088 95.374557385919616 0 0 0 0 -675.86052294520778 -181.2793652190303 0 -181.2793652190303 -468.76492211303412 0 0 0 0 -398.07340910486528 -688.48458455229411 0 -688.48458455229411 429.78575662946241 0 0 0 0 -655.6371388141124 -162.89365798486688 0 -162.89365798486688 71.138291476177983 0 0 0 0 -670.43722166281077 -188.65810248559865 0 -188.65810248559865 104.66606858740124 0 0 0 0 -0.51188472248892936 0.33135551853405332 0 0.33135551853405332 13.989831407022052 0 0 0 0 -948.03691258217441 -26.028752001842804 0 -26.028752001842804 137.17863999051042 0 0 0 0 -574.77034856876708 24.174817681479908 0 24.174817681479908 105.01845407809014 0 0 0 0 950.89123742064112 -760.00997788402674 0 -760.00997788402674 600.38917123827559 0 0 0 0 1135.7987004496099 -778.5335215395462 0 -778.5335215395462 204.25064440630376 0 0 0 0 1104.718374721866 -919.09451826629083 0 -919.09451826629083 -150.7889490708767 0 0 0 0 1107.7652594191022 -842.84565594636661 0 -842.84565594636661 177.46990584974264 0 0 0 0 794.88100424695585 -1353.5723944736565 0 -1353.5723944736565 196.91590440861182 0 0 0 0 898.35887278254086 -951.74360709218308 0 -951.74360709218308 188.98484188287694 0 0 0 0 653.42229141884309 -1449.2225932581423 0 -1449.2225932581423 830.93436488005955 0 0 0 0 299.34035476439749 -1210.319618101501 0 -1210.319618101501 797.14682683430055 0 0 0 0 1504.8601726939232 -2350.4812268877577 0 -2350.4812268877577 583.93169084034162 0 0 0 0 757.08519567467738 -2102.9545278894038 0 -2102.9545278894038 505.33445012138691 0 0 0 0 0.94273927110771183 -1786.6331281249149 0 -1786.6331281249149 729.53999572601606 0 0 0 0 1793.1662617384827 -1541.4862247653382 0 -1541.4862247653382 138.01789404801093 0 0 0 0 1613.2492058477947 -1611.7515237471744 0 -1611.7515237471744 120.01229635727941 0 0 0 0 1696.0184897096478 -1120.8726067558528 0 -1120.8726067558528 34.087823631998617 0 0 0 0 1519.4896113805298 -1031.1336773895891 0 -1031.1336773895891 43.912835299390281 0 0 0 0 1275.1707194877963 -1323.2771230519429 0 -1323.2771230519429 -62.654638435313245 0 0 0 0 1322.6973509907257 -1125.5952288737317 0 -1125.5952288737317 -277.3704160595662 0 0 0 0 658.45160504896194 -73.759164146431431 0 -73.759164146431431 -1003.0339518768888 0 0 0 0 1373.520781307132 -1384.3260565985111 0 -1384.3260565985111 -774.02467470167903 0 0 0 0 1456.1213022149459 -1335.1280420419971 0 -1335.1280420419971 -208.94699464662699 0 0 0 0 1277.0495573203953 -1393.6007940537165 0 -1393.6007940537165 8.3321922637769603 0 0 0 0 1429.3219316250033 -1610.0995366669558 0 -1610.0995366669558 208.28224861397757 0 0 0 0 -3.6627254614671756 -0.290617363954496 0 -0.290617363954496 -1.5562532947226941 0 0 0 0 -221.80161415709881 115.87307610750577 0 115.87307610750577 470.15001748858776 0 0 0 0 7.3720370868904865 1.3477780670218635 0 1.3477780670218635 306.38476691897085 0 0 0 0 -577.07582169871603 -391.27339123034471 0 -391.27339123034471 850.78672894889314 0 0 0 0 -606.44295426653116 -17.779306208634807 0 -17.779306208634807 520.00596100714756 0 0 0 0 96.38541303834063 -620.60356064783991 0 -620.60356064783991 447.22308798041922 0 0 0 0 -137.95210383893573 -230.68559549820202 0 -230.68559549820202 595.70451995519397 0 0 0 0 -4.4064034980547149 -142.42424896037301 0 -142.42424896037301 -12.892706858634483 0 0 0 0 -124.32975159477064 -373.13562127176556 0 -373.13562127176556 181.57897886754654 0 0 0 0 -20.724730924746837 -153.22057843739458 0 -153.22057843739458 250.93280505786151 0 0 0 0 -154.46249532715592 -102.41416777671839 0 -102.41416777671839 254.12674710380088 0 0 0 0 -117.33050946384901 -61.534426083584549 0 -61.534426083584549 291.07474050395831 0 0 0 0 3.3835092197914491 -47.701631914031168 0 -47.701631914031168 21.486044358025538 0 0 0 0 -54.269717455892533 -106.86688984059583 0 -106.86688984059583 195.4710485632022 0 0 0 0 -15.351024880855391 -66.735661533482769 0 -66.735661533482769 40.149940572446788 0 0 0 0 7.5719751420341339 -29.663274788470623 0 -29.663274788470623 44.76653577528964 0 0 0 0 25.579842438390187 -35.217798755300464 0 -35.217798755300464 11.301016684883507 0 0 0 0 5.8077566257130684 -4.5369264518329757 0 -4.5369264518329757 -4.9219727752579274 0 0 0 0 9.6373248844538466 -13.570637506854837 0 -13.570637506854837 0.011663491721265018 0 0 0 0 4.6958761537311489 -7.337984580250378 0 -7.337984580250378 5.1612528465344383 0 0 0 0 -18.764215848786989 -47.650406088519958 0 -47.650406088519958 61.490498557381216 0 0 0 0 6.7271331521641855 -27.172266115283804 0 -27.172266115283804 -18.798735097535911 0 0 0 0 9.9517702419034322 -48.574499857473711 0 -48.574499857473711 0.012140454738982953 0 0 0 0 -8.361724589685565 -37.36465477270616 0 -37.36465477270616 -12.315345066061582 0 0 0 0 18.93390387681211 -80.801992657223309 0 -80.801992657223309 10.662230191301205 0 0 0 0 13.795048142841551 -81.33485007834679 0 -81.33485007834679 99.914432835643311 0 0 0 0 -1.365400239100552 -73.78726617970699 0 -73.78726617970699 -24.658038933930445 0 0 0 0 65.758723198110602 949.2683359755174 0 949.2683359755174 -1872.9749758280814 0 0 0 0 -4.5846710776095279 -57.265000446961494 0 -57.265000446961494 -3.2720768746221438 0 0 0 0 -0.16093126997293439 -48.047173501596262 0 -48.047173501596262 11.39576528595353 0 0 0 0 -0.61598986109311227 -53.431771229435981 0 -53.431771229435981 0.010238333838060498 0 0 0 0 -15.576186727500811 -95.956668622553849 0 -95.956668622553849 -69.352748202217057 0 0 0 0 400.12180537848599 -955.52001975292615 0 -955.52001975292615 -1043.3849232985012 0 0 0 0 5.1499816325085703 -58.416629912884673 0 -58.416629912884673 -14.361175189405913 0 0 0 0 23.570921716105659 -299.93510463628627 0 -299.93510463628627 -219.41918102420459 0 0 0 0 14.79635706101169 -15.926037190030826 0 -15.926037190030826 -27.732157271401292 0 0 0 0 171.95477690513508 58.650817096309765 0 58.650817096309765 -438.97817731618125 0 0 0 0 -298.40401352635581 -283.46320245126526 0 -283.46320245126526 399.82574844872579 0 0 0 0 -0.52609288008022759 -5.5579217757194499 0 -5.5579217757194499 -13.547977039888679 0 0 0 0 -240.08329318853794 -599.05086067913362 0 -599.05086067913362 42.751127779796661 0 0 0 0 57.863122843368728 -304.35322975278223 0 -304.35322975278223 316.22212998881878 0 0 0 0 -110.76415976339194 -414.69558460900589 0 -414.69558460900589 553.49842196995451 0 0 0 0 0.047627918465877883 -471.60917697399054 0 -471.60917697399054 475.36846888333457 0 0 0 0 -123.88655442645677 -227.81681401835272 0 -227.81681401835272 417.01784246107854 0 0 0 0 387.94574667887355 -699.62348724159529 0 -699.62348724159529 514.54776646784012 0 0 0 0 118.07050147022528 -322.64459102910769 0 -322.64459102910769 442.9605644116964 0 0 0 0 -6.9499505696191193 -17.474985011009323 0 -17.474985011009323 -30.945283810615564 0 0 0 0 259.18761116203677 -200.18336000323325 0 -200.18336000323325 -68.85163655010183 0 0 0 0 40.051678198098671 -31.440893635131943 0 -31.440893635131943 -217.46884134688662 0 0 0 0 103.63335476767679 65.528465773604694 0 65.528465773604694 -81.266520887351362 0 0 0 0 52.19162717798099 189.61029869172489 0 189.61029869172489 -318.12583417959104 0 0 0 0 -199.56447845909861 -282.76022961761919 0 -282.76022961761919 222.7143962092232 0 0 0 0 -144.91036204301054 -416.49841795989778 0 -416.49841795989778 238.46090930161881 0 0 0 0 0.77968070681447443 -80.253726595311434 0 -80.253726595311434 -79.01446849725113 0 0 0 0 -168.73517618900223 -20.692348540869716 0 -20.692348540869716 51.385808087034093 0 0 0 0 249.02489421284554 147.69847056509025 0 147.69847056509025 -536.88177970991819 0 0 0 0 10.875613273237832 -53.011262789033935 0 -53.011262789033935 -9.5715230415953556 0 0 0 0 6.4787493763797102 -72.523308112853556 0 -72.523308112853556 94.295820424100384 0 0 0 0 15.688933840108803 -87.2871409982763 0 -87.2871409982763 114.87338618776994 0 0 0 0 117.50513507821597 -205.08434816583758 0 -205.08434816583758 101.00987987053668 0 0 0 0 87.929401180081186 -110.10744380993128 0 -110.10744380993128 0.21374324322096072 0 0 0 0 36.122819726049784 -59.515091238245077 0 -59.515091238245077 148.28163770245737 0 0 0 0 95.454275696567493 -39.523122272425098 0 -39.523122272425098 114.96468928879767 0 0 0 0 8.0052146533184896 -8.7767407073935715 0 -8.7767407073935715 3.1186316570486596 0 0 0 0 48.625101772078779 -70.371054757240927 0 -70.371054757240927 96.5813466093241 0 0 0 0 134.24301894404925 -128.22684273050982 0 -128.22684273050982 -717.20746081924517 0 0 0 0 -332.94429533164657 450.71240132489766 0 450.71240132489766 -1400.260492769652 0 0 0 0 -164.56246720093986 -590.65589541767622 0 -590.65589541767622 -425.17968902626308 0 0 0 0 1.3078517638015796 -6.1015184928725148 0 -6.1015184928725148 0.12578477968149215 0 0 0 0 -2.0088147743113609 -5.1354526664528635 0 -5.1354526664528635 -5.1074296618480446 0 0 0 0 56.571751864452381 -211.54881631706667 0 -211.54881631706667 -1197.3352653037164 0 0 0 0 -112.33456341123474 -286.9850938050422 0 -286.9850938050422 173.54064754537831 0 0 0 0 -117.99606695858529 -244.60684254554508 0 -244.60684254554508 785.111314223308 0 0 0 0 22.117316780117108 -239.37930637292447 0 -239.37930637292447 -1109.6698993567261 0 0 0 0 66.654950420885143 -354.74474767046922 0 -354.74474767046922 -1219.0342432867619 0 0 0 0 96.896864400330742 -18.790048321936411 0 -18.790048321936411 365.71247233121539 0 0 0 0 162.5243500509896 -369.34629256205881 0 -369.34629256205881 0.086775961870444007 0 0 0 0 128.56469299650053 -268.71704509262054 0 -268.71704509262054 353.34527070432523 0 0 0 0 -70.283161449187901 -634.16679561356432 0 -634.16679561356432 356.22716227862111 0 0 0 0 34.458509441188653 -203.59064008973655 0 -203.59064008973655 -1150.5625196806359 0 0 0 0 0.71561881246452685 -84.851148552064842 0 -84.851148552064842 3.8506704998580972 0 0 0 0 148.78805586638919 -114.68586699354637 0 -114.68586699354637 208.71430279461129 0 0 0 0 -132.95774322299621 68.308627486381738 0 68.308627486381738 -65.961494544913876 0 0 0 0 84.44261812937475 -119.27757298300639 0 -119.27757298300639 252.9399996012944 0 0 0 0 -175.44131371751428 -39.337397604453145 0 -39.337397604453145 -160.74096314406052 0 0 0 0 20.014919779977447 -68.682571625334106 0 -68.682571625334106 -70.207862801058269 0 0 0 0 53.401083338249009 -21.904278766091011 0 -21.904278766091011 -213.75123403883481 0 0 0 0 30.687868910135876 -25.374821188870555 0 -25.374821188870555 -141.5618419413513 0 0 0 0 22.923248607112328 56.991495466325432 0 56.991495466325432 -176.14690757877543 0 0 0 0 175.31166269185633 -103.79570942706778 0 -103.79570942706778 -255.76631320962042 0 0 0 0 3.5206705992174534 1.7649351316159141 0 1.7649351316159141 -5.4399326519256874 0 0 0 0 -35.427441907555476 -173.46784289786774 0 -173.46784289786774 161.98409643156629 0 0 0 0 -238.77845439326484 16.019329686252604 0 16.019329686252604 92.508489260930219 0 0 0 0 4.8316640540143112 -1.1310981142907792 0 -1.1310981142907792 -7.5468379675536994 0 0 0 0 30.132064285295201 -23.001496187491284 0 -23.001496187491284 -32.464812937119859 0 0 0 0 -102.08189221567591 -36.317576792192995 0 -36.317576792192995 -8.3023609809752088 0 0 0 0 5.41142480718554 27.60614449824061 0 27.60614449824061 -51.493627062140149 0 0 0 0 7.5796038828902397 -19.375538391322067 0 -19.375538391322067 -4.3223944568957222 0 0 0 0 -15.831685099255992 -14.34706885072228 0 -14.34706885072228 47.001143672416219 0 0 0 0 20.262526498518127 -43.252574599042418 0 -43.252574599042418 -10.039155174250482 0 0 0 0 -2.8805886162934371 -6.2396159226793486 0 -6.2396159226793486 2.1782881752703176 0 0 0 0 3.9878513653820846 -71.802702923407196 0 -71.802702923407196 122.0514728417329 0 0 0 0 19.476875507592922 -40.984945129312109 0 -40.984945129312109 6.5418132930062711 0 0 0 0 2.7741900240989423 -24.967261428119997 0 -24.967261428119997 -50.995932371676247 0 0 0 0 44.842345492288587 -120.30292280809954 0 -120.30292280809954 64.460004702341394 0 0 0 0 1059.495994210447 -801.69465926580597 0 -801.69465926580597 409.9717264387873 0 0 0 0 56.617726027863682 -94.508851361417328 0 -94.508851361417328 9.4952292839220718 0 0 0 0 9.6860531075153347 -45.174073974316691 0 -45.174073974316691 16.024566543336618 0 0 0 0 1101.2302982946276 -778.83715990871133 0 -778.83715990871133 316.19715475663543 0 0 0 0 781.3550453336502 -522.91252161409648 0 -522.91252161409648 519.76718301750952 0 0 0 0 685.24336515908362 -559.8957605989126 0 -559.8957605989126 347.42211293309811 0 0 0 0 781.8796511548353 -471.66762738987018 0 -471.66762738987018 318.97688842317439 0 0 0 0 874.29275896797481 -663.24594055058697 0 -663.24594055058697 359.35350107809063 0 0 0 0 902.88138810943929 -628.42950756836217 0 -628.42950756836217 306.08360690428526 0 0 0 0 858.03369557531551 -723.84821030539752 0 -723.84821030539752 474.12766500696307 0 0 0 0 1133.5387322502356 -642.62042120014667 0 -642.62042120014667 255.33810746205563 0 0 0 0 1057.3720795446134 -532.13399055268383 0 -532.13399055268383 291.32071966109288 0 0 0 0 1166.9535165786947 -953.56468306113675 0 -953.56468306113675 385.61155042275641 0 0 0 0 206.39574913375327 -260.12639121770735 0 -260.12639121770735 -51.854272731332458 0 0 0 0 -8.6788566324446776 -26.058867899150357 0 -26.058867899150357 -50.883986893984542 0 0 0 0 35.758373437769478 19.912242306178086 0 19.912242306178086 91.597828885540366 0 0 0 0 1122.7680968550849 -515.28293435447267 0 -515.28293435447267 129.58716618558537 0 0 0 0 654.54736054645036 -619.24639344218303 0 -619.24639344218303 262.86672610932146 0 0 0 0 787.41990705666103 -586.66170353884809 0 -586.66170353884809 285.39471128543664 0 0 0 0 537.03548570051498 -291.08774142189213 0 -291.08774142189213 191.12775985259213 0 0 0 0 528.11950489039009 -259.49872745736502 0 -259.49872745736502 178.68138955231188 0 0 0 0 557.76394538817112 -339.15820728553808 0 -339.15820728553808 -103.63908969367185 0 0 0 0 173.7818343846302 -27.356987113045761 0 -27.356987113045761 75.522435065395257 0 0 0 0 260.68215777214209 -422.03568995673413 0 -422.03568995673413 102.3419775563234 0 0 0 0 186.78613712763035 -214.2185488311552 0 -214.2185488311552 -377.59432218060829 0 0 0 0 596.75041355798749 -360.97191159745853 0 -360.97191159745853 5.8902756639872678 0 0 0 0 271.51065058355744 -750.54570501346461 0 -750.54570501346461 277.54839938224904 0 0 0 0 297.52941867841946 -506.27607827362181 0 -506.27607827362181 62.486102039852994 0 0 0 0 531.95859506940178 -499.56521787196834 0 -499.56521787196834 515.77171502599958 0 0 0 0 887.88455538279959 -1005.81382732356 0 -1005.81382732356 416.43985049312141 0 0 0 0 178.83783602906294 -287.48317626065614 0 -287.48317626065614 92.597326625473215 0 0 0 0 -9.5373822223084801 -24.821159502236497 0 -24.821159502236497 -44.003765478983837 0 0 0 0 355.62223154657477 -373.22544953796751 0 -373.22544953796751 499.60916771545453 0 0 0 0 -11.785793185103103 -427.51434698169032 0 -427.51434698169032 376.51382775777893 0 0 0 0 -94.037973406315814 -118.22883334307153 0 -118.22883334307153 151.17415756102855 0 0 0 0 -572.45979983968573 -31.152282482704322 0 -31.152282482704322 253.27317017532914 0 0 0 0 -202.75828926575196 115.01679407311531 0 115.01679407311531 -57.463765329583111 0 0 0 0 -449.405173302599 -412.77716990359477 0 -412.77716990359477 428.17118777448195 0 0 0 0 -23.42204635356029 -650.04213036597503 0 -650.04213036597503 371.29135113189113 0 0 0 0 -280.6497159755927 -136.75182828993093 0 -136.75182828993093 140.36058105483244 0 0 0 0 -458.70228465762921 -533.24714551609941 0 -533.24714551609941 114.47596819494356 0 0 0 0 -1005.5143124772294 69.887449415975425 0 69.887449415975425 79.177292102685897 0 0 0 0 -1447.714597689017 -696.69714878528612 0 -696.69714878528612 -159.2074610622949 0 0 0 0 -494.94571326547884 -642.73325827404915 0 -642.73325827404915 -212.19578436380834 0 0 0 0 -2077.2462102906211 69.119683535354852 0 69.119683535354852 107.09685032218113 0 0 0 0 -1698.1168915174421 -39.414549180126414 0 -39.414549180126414 51.609385058589396 0 0 0 0 -331.46991946017079 -641.8327526245921 0 -641.8327526245921 -591.60405626278953 0 0 0 0 -4.7201326566693069 -7.102020115957572 0 -7.102020115957572 -13.52895111538345 0 0 0 0 25.602507395073189 -22.085071412075195 0 -22.085071412075195 -288.9893969044424 0 0 0 0 -2019.5582774484174 -156.1989246026933 0 -156.1989246026933 242.39704386961239 0 0 0 0 -1538.7667901704699 -1226.2842346730467 0 -1226.2842346730467 -976.19150323723443 0 0 0 0 66.063133349103737 -123.21132656566806 0 -123.21132656566806 33.003761382293305 0 0 0 0 -191.96606926078675 380.78707194236631 0 380.78707194236631 488.61584827845218 0 0 0 0 -1285.4845666522597 -844.68277823095559 0 -844.68277823095559 -501.73197538664681 0 0 0 0 0.59111722717327098 -1.6061460958044194 0 -1.6061460958044194 0.93392057788292959 0 0 0 0 -1016.1738457450701 -117.24765269324416 0 -117.24765269324416 564.78092151676537 0 0 0 0 -42.980347693854128 -19.153851680661319 0 -19.153851680661319 -466.71614287848934 0 0 0 0 -88.961903375806287 -91.061338069597696 0 -91.061338069597696 26.61150248326885 0 0 0 0 -946.23282524160459 727.48090402290109 0 727.48090402290109 -1030.615460517698 0 0 0 0 -817.58069327432895 261.94337272594566 0 261.94337272594566 -85.189267202367773 0 0 0 0 -936.03076870892255 -34.929771867362433 0 -34.929771867362433 187.35215311759384 0 0 0 0 -556.78709043454728 328.9162389831763 0 328.9162389831763 -257.79148458434793 0 0 0 0 -422.15914456676546 68.875152751425048 0 68.875152751425048 152.62674681245699 0 0 0 0 -7.6108545591036716 -4.2104951559930726 0 -4.2104951559930726 7.1511111228246875 0 0 0 0 -276.13996667336323 -133.0519160956319 0 -133.0519160956319 -90.323766253190115 0 0 0 0 213.01240417170629 -91.539798893762054 0 -91.539798893762054 -214.60322982333309 0 0 0 0 -81.431331283093186 21.167786078170593 0 21.167786078170593 88.065661694447044 0 0 0 0 -1.898507002943024 -20.302132069106136 0 -20.302132069106136 19.162293741144708 0 0 0 0 -105.70589394762646 -35.188768828338652 0 -35.188768828338652 42.036428657040233 0 0 0 0 -33.330008245262434 -67.740400427886925 0 -67.740400427886925 131.59241022541391 0 0 0 0 -59.813218104121916 -61.579050011496292 0 -61.579050011496292 30.093145150211058 0 0 0 0 -91.984463509739726 -57.272119347311673 0 -57.272119347311673 63.760507372026041 0 0 0 0 -34.483765238622368 6.0418320314132501 0 6.0418320314132501 5.4773410694143649 0 0 0 0 -252.02319388564138 -200.221461888661 0 -200.221461888661 -49.849166504456662 0 0 0 0 -231.74838454411656 -212.37708347847365 0 -212.37708347847365 -136.30247812532616 0 0 0 0 -258.88988710613194 -199.21994948339125 0 -199.21994948339125 49.515359415541752 0 0 0 0 -220.50244020716855 -147.68298206730833 0 -147.68298206730833 -41.371334225070314 0 0 0 0 -311.74318517898791 -142.14495230481407 0 -142.14495230481407 18.045324004304348 0 0 0 0 -253.00528041925281 -188.3893336121364 0 -188.3893336121364 9.651818751328392 0 0 0 0 -6.1219009497632833 0.30156511324328505 0 0.30156511324328505 14.542997754450596 0 0 0 0 -303.13629711133399 -127.05529652775294 0 -127.05529652775294 -6.32907262162189 0 0 0 0 -311.86341253352293 -140.83106269696873 0 -140.83106269696873 29.032410320171039 0 0 0 0 -0.099166402161458223 1.4963740426816656 0 1.4963740426816656 5.7582889731031628 0 0 0 0 -593.98829966064659 -118.66776110978026 0 -118.66776110978026 52.557825073323329 0 0 0 0 -491.77402381240972 0.21829846916443785 0 0.21829846916443785 24.72399517580925 0 0 0 0 -332.12965453689685 -274.48313743911422 0 -274.48313743911422 -89.992523449167493 0 0 0 0 14.069508948072325 -88.514798476659053 0 -88.514798476659053 -26.725919651478762 0 0 0 0 -30.449103969796852 -70.516153100186784 0 -70.516153100186784 52.346748283976922 0 0 0 0 -25.275644477609603 -16.759013759743539 0 -16.759013759743539 50.136070588705479 0 0 0 0 -614.8854990853215 -30.969773177519528 0 -30.969773177519528 44.888684064590052 0 0 0 0 -836.52510452977731 -50.518398221196549 0 -50.518398221196549 65.003623894561315 0 0 0 0 -721.03439217987852 -121.49113215304442 0 -121.49113215304442 94.420281352082384 0 0 0 0 2.9812377327865889 -20.978060506093968 0 -20.978060506093968 29.926149512428481 0 0 0 0 -83.406418405975273 -35.453266994278238 0 -35.453266994278238 61.039264785307751 0 0 0 0 -7.4561386941604724 -19.763441355355098 0 -19.763441355355098 19.271656393641024 0 0 0 0 -3.050208647976774 -9.2580767331359084 0 -9.2580767331359084 10.892430494773549 0 0 0 0 -93.841290410475267 -145.45047124504526 0 -145.45047124504526 -18.277821936426335 0 0 0 0 -73.456746624215157 -39.315261298506812 0 -39.315261298506812 3.0920666665479075 0 0 0 0 3.6712157811908241 -23.910264985191077 0 -23.910264985191077 15.449463869477995 0 0 0 0 -9.5532527693177371 -10.652439895682271 0 -10.652439895682271 12.335794909359464 0 0 0 0 -464.15223008872636 -247.55834796030194 0 -247.55834796030194 -78.806350975719397 0 0 0 0 5.6454508327495994 -24.953242461535481 0 -24.953242461535481 19.858073723920654 0 0 0 0 -50.488000061377534 -2.8321629927449976 0 -2.8321629927449976 36.46744325900363 0 0 0 0 -678.76800125175214 -149.07258410219947 0 -149.07258410219947 88.566299370249908 0 0 0 0 -652.90110098078731 -171.08585859461164 0 -171.08585859461164 46.581353606146877 0 0 0 0 -570.56929619045695 -231.9044930271848 0 -231.9044930271848 83.889287817801232 0 0 0 0 -731.92368675125181 -386.12556725936884 0 -386.12556725936884 -53.665903690154664 0 0 0 0 -452.11661015234313 -355.24973971395775 0 -355.24973971395775 -226.16641523421276 0 0 0 0 -468.55324301005749 -242.70663159442483 0 -242.70663159442483 -75.539309492218308 0 0 0 0 -832.45951486487957 74.140492458883273 0 74.140492458883273 42.423704726999858 0 0 0 0 -328.65865407724777 -146.57841589464078 0 -146.57841589464078 12.300156782672275 0 0 0 0 -422.59703090967378 -168.18824240725007 0 -168.18824240725007 60.8431384186988 0 0 0 0 -301.99104888203874 -274.57667253833279 0 -274.57667253833279 -5.0017151148931589 0 0 0 0 -809.0268100961548 -240.28981983987615 0 -240.28981983987615 125.45697774196015 0 0 0 0 -401.69264111463417 -389.27574837328939 0 -389.27574837328939 -12.151222591368423 0 0 0 0 -321.91641365578835 -173.22102632918541 0 -173.22102632918541 11.165912663414929 0 0 0 0 266.48951592694357 -44.778117404210207 0 -44.778117404210207 -121.5955563450143 0 0 0 0 -19.70840955120002 -387.84579711840706 0 -387.84579711840706 -178.09471387976373 0 0 0 0 38.143401207963151 -48.442814691850913 0 -48.442814691850913 -45.944467609774563 0 0 0 0 211.34904257587186 12.722166942094191 0 12.722166942094191 -37.693292480762466 0 0 0 0 23.749581569315268 1.4308398064282812 0 1.4308398064282812 -51.577383696174991 0 0 0 0 108.88041465243441 -14.035627144767204 0 -14.035627144767204 -46.075930841019726 0 0 0 0 382.61314183485956 -102.01681021397599 0 -102.01681021397599 -20.652485026614158 0 0 0 0 -1.9506826384522924 -3.5124342494152216 0 -3.5124342494152216 -4.9371845644909058 0 0 0 0 40.610591797572852 -193.64413330546085 0 -193.64413330546085 -85.639401922818251 0 0 0 0 -8.5224285951389334 -36.849276675249513 0 -36.849276675249513 -62.993861134703963 0 0 0 0 -78.851203495756636 -27.784662441994442 0 -27.784662441994442 -23.846214318371494 0 0 0 0 -336.92356717115945 -122.61070580377054 0 -122.61070580377054 43.352115796951693 0 0 0 0 63.186067340677255 -135.14611329682521 0 -135.14611329682521 18.135147510125535 0 0 0 0 -15.625736002423153 -22.728572922886428 0 -22.728572922886428 -35.9000357309327 0 0 0 0 37.567558241571533 49.085102746888879 0 49.085102746888879 97.248764769814443 0 0 0 0 308.49800738912018 -46.899366787009058 0 -46.899366787009058 68.773649776525417 0 0 0 0 447.07016820443096 -325.1145469336152 0 -325.1145469336152 148.82559848869278 0 0 0 0 152.89629623106157 -175.84551754407221 0 -175.84551754407221 -38.083166666445322 0 0 0 0 -18.876537488678878 -104.85570336050296 0 -104.85570336050296 -53.876368001554511 0 0 0 0 716.74068715653266 -374.81623781395319 0 -374.81623781395319 15.801795647304971 0 0 0 0 389.69546441143029 -57.298875045933528 0 -57.298875045933528 152.80616662684406 0 0 0 0 275.28271956401113 -410.4939687273345 0 -410.4939687273345 299.67721195009653 0 0 0 0 737.50020012153254 -678.64378442982706 0 -678.64378442982706 487.46686193812639 0 0 0 0 631.60333050346526 -510.69386070137261 0 -510.69386070137261 446.56342325985315 0 0 0 0 746.83829825030989 -437.78570837057487 0 -437.78570837057487 158.41232479206519 0 0 0 0 899.60147163028887 -861.71287172266238 0 -861.71287172266238 625.45515031038667 0 0 0 0 -0.74690203400939481 -4.3712035968933307 0 -4.3712035968933307 -4.706696694466757 0 0 0 0 1688.3363932918874 -806.60312813473865 0 -806.60312813473865 459.93642713146983 0 0 0 0 918.75872731383424 -747.28504972427618 0 -747.28504972427618 624.66167021717411 0 0 0 0 1184.4978245431557 -713.02410049550235 0 -713.02410049550235 466.04361376777524 0 0 0 0 937.17651200189721 -733.68521416158183 0 -733.68521416158183 452.53725628287066 0 0 0 0 848.67466272675665 -601.56283686624374 0 -601.56283686624374 506.43009997534682 0 0 0 0 968.2707513429923 -682.48363206269278 0 -682.48363206269278 487.28751046082471 0 0 0 0 1154.0990240602987 -856.7313323871349 0 -856.7313323871349 673.06981466838624 0 0 0 0 951.98253616748843 -640.30970279779285 0 -640.30970279779285 714.53281449458882 0 0 0 0 920.75422004592838 -635.52700543575338 0 -635.52700543575338 367.03295851461007 0 0 0 0 1020.4084168816335 -547.40969316990231 0 -547.40969316990231 440.42215420522552 0 0 0 0 995.40324968029745 -549.66194270804408 0 -549.66194270804408 554.2208228824893 0 0 0 0 921.69731883540226 -807.96113679536938 0 -807.96113679536938 654.99722902014037 0 0 0 0 1041.742858841113 -676.02990940982636 0 -676.02990940982636 364.28917068790179 0 0 0 0 624.77281377994223 -342.69165932609758 0 -342.69165932609758 365.45792566211816 0 0 0 0 797.59799065506377 -645.17448553237773 0 -645.17448553237773 649.80892741843127 0 0 0 0 673.90811089833733 -366.78133530078048 0 -366.78133530078048 264.7548165852204 0 0 0 0 495.55226511131332 -230.29043429768353 0 -230.29043429768353 485.30960414357833 0 0 0 0 505.6873235728126 -106.15175645012641 0 -106.15175645012641 -201.90319959124099 0 0 0 0 456.99703186420447 54.520762481861311 0 54.520762481861311 -167.09230821387609 0 0 0 0 542.03132250830822 -72.033539504958753 0 -72.033539504958753 -89.052208020701073 0 0 0 0 472.12629487102095 -105.46623158220609 0 -105.46623158220609 -93.497798139180304 0 0 0 0 368.79037315965252 -212.6372366605101 0 -212.6372366605101 -33.158134860364953 0 0 0 0 692.86684682877967 -429.55078407896508 0 -429.55078407896508 -312.62521105613996 0 0 0 0 375.39161951225833 -99.465276237231592 0 -99.465276237231592 15.899423551541986 0 0 0 0 577.96534812757454 -116.4985337906619 0 -116.4985337906619 -445.77973767498042 0 0 0 0 405.59556369151323 -448.42978928515186 0 -448.42978928515186 -167.82052841312543 0 0 0 0 132.29174861536012 28.380447157673188 0 28.380447157673188 -138.76464624216896 0 0 0 0 10.826441790933075 -11.498881137390001 0 -11.498881137390001 -25.0182857275841 0 0 0 0 217.60369952430483 -390.83486975320557 0 -390.83486975320557 222.61135858215857 0 0 0 0 147.33197779936017 -112.49271419954312 0 -112.49271419954312 -71.16093290837307 0 0 0 0 54.719765359302983 -36.702250854301383 0 -36.702250854301383 -83.844688966302783 0 0 0 0 13.316637967599434 -31.111655981352669 0 -31.111655981352669 -85.890504527012979 0 0 0 0 47.518824109691195 -113.52677915315508 0 -113.52677915315508 -58.882475198988686 0 0 0 0 64.377914935083652 -69.711099377349967 0 -69.711099377349967 -74.892316585924448 0 0 0 0 33.302176953293383 -83.325615266716341 0 -83.325615266716341 -64.007479993015295 0 0 0 0 65.389971818054931 -44.208365055227645 0 -44.208365055227645 -29.39065339608328 0 0 0 0 50.099583731629536 -93.086521625111345 0 -93.086521625111345 -105.77940546900209 0 0 0 0 78.588973142036991 -55.52875192901724 0 -55.52875192901724 11.782329750487762 0 0 0 0 74.129073289899679 -15.036087683580263 0 -15.036087683580263 -198.05220644334622 0 0 0 0 -67.481531610741513 -658.91965224614614 0 -658.91965224614614 -134.02771965495049 0 0 0 0 -465.79376360529568 -125.20341130829183 0 -125.20341130829183 -47.899213092568971 0 0 0 0 96.353833988237511 -139.33159602221633 0 -139.33159602221633 88.789114234925819 0 0 0 0 -308.20869504834991 -415.32147598545635 0 -415.32147598545635 -363.85671250420273 0 0 0 0 21.033145663353622 -34.254128931161603 0 -34.254128931161603 30.550533100193974 0 0 0 0 107.52519328723429 -30.175133579075919 0 -30.175133579075919 -444.89875540249341 0 0 0 0 -163.44532901292041 -329.41549662133366 0 -329.41549662133366 -248.07754355342331 0 0 0 0 -103.7983129831191 -138.40483680109173 0 -138.40483680109173 -60.568262260538177 0 0 0 0 18.611688659351785 -136.7725351155168 0 -136.7725351155168 -92.926847787704901 0 0 0 0 67.360251313104527 -186.63049299092381 0 -186.63049299092381 -291.90949241415819 0 0 0 0 8.3439310848298192 -236.61480681942862 0 -236.61480681942862 -119.21776804183173 0 0 0 0 97.944988829818612 -195.19644654212971 0 -195.19644654212971 -333.56078669973067 0 0 0 0 62.4120730056311 -223.44748743388664 0 -223.44748743388664 -299.02196324464603 0 0 0 0 126.94167833751999 -225.21257104093092 0 -225.21257104093092 -532.21570296918071 0 0 0 0 94.531008412168205 -44.222381113757081 0 -44.222381113757081 -10.588343459876683 0 0 0 0 -7.8021907869260758 -133.62976745818742 0 -133.62976745818742 -116.30679918281385 0 0 0 0 32.746100923506617 -47.413935372037116 0 -47.413935372037116 36.075024388584197 0 0 0 0 -105.23886441919603 -230.13339638034449 0 -230.13339638034449 -265.32364819130453 0 0 0 0 31.902008848526748 -182.30252561011002 0 -182.30252561011002 -300.49286803641735 0 0 0 0 70.33073522275663 -266.31803533502898 0 -266.31803533502898 -287.56699429085347 0 0 0 0 -59.111382413844694 -222.42391775201031 0 -222.42391775201031 -67.702880673212348 0 0 0 0 -351.4988840718288 -135.46942210764246 0 -135.46942210764246 -98.646662959872629 0 0 0 0 -77.488784696886796 -390.8352051665147 0 -390.8352051665147 -404.5063167454573 0 0 0 0 279.91206243308261 -119.40294613632432 0 -119.40294613632432 -317.72736860189616 0 0 0 0 10.322493977218983 -143.30448957761473 0 -143.30448957761473 -456.37848908961314 0 0 0 0 3.050179674566607 -117.8110316961538 0 -117.8110316961538 -16.268081715836161 0 0 0 0 67.510657353766419 -68.566751129210061 0 -68.566751129210061 34.905103650378649 0 0 0 0 30.234289311117266 -19.469450167713262 0 -19.469450167713262 -3.5600881525050738 0 0 0 0 82.182181323209079 -65.367965074095991 0 -65.367965074095991 -50.355644458722963 0 0 0 0 79.042141985730268 -99.62287388274126 0 -99.62287388274126 -27.525526382793032 0 0 0 0 80.428930808237055 -90.058961703136447 0 -90.058961703136447 -77.316273130811169 0 0 0 0 59.986306124250405 -66.833644206977624 0 -66.833644206977624 -53.484202364939847 0 0 0 0 79.998834175072261 -71.1766646885917 0 -71.1766646885917 -65.754483737677219 0 0 0 0 54.061951327876159 -44.605381610790573 0 -44.605381610790573 -24.142637722252402 0 0 0 0 588.67231139433352 119.50009811358905 0 119.50009811358905 -138.81512509992172 0 0 0 0 41.822004121985685 -49.088739483873468 0 -49.088739483873468 -10.952797467085531 0 0 0 0 -114.01569348378689 -251.08294181866222 0 -251.08294181866222 -826.01469049673324 0 0 0 0 -1148.5231818764514 -623.04328519173578 0 -623.04328519173578 -80.00160247880558 0 0 0 0 -1438.4220545872777 -799.99962876072823 0 -799.99962876072823 -215.66028820475913 0 0 0 0 -852.23393507472065 289.95041831225535 0 289.95041831225535 -341.92488056233196 0 0 0 0 3.1873678468036815 -536.61547266923299 0 -536.61547266923299 -315.9377582075831 0 0 0 0 -551.77107914000953 -112.89350114785339 0 -112.89350114785339 196.52789410063997 0 0 0 0 58.259827781658274 -73.475048588985644 0 -73.475048588985644 11.590003280142923 0 0 0 0 611.83852143613331 190.14983677571399 0 190.14983677571399 -43.010597040032735 0 0 0 0 -72.462099490177934 363.19001454972386 0 363.19001454972386 147.85376876520422 0 0 0 0 6.0168805737980051 -5.4969163022047951 0 -5.4969163022047951 5.5711649584726359 0 0 0 0 17.002476005145411 -81.00277783034889 0 -81.00277783034889 61.115203923187721 0 0 0 0 -214.65417360320862 421.32715762416774 0 421.32715762416774 433.85985685028936 0 0 0 0 -693.58904757579148 -307.62752290337085 0 -307.62752290337085 222.46058850440022 0 0 0 0 -711.14154482456433 -227.4645325660349 0 -227.4645325660349 4.1360903627501102 0 0 0 0 -2300.5600641810015 -924.27721835705597 0 -924.27721835705597 103.34447593616642 0 0 0 0 -43.142622801135076 -827.16507104896709 0 -827.16507104896709 -438.19310554169351 0 0 0 0 1853.5080132558796 -889.16755240494967 0 -889.16755240494967 -787.04578188784944 0 0 0 0 -1.2714810055747563 2.9132469591251464 0 2.9132469591251464 -8.6754008654281733 0 0 0 0 1400.470300767689 -536.04777629249656 0 -536.04777629249656 -147.4001005536993 0 0 0 0 581.32822679204673 -645.9917852743738 0 -645.9917852743738 144.63510501582641 0 0 0 0 687.28801016092621 -128.07373452685715 0 -128.07373452685715 65.010839083784958 0 0 0 0 315.91948554384726 -206.17616492113302 0 -206.17616492113302 -7.4831053866691946 0 0 0 0 185.2227735457418 -146.77910723716923 0 -146.77910723716923 103.86377834027371 0 0 0 0 -1166.5155525691225 -574.66620334450272 0 -574.66620334450272 -29.007179886106314 0 0 0 0 -684.99894402494829 -622.23037602179829 0 -622.23037602179829 -541.65245778064127 0 0 0 0 1.9961358566287366 -8.3191767068857132 0 -8.3191767068857132 -29.36342267272201 0 0 0 0 -859.83262227599334 -840.51164198987681 0 -840.51164198987681 -784.97116431032191 0 0 0 0 -1352.4566903475152 305.04221918583698 0 305.04221918583698 53.101719604761456 0 0 0 0 -1.6071083598690521 -28.224609118664006 0 -28.224609118664006 37.280626768419381 0 0 0 0 -5.336422912645304 -11.04809866966562 0 -11.04809866966562 -0.69738367145280478 0 0 0 0 -25.758059020387009 -68.736972226855869 0 -68.736972226855869 47.022939914051676 0 0 0 0 -81.772411004902096 -175.55290176920607 0 -175.55290176920607 141.11324727229658 0 0 0 0 -8.8026448683340561 -49.696810248332952 0 -49.696810248332952 -15.481360066059864 0 0 0 0 -27.72607888483617 -71.418546205088205 0 -71.418546205088205 43.545436079846695 0 0 0 0 146.50108292976802 -140.97432931226649 0 -140.97432931226649 296.53676724357501 0 0 0 0 -14.462818339263549 -4.9230184832082386 0 -4.9230184832082386 25.3846889609556 0 0 0 0 -197.29916651314852 215.87342440429347 0 215.87342440429347 131.00572162755998 0 0 0 0 497.82709302165313 -495.4627983434184 0 -495.4627983434184 419.02345075781341 0 0 0 0 -12.304905743797349 -15.263833325629093 0 -15.263833325629093 13.630414563747763 0 0 0 0 147.77045092501794 -37.782976632362988 0 -37.782976632362988 59.493989252994652 0 0 0 0 163.60169927135576 199.51006719887664 0 199.51006719887664 244.61007094697561 0 0 0 0 -2.8695410998669217 12.039864036797042 0 12.039864036797042 71.454120974197053 0 0 0 0 -20.516774587642658 -49.141499527806516 0 -49.141499527806516 55.64956082770351 0 0 0 0 -30.151550835689704 -74.110812546377929 0 -74.110812546377929 1.2108528508470044 0 0 0 0 58.281285840104829 -147.51699653840251 0 -147.51699653840251 41.378426033392316 0 0 0 0 -14.306152941093387 289.66782599945827 0 289.66782599945827 57.172291620867327 0 0 0 0 5.6693408630700901 -2.3601581747472267 0 -2.3601581747472267 4.3006298594991108 0 0 0 0 143.27081265189918 -67.359439747888246 0 -67.359439747888246 -28.322250686680491 0 0 0 0 98.850771238590823 -19.158112985882326 0 -19.158112985882326 -54.29553357858822 0 0 0 0 16.000974484777544 -146.72449064721877 0 -146.72449064721877 44.583951242580952 0 0 0 0 188.3614343663794 -225.74628289859538 0 -225.74628289859538 68.202767674461938 0 0 0 0 2.3399154271258453 -21.871418213304878 0 -21.871418213304878 -10.709390749512124 0 0 0 0 0.013267179223475978 -5.9332434484749683 0 -5.9332434484749683 -13.266963766847766 0 0 0 0 -24.929997833780362 -80.385685684985219 0 -80.385685684985219 -53.91780957354058 0 0 0 0 -124.44736092549283 -88.705398552665429 0 -88.705398552665429 91.537611672658386 0 0 0 0 -3.2866935649508378 -24.868035914450957 0 -24.868035914450957 -31.095231273735408 0 0 0 0 135.33941045719257 -34.418416450127552 0 -34.418416450127552 -13.212511539753905 0 0 0 0 -66.523964964027982 21.352870953029196 0 21.352870953029196 -44.395765857203514 0 0 0 0 3.571013044061587 -14.948836842468836 0 -14.948836842468836 -13.038120834380436 0 0 0 0 -30.891410010648542 55.026273161332938 0 55.026273161332938 -187.2169023068891 0 0 0 0 -218.0774780275533 25.099820003320929 0 25.099820003320929 21.530985104815045 0 0 0 0 -128.22267064428888 -175.39726704872737 0 -175.39726704872737 415.76979187836696 0 0 0 0 -691.13767992332578 511.1747966404364 0 511.1747966404364 278.39624175192148 0 0 0 0 3.2095416108350037 -980.46505304695711 0 -980.46505304695711 1314.3480671222933 0 0 0 0 0.96665390650027794 -1326.9422738499127 0 -1326.9422738499127 1436.0923337660643 0 0 0 0 308.862758075702 -1020.8599146070301 0 -1020.8599146070301 1158.1295651596811 0 0 0 0 -107.58095065419911 106.3989593250335 0 106.3989593250335 1385.1849404407549 0 0 0 0 -16.549169519049258 -3.0845070403381953 0 -3.0845070403381953 8.3816691825250302 0 0 0 0 34.394714431284228 -798.46374063867552 0 -798.46374063867552 2066.9494643682356 0 0 0 0 -217.78332538003451 -208.65337621192157 0 -208.65337621192157 2671.5666134285857 0 0 0 0 -441.19203115766868 -1367.5595016910811 0 -1367.5595016910811 2161.7056121192581 0 0 0 0 496.36460296048608 -700.07402013055616 0 -700.07402013055616 614.3262187170767 0 0 0 0 448.09681195897792 -632.68215262824651 0 -632.68215262824651 537.99792886381329 0 0 0 0 -2.3486609868050436 -34.362971440463298 0 -34.362971440463298 481.51800355094019 0 0 0 0 0.72272672195086329 7.0156927585911149 0 7.0156927585911149 40.394614757732427 0 0 0 0 -58.316953519170056 -128.55079911971552 0 -128.55079911971552 -20.998529741205857 0 0 0 0 -652.76178117933887 -110.42807873642596 0 -110.42807873642596 98.620572427782463 0 0 0 0 -682.51786038230057 -162.5471085755853 0 -162.5471085755853 139.72795525113179 0 0 0 0 -825.26316377791227 -120.00932326489419 0 -120.00932326489419 134.24716367077781 0 0 0 0 -385.84514725385816 -142.82899974304746 0 -142.82899974304746 33.099333718215348 0 0 0 0 -1098.2754283605318 -222.71383158256504 0 -222.71383158256504 21.235121341524064 0 0 0 0 -751.50166272937372 -254.45194235480648 0 -254.45194235480648 61.202553917915793 0 0 0 0 -749.84979993002389 -56.411162338646307 0 -56.411162338646307 11.677591984072933 0 0 0 0 -360.40422387229046 -119.90795359126059 0 -119.90795359126059 -119.20420436753921 0 0 0 0 -387.6780807384057 -184.81630901314929 0 -184.81630901314929 57.266870702093001 0 0 0 0 73.91617879793921 55.908487911368866 0 55.908487911368866 24.501653956525843 0 0 0 0 -26.227925437883243 -40.559918600558234 0 -40.559918600558234 -32.593512232961643 0 0 0 0 97.532477774831932 -76.718414813090931 0 -76.718414813090931 -10.447506235701439 0 0 0 0 -131.56725665149861 -78.423390033014584 0 -78.423390033014584 -63.813673526005005 0 0 0 0 65.247341115606105 -55.173364405665779 0 -55.173364405665779 -8.9727323121041991 0 0 0 0 3.6340247881501284 -16.719515998107624 0 -16.719515998107624 -23.929348422219221 0 0 0 0 109.77614092550357 -49.706577821067185 0 -49.706577821067185 -12.021991447465552 0 0 0 0 -229.73021789983613 74.853390075542848 0 74.853390075542848 -43.805974993912969 0 0 0 0 -591.4595566294156 -133.0253778314509 0 -133.0253778314509 21.274317252366018 0 0 0 0 -688.82361052100896 166.78075529422495 0 166.78075529422495 -53.42037713744503 0 0 0 0 -2.5314195332594238 -2.506518696250339 0 -2.506518696250339 -10.548624253243361 0 0 0 0 -1124.1917484155565 162.75564490112447 0 162.75564490112447 70.793812769807118 0 0 0 0 68.066880439488159 -32.356888744623575 0 -32.356888744623575 11.093935205477464 0 0 0 0 932.30857707178802 -395.53156933942955 0 -395.53156933942955 460.30835300810577 0 0 0 0 632.16733436747199 -569.79291288084551 0 -569.79291288084551 1001.1142097613192 0 0 0 0 1036.3464121306215 -1678.4552096317402 0 -1678.4552096317402 789.31204106000951 0 0 0 0 -24.198105664496211 -31.092930788044953 0 -31.092930788044953 -34.415285759358198 0 0 0 0 -425.21159224040457 358.34280427773774 0 358.34280427773774 -97.969163041576394 0 0 0 0 290.32745942010661 -447.1631791254531 0 -447.1631791254531 705.82725954201305 0 0 0 0 -690.5681045181409 -1145.0365356500406 0 -1145.0365356500406 1224.9083977286864 0 0 0 0 396.05759241947089 -235.02706568596477 0 -235.02706568596477 -403.4556561075442 0 0 0 0 -1671.2020179142128 210.93756087467773 0 210.93756087467773 212.12822683426202 0 0 0 0 -1509.8920897764037 113.11205164008425 0 113.11205164008425 212.78755624766359 0 0 0 0 1652.9047979958214 122.42980782850537 0 122.42980782850537 -1394.1108017129009 0 0 0 0 -1517.1765139028721 247.62921956543869 0 247.62921956543869 381.05417564479285 0 0 0 0 -4.7354886467601887 -12.390848284270135 0 -12.390848284270135 -20.544399668743381 0 0 0 0 1630.3227701767 -1663.6563659571848 0 -1663.6563659571848 482.50214233726729 0 0 0 0 -21.061584308365127 -40.402371933866164 0 -40.402371933866164 39.359971912538839 0 0 0 0 -601.83014580718009 -251.72175850924395 0 -251.72175850924395 299.65551460544521 0 0 0 0 -1.2947838124338773 -12.811421333602823 0 -12.811421333602823 -9.467522586538422 0 0 0 0 -233.91222234760062 -755.60498610447394 0 -755.60498610447394 -683.45514764522522 0 0 0 0 448.14872552444285 144.45581952067005 0 144.45581952067005 -1113.7964912906173 0 0 0 0 -347.72145045726211 -230.29662277822354 0 -230.29662277822354 -32.053454426699318 0 0 0 0 267.35194318776485 71.952749790209054 0 71.952749790209054 -5.8867107760333965 0 0 0 0 -795.01666208065581 -207.66335072091897 0 -207.66335072091897 69.230320516246138 0 0 0 0 -787.68679372145562 -60.408636112799286 0 -60.408636112799286 -566.36640802863985 0 0 0 0 -1531.9162477975042 405.85857774372562 0 405.85857774372562 -15.183382943912875 0 0 0 0 -1348.4794577839202 289.25740213136305 0 289.25740213136305 22.393285494203155 0 0 0 0 -624.96877291137935 65.944476649907301 0 65.944476649907301 -58.898399449564749 0 0 0 0 -785.07698990506469 457.22947243756789 0 457.22947243756789 654.39123075856696 0 0 0 0 -6.5103947088911696 -68.668395716850057 0 -68.668395716850057 41.988046493492035 0 0 0 0 -988.54522413539235 -116.56963645667565 0 -116.56963645667565 370.81499898096081 0 0 0 0 -1607.7647478356957 85.181673649436561 0 85.181673649436561 557.14494545068737 0 0 0 0 1675.5962751162006 -3748.8101066985982 0 -3748.8101066985982 -599.21520917670568 0 0 0 0 868.33395347290207 1063.7463432059158 0 1063.7463432059158 -3871.5498286494985 0 0 0 0 -352.25277525447018 -480.62379724283164 0 -480.62379724283164 266.91091972513823 0 0 0 0 -5.830989680738071 -61.262311722533155 0 -61.262311722533155 -14.93519271778203 0 0 0 0 -20.171118866770485 -72.634196376746331 0 -72.634196376746331 74.793646842314047 0 0 0 0 -7.4524028455234657 -132.46174414157304 0 -132.46174414157304 -151.81851885165088 0 0 0 0 26.339304919005372 -43.09897901158547 0 -43.09897901158547 -115.19229314586119 0 0 0 0 309.13894274031918 -128.23693281094893 0 -128.23693281094893 -201.04376312019303 0 0 0 0 48.405939369928092 41.602454014100658 0 41.602454014100658 -24.306383172384812 0 0 0 0 345.40974545304198 104.83614099355327 0 104.83614099355327 -16.372191426286008 0 0 0 0 -3.7772712312580552 -47.623140091774985 0 -47.623140091774985 -113.171200586954 0 0 0 0 -4.1657658120966516 -24.976210483182513 0 -24.976210483182513 -41.65488393054693 0 0 0 0 9.8068875763030974 -4.3749890201998483 0 -4.3749890201998483 -27.608033892897168 0 0 0 0 -269.93747658166103 -331.21861501135572 0 -331.21861501135572 159.59817907750039 0 0 0 0 -112.97815275123867 -119.36811505090736 0 -119.36811505090736 189.00767572606856 0 0 0 0 208.60355352205806 -311.2718049177347 0 -311.2718049177347 -229.79312331840265 0 0 0 0 5.5176971061591757 -190.50903884293075 0 -190.50903884293075 121.47706816266145 0 0 0 0 59.431534787450403 -128.31033103712528 0 -128.31033103712528 90.686496900657446 0 0 0 0 396.31028576177778 -56.040468894214428 0 -56.040468894214428 -141.2609614394969 0 0 0 0 399.30314899631776 -241.17386685946258 0 -241.17386685946258 -128.63359617919195 0 0 0 0 400.00172253491473 -184.82193136540445 0 -184.82193136540445 -321.14774475506783 0 0 0 0 230.69815160191501 -328.05735686050321 0 -328.05735686050321 -256.89447605346504 0 0 0 0 330.42023203946883 -313.09928189162747 0 -313.09928189162747 -442.99256873289232 0 0 0 0 166.99945067121735 -459.18769294262165 0 -459.18769294262165 -390.09067093337944 0 0 0 0 -326.8018423772628 -222.21669615133851 0 -222.21669615133851 -31.984203079409781 0 0 0 0 -2.1696484695794993 -3.0377716845866587 0 -3.0377716845866587 -3.0848154840951452 0 0 0 0 133.61030715680681 -69.410480468446622 0 -69.410480468446622 -88.694423110930074 0 0 0 0 245.45782638252422 -264.3858501957111 0 -264.3858501957111 173.35760218270298 0 0 0 0 376.85689425026067 -105.32909922640101 0 -105.32909922640101 134.1482247270178 0 0 0 0 671.46182462212164 -227.69245897507062 0 -227.69245897507062 -166.93680800951552 0 0 0 0 537.67821753828321 -47.009546409641189 0 -47.009546409641189 -73.870834526460385 0 0 0 0 507.99751798569923 -113.95584716706071 0 -113.95584716706071 -114.24588092444174 0 0 0 0 954.09626946976641 -220.36169115795929 0 -220.36169115795929 -27.972597470376058 0 0 0 0 210.28361791349016 804.8174678508658 0 804.8174678508658 388.94389664696064 0 0 0 0 456.02075102718663 -271.73269731250912 0 -271.73269731250912 442.69435897367657 0 0 0 0 -11.992220920743421 -477.40302136301761 0 -477.40302136301761 192.32359443153837 0 0 0 0 -151.56840168498456 -1421.3627059986175 0 -1421.3627059986175 627.96875923001789 0 0 0 0 -326.21516128210351 -228.09347400561091 0 -228.09347400561091 91.127295045065694 0 0 0 0 -523.0101770486217 257.45209602219984 0 257.45209602219984 -458.98391171329422 0 0 0 0 -1376.8155984932091 106.73456170994905 0 106.73456170994905 403.11730407991854 0 0 0 0 0.41934761187724234 -1.5086035523616346 0 -1.5086035523616346 -1.1442077425962935 0 0 0 0 -1685.5232983327005 -995.46636427796329 0 -995.46636427796329 1195.2378988290438 0 0 0 0 224.99782129842788 -254.1859794882439 0 -254.1859794882439 74.387624198672711 0 0 0 0 -4.3880110046085861 -7.0484053669015623 0 -7.0484053669015623 -11.327570316454512 0 0 0 0 219.27538354447461 -71.865406017528585 0 -71.865406017528585 47.691084334426705 0 0 0 0 272.0677456195117 -333.46121876825055 0 -333.46121876825055 39.966112924128538 0 0 0 0 535.33374877850292 -305.14225658707801 0 -305.14225658707801 -20.022475305246189 0 0 0 0 180.05441041116137 -547.1575269898749 0 -547.1575269898749 148.72264381262357 0 0 0 0 584.94498633383773 89.957437409117119 0 89.957437409117119 299.2020351579522 0 0 0 0 1238.2334507889464 -610.58278467346099 0 -610.58278467346099 -161.53241219588381 0 0 0 0 99.866890817589592 -338.26274473466765 0 -338.26274473466765 43.387422435185726 0 0 0 0 511.75840624372358 -53.824647246226959 0 -53.824647246226959 23.000027668123948 0 0 0 0 -213.33916160522494 -25.221279797215175 0 -25.221279797215175 72.383484114630846 0 0 0 0 77.584743423154578 7.6085802176639845 0 7.6085802176639845 -51.746595179840369 0 0 0 0 -319.36756810953375 -487.94858005142669 0 -487.94858005142669 -302.92304043556214 0 0 0 0 12.529722175211646 -432.62233621592168 0 -432.62233621592168 -306.46299492495655 0 0 0 0 -96.471975578693673 -462.22480847027327 0 -462.22480847027327 -175.23300597576599 0 0 0 0 -57.616827206045855 -221.34954083159391 0 -221.34954083159391 -220.66164929323713 0 0 0 0 194.36936624202644 -176.29918103465025 0 -176.29918103465025 -293.70629673474468 0 0 0 0 -81.779017321838182 -31.471019274842547 0 -31.471019274842547 -357.03753377479734 0 0 0 0 37.055111033143476 -278.62587598682148 0 -278.62587598682148 -298.99949481844669 0 0 0 0 17.956047342973761 18.833690003790252 0 18.833690003790252 -707.9443270467309 0 0 0 0 -442.17903203261085 -95.240652159023739 0 -95.240652159023739 -368.00537145585986 0 0 0 0 -54.107367807708215 -579.52961205295287 0 -579.52961205295287 -447.8307658026315 0 0 0 0 -5.0325991626148152 -6.9419129526212107 0 -6.9419129526212107 6.7272030164957215 0 0 0 0 111.23598413239233 -450.29700958731701 0 -450.29700958731701 -650.12734602329147 0 0 0 0 -16.797922170284437 -27.239806645244244 0 -27.239806645244244 -41.378866211351124 0 0 0 0 565.25725228438387 78.761007301087375 0 78.761007301087375 -36.383217093527492 0 0 0 0 11.278274131411763 2.4609570078478953 0 2.4609570078478953 -11.028873486212362 0 0 0 0 52.721115035703406 -286.64774375452544 0 -286.64774375452544 -242.14747634221567 0 0 0 0 -25.190575882792473 22.070413084060419 0 22.070413084060419 -644.8900325728282 0 0 0 0 45.063908322597854 -308.70240313773684 0 -308.70240313773684 -186.70534767591744 0 0 0 0 -54.3318027833011 -272.37674316571793 0 -272.37674316571793 -37.158951811812585 0 0 0 0 53.709978012717329 -162.76940586901037 0 -162.76940586901037 -544.24900864000665 0 0 0 0 111.23792462376878 -439.33346276913653 0 -439.33346276913653 -476.73766302271906 0 0 0 0 -33.709214881819207 -492.62670550484472 0 -492.62670550484472 -186.39220664202003 0 0 0 0 -36.168000430043321 -442.43714039272163 0 -442.43714039272163 2.2583069692773279 0 0 0 0 6.6606424976635026 -449.44994132575448 0 -449.44994132575448 -3.4102975211571902 0 0 0 0 25.868727408931591 -387.29171796719311 0 -387.29171796719311 -202.17424508567092 0 0 0 0 56.254392637929413 -441.94060059159528 0 -441.94060059159528 -2.008962889391114 0 0 0 0 -26.032037289813161 -370.09878603578545 0 -370.09878603578545 150.4848861679784 0 0 0 0 -75.174080788507126 -349.87333803965885 0 -349.87333803965885 85.287289134779712 0 0 0 0 7.0063499973039143 -291.07175056549022 0 -291.07175056549022 -172.21321369812358 0 0 0 0 38.69782975804992 -392.48996833071578 0 -392.48996833071578 -207.91661973839655 0 0 0 0 14.769426149199717 -393.25539145103539 0 -393.25539145103539 13.293418055807706 0 0 0 0 3.8075707001262344 -431.18538466034806 0 -431.18538466034806 71.534557753475383 0 0 0 0 18.370512846217025 -380.67338865116471 0 -380.67338865116471 11.476888772129314 0 0 0 0 17.738177624472883 -381.78198990458623 0 -381.78198990458623 23.723376418085536 0 0 0 0 76.588326279073954 -489.89694588469865 0 -489.89694588469865 71.23132088332386 0 0 0 0 97.313390608731424 -355.94940496814525 0 -355.94940496814525 126.50349207343243 0 0 0 0 -13.462211600737646 -324.46102051688649 0 -324.46102051688649 226.72327822090301 0 0 0 0 16.638296977151185 -377.60804835018644 0 -377.60804835018644 151.2251892286331 0 0 0 0 -8.1716327957692556 -414.94163971162925 0 -414.94163971162925 265.61687216823339 0 0 0 0 -31.477332280948758 -405.51079866672808 0 -405.51079866672808 165.41126045968849 0 0 0 0 -9.0128432651981711 -412.17904571253166 0 -412.17904571253166 167.29984420232358 0 0 0 0 -25.024941089621279 -336.63928841442976 0 -336.63928841442976 247.70665436606214 0 0 0 0 20.711445580935106 -363.35377224408148 0 -363.35377224408148 282.24910259268654 0 0 0 0 -43.560781235573813 -350.63741635248152 0 -350.63741635248152 398.5273630527663 0 0 0 0 21.461760419653729 -342.65442720828287 0 -342.65442720828287 307.9243401133208 0 0 0 0 0.23380871315021068 -392.7584298800939 0 -392.7584298800939 466.6101881681534 0 0 0 0 272.97620222152909 -422.95485922922671 0 -422.95485922922671 244.27305060965591 0 0 0 0 57.605575214663986 -333.33477373485221 0 -333.33477373485221 206.98521360001178 0 0 0 0 126.98703547997866 -425.88211334990774 0 -425.88211334990774 144.25024826833396 0 0 0 0 -4.7075399484383524 -387.23040902677167 0 -387.23040902677167 327.51836053078296 0 0 0 0 1.1191276604367886 -375.53908136587052 0 -375.53908136587052 125.58353796284064 0 0 0 0 65.721616433351301 -443.23852354761038 0 -443.23852354761038 -23.400584741204511 0 0 0 0 51.006660107286734 -268.77020134556369 0 -268.77020134556369 -34.955421693826793 0 0 0 0 37.738044998055557 -352.06323737292769 0 -352.06323737292769 -122.67036763957003 0 0 0 0 90.596985563635826 -115.89962040094542 0 -115.89962040094542 -164.66690329332778 0 0 0 0 95.86356677004369 -347.47520559953409 0 -347.47520559953409 -124.37382778355095 0 0 0 0 269.20236475992715 -419.32931654469576 0 -419.32931654469576 65.522400160407415 0 0 0 0 207.76500588728959 -174.23117702195304 0 -174.23117702195304 30.961756492441054 0 0 0 0 262.02100469759898 -246.31691476044944 0 -246.31691476044944 -75.011644861093373 0 0 0 0 498.18477553268895 -303.80873511463142 0 -303.80873511463142 86.626478752688854 0 0 0 0 443.25349987723166 -228.88194554274378 0 -228.88194554274378 221.37335098271433 0 0 0 0 315.30070945550688 -514.9557258008208 0 -514.9557258008208 440.68617994085071 0 0 0 0 560.51991485478356 -374.37717732971214 0 -374.37717732971214 401.63593970987131 0 0 0 0 207.54763851940515 76.555177432128403 0 76.555177432128403 302.04350730674923 0 0 0 0 829.22285321250092 -69.306040578056127 0 -69.306040578056127 195.98468372196658 0 0 0 0 500.42235145941959 2.8373707845603349 0 2.8373707845603349 16.003788899935898 0 0 0 0 350.81982548866654 -107.71196499702637 0 -107.71196499702637 195.0747527922249 0 0 0 0 174.08680954204465 141.00470888904056 0 141.00470888904056 123.44851012676372 0 0 0 0 225.48621996678412 13.229684999416349 0 13.229684999416349 91.67891312376014 0 0 0 0 277.77989921232802 54.192708000846324 0 54.192708000846324 -122.39621426854865 0 0 0 0 145.81855213083327 78.088048320147209 0 78.088048320147209 80.259612387246307 0 0 0 0 167.67986728978576 53.460034133575391 0 53.460034133575391 -92.594461957283784 0 0 0 0 88.724599600187503 79.995076549792429 0 79.995076549792429 -96.890502710693909 0 0 0 0 113.63275580701884 -57.035748527960095 0 -57.035748527960095 -168.78552385753574 0 0 0 0 310.42200686241267 -20.919736090028891 0 -20.919736090028891 -161.89310082203156 0 0 0 0 201.0206297172117 -45.236422051992122 0 -45.236422051992122 9.9942916779255029 0 0 0 0 20.252733894187259 60.252627629339258 0 60.252627629339258 53.532472641818458 0 0 0 0 13.985911002062494 83.86732825866784 0 83.86732825866784 158.15412306737562 0 0 0 0 47.46996282186592 49.984796872973675 0 49.984796872973675 283.4222367493785 0 0 0 0 71.246176120592281 61.157317403296474 0 61.157317403296474 96.82391769401147 0 0 0 0 87.016784314400866 86.183359885097161 0 86.183359885097161 -52.0182099120575 0 0 0 0 25.315782640303951 123.32064514722151 0 123.32064514722151 -55.994758258226284 0 0 0 0 56.229322062572464 78.375219434383325 0 78.375219434383325 93.950896824731899 0 0 0 0 -0.80534015112789348 95.92287729914824 0 95.92287729914824 95.681583931984051 0 0 0 0 6.5381175410584547 88.701054542703787 0 88.701054542703787 -45.169942779131816 0 0 0 0 16.02741835701454 137.71228413051176 0 137.71228413051176 17.122320751121151 0 0 0 0 -18.203792814194458 132.80514607426448 0 132.80514607426448 -63.61790231091436 0 0 0 0 -3.6064797412764165 117.56943300303101 0 117.56943300303101 -173.56685726408614 0 0 0 0 0.67162499175174162 93.148305556220294 0 93.148305556220294 -124.46053191073588 0 0 0 0 19.048065132024931 129.1244064425191 0 129.1244064425191 -128.08642618960585 0 0 0 0 -13.821509732166305 67.891072372134659 0 67.891072372134659 -204.35938533494482 0 0 0 0 -0.46455870958743617 84.942402865752229 0 84.942402865752229 -231.11783419411222 0 0 0 0 -1.5591031341828057 33.669300569203187 0 33.669300569203187 -180.20660079806112 0 0 0 0 -189.9095646032365 -112.98954682536714 0 -112.98954682536714 -343.8600313667921 0 0 0 0 -45.59709985012887 -19.793059335948783 0 -19.793059335948783 -374.79886226296367 0 0 0 0 -25.709829915416776 91.727800757351361 0 91.727800757351361 -242.48003457894083 0 0 0 0 -1.2304180201608688 48.085906718159094 0 48.085906718159094 -336.97910567105282 0 0 0 0 -21.216545675357338 54.861881867996999 0 54.861881867996999 -236.46302056583227 0 0 0 0 168.93143064447213 -163.93749445040157 0 -163.93749445040157 -565.33793296852673 0 0 0 0 222.26133554943954 -7.0590431589444051 0 -7.0590431589444051 -356.68167838067166 0 0 0 0 62.624595978704747 -56.494923965459748 0 -56.494923965459748 -359.30420411350542 0 0 0 0 78.47431454283651 -58.894943254170357 0 -58.894943254170357 -165.46925990013187 0 0 0 0 -48.647128436845378 -33.733159838984648 0 -33.733159838984648 -251.31222754126065 0 0 0 0 95.790712664893363 33.744308020806784 0 33.744308020806784 -234.25813366449438 0 0 0 0 -107.45779612389742 -202.18636605143547 0 -202.18636605143547 -524.20212929414629 0 0 0 0 128.3049715646921 -104.52029356943603 0 -104.52029356943603 -532.88841819313529 0 0 0 0 2.0690277017516792 -9.631003455372138 0 -9.631003455372138 -1.4059888006732706 0 0 0 0 -14.667701704485808 -56.688260916918807 0 -56.688260916918807 -70.372623906143417 0 0 0 0 -2.9108724167599576 -28.783838899254988 0 -28.783838899254988 -30.157670080552634 0 0 0 0 -14.049939426208596 -33.799699306264444 0 -33.799699306264444 -17.696860522204801 0 0 0 0 120.63094517993159 -229.13470214739937 0 -229.13470214739937 -796.87021069397815 0 0 0 0 -164.04142268293072 -313.4079718210487 0 -313.4079718210487 -223.03668784471665 0 0 0 0 -61.752708404819714 -114.55908305387857 0 -114.55908305387857 -213.56993824061055 0 0 0 0 -73.61205983444961 -47.685210210713194 0 -47.685210210713194 -803.14400976515026 0 0 0 0 -7.7176926688262029 -54.597317261108401 0 -54.597317261108401 -97.664958836627193 0 0 0 0 -0.39901495235193352 -32.366680829417106 0 -32.366680829417106 20.33933564173789 0 0 0 0 -5.1532609104486937 0.54826291602626043 0 0.54826291602626043 14.329575231628951 0 0 0 0 -3.4107651976519264 6.3493956947349943 0 6.3493956947349943 -454.52455708412162 0 0 0 0 -160.3965440352913 14.158349842313328 0 14.158349842313328 -309.94051612901967 0 0 0 0 -16.275243182753911 -40.486167793151253 0 -40.486167793151253 -58.245650481680059 0 0 0 0 -22.634315940755187 -50.77911184792174 0 -50.77911184792174 -72.069136462654569 0 0 0 0 -8.9700906436046353 -13.570440723829961 0 -13.570440723829961 90.54774505797468 0 0 0 0 11.50382258690189 -20.241623491598297 0 -20.241623491598297 -6.1222563605821563 0 0 0 0 0.0053958011994836852 -18.343724172740622 0 -18.343724172740622 -56.597995047322911 0 0 0 0 61.187580543453805 -67.197364242609183 0 -67.197364242609183 -164.35768571021617 0 0 0 0 5.6827209663029521 -38.244586797320366 0 -38.244586797320366 16.604910789647604 0 0 0 0 -11.335536330752348 -25.473563405724875 0 -25.473563405724875 -56.937546689953038 0 0 0 0 8.4548746421642136 -124.14697529043769 0 -124.14697529043769 -72.440697641141014 0 0 0 0 14.719092746148817 -31.060390446400561 0 -31.060390446400561 -87.10873038682621 0 0 0 0 7.6678481735507376 -73.147177089551406 0 -73.147177089551406 -147.06031944313145 0 0 0 0 -9.1531990858638892 -129.89981365726999 0 -129.89981365726999 -303.72964933275944 0 0 0 0 19.670437432534527 -6.0716608402290149 0 -6.0716608402290149 -200.58578761151875 0 0 0 0 8.3161838231317233 -38.010936696875433 0 -38.010936696875433 -286.93136199840228 0 0 0 0 47.588718464889098 -56.994834978177096 0 -56.994834978177096 -211.01844061260635 0 0 0 0 29.685385482094716 15.39932206676167 0 15.39932206676167 -153.28779548661987 0 0 0 0 49.299499083164847 -57.271309771524102 0 -57.271309771524102 18.572650507907383 0 0 0 0 1.4108843171052285 -13.318689948368046 0 -13.318689948368046 -71.780525810376275 0 0 0 0 3.809056846028092 -14.206651360854636 0 -14.206651360854636 -80.034155036662924 0 0 0 0 47.725412815896561 -40.221735243641888 0 -40.221735243641888 -142.45073639827024 0 0 0 0 87.205555236549117 -82.007904792902991 0 -82.007904792902991 -170.39569629379548 0 0 0 0 84.938852121864329 -82.924388396444556 0 -82.924388396444556 -147.14060270434129 0 0 0 0 46.828656057652552 -52.03864848575904 0 -52.03864848575904 -118.02203427979839 0 0 0 0 1.4518645703279347 -8.8806120393159631 0 -8.8806120393159631 -65.245565921009529 0 0 0 0 57.950455914367922 75.398965453354322 0 75.398965453354322 -96.48515799503366 0 0 0 0 0.60525103969848715 -10.787706623752456 0 -10.787706623752456 -71.083350049540059 0 0 0 0 46.729859283426777 76.476016778535268 0 76.476016778535268 -52.779473553186108 0 0 0 0 30.138361628574785 30.469254919749801 0 30.469254919749801 -43.288693712078384 0 0 0 0 46.566675057809334 70.067077816442179 0 70.067077816442179 -108.68670576154545 0 0 0 0 47.739983363775536 83.925947806856129 0 83.925947806856129 -102.35875654921983 0 0 0 0 47.503394962288439 84.578966645698529 0 84.578966645698529 -103.90560264101077 0 0 0 0 41.242061631113756 75.733448565995786 0 75.733448565995786 -96.514768534820178 0 0 0 0 33.612090791517403 85.867624358390458 0 85.867624358390458 -97.323128130490659 0 0 0 0 11.157389607920777 97.225292389295646 0 97.225292389295646 -246.80640731203675 0 0 0 0 16.198455738689518 66.798706229434174 0 66.798706229434174 -169.20293387639686 0 0 0 0 29.052195659489371 75.921628519587102 0 75.921628519587102 -195.88026368447572 0 0 0 0 21.936148702923674 58.919731172045431 0 58.919731172045431 -135.57407068379689 0 0 0 0 21.688324645132525 -6.0425111205768189 0 -6.0425111205768189 -205.74800649340614 0 0 0 0 28.363772116019391 14.564816581401828 0 14.564816581401828 -150.59089016052894 0 0 0 0 30.347373074153438 72.82767955516465 0 72.82767955516465 -116.11345628851268 0 0 0 0 41.244776517511127 76.056169621713707 0 76.056169621713707 -128.19467739318497 0 0 0 0 29.481872998003382 88.732237755219103 0 88.732237755219103 -99.1049611075141 0 0 0 0 33.754969745699782 84.77114576769236 0 84.77114576769236 -95.699990205583163 0 0 0 0 29.712310432689264 91.846662192909207 0 91.846662192909207 -137.98123513263999 0 0 0 0 12.978146339009982 117.8684040512162 0 117.8684040512162 -97.399331995788089 0 0 0 0 15.653771429031622 94.406426476329216 0 94.406426476329216 -104.90519181167474 0 0 0 0 3.8003121968940832 121.4869354168477 0 121.4869354168477 -117.14693536717095 0 0 0 0 24.266111810662551 98.607014517980133 0 98.607014517980133 -177.63066087622428 0 0 0 0 -7.7961949436576106 119.83938044073875 0 119.83938044073875 -14.970809597318294 0 0 0 0 9.4629652551957406 96.507040409138426 0 96.507040409138426 -86.408640345354797 0 0 0 0 13.788513626881468 124.21597388369992 0 124.21597388369992 -60.884228181123035 0 0 0 0 11.71198098291643 93.694712883123429 0 93.694712883123429 -66.417394729520311 0 0 0 0 10.613987557400833 96.9493730123977 0 96.9493730123977 -75.112589656695491 0 0 0 0 12.904967137612402 80.362967806766392 0 80.362967806766392 -51.649103688716423 0 0 0 0 -4.8675141080166213 71.967368985009671 0 71.967368985009671 -53.162312449538149 0 0 0 0 -4.1829956992296502 60.507199309271527 0 60.507199309271527 -34.866120408201823 0 0 0 0 -19.295517138452851 42.918131049085787 0 42.918131049085787 -53.279274601984071 0 0 0 0 -17.94887209450826 43.245900022069691 0 43.245900022069691 5.3012762089056196 0 0 0 0 -21.292956644203514 44.372819686732328 0 44.372819686732328 8.1589952118811198 0 0 0 0 -8.5262245459016412 84.334195029732655 0 84.334195029732655 -19.921863142648363 0 0 0 0 -5.2565454004216008 75.349744541439577 0 75.349744541439577 2.002208063222497 0 0 0 0 -17.623653661459684 35.77967616605747 0 35.77967616605747 54.151615433263942 0 0 0 0 -13.536486195051111 80.206200839733356 0 80.206200839733356 84.021015203325078 0 0 0 0 -4.1396759329363704 90.721770070682396 0 90.721770070682396 21.013935438502813 0 0 0 0 55.271159453157452 63.946671986710498 0 63.946671986710498 -95.47256880052737 0 0 0 0 0.01913359124508696 -11.357467067360838 0 -11.357467067360838 -58.800088307412807 0 0 0 0 40.357709545118269 49.557722420609934 0 49.557722420609934 -77.21298284047225 0 0 0 0 45.535257220217318 74.178214085564832 0 74.178214085564832 -86.063959788181819 0 0 0 0 11.654760710720439 73.989728526910767 0 73.989728526910767 -83.74994153665466 0 0 0 0 8.1172038689910551 29.251476937130064 0 29.251476937130064 -89.60374676999345 0 0 0 0 -33.157185138319619 -24.170899981174443 0 -24.170899981174443 -78.621493985705456 0 0 0 0 1.7730253311236694 -11.462947360374244 0 -11.462947360374244 -51.147834477222176 0 0 0 0 -1.1925271418876946 -9.4038201373296033 0 -9.4038201373296033 -57.090137070010314 0 0 0 0 -157.47094995253428 -9.6403932609864569 0 -9.6403932609864569 54.3254077515885 0 0 0 0 -119.78098768749624 -51.932369516314793 0 -51.932369516314793 20.031979405102902 0 0 0 0 -53.412090707628522 2.2485599321953487 0 2.2485599321953487 3.1893885230674641 0 0 0 0 -47.578644137945957 18.497914958839829 0 18.497914958839829 47.651423903560499 0 0 0 0 -25.491050709737465 -2.2074322622429463 0 -2.2074322622429463 33.940811206965009 0 0 0 0 -2.652079739200417 17.98594182189845 0 17.98594182189845 107.18003293218499 0 0 0 0 -6.5067658986918104 45.698075003861049 0 45.698075003861049 62.947107782209059 0 0 0 0 -23.368969718576409 -17.38669254566048 0 -17.38669254566048 99.201117465636344 0 0 0 0 10.139945055227145 -53.064099214525413 0 -53.064099214525413 169.93882627043058 0 0 0 0 1.2551503705617506 -13.593793948199163 0 -13.593793948199163 82.401109304046258 0 0 0 0 18.660898762871511 -69.451583791098528 0 -69.451583791098528 147.23082026603515 0 0 0 0 23.967976354295388 -76.776667804886529 0 -76.776667804886529 104.71487557008732 0 0 0 0 -52.27975684433477 -27.616195370370406 0 -27.616195370370406 78.195870535404538 0 0 0 0 -67.881425813189708 8.296649212075863 0 8.296649212075863 46.00261217111256 0 0 0 0 -2.8765736031346023 -26.750264593771135 0 -26.750264593771135 29.248933387847501 0 0 0 0 -79.451281375775579 -26.348034687413019 0 -26.348034687413019 66.94342166975548 0 0 0 0 47.458749594166875 -99.641405245893111 0 -99.641405245893111 64.119223398738541 0 0 0 0 26.026469503500266 -15.018853093097277 0 -15.018853093097277 -49.706838541722391 0 0 0 0 64.115429136290913 -110.09818310620904 0 -110.09818310620904 15.117145393931423 0 0 0 0 103.47280086632236 -170.08950645619188 0 -170.08950645619188 103.49355046213896 0 0 0 0 151.23809242327115 -212.29906680414388 0 -212.29906680414388 -2.6504973716801032 0 0 0 0 138.89594182174187 -206.3890484370786 0 -206.3890484370786 36.66447206792509 0 0 0 0 100.28749995741964 -165.55693706457168 0 -165.55693706457168 1.17131548904581 0 0 0 0 114.99574460441363 -97.744307984467014 0 -97.744307984467014 -97.25714581655393 0 0 0 0 -0.071956321844481863 -13.10403511102777 0 -13.10403511102777 -45.287160692707403 0 0 0 0 -28.918030704837292 28.917566742180497 0 28.917566742180497 -83.105753669546175 0 0 0 0 -117.84148945994093 37.004741464672406 0 37.004741464672406 -2.9714187225617934 0 0 0 0 568.80941929823894 -279.46194500059391 0 -279.46194500059391 333.23740130208898 0 0 0 0 490.95425195491407 -449.67835706475307 0 -449.67835706475307 476.46791922699049 0 0 0 0 321.82824075956887 -145.71524312478869 0 -145.71524312478869 612.86159753330867 0 0 0 0 805.78671168966684 -622.04955045135284 0 -622.04955045135284 551.09509825822897 0 0 0 0 335.11213269323343 -292.88084609778889 0 -292.88084609778889 1320.0285439610307 0 0 0 0 453.56594008032698 20.756235713342903 0 20.756235713342903 294.23654163735409 0 0 0 0 988.61429118353408 312.96742505750444 0 312.96742505750444 733.17955515554058 0 0 0 0 416.59446747609763 41.700707972435339 0 41.700707972435339 605.19734120751673 0 0 0 0 127.41262268438004 36.007156460487749 0 36.007156460487749 583.63702215373632 0 0 0 0 259.49375889496878 -236.22417697170749 0 -236.22417697170749 492.05517032078569 0 0 0 0 248.06489275005879 -321.40100136944966 0 -321.40100136944966 364.29458616133707 0 0 0 0 333.09683385069366 -269.00735985371284 0 -269.00735985371284 272.0759577187564 0 0 0 0 138.24555802534451 -134.60824531151593 0 -134.60824531151593 420.46619583660504 0 0 0 0 69.663700287230313 -98.785601248306193 0 -98.785601248306193 248.46753223518317 0 0 0 0 142.83326938550454 -229.91055235220847 0 -229.91055235220847 211.78304494799886 0 0 0 0 133.12255428053322 -165.48423141513194 0 -165.48423141513194 310.24917476592236 0 0 0 0 147.23660131529323 -4.8403453729952162 0 -4.8403453729952162 252.36018129029253 0 0 0 0 43.552208996086847 -31.461574773769826 0 -31.461574773769826 365.82197297136008 0 0 0 0 54.433732047087688 -2.9845786758432951 0 -2.9845786758432951 183.32731948321452 0 0 0 0 16.001482767460402 -7.3075375882181106 0 -7.3075375882181106 194.23194313147542 0 0 0 0 11.76411956368247 34.88154495559138 0 34.88154495559138 126.18426423017809 0 0 0 0 50.03642993257381 -110.09770600438787 0 -110.09770600438787 250.64978949884608 0 0 0 0 43.603206266532652 -60.821987497023656 0 -60.821987497023656 118.59363574780582 0 0 0 0 89.519921213679481 -178.58928491192273 0 -178.58928491192273 162.42066746827913 0 0 0 0 178.05542166557279 -251.50449991894129 0 -251.50449991894129 67.968755746682291 0 0 0 0 162.12934850729653 -251.07880104378273 0 -251.07880104378273 71.950176656959229 0 0 0 0 178.01098947174614 -253.83519821699883 0 -253.83519821699883 143.2338217425422 0 0 0 0 267.94316021955456 -272.60055928584188 0 -272.60055928584188 43.328228378515632 0 0 0 0 237.67960299769766 -306.46612189515145 0 -306.46612189515145 189.50758397739264 0 0 0 0 156.35292077218764 -211.46758197988675 0 -211.46758197988675 234.38002385321306 0 0 0 0 362.90196783797001 -347.12924524988193 0 -347.12924524988193 245.5919094838755 0 0 0 0 297.60293409400037 -256.68499855388654 0 -256.68499855388654 120.72680894508085 0 0 0 0 268.00399641832337 -285.20890852426237 0 -285.20890852426237 114.0818603475127 0 0 0 0 353.11035216873279 -227.49652253273962 0 -227.49652253273962 4.4053842561552301 0 0 0 0 349.05178502976196 -242.56195632060553 0 -242.56195632060553 80.330689557158621 0 0 0 0 427.0858122753998 -151.48532366511245 0 -151.48532366511245 -38.618189397049719 0 0 0 0 512.24698315677233 -259.22531724239525 0 -259.22531724239525 78.006430777351852 0 0 0 0 695.98476255009882 -338.85447035334801 0 -338.85447035334801 196.84606611666095 0 0 0 0 473.61037905576814 -203.65607887108854 0 -203.65607887108854 119.19586505225743 0 0 0 0 88.207958111641346 -65.819670545646659 0 -65.819670545646659 -34.08192022574076 0 0 0 0 278.48940540289186 -89.483321430127944 0 -89.483321430127944 -55.397571419569431 0 0 0 0 241.57074901293527 -228.33267309648909 0 -228.33267309648909 11.703909780248068 0 0 0 0 266.69016543347971 -233.64345013536877 0 -233.64345013536877 -13.82860859734501 0 0 0 0 199.32253780626343 -184.02539046795573 0 -184.02539046795573 -18.121901621474535 0 0 0 0 142.45044568370213 -214.6473033277216 0 -214.6473033277216 -16.295408850173771 0 0 0 0 204.52373191469815 -284.78106583370754 0 -284.78106583370754 -43.317506650681025 0 0 0 0 194.63658830957138 -252.52875861612847 0 -252.52875861612847 38.386910361627088 0 0 0 0 207.46317452155927 -273.96253151677047 0 -273.96253151677047 0.53837119431409519 0 0 0 0 205.83530044087092 -252.96282517630152 0 -252.96282517630152 -21.460305232423707 0 0 0 0 208.85302233681432 -263.34501972106955 0 -263.34501972106955 -7.6696538579235494 0 0 0 0 140.90117189245939 -302.01721466091112 0 -302.01721466091112 -109.8469448385149 0 0 0 0 223.05949900018095 -250.92513066602805 0 -250.92513066602805 -31.952908001549076 0 0 0 0 221.55413743699501 -240.34845228105496 0 -240.34845228105496 -65.857374421771965 0 0 0 0 -45.993950240634149 -172.44079953599794 0 -172.44079953599794 -18.52309713998693 0 0 0 0 0.28431157721027944 1.1472236287613644 0 1.1472236287613644 -19.481259709471487 0 0 0 0 154.00122687980183 -148.97329167388671 0 -148.97329167388671 -38.21848339009739 0 0 0 0 139.02037730527809 -141.56298748090558 0 -141.56298748090558 -6.6157478352251928 0 0 0 0 2.0877652200160597 -12.284990324190801 0 -12.284990324190801 -38.775849424560903 0 0 0 0 11.299331267538946 -5.0296959316383436 0 -5.0296959316383436 -39.8914721558358 0 0 0 0 146.11850437606336 -162.61348251476011 0 -162.61348251476011 -24.965314592642244 0 0 0 0 191.57633639519918 -199.83625211601611 0 -199.83625211601611 -12.969619415140187 0 0 0 0 190.36763343572966 -239.02501980827947 0 -239.02501980827947 15.094394122061203 0 0 0 0 261.9076172215573 -251.17860146900784 0 -251.17860146900784 -38.553372352398583 0 0 0 0 285.4623874980316 -179.92009795279591 0 -179.92009795279591 -22.900313477455711 0 0 0 0 183.33305306363036 -108.39070202934454 0 -108.39070202934454 -11.102766313095344 0 0 0 0 379.18727558723185 -261.30459782252365 0 -261.30459782252365 -117.18233163234981 0 0 0 0 451.21884857752593 -38.120103238772572 0 -38.120103238772572 -13.24198857474164 0 0 0 0 -169.30774857546203 -146.62092430241864 0 -146.62092430241864 -138.65513158026442 0 0 0 0 -1.5635976966586895 -184.6471986064098 0 -184.6471986064098 -432.32054692570819 0 0 0 0 2.0294542496879302 -11.804720667916513 0 -11.804720667916513 -26.481425853263545 0 0 0 0 714.86824883430563 -133.19872743503265 0 -133.19872743503265 -137.53207524758182 0 0 0 0 -0.079736707917355432 -6.171571617568361 0 -6.171571617568361 -9.9483439859361056 0 0 0 0 -965.53469052683795 -531.11552658087749 0 -531.11552658087749 -444.34728256390372 0 0 0 0 -2240.5901393504319 -1418.9506689273094 0 -1418.9506689273094 -80.707666236936348 0 0 0 0 390.81452062292374 117.43758367586634 0 117.43758367586634 106.52955698315782 0 0 0 0 889.27789350418607 197.49015343056999 0 197.49015343056999 -491.49990031903508 0 0 0 0 486.14487603653106 -255.30869303036889 0 -255.30869303036889 18.259639125675676 0 0 0 0 354.98316939675715 -126.78020443264904 0 -126.78020443264904 -54.512057340645697 0 0 0 0 294.22032284075249 -253.66483791702922 0 -253.66483791702922 -310.97264631719008 0 0 0 0 105.85683625447564 -218.92515214219748 0 -218.92515214219748 -124.68219300489181 0 0 0 0 -5.3347540543618379 -414.08726887787998 0 -414.08726887787998 -460.36604693888512 0 0 0 0 272.15094039894029 228.93611848876662 0 228.93611848876662 -510.27029407681403 0 0 0 0 271.34376912120933 -104.40113689967257 0 -104.40113689967257 -749.44859946442739 0 0 0 0 299.51930716159404 60.98675486850334 0 60.98675486850334 -229.55483790227208 0 0 0 0 380.33409998320712 40.208690447017034 0 40.208690447017034 -333.27581460169313 0 0 0 0 235.3322222091665 210.92222131195103 0 210.92222131195103 -354.21267863350295 0 0 0 0 176.44602883342304 147.76002139473712 0 147.76002139473712 -305.29832231276214 0 0 0 0 -101.23800695501268 -74.816571183178894 0 -74.816571183178894 -34.301462846946379 0 0 0 0 1335.7927826924715 -580.3209228018186 0 -580.3209228018186 -102.95971720344642 0 0 0 0 600.18469995037231 14.845410761231506 0 14.845410761231506 146.58910622826807 0 0 0 0 182.36834249057574 -173.02912391091377 0 -173.02912391091377 -200.33135785804916 0 0 0 0 564.57224085880443 -135.31878986726588 0 -135.31878986726588 -406.24228738076636 0 0 0 0 151.17137915657077 -93.83513925160878 0 -93.83513925160878 -400.40223732285813 0 0 0 0 -718.93959965428803 -548.33073642644376 0 -548.33073642644376 -175.89833416140573 0 0 0 0 -1805.7689315475291 -497.13310190358243 0 -497.13310190358243 -69.283776932417823 0 0 0 0 -782.85173495559138 -331.79873377967306 0 -331.79873377967306 -93.932094373101791 0 0 0 0 350.45371689776221 -87.840108364877779 0 -87.840108364877779 -57.793375264795031 0 0 0 0 1.3551733506465098 -1262.4575503894466 0 -1262.4575503894466 -473.87127095520918 0 0 0 0 -1988.4820464458462 -1037.0773670823692 0 -1037.0773670823692 -1260.0444103447226 0 0 0 0 2.3340058393069114 -8.1756766766149553 0 -8.1756766766149553 0.67781690444526532 0 0 0 0 -609.4467352777574 -804.08433776402489 0 -804.08433776402489 -864.29701840153575 0 0 0 0 565.24958454290754 -141.68021197401504 0 -141.68021197401504 -827.56840333854052 0 0 0 0 143.47318301396444 -571.12020038525225 0 -571.12020038525225 19.35201332604629 0 0 0 0 131.89248070104804 -595.03505830917129 0 -595.03505830917129 28.290572385438281 0 0 0 0 149.06057643709937 -572.9546660025444 0 -572.9546660025444 17.874884520004343 0 0 0 0 90.218027136550518 -441.62148858686487 0 -441.62148858686487 -45.705824436565308 0 0 0 0 234.19123849106109 -494.99883957584643 0 -494.99883957584643 -27.65356658660312 0 0 0 0 105.28779308510184 -575.82456333771586 0 -575.82456333771586 45.87179291130451 0 0 0 0 111.37331482430454 -533.29599901695474 0 -533.29599901695474 41.667903518231469 0 0 0 0 103.61589726008242 -554.678122632944 0 -554.678122632944 19.141134773402882 0 0 0 0 -0.10859918987108585 -1.9167633544613523 0 -1.9167633544613523 3.8533121621930917 0 0 0 0 -118.61157936947711 -373.72754909910327 0 -373.72754909910327 -2.0778573374263942 0 0 0 0 162.24057985919353 -643.35311744300816 0 -643.35311744300816 -155.718810790524 0 0 0 0 79.82291308393178 -590.77794686400193 0 -590.77794686400193 38.404682016815059 0 0 0 0 90.248662963378592 -487.94089863121371 0 -487.94089863121371 23.996113095392502 0 0 0 0 155.24914731772878 -437.39078944973289 0 -437.39078944973289 -518.44421242162935 0 0 0 0 74.947192112762423 -504.56846616335315 0 -504.56846616335315 128.20080811314256 0 0 0 0 -313.40050610814069 -194.56173302370007 0 -194.56173302370007 -46.591377358148748 0 0 0 0 -54.876644550851779 193.87911602897293 0 193.87911602897293 -302.71448480556501 0 0 0 0 -2.6405607195413836 -3.5487873608227858 0 -3.5487873608227858 -6.3145414825815465 0 0 0 0 112.81465515160562 -80.245408002135946 0 -80.245408002135946 -174.53801995104004 0 0 0 0 111.77459760388592 -58.685935895286093 0 -58.685935895286093 -610.41794649068379 0 0 0 0 -30.382161131696193 -347.6663246939861 0 -347.6663246939861 361.23849271708968 0 0 0 0 -43.091891394476988 -185.44830301582442 0 -185.44830301582442 -128.61849341975176 0 0 0 0 365.56751942484698 -713.80373883822176 0 -713.80373883822176 93.222019854587415 0 0 0 0 694.09455253876513 -204.8201264034833 0 -204.8201264034833 -19.318151313702401 0 0 0 0 4.6044582457258798 -3.6159407216415502 0 -3.6159407216415502 4.0348315778617234 0 0 0 0 -17.439903718342975 1.2018914427699201 0 1.2018914427699201 98.872229108328611 0 0 0 0 3.5059707642670901 -0.3241029542760856 0 -0.3241029542760856 -0.4670371834289142 0 0 0 0 -32.468376017983246 -38.207187553326548 0 -38.207187553326548 3.8356902377454389 0 0 0 0 6.0488191154648803 -12.993956508416943 0 -12.993956508416943 8.2824482467526082 0 0 0 0 -15.339895617187722 -16.66471297537646 0 -16.66471297537646 -3.1436086402809451 0 0 0 0 27.027943291905103 -35.69325490907795 0 -35.69325490907795 -21.131812639338023 0 0 0 0 2.0916221352030675 -5.8455959720960067 0 -5.8455959720960067 -2.6104843216092775 0 0 0 0 26.560243220883422 -11.332521408516186 0 -11.332521408516186 38.648797498695785 0 0 0 0 363.01975367605337 60.963903438645502 0 60.963903438645502 -38.670248445207108 0 0 0 0 40.870777654199628 -0.32594484084984288 0 -0.32594484084984288 -13.047656622984505 0 0 0 0 76.366529697814258 -66.530733713458176 0 -66.530733713458176 -26.386215494174394 0 0 0 0 60.646215348147962 -66.958408667691401 0 -66.958408667691401 -18.964675899602298 0 0 0 0 -3.4392504092247691 -44.819403372912348 0 -44.819403372912348 -86.639868594122163 0 0 0 0 1.1348690527811414 -62.32987411810609 0 -62.32987411810609 -65.679793581305603 0 0 0 0 -3.5690712993564944 -11.666710444653916 0 -11.666710444653916 -16.934211390384618 0 0 0 0 -16.752049074973911 -34.848505667272548 0 -34.848505667272548 -54.121253450102813 0 0 0 0 -18.6926803298702 -13.427032774670806 0 -13.427032774670806 -105.01366334142222 0 0 0 0 -6.6392794522176928 -22.359609095947661 0 -22.359609095947661 -4.94038692679581 0 0 0 0 -1.4679099268141158 -5.099473075260164 0 -5.099473075260164 -5.8399674627432034 0 0 0 0 -0.022959392983466387 -45.179684680450009 0 -45.179684680450009 0.0892863529988972 0 0 0 0 62.323241107922513 -23.067471456990461 0 -23.067471456990461 -25.524137206182786 0 0 0 0 236.25773160066456 -93.7790134749157 0 -93.7790134749157 -28.92771015955077 0 0 0 0 125.15202940083691 45.23733167629689 0 45.23733167629689 -12.043026917173847 0 0 0 0 689.08151014125906 -34.946286042701104 0 -34.946286042701104 12.059147202264285 0 0 0 0 468.09329462012101 64.761281573893939 0 64.761281573893939 -28.944706873706309 0 0 0 0 3.0512710972721493 -0.81910839630660348 0 -0.81910839630660348 -2.4743973616387223 0 0 0 0 664.13329319335753 -184.24257163872244 0 -184.24257163872244 24.00354428589344 0 0 0 0 364.35048078117688 110.24461441714266 0 110.24461441714266 -39.50855120983033 0 0 0 0 334.76248198514804 -99.346727784017276 0 -99.346727784017276 2.9531458654382732 0 0 0 0 12.10501781484345 29.976177752498188 0 29.976177752498188 15.433240134636435 0 0 0 0 11.235224985372042 47.341932603687383 0 47.341932603687383 -84.898110053152777 0 0 0 0 5.2742168760087225 -51.364945757543865 0 -51.364945757543865 64.134356897731777 0 0 0 0 -24.432063772517722 -17.6279209949098 0 -17.6279209949098 -8.3953346181224333 0 0 0 0 -76.134313648348325 -81.183404456090102 0 -81.183404456090102 15.43948567075131 0 0 0 0 34.754615229234332 -85.649470185111568 0 -85.649470185111568 -66.849482595425798 0 0 0 0 9.0085968134866334 -15.48891563427307 0 -15.48891563427307 3.4174182495562064 0 0 0 0 -7.4197557458663397 -33.119717969298279 0 -33.119717969298279 93.930140335854958 0 0 0 0 54.705346976799774 -193.62158403011927 0 -193.62158403011927 70.860805361051462 0 0 0 0 -43.514279662544141 -214.09499540171964 0 -214.09499540171964 268.03517894851393 0 0 0 0 -58.672586623113602 -225.05606054510645 0 -225.05606054510645 392.01552296441514 0 0 0 0 -75.469504031410906 -243.74995633724029 0 -243.74995633724029 371.83365348207735 0 0 0 0 42.580549987731501 98.077395726912073 0 98.077395726912073 -30.035731868514631 0 0 0 0 -7.4036620136225793 -61.456004023210014 0 -61.456004023210014 252.69120590706007 0 0 0 0 -105.95072306779912 -39.46480490770773 0 -39.46480490770773 308.55163669958711 0 0 0 0 -42.116881514608394 185.03359013289446 0 185.03359013289446 414.0969637959206 0 0 0 0 16.758798516253592 17.237933700656868 0 17.237933700656868 889.12517757825844 0 0 0 0 -80.244397451227996 -126.97765318130041 0 -126.97765318130041 601.90492228319636 0 0 0 0 -28.001558425836265 -163.40090916174813 0 -163.40090916174813 545.2275916064682 0 0 0 0 -70.100627456369693 -282.85641493375078 0 -282.85641493375078 634.19013257915503 0 0 0 0 161.2719741325127 -374.83991485035222 0 -374.83991485035222 452.27289879614545 0 0 0 0 117.78600719568203 -342.59080280672788 0 -342.59080280672788 567.33244805538561 0 0 0 0 -22.756427986336348 -208.68448536868164 0 -208.68448536868164 917.57916143737384 0 0 0 0 180.67992668494117 -390.38286082452396 0 -390.38286082452396 1079.8407707525184 0 0 0 0 533.34294059046078 -692.33257083212447 0 -692.33257083212447 950.80788487869722 0 0 0 0 388.66789761686232 -466.11386339485762 0 -466.11386339485762 622.96809086926078 0 0 0 0 1226.3030868137721 -340.01104956177005 0 -340.01104956177005 393.9620009403734 0 0 0 0 5.5958190051892984 -3.6684818136775448 0 -3.6684818136775448 2.7603373047084858 0 0 0 0 722.19329018279677 -284.67262817990559 0 -284.67262817990559 68.99616891136975 0 0 0 0 106.71110094786854 21.142740400748153 0 21.142740400748153 -6.8386042084530345 0 0 0 0 -4.3433575020036983 -13.558523809995876 0 -13.558523809995876 -17.666662262479235 0 0 0 0 23.914279575750697 4.3733989532593114 0 4.3733989532593114 -2.2277873103394086 0 0 0 0 46.90328597912594 -20.431060150336634 0 -20.431060150336634 -21.125889542221557 0 0 0 0 93.64087790321355 -23.651178365109445 0 -23.651178365109445 -21.471757648803759 0 0 0 0 -17.151002783968579 -52.26965748548173 0 -52.26965748548173 0.76404465980886016 0 0 0 0 71.51503237644647 -156.44920074313268 0 -156.44920074313268 -85.75727473191364 0 0 0 0 146.79265331308125 -111.5358328835955 0 -111.5358328835955 -7.673028330784291 0 0 0 0 152.1744293191623 -99.220224642986977 0 -99.220224642986977 13.003863485457259 0 0 0 0 120.12206067921943 -302.16066801026136 0 -302.16066801026136 114.67044649514719 0 0 0 0 212.10509748416371 -241.28417071796139 0 -241.28417071796139 61.110058607659539 0 0 0 0 43.550241096585523 -141.9782114674781 0 -141.9782114674781 41.867667376456666 0 0 0 0 102.8273480978678 -163.99764841248543 0 -163.99764841248543 -102.73844961760187 0 0 0 0 11.49084546443919 -235.01160289867585 0 -235.01160289867585 222.96902764174956 0 0 0 0 105.47004804610333 -157.75922953034751 0 -157.75922953034751 -66.432895745921371 0 0 0 0 165.45624060071714 -601.81372222850769 0 -601.81372222850769 314.69026713668791 0 0 0 0 2.2956473896629177 -766.86884512955294 0 -766.86884512955294 170.28882124029042 0 0 0 0 -390.97664482227992 -297.82752210848957 0 -297.82752210848957 192.92760818518423 0 0 0 0 172.95424182651914 -425.02542102123698 0 -425.02542102123698 246.19822994963306 0 0 0 0 260.65131099162681 -402.95012270347979 0 -402.95012270347979 80.263165726835723 0 0 0 0 290.77877037711005 -453.59845770492666 0 -453.59845770492666 132.58613996680651 0 0 0 0 376.93987242556614 -316.33866989605485 0 -316.33866989605485 -64.09978119587322 0 0 0 0 1.5854761635832801 -3.1303537113201969 0 -3.1303537113201969 3.1248968938846815 0 0 0 0 -116.93218956086639 -42.834446429658783 0 -42.834446429658783 -63.704118840483716 0 0 0 0 -1.1046850744500034 -0.99645978853078532 0 -0.99645978853078532 2.1818261216367318 0 0 0 0 387.13673317770008 -333.13721597253971 0 -333.13721597253971 116.50791075470443 0 0 0 0 6.2661984314545407 -193.96380590182071 0 -193.96380590182071 -55.662786098888319 0 0 0 0 368.79538358595164 -234.8464112846068 0 -234.8464112846068 183.83677847030867 0 0 0 0 286.18843115991331 -289.20222694082986 0 -289.20222694082986 166.41202846959277 0 0 0 0 427.49068062078368 -249.17455369237268 0 -249.17455369237268 49.179908936719585 0 0 0 0 327.80199885147158 -331.4711812168498 0 -331.4711812168498 102.97911956240569 0 0 0 0 -46.020409758413734 -118.31595030038079 0 -118.31595030038079 34.959254189052444 0 0 0 0 65.386537851249159 -107.39461689407472 0 -107.39461689407472 19.591621726471203 0 0 0 0 93.610320436579059 -911.92858767366852 0 -911.92858767366852 -84.469400577174383 0 0 0 0 -534.86646516514884 -367.72226437941572 0 -367.72226437941572 161.57016555616428 0 0 0 0 45.492033973500099 -73.260270774427028 0 -73.260270774427028 59.776027022591308 0 0 0 0 -15.163877677958226 -111.82174549217598 0 -111.82174549217598 45.39368529696003 0 0 0 0 -53.864554642095754 -161.59063172729657 0 -161.59063172729657 16.486642313822813 0 0 0 0 69.350281837408716 -95.300774931233747 0 -95.300774931233747 29.195085077700412 0 0 0 0 -534.71680998071679 144.77561114507625 0 144.77561114507625 -167.50570868858085 0 0 0 0 -70.068588664093113 -163.40130881631558 0 -163.40130881631558 -23.230733920063358 0 0 0 0 3.2287949987294269 -124.508919365373 0 -124.508919365373 -14.518698248153669 0 0 0 0 697.79405175813008 -1139.5491267015313 0 -1139.5491267015313 1168.9806914415676 0 0 0 0 -258.15625677564094 -613.42296795412449 0 -613.42296795412449 531.73965644690907 0 0 0 0 84.85774806358414 -99.28709688785554 0 -99.28709688785554 1.3479484570259501 0 0 0 0 1559.2218711847381 -717.29483392610564 0 -717.29483392610564 -1285.1348774458893 0 0 0 0 138.77730502877967 -995.91951912421064 0 -995.91951912421064 544.6401874330129 0 0 0 0 -264.51068383641541 -203.13052382457317 0 -203.13052382457317 -62.733158991279197 0 0 0 0 -286.3601521846922 -46.642319284661426 0 -46.642319284661426 -23.296313067778101 0 0 0 0 -339.90648898390646 -268.12666245244054 0 -268.12666245244054 -47.757405350272165 0 0 0 0 2.6745337713691697 -6.2606935552792891 0 -6.2606935552792891 8.2221121586773904 0 0 0 0 -413.70606081874575 -233.61475540194078 0 -233.61475540194078 11.597365150075348 0 0 0 0 -26.420992478058906 -83.97624536289004 0 -83.97624536289004 -82.687034853068326 0 0 0 0 -266.3750203919044 -70.849394865799695 0 -70.849394865799695 -1.2091967899359588 0 0 0 0 -12.453280857938807 -138.02468457044233 0 -138.02468457044233 6.2605614115382195 0 0 0 0 73.636492416066915 -100.56422886400782 0 -100.56422886400782 34.663777734587171 0 0 0 0 -27.219348448619712 -147.56405435020133 0 -147.56405435020133 7.2738860988843044 0 0 0 0 -45.642195011016156 -169.70038317419585 0 -169.70038317419585 -15.353610643061984 0 0 0 0 -92.990675031182036 -68.458870279354414 0 -68.458870279354414 19.070240104323602 0 0 0 0 -773.98499744709261 -65.969355867964623 0 -65.969355867964623 317.19686590576021 0 0 0 0 -126.51817365760144 -100.28000563971 0 -100.28000563971 28.870605113559577 0 0 0 0 -117.8166444124472 -101.90860685770167 0 -101.90860685770167 -89.014358607229951 0 0 0 0 76.634415656817666 -104.03119492407666 0 -104.03119492407666 45.654637573176615 0 0 0 0 -46.222846238419152 -162.35460487013643 0 -162.35460487013643 -75.855520461856941 0 0 0 0 -205.71607743480854 -246.93975939921438 0 -246.93975939921438 -14.997699464580364 0 0 0 0 -472.10562531922187 -233.30647251206938 0 -233.30647251206938 67.431924970809632 0 0 0 0 2.5281245029624984 -6.1477666942563189 0 -6.1477666942563189 8.8466948466692088 0 0 0 0 50.991113736628904 -185.81647254438758 0 -185.81647254438758 -15.91213948072982 0 0 0 0 -367.54574965855863 155.97135666588201 0 155.97135666588201 574.2631203417186 0 0 0 0 -34.308045932644745 -127.94572085018808 0 -127.94572085018808 -86.942045860138023 0 0 0 0 1.9689811311320682 -1.5481636564790335 0 -1.5481636564790335 2.4094160377565572 0 0 0 0 -10.79535815078998 325.83692526524555 0 325.83692526524555 535.4489008122473 0 0 0 0 120.74194349351455 -255.25206694809458 0 -255.25206694809458 195.11359715429353 0 0 0 0 -218.42173641053523 -3.9805789205165638 0 -3.9805789205165638 397.24713901490759 0 0 0 0 -560.65404352969927 -111.62923188424429 0 -111.62923188424429 529.74948013886751 0 0 0 0 1.0021564398674343 -2.7045172821973722 0 -2.7045172821973722 4.0848153457155973 0 0 0 0 160.79570118442643 -251.27698985036659 0 -251.27698985036659 -68.371197452443084 0 0 0 0 -217.58116546482779 -304.73406421725667 0 -304.73406421725667 337.07396591287397 0 0 0 0 -193.39488280704245 11.037117055799172 0 11.037117055799172 418.99796150216753 0 0 0 0 198.2680766453268 21.980257280018122 0 21.980257280018122 -112.45293905017752 0 0 0 0 -480.10069934622152 -426.43213763235326 0 -426.43213763235326 311.19813830003113 0 0 0 0 -47.462535994013308 -54.68503051242115 0 -54.68503051242115 8.6291880832600825 0 0 0 0 -177.66710207849974 -18.712489690857183 0 -18.712489690857183 -32.597566328822722 0 0 0 0 -203.88881652432246 -282.69037272956757 0 -282.69037272956757 181.42734568560263 0 0 0 0 64.49929047392385 -112.54112247773243 0 -112.54112247773243 59.391135604968383 0 0 0 0 101.54807308718591 -149.9665032499579 0 -149.9665032499579 -302.89854485819524 0 0 0 0 117.41726323137118 -128.8260787223935 0 -128.8260787223935 289.68120284643737 0 0 0 0 -1.4231322964808442 -0.67785805253873832 0 -0.67785805253873832 3.95855279132617 0 0 0 0 111.56050458209575 -41.058920872160343 0 -41.058920872160343 183.31123147346443 0 0 0 0 194.06025155761745 -350.14033964008377 0 -350.14033964008377 404.90912391286474 0 0 0 0 590.4144176808295 -424.73343472661145 0 -424.73343472661145 210.663119951314 0 0 0 0 330.30159998526506 -281.29175180992024 0 -281.29175180992024 157.32842876754148 0 0 0 0 -36.714322181971511 -145.29603168006724 0 -145.29603168006724 -153.49729964270955 0 0 0 0 -61.27702116643195 -41.797333434644315 0 -41.797333434644315 60.264644789323938 0 0 0 0 122.93023308145348 -35.915874518159399 0 -35.915874518159399 1.2220588773816417 0 0 0 0 -85.676875592267606 -23.423300008664228 0 -23.423300008664228 500.18360458590905 0 0 0 0 -49.545490923374018 -88.483477482642229 0 -88.483477482642229 443.61881829764025 0 0 0 0 18.119946878679912 119.30560052451983 0 119.30560052451983 304.87783260737706 0 0 0 0 -31.483743405726273 -160.18653388550229 0 -160.18653388550229 281.09354774740495 0 0 0 0 32.226327278476674 -23.932329476647283 0 -23.932329476647283 28.986145446295268 0 0 0 0 -33.914558627133374 30.615901600936922 0 30.615901600936922 326.93415278825705 0 0 0 0 48.424992469721474 -56.325920978295471 0 -56.325920978295471 61.227611594622431 0 0 0 0 -14.102898006909527 -50.525023330757904 0 -50.525023330757904 648.69505128345372 0 0 0 0 -2.553288785072823 -1.0452893153744611 0 -1.0452893153744611 1.1545062333117357 0 0 0 0 -224.44847952057535 -897.42018781715205 0 -897.42018781715205 -698.3430134148839 0 0 0 0 130.66047150928352 -97.005550243897233 0 -97.005550243897233 187.05526459998509 0 0 0 0 291.77594475880323 -283.58198335404813 0 -283.58198335404813 403.03479478473673 0 0 0 0 607.24209165882348 -73.613578465141472 0 -73.613578465141472 42.269396137759031 0 0 0 0 -0.58016972387204646 -0.37063459994030268 0 -0.37063459994030268 2.6688429039429735 0 0 0 0 -106.63362090729061 -175.577264021671 0 -175.577264021671 49.720760591046201 0 0 0 0 177.98019262515299 -535.61454259062702 0 -535.61454259062702 172.17291096267581 0 0 0 0 -306.88889430515701 -645.79633790056687 0 -645.79633790056687 204.96398190031323 0 0 0 0 79.786439439223614 -321.58468061856911 0 -321.58468061856911 -238.27740491120858 0 0 0 0 50.497373832302401 -148.91670471359976 0 -148.91670471359976 -287.03175846522936 0 0 0 0 -127.12971606763313 -418.4145194772027 0 -418.4145194772027 -270.29214781952032 0 0 0 0 2.64795334477094 -195.3621777901426 0 -195.3621777901426 -161.14234742975532 0 0 0 0 9.313446619635215 -42.525778277766221 0 -42.525778277766221 -105.86099525738246 0 0 0 0 -80.016917215863941 -69.251956358093594 0 -69.251956358093594 33.952088922123949 0 0 0 0 -88.343535363674164 -100.48809268191326 0 -100.48809268191326 112.49517846855815 0 0 0 0 37.927149708615616 74.612611856522562 0 74.612611856522562 -233.78493396426529 0 0 0 0 -28.646842002024641 -265.29153840423169 0 -265.29153840423169 -569.98252144307116 0 0 0 0 33.199133019152214 -426.77200827938759 0 -426.77200827938759 -751.16309746851039 0 0 0 0 -53.875094402523246 -329.98637432912074 0 -329.98637432912074 -474.93893439145177 0 0 0 0 -6.5672771906689604 -0.10862693272994761 0 -0.10862693272994761 2.7897546933783204 0 0 0 0 18.950002722238423 -14.229993209439272 0 -14.229993209439272 57.304778757180429 0 0 0 0 -206.37725197073451 -568.99277158029781 0 -568.99277158029781 -805.27957221415272 0 0 0 0 -2904.3216561330482 -223.85904152590956 0 -223.85904152590956 476.8421040832618 0 0 0 0 -20.066250601274078 0.16272905075084054 0 0.16272905075084054 12.776639189280104 0 0 0 0 -20.158215144707356 -0.53698000047006644 0 -0.53698000047006644 22.84478108822077 0 0 0 0 -13.4297891476308 8.0503004628626513 0 8.0503004628626513 33.681838602969947 0 0 0 0 0.20081972656771541 15.338626975819352 0 15.338626975819352 19.235345279361354 0 0 0 0 -14.349902106565423 1.7151546369677817 0 1.7151546369677817 3.6009909228305332 0 0 0 0 -1.7147836876829388 9.8989497464990563 0 9.8989497464990563 8.0018612420826685 0 0 0 0 -1219.596707215358 -709.43953206848619 0 -709.43953206848619 294.81126339946786 0 0 0 0 549.15470137406737 124.85521656130686 0 124.85521656130686 -0.81791486394649837 0 0 0 0 1537.0270165922702 -2568.8808611063978 0 -2568.8808611063978 -2164.4570719084168 0 0 0 0 -20.326222121817977 -13.178926717489844 0 -13.178926717489844 -7.3300079698379079 0 0 0 0 -1148.9172164965494 -468.58730085673369 0 -468.58730085673369 1115.3582405876768 0 0 0 0 81.464134096138878 -192.09706401666699 0 -192.09706401666699 -816.73253351121514 0 0 0 0 -1198.7846733349143 295.99769465899135 0 295.99769465899135 821.61571757445199 0 0 0 0 -978.70854493191291 598.37659026266556 0 598.37659026266556 -120.97424172619412 0 0 0 0 -232.54085713650966 -155.21841126742083 0 -155.21841126742083 15.392196769367729 0 0 0 0 -229.50787928316277 -194.87512100585445 0 -194.87512100585445 533.74941503735499 0 0 0 0 34.523411720467266 -46.864442542598226 0 -46.864442542598226 -147.65370446796805 0 0 0 0 -14.332997842452414 -3.8814976784837825 0 -3.8814976784837825 0.65581510556881994 0 0 0 0 173.51086781622143 -1076.7870461769162 0 -1076.7870461769162 -498.11831270244829 0 0 0 0 88.714891802243073 168.93259083378507 0 168.93259083378507 -584.57206261096098 0 0 0 0 674.62858776821122 -369.2075597867572 0 -369.2075597867572 -45.365390415203365 0 0 0 0 313.74289672423038 8.453433355791276 0 8.453433355791276 87.438233353243959 0 0 0 0 663.39605394637329 -412.37983299434018 0 -412.37983299434018 -128.52277160506674 0 0 0 0 47.125998474480639 -210.96157028711292 0 -210.96157028711292 107.92065718777303 0 0 0 0 -150.80319921937189 -17.702954495354788 0 -17.702954495354788 149.42515901733714 0 0 0 0 57.376838432367549 -23.836602687689947 0 -23.836602687689947 42.353322414273862 0 0 0 0 76.232481545448536 -1030.3628365178738 0 -1030.3628365178738 803.36465550337016 0 0 0 0 -44.177577000809151 -35.268126345958592 0 -35.268126345958592 -27.285453097824153 0 0 0 0 115.12336299226445 -139.83577467504801 0 -139.83577467504801 18.432182649623428 0 0 0 0 3.9210683904675534 -160.45887373461665 0 -160.45887373461665 57.040035187434114 0 0 0 0 -56.350447877193801 -95.414330250838248 0 -95.414330250838248 52.505319094550941 0 0 0 0 -13.950151465454837 -93.940075562382845 0 -93.940075562382845 9.4715346637603943 0 0 0 0 -15.467198246055887 -127.5474202544226 0 -127.5474202544226 90.289075499720639 0 0 0 0 237.31265693625755 -30.298148215421861 0 -30.298148215421861 -111.56699493500491 0 0 0 0 173.53246529444732 -245.3449380561151 0 -245.3449380561151 -233.68571605840407 0 0 0 0 -261.50111322579323 -142.24310964347023 0 -142.24310964347023 50.057500122347847 0 0 0 0 -191.71557796657726 49.322880794287812 0 49.322880794287812 22.015297248159186 0 0 0 0 20.328050370735582 -6.3752395220726612 0 -6.3752395220726612 -41.810410119294829 0 0 0 0 -54.118938195242436 -22.496489391958193 0 -22.496489391958193 -2.1349235879000759 0 0 0 0 -63.798970321193337 -251.14032164863966 0 -251.14032164863966 70.886957725510001 0 0 0 0 4.2751239928865061 -4.8643259436538528 0 -4.8643259436538528 -3.7261898931696464 0 0 0 0 38.094443339912686 -26.484471890886198 0 -26.484471890886198 -77.107960201261449 0 0 0 0 569.73942813382018 150.2541978382942 0 150.2541978382942 -18.445454800108564 0 0 0 0 14.93678790263931 -8.7961547630097243 0 -8.7961547630097243 -3.2292467114038885 0 0 0 0 44.876437589584384 -54.792359427311567 0 -54.792359427311567 -1.6879529455909505 0 0 0 0 61.48223077809962 -42.649354792567465 0 -42.649354792567465 -0.77239425122570537 0 0 0 0 9.5015602223575115 -20.265204570392598 0 -20.265204570392598 20.886013884432032 0 0 0 0 -50.074655701849679 33.840150533394308 0 33.840150533394308 -31.821887592261191 0 0 0 0 -24.103045605181251 -67.369397534406744 0 -67.369397534406744 15.173426557623316 0 0 0 0 -16.538740527234495 -27.608594856106293 0 -27.608594856106293 1.9441683047454035 0 0 0 0 4.6686380070386804 -44.555054360756913 0 -44.555054360756913 24.629499600814597 0 0 0 0 -6.2475367318828035 -20.974536268357696 0 -20.974536268357696 30.809842887353085 0 0 0 0 1.1445354982279241 -42.637327615149843 0 -42.637327615149843 27.358722062343077 0 0 0 0 0.9694569235725794 -48.551294906614203 0 -48.551294906614203 23.258622183726402 0 0 0 0 -43.470147240324877 -65.479823554123868 0 -65.479823554123868 17.528440092573874 0 0 0 0 8.3890144136094023 -37.438637979623309 0 -37.438637979623309 29.458047458401779 0 0 0 0 2.3386915508906441 -28.42850978757329 0 -28.42850978757329 22.331615659918171 0 0 0 0 -144.20666181884008 -87.348047314066207 0 -87.348047314066207 130.28328432077979 0 0 0 0 53.280103853205219 -52.776846619912249 0 -52.776846619912249 144.83385603205534 0 0 0 0 131.18834587431047 115.12297520192442 0 115.12297520192442 -131.0833407950322 0 0 0 0 16.5178471511 -36.871309186395067 0 -36.871309186395067 8.2388340470960486 0 0 0 0 -3.3702819112722295 -9.1648502291238714 0 -9.1648502291238714 5.1446191492629083 0 0 0 0 -59.718320777290501 -31.375323397209286 0 -31.375323397209286 11.76928912186122 0 0 0 0 -89.61720445525134 -40.83029553607048 0 -40.83029553607048 -50.113025891543657 0 0 0 0 7.387186273205657 -6.1533679410112541 0 -6.1533679410112541 -4.8084555081923313 0 0 0 0 30.978184322477318 -27.476971272131777 0 -27.476971272131777 -10.462494665902341 0 0 0 0 -31.055549533804879 -66.804210963040532 0 -66.804210963040532 -38.697877451086242 0 0 0 0 -56.672803774359636 -52.458148318102758 0 -52.458148318102758 -17.851833165550488 0 0 0 0 -50.337909812224098 -25.311637447135581 0 -25.311637447135581 -2.8884347451239591 0 0 0 0 -48.301921697566286 -26.073459882260067 0 -26.073459882260067 -4.1685295666393358 0 0 0 0 -58.507670055492781 -40.621285299828742 0 -40.621285299828742 -13.530638305885077 0 0 0 0 -100.58777806244325 -103.78493664969574 0 -103.78493664969574 -31.543174434627872 0 0 0 0 -132.84620590583654 -62.030494863427521 0 -62.030494863427521 30.76012337031716 0 0 0 0 -44.457659717358183 9.2941156031447463 0 9.2941156031447463 29.503119853608951 0 0 0 0 -105.5841597042745 -16.938829510392679 0 -16.938829510392679 54.585901821614243 0 0 0 0 -33.608194888161961 9.0212748082485632 0 9.0212748082485632 12.845523580744896 0 0 0 0 -80.164017673989292 -19.569254749825632 0 -19.569254749825632 15.746150668070186 0 0 0 0 -39.612689050962217 -6.2419693995761918 0 -6.2419693995761918 4.7011747019714676 0 0 0 0 -38.481644152663648 -6.43243676302518 0 -6.43243676302518 3.01410704801674 0 0 0 0 4.4416905376714908 -10.396498552890236 0 -10.396498552890236 1.1838381050949565 0 0 0 0 -20.683283211430535 2.0620455037897045 0 2.0620455037897045 3.5832627522395342 0 0 0 0 -14.930747852573404 -1.2625500851718243 0 -1.2625500851718243 2.9467084900712734 0 0 0 0 -3.3703624845365994 -49.434098600475409 0 -49.434098600475409 3.0041018824522325 0 0 0 0 -0.020149738644249737 -19.626378902325087 0 -19.626378902325087 -4.7240380129132973 0 0 0 0 -41.049486478543258 -32.848340487648784 0 -32.848340487648784 -4.1367693229985889 0 0 0 0 -18.894520121160895 -46.60250130033819 0 -46.60250130033819 36.991752365225693 0 0 0 0 -26.396539095643675 -66.766453778386676 0 -66.766453778386676 29.587253442849033 0 0 0 0 -13.577582614936546 -26.806655979888376 0 -26.806655979888376 -8.8514513600178333 0 0 0 0 -28.635579080527748 -19.549600076584142 0 -19.549600076584142 0.90240577875283634 0 0 0 0 38.563029910248588 -197.41653898165896 0 -197.41653898165896 157.64141494092485 0 0 0 0 4.5005981144082057 -37.386295097460142 0 -37.386295097460142 15.75450473291869 0 0 0 0 26.268110060919525 -60.089898254579268 0 -60.089898254579268 59.68411302032716 0 0 0 0 -58.178341850725701 -210.11864396509191 0 -210.11864396509191 78.219712152023931 0 0 0 0 -4.3876003673109381 -3.8149907409990789 0 -3.8149907409990789 6.7274867633637001 0 0 0 0 -30.23918569367379 68.23492319354591 0 68.23492319354591 252.21000783724594 0 0 0 0 22.825939877337078 30.875545331477042 0 30.875545331477042 19.238968650817696 0 0 0 0 -198.95785581105156 -253.08798003216361 0 -253.08798003216361 500.17118607299926 0 0 0 0 -29.584459908324789 -44.479966130710295 0 -44.479966130710295 185.23085474094023 0 0 0 0 2.3367794221849181 -96.895905416572532 0 -96.895905416572532 117.18782046116212 0 0 0 0 133.30331064504571 24.333450142599759 0 24.333450142599759 203.76971624745056 0 0 0 0 89.461633875500411 -120.94530588493581 0 -120.94530588493581 -144.31544663357636 0 0 0 0 82.793668084981618 -0.11342521308779396 0 -0.11342521308779396 47.371166424940384 0 0 0 0 34.473062318211305 39.389455411691415 0 39.389455411691415 229.96252946796994 0 0 0 0 52.465516104503479 -68.66532101731238 0 -68.66532101731238 58.747822388610771 0 0 0 0 -11.761305360560073 -118.75478319860122 0 -118.75478319860122 316.53928307853494 0 0 0 0 63.595536790264305 -237.58575276016563 0 -237.58575276016563 156.43748892699659 0 0 0 0 329.78472451108973 191.24430660051985 0 191.24430660051985 -27.609169640723849 0 0 0 0 -32.136901343677891 -154.16100814487777 0 -154.16100814487777 -57.367915626099602 0 0 0 0 46.907477053056937 -201.25133441882008 0 -201.25133441882008 -185.56879458740514 0 0 0 0 37.940814117901027 -33.735058136792304 0 -33.735058136792304 -34.644491115103847 0 0 0 0 76.591624863183824 -93.280288452280729 0 -93.280288452280729 52.84701199826884 0 0 0 0 -30.549447480036179 35.211630558867 0 35.211630558867 42.983372852216235 0 0 0 0 -126.77758353322861 -71.830275847477424 0 -71.830275847477424 113.9659518716303 0 0 0 0 -87.152685214561643 -54.416519942503783 0 -54.416519942503783 -218.27642742268381 0 0 0 0 4.2281135935190832 -404.43184264679689 0 -404.43184264679689 -404.77436905091326 0 0 0 0 -297.07033756023156 -303.44212845684251 0 -303.44212845684251 -192.18040643298536 0 0 0 0 -33.670221590524307 -84.022169056283929 0 -84.022169056283929 -140.15413279751556 0 0 0 0 -156.11947761122428 -85.635529039097946 0 -85.635529039097946 140.96580883182423 0 0 0 0 258.70620350529498 -193.27547168550291 0 -193.27547168550291 -640.81539705992782 0 0 0 0 -328.06646722926234 -772.31179925438255 0 -772.31179925438255 -741.78809259408445 0 0 0 0 -1.0191550224259238 -3.8462007391119073 0 -3.8462007391119073 -1.237479471756572 0 0 0 0 325.58018397720298 -237.25428255048507 0 -237.25428255048507 -17.37726184371968 0 0 0 0 -509.71560277433082 -613.95956753642497 0 -613.95956753642497 -726.0358213813879 0 0 0 0 -5.5091648021596598 -2.8770900000348121 0 -2.8770900000348121 0.86662161769387325 0 0 0 0 -434.55059619879466 73.218174841764721 0 73.218174841764721 6.1994229448807801 0 0 0 0 4.3888886025989677 -14.934250079798716 0 -14.934250079798716 3.2952091198035429 0 0 0 0 -5.1713610309234355 -17.805316082169938 0 -17.805316082169938 0.13972436047717451 0 0 0 0 -871.68157045275439 -396.8460987781325 0 -396.8460987781325 48.900524256863093 0 0 0 0 -684.23483125152416 -692.12884428816619 0 -692.12884428816619 -475.33572923775091 0 0 0 0 -275.18054256127652 -101.68167328914114 0 -101.68167328914114 -522.18668578787219 0 0 0 0 -79.246046130647301 -294.19627557592366 0 -294.19627557592366 -334.57580170019219 0 0 0 0 -248.59699095925316 -722.65051410049273 0 -722.65051410049273 -664.33140026130832 0 0 0 0 -146.76874994464015 -482.59638557736275 0 -482.59638557736275 -147.20048197243642 0 0 0 0 -114.5011826447444 -485.48607284795838 0 -485.48607284795838 -238.07921513284168 0 0 0 0 -39.06673241160388 -156.24763923720639 0 -156.24763923720639 -191.68546957511899 0 0 0 0 18.273924044944579 -312.56345413009012 0 -312.56345413009012 -364.53132767939019 0 0 0 0 239.14380172437814 209.88993010986997 0 209.88993010986997 -490.55339034965709 0 0 0 0 15.364194073896215 -58.130557767388893 0 -58.130557767388893 -47.876425307060344 0 0 0 0 47.05644069908243 -20.992967714080123 0 -20.992967714080123 5.5459538740072194 0 0 0 0 21.052021867522853 -87.489826471437027 0 -87.489826471437027 -102.47233915905076 0 0 0 0 374.41584789282933 36.916767319476548 0 36.916767319476548 -617.06165832885563 0 0 0 0 -242.7123120805918 -505.11310162044265 0 -505.11310162044265 -438.87162278631513 0 0 0 0 847.45282371660869 -531.81978122894634 0 -531.81978122894634 -440.30395248165587 0 0 0 0 228.10716806926939 -264.42195427757906 0 -264.42195427757906 -413.74847962002968 0 0 0 0 -1087.2949871503588 -455.51017329557453 0 -455.51017329557453 -458.82238317966221 0 0 0 0 -1135.8808250153088 -482.92000533388546 0 -482.92000533388546 -62.668071499207997 0 0 0 0 -8.5969284837351552 -6.2133136541477256 0 -6.2133136541477256 -8.2147064517039503 0 0 0 0 178.041516923171 -238.47310438223528 0 -238.47310438223528 -770.58974725252574 0 0 0 0 40.651521623462827 -18.500660746951809 0 -18.500660746951809 4.264787265181754 0 0 0 0 -219.04424998625473 448.5272676622003 0 448.5272676622003 -34.44787375461874 0 0 0 0 -347.24401320909965 -853.00983349538046 0 -853.00983349538046 -573.48152064962051 0 0 0 0 -720.14368486665626 -362.99190341552855 0 -362.99190341552855 184.79992774403127 0 0 0 0 34.220458044407337 -22.497237159650908 0 -22.497237159650908 3.0498602901454852 0 0 0 0 8.5209731623763219 -84.924667950079311 0 -84.924667950079311 119.25882033196831 0 0 0 0 -43.242707255805726 79.016026237965889 0 79.016026237965889 296.60295836839384 0 0 0 0 -1.5311305683862884 -36.301731783149066 0 -36.301731783149066 6.919385394331897 0 0 0 0 -25.587223182810703 -110.97010260950965 0 -110.97010260950965 17.535612103624729 0 0 0 0 11.886911603549379 -127.28256480742948 0 -127.28256480742948 -72.530843747815993 0 0 0 0 40.407649646153004 -36.592686535184271 0 -36.592686535184271 -58.545581258966649 0 0 0 0 33.495717014826369 -48.514127456704728 0 -48.514127456704728 -14.693716612113349 0 0 0 0 43.338578906543262 -11.390163646569931 0 -11.390163646569931 -49.937807445804083 0 0 0 0 80.223951504216529 -66.182112045775881 0 -66.182112045775881 -15.18102095307475 0 0 0 0 73.108092734852107 -16.726082158676562 0 -16.726082158676562 -3.0220221954837427 0 0 0 0 40.904848786420189 -41.676638472363493 0 -41.676638472363493 -21.777127955363767 0 0 0 0 35.96778053696471 -22.608971838625678 0 -22.608971838625678 -93.953296510799646 0 0 0 0 6.2094484248082153 18.075046379810601 0 18.075046379810601 -66.051189605541595 0 0 0 0 -1486.6239152417402 -893.56460326410388 0 -893.56460326410388 -650.71621419910707 0 0 0 0 -865.81090196414152 -720.76983823770752 0 -720.76983823770752 -635.19098836472199 0 0 0 0 -110.31301190634258 -88.68661356991197 0 -88.68661356991197 16.889218304148926 0 0 0 0 -849.14744478776993 -796.30312995776717 0 -796.30312995776717 -569.85624459592145 0 0 0 0 9.4800950110483484 -7.6181076245875659 0 -7.6181076245875659 -4.2162956171895853 0 0 0 0 2.7218285623530392 -62.339715586095281 0 -62.339715586095281 -25.628622099340554 0 0 0 0 20.774626594851725 -7.6813986677987032 0 -7.6813986677987032 -25.110259181356014 0 0 0 0 10.428882124033407 -66.935438859638452 0 -66.935438859638452 -62.987478480180471 0 0 0 0 -3.9033799998869654 -57.178138599477279 0 -57.178138599477279 -54.739970606673523 0 0 0 0 -3.7539505140739493 -56.176121015731042 0 -56.176121015731042 -51.021364084379456 0 0 0 0 5.8349408552312525 -67.084527300968603 0 -67.084527300968603 -44.891724300177884 0 0 0 0 -0.36902253650623607 -50.494189343593348 0 -50.494189343593348 -51.413772366701778 0 0 0 0 3.1294597029447004 0.14850422034882627 0 0.14850422034882627 -1.1160287352177463 0 0 0 0 -25.30130075381021 -7.763097595679028 0 -7.763097595679028 -62.015698867018727 0 0 0 0 -47.391089084529085 -38.93846074540761 0 -38.93846074540761 -36.792701955013399 0 0 0 0 -28.529220481810626 -40.779202386870566 0 -40.779202386870566 -53.767990650386764 0 0 0 0 -194.89906219881959 -137.90618028643075 0 -137.90618028643075 -8.181770023993522 0 0 0 0 -39.270517460303381 -76.32390100495877 0 -76.32390100495877 -62.104265282488996 0 0 0 0 -54.199061617604457 -76.215583887827961 0 -76.215583887827961 3.449284260758759 0 0 0 0 -57.849796583116586 -32.13311389231329 0 -32.13311389231329 -1.4116086735703481 0 0 0 0 -24.984601801770623 -61.125494030937716 0 -61.125494030937716 -55.368080690637726 0 0 0 0 -54.881536074506585 -58.136402100039049 0 -58.136402100039049 -19.949763999478819 0 0 0 0 -12.922199053748045 -70.922943180280527 0 -70.922943180280527 -70.364268884727608 0 0 0 0 -8.1978255030905984 -3.4572986242015418 0 -3.4572986242015418 23.720247365942303 0 0 0 0 -3.5299941464618314 -65.19942985054513 0 -65.19942985054513 -63.104054641896255 0 0 0 0 38.424101094789762 -36.42955099008455 0 -36.42955099008455 0.68392167364889644 0 0 0 0 -113.72369939135388 -51.307524232019205 0 -51.307524232019205 -974.86787956272747 0 0 0 0 194.18675063320552 -844.18661418848933 0 -844.18661418848933 -266.04412706347648 0 0 0 0 135.57810004876228 -838.88983349211048 0 -838.88983349211048 -468.05159881892905 0 0 0 0 31.00133692738325 -108.68762456148679 0 -108.68762456148679 -44.465275008821365 0 0 0 0 -5.8602997166162822 -59.790706864937874 0 -59.790706864937874 -69.467158612889762 0 0 0 0 -256.57914644791163 -392.06183799587325 0 -392.06183799587325 -444.86410922364121 0 0 0 0 -27.751546464370392 -14.522443795389989 0 -14.522443795389989 -4.4878933288834162 0 0 0 0 88.471420437388588 91.504171903832685 0 91.504171903832685 -143.8855700832828 0 0 0 0 -136.29806189681403 -378.02668670782987 0 -378.02668670782987 -522.25169626175125 0 0 0 0 481.48980170092545 243.2766215258689 0 243.2766215258689 -183.94534454180393 0 0 0 0 6.7612656342081721 -24.257185762591547 0 -24.257185762591547 -20.251858229969272 0 0 0 0 -468.23114622337744 -9.0578297392057721 0 -9.0578297392057721 -16.927798726939727 0 0 0 0 -54.392221534712007 -48.651871497405864 0 -48.651871497405864 -0.97608090985431772 0 0 0 0 128.3166492963137 199.32961985977909 0 199.32961985977909 83.252673166280147 0 0 0 0 -15.389475837991768 -15.2269057938814 0 -15.2269057938814 0.62637365059627825 0 0 0 0 -47.408724546021404 -40.42926061174046 0 -40.42926061174046 -10.637138483947638 0 0 0 0 -7.3931252988638221 -9.2653927682339656 0 -9.2653927682339656 -6.1361792397611366 0 0 0 0 -103.42706137060304 -81.879287684640758 0 -81.879287684640758 -51.064420622951275 0 0 0 0 -27.85029171773931 -33.745915275016159 0 -33.745915275016159 -28.166130437861284 0 0 0 0 160.89519615273457 94.681413482088828 0 94.681413482088828 17.227318901816034 0 0 0 0 -34.370306242870754 -22.416795918138938 0 -22.416795918138938 2.3760970645796462 0 0 0 0 42.166766878421186 -27.350319865643542 0 -27.350319865643542 31.033361505084031 0 0 0 0 -114.7080069645599 -343.4387933427638 0 -343.4387933427638 -551.1304912449632 0 0 0 0 -158.92867068861233 -206.26591912396611 0 -206.26591912396611 -491.98935301749225 0 0 0 0 -121.94150884298142 -69.516575190412823 0 -69.516575190412823 -10.60738592443613 0 0 0 0 3.945445980736082 -13.98923162807074 0 -13.98923162807074 -8.1278477651775987 0 0 0 0 -537.2000766294077 -598.80041319286465 0 -598.80041319286465 -424.85298070400358 0 0 0 0 -328.99117555306293 -241.23842965955737 0 -241.23842965955737 -301.57671113946708 0 0 0 0 -270.44639055455627 -394.85504183061153 0 -394.85504183061153 -667.62991051019526 0 0 0 0 -236.11141296976712 -375.14590786850022 0 -375.14590786850022 -522.10809273751124 0 0 0 0 -193.58417380804894 -283.62186976121302 0 -283.62186976121302 -561.18247032891122 0 0 0 0 -163.68115833013144 -399.50509027640419 0 -399.50509027640419 -846.94442904090283 0 0 0 0 -138.6836505139654 -257.12514699504391 0 -257.12514699504391 -554.39058079985443 0 0 0 0 -409.42367079441465 -823.78497408710086 0 -823.78497408710086 -904.04545617494841 0 0 0 0 -483.16892965561419 -851.66821434268286 0 -851.66821434268286 -695.00418121188522 0 0 0 0 -422.6763334046118 -875.51708175282965 0 -875.51708175282965 -703.49436546857214 0 0 0 0 -361.93871106016741 -706.33999646529378 0 -706.33999646529378 -624.77986502438944 0 0 0 0 -555.41711791008129 -841.93738671027222 0 -841.93738671027222 -672.88123033622253 0 0 0 0 -832.68222596152918 -722.23676600987028 0 -722.23676600987028 -414.00181384023244 0 0 0 0 -502.79462974588387 -443.60109701236252 0 -443.60109701236252 -200.59303741266308 0 0 0 0 -539.74967402170296 -778.66847843436017 0 -778.66847843436017 -656.45412202661191 0 0 0 0 -559.74069546032115 -844.83353159412968 0 -844.83353159412968 -868.53489675150615 0 0 0 0 -814.77087453653803 -881.36838446545175 0 -881.36838446545175 -693.46775027466822 0 0 0 0 -483.87254624869092 -859.34197525351988 0 -859.34197525351988 -743.67177585902937 0 0 0 0 -560.7661975021183 -815.13796947951187 0 -815.13796947951187 -710.97516496808589 0 0 0 0 -513.66391595185269 -838.56068665659586 0 -838.56068665659586 -660.80518817743291 0 0 0 0 -512.74236467412993 -806.08729874112794 0 -806.08729874112794 -560.03900689685543 0 0 0 0 -539.1655333154049 -627.44649051635997 0 -627.44649051635997 -477.42641627363946 0 0 0 0 -529.38201635843143 -790.54313214159504 0 -790.54313214159504 -233.50821165990055 0 0 0 0 -388.21897399006411 -1134.9782435167649 0 -1134.9782435167649 -378.9512758107885 0 0 0 0 -451.59605471021496 -953.24116610143255 0 -953.24116610143255 -707.61601019064619 0 0 0 0 -551.61028306468506 -1010.3777456558773 0 -1010.3777456558773 -561.3403068447584 0 0 0 0 -453.44191729554586 -956.86332717999676 0 -956.86332717999676 -908.94860411659101 0 0 0 0 8.2193316201490347 -5.8452869982372704 0 -5.8452869982372704 2.694679490326481 0 0 0 0 -460.67652850477316 -329.95289591559481 0 -329.95289591559481 648.74028169529424 0 0 0 0 -496.53914259705925 -1291.4456315260086 0 -1291.4456315260086 -601.9917199625761 0 0 0 0 -718.71353255663416 -1354.2790653423408 0 -1354.2790653423408 570.45617747978599 0 0 0 0 -0.34480305019072266 -1609.194988244144 0 -1609.194988244144 -512.69546239193642 0 0 0 0 -786.81194350370788 -1076.8935993344021 0 -1076.8935993344021 -870.7214801473483 0 0 0 0 -661.70685509962095 -2044.1402335419093 0 -2044.1402335419093 -1208.2703697594625 0 0 0 0 -159.61965773790143 -1327.8039262735156 0 -1327.8039262735156 -608.33377800511244 0 0 0 0 4.2683476254945418 -12.002214208350239 0 -12.002214208350239 0.63511019941695679 0 0 0 0 -2450.8343380212027 -1916.4606361423748 0 -1916.4606361423748 -448.81784348499241 0 0 0 0 -0.41541423597664107 -1205.8632324319215 0 -1205.8632324319215 -1110.8256831964318 0 0 0 0 -105.59934074952616 -392.19356944176889 0 -392.19356944176889 -1905.1429474383131 0 0 0 0 -451.9876993695143 -940.46699961341142 0 -940.46699961341142 -1158.2510873063002 0 0 0 0 -557.95754863051116 -1149.6703396703469 0 -1149.6703396703469 -1028.2547882994486 0 0 0 0 -378.91339753114153 -1167.3501536263611 0 -1167.3501536263611 -789.4743552889131 0 0 0 0 -200.81582372365665 -1031.9017237575836 0 -1031.9017237575836 -735.07660731214492 0 0 0 0 -324.58986620942596 -1992.0307923193468 0 -1992.0307923193468 -56.035221746097704 0 0 0 0 -312.64111358960508 -1992.9521659254824 0 -1992.9521659254824 -1935.5752017356517 0 0 0 0 1420.2358705510851 -466.69052862840272 0 -466.69052862840272 -423.04474334494807 0 0 0 0 633.12933212706412 -2221.9382621856703 0 -2221.9382621856703 -581.99278647590836 0 0 0 0 41.563157847733237 -3536.7228468867543 0 -3536.7228468867543 -2803.7783204437874 0 0 0 0 1304.532040215825 -1594.61688765914 0 -1594.61688765914 1250.8971183948652 0 0 0 0 -8.3945161141794529 -3.1701191719554345 0 -3.1701191719554345 -1.7066042677071964 0 0 0 0 1290.1716242988405 -1132.8045458740353 0 -1132.8045458740353 1242.7822746096736 0 0 0 0 294.3604883273365 -902.33114282396127 0 -902.33114282396127 -3306.4029178750789 0 0 0 0 417.7800865485915 -867.83121368471438 0 -867.83121368471438 859.98129206465455 0 0 0 0 2432.492342998652 -1681.6409451853579 0 -1681.6409451853579 293.30315636304658 0 0 0 0 1589.8078580927686 -918.64460359907025 0 -918.64460359907025 180.87462742946445 0 0 0 0 2097.8030017253768 -1049.8902004928186 0 -1049.8902004928186 50.201780793677244 0 0 0 0 -3.3926852182788139 -8.489580268162257 0 -8.489580268162257 8.4274075250978839 0 0 0 0 -409.18967873431393 -370.12529933525275 0 -370.12529933525275 391.11722349585034 0 0 0 0 -87.184771864736376 -414.76312946728763 0 -414.76312946728763 -199.7219470726086 0 0 0 0 -89.81759733564104 -348.6199370988179 0 -348.6199370988179 169.4694616434972 0 0 0 0 -104.47429015919624 -573.475338221946 0 -573.475338221946 83.754354784163297 0 0 0 0 -446.1990107198726 -157.36375736002265 0 -157.36375736002265 122.1719201820124 0 0 0 0 556.34525577063323 -70.955685783810623 0 -70.955685783810623 40.23040454850252 0 0 0 0 368.75868789563538 -371.29669347943855 0 -371.29669347943855 -3.7773834839463234 0 0 0 0 441.23169470901485 -657.80724730845759 0 -657.80724730845759 293.27114116849407 0 0 0 0 -4.6436192905823361 -9.4128157918191846 0 -9.4128157918191846 16.687101744894619 0 0 0 0 976.34028953862435 -598.52438798331696 0 -598.52438798331696 -121.5772442899397 0 0 0 0 320.28213412177865 -998.62584451746807 0 -998.62584451746807 717.10335110505548 0 0 0 0 1665.1509794263402 -131.02153698501934 0 -131.02153698501934 902.75142205206794 0 0 0 0 -1231.8012397555431 -679.72781570424377 0 -679.72781570424377 -520.28857432867517 0 0 0 0 -925.52368737101642 -659.73476653988655 0 -659.73476653988655 234.27786115115305 0 0 0 0 7.5606059961824315 -19.540977833130171 0 -19.540977833130171 6.2131517467488919 0 0 0 0 -0.83366435550851747 -177.94426064282106 0 -177.94426064282106 -218.46929672230908 0 0 0 0 -502.28214210033184 -635.63972297935106 0 -635.63972297935106 -558.4535913534196 0 0 0 0 -242.72831422579475 -514.66072518812507 0 -514.66072518812507 -352.96917412453331 0 0 0 0 -847.57900023607363 102.58349059570355 0 102.58349059570355 -70.852319233577873 0 0 0 0 -1369.8655481610767 -406.4362313324109 0 -406.4362313324109 248.77730940828042 0 0 0 0 5.9375321131803531 -15.940891985016094 0 -15.940891985016094 6.1175143852917415 0 0 0 0 -0.038981551813776605 -38.004652593970604 0 -38.004652593970604 -27.098656237668365 0 0 0 0 -115.58873025103094 -202.25388001935698 0 -202.25388001935698 -197.63188444535626 0 0 0 0 636.47624356100278 982.81762972312572 0 982.81762972312572 553.04755792568903 0 0 0 0 1498.3424514807994 -527.26131007128242 0 -527.26131007128242 -112.34504646857022 0 0 0 0 -1.8636561773690516 -4.4579723423096311 0 -4.4579723423096311 13.121367602523947 0 0 0 0 1595.5507937553339 -1564.5474954128185 0 -1564.5474954128185 -185.06316250325472 0 0 0 0 545.34427928298828 -108.37486662075025 0 -108.37486662075025 430.62849733613984 0 0 0 0 -240.32336282753386 -439.35616842905438 0 -439.35616842905438 278.20947018212246 0 0 0 0 -109.36526169569697 -164.7988943342134 0 -164.7988943342134 209.82221198594198 0 0 0 0 408.12515411408094 -421.30291591595505 0 -421.30291591595505 -123.14596181205707 0 0 0 0 1.3957371244632668 -283.75472062305744 0 -283.75472062305744 225.05575427698932 0 0 0 0 566.94101058581145 -133.15648597951804 0 -133.15648597951804 -80.497770127403783 0 0 0 0 -12.234802409293479 -127.53636929811546 0 -127.53636929811546 -148.41632197613217 0 0 0 0 -349.51703441310383 -472.1567028224199 0 -472.1567028224199 144.86405084174476 0 0 0 0 556.2958988321252 -553.61783164113012 0 -553.61783164113012 369.13765305238485 0 0 0 0 1039.708553999677 -869.43668379626251 0 -869.43668379626251 131.22213826267034 0 0 0 0 404.86331157528912 -437.239847417899 0 -437.239847417899 -160.11324003808841 0 0 0 0 250.12455991063325 -924.9869262428474 0 -924.9869262428474 902.04421865373661 0 0 0 0 -23.493104747190955 -511.11806748949675 0 -511.11806748949675 298.12086470533541 0 0 0 0 -175.68848389250343 -440.0158598448179 0 -440.0158598448179 645.04331007171277 0 0 0 0 140.27654732073279 -721.17056952763505 0 -721.17056952763505 272.76124633727886 0 0 0 0 56.667049100942677 -581.19562620406577 0 -581.19562620406577 47.44961954460814 0 0 0 0 -6.4117113505199086 -418.42282040524515 0 -418.42282040524515 208.1879134921619 0 0 0 0 75.374885974080826 -545.59250413130394 0 -545.59250413130394 72.228077729669167 0 0 0 0 84.612550445611305 -428.68444648128906 0 -428.68444648128906 -25.790859712462407 0 0 0 0 -26.805152691464173 -295.01910397587199 0 -295.01910397587199 -97.691517770457722 0 0 0 0 -85.560472607117845 -160.61782883754859 0 -160.61782883754859 -21.216574728361593 0 0 0 0 -7.1509408067649929 -205.80260254850509 0 -205.80260254850509 4.6324505496231723 0 0 0 0 -64.946824431084679 -229.52514886732388 0 -229.52514886732388 107.67169161701167 0 0 0 0 -96.655089006904745 -123.0237531802959 0 -123.0237531802959 34.037705403286964 0 0 0 0 -161.30867756396765 -273.02280854353739 0 -273.02280854353739 137.17715079693517 0 0 0 0 -161.18619652817142 -269.38308165696617 0 -269.38308165696617 126.4729124918158 0 0 0 0 -96.391148851253092 -35.403599856254004 0 -35.403599856254004 -181.22055750732761 0 0 0 0 -225.21176909306178 -369.25038289132999 0 -369.25038289132999 -296.70682109518748 0 0 0 0 -229.37393418108695 -264.86172167889163 0 -264.86172167889163 162.50974678127386 0 0 0 0 -149.8397649533872 -91.627616991025207 0 -91.627616991025207 68.590664639690658 0 0 0 0 -249.19200040603755 -159.40723583172075 0 -159.40723583172075 84.265934079536237 0 0 0 0 -248.28350414009765 -162.1597939638159 0 -162.1597939638159 48.055995153579715 0 0 0 0 -256.14873841297231 -158.17292471403198 0 -158.17292471403198 46.288691701964126 0 0 0 0 -154.88032961791032 -99.439419921778608 0 -99.439419921778608 67.315337529158569 0 0 0 0 8.726501318286239 -9.98574330325863 0 -9.98574330325863 -7.0796386763171881 0 0 0 0 -56.901754548374583 -52.20786641456138 0 -52.20786641456138 -29.778772523650105 0 0 0 0 -277.26455563603668 -202.78602696472808 0 -202.78602696472808 69.878615811947384 0 0 0 0 -206.03701917518629 -88.691925991719472 0 -88.691925991719472 140.80973987866855 0 0 0 0 -320.42070695501752 -166.94863314889517 0 -166.94863314889517 104.17452557196521 0 0 0 0 -275.36626085329044 -222.65508951030279 0 -222.65508951030279 -41.791232143354136 0 0 0 0 -447.66956007535919 -319.47487524242752 0 -319.47487524242752 -22.504235587046423 0 0 0 0 -528.91091923724161 -252.17394636668905 0 -252.17394636668905 -46.838414848985849 0 0 0 0 -340.59847215411719 -308.96968255437241 0 -308.96968255437241 -91.870830024316092 0 0 0 0 -438.30073232087307 54.369971689586237 0 54.369971689586237 -402.17359387595206 0 0 0 0 29.357081884792876 -39.101413729428401 0 -39.101413729428401 10.741087083319528 0 0 0 0 -298.96946715703234 -202.38291976126493 0 -202.38291976126493 -0.92837687781957356 0 0 0 0 -343.65974310648744 -213.91888292921067 0 -213.91888292921067 10.829242833524404 0 0 0 0 -402.01797494932543 -484.61417475407416 0 -484.61417475407416 -191.30866561468429 0 0 0 0 -210.00920991477324 -77.886271531691818 0 -77.886271531691818 61.209957237981143 0 0 0 0 17.271533509920118 269.54980546376282 0 269.54980546376282 -165.94283276721762 0 0 0 0 -112.34069104772061 -89.888556987512857 0 -89.888556987512857 26.03083356789648 0 0 0 0 -421.91040805555531 -125.89724428679983 0 -125.89724428679983 55.067997944970102 0 0 0 0 -338.81381860392867 157.52846942093493 0 157.52846942093493 5.9212883090367541 0 0 0 0 53.272678163892124 66.525065803267353 0 66.525065803267353 -12.770100888956222 0 0 0 0 -64.875548011463252 80.573796277084512 0 80.573796277084512 55.302560789234121 0 0 0 0 24.935999932466075 79.810804385931988 0 79.810804385931988 109.86058581824182 0 0 0 0 3.3049550274769501 -5.3327908932299124 0 -5.3327908932299124 -7.8024031284334967 0 0 0 0 239.61036837799475 152.52729483898293 0 152.52729483898293 -186.40082559238363 0 0 0 0 1544.3050343036793 -399.62360647538367 0 -399.62360647538367 110.88393843994709 0 0 0 0 73.631564332812559 251.22595795295638 0 251.22595795295638 28.764288333419245 0 0 0 0 7.215055620924943 -8.3616450396564517 0 -8.3616450396564517 -3.0640325233198951 0 0 0 0 39.099056402221322 32.506896519393194 0 32.506896519393194 66.299617775337538 0 0 0 0 288.35956432746025 -504.59984634739521 0 -504.59984634739521 829.78294148242276 0 0 0 0 169.22373381294892 166.8606050709277 0 166.8606050709277 -172.8402225746504 0 0 0 0 17.042140124779166 -9.3565273346677742 0 -9.3565273346677742 9.2976646637553841 0 0 0 0 1062.5139381466724 -566.25331170411755 0 -566.25331170411755 -101.07436184955441 0 0 0 0 1643.4151619188196 -1467.7071153639436 0 -1467.7071153639436 -18.944285580560972 0 0 0 0 1128.5047809484677 -1541.4813512956416 0 -1541.4813512956416 544.52258299856476 0 0 0 0 -159.53698210543371 -288.87372563560348 0 -288.87372563560348 922.64721270228802 0 0 0 0 -231.36730140316649 -27.759716718279378 0 -27.759716718279378 125.2116767636071 0 0 0 0 -25.081707697917174 -0.082982235326483078 0 -0.082982235326483078 -0.83680896404471383 0 0 0 0 -601.87249511189657 310.15866190124507 0 310.15866190124507 929.37412559719087 0 0 0 0 -1542.6509081151853 163.49391216748336 0 163.49391216748336 1625.6303798625158 0 0 0 0 -13.197932292251608 -528.87765103882157 0 -528.87765103882157 374.52785524286446 0 0 0 0 67.727151133836742 -249.43713976235085 0 -249.43713976235085 312.02044750822824 0 0 0 0 -170.94225918686334 -354.89626795715594 0 -354.89626795715594 -967.95650036429288 0 0 0 0 -653.81698701368259 -1378.0948036485424 0 -1378.0948036485424 -2381.6968522668976 0 0 0 0 -2481.2674297851954 -486.95928067067871 0 -486.95928067067871 407.77241922368921 0 0 0 0 -32.896456384525663 -48.650666661684227 0 -48.650666661684227 -1.5163051011240896 0 0 0 0 840.3481582802433 504.95023405268512 0 504.95023405268512 -394.64946187328314 0 0 0 0 7.6475168355578234 -29.706639523272798 0 -29.706639523272798 42.29349217324841 0 0 0 0 -352.78853625388729 -489.13627330955933 0 -489.13627330955933 381.60011004923581 0 0 0 0 579.10280662217338 -496.12913672115246 0 -496.12913672115246 -1601.3183935310299 0 0 0 0 -354.49845357094091 -473.07137910353049 0 -473.07137910353049 274.24143372173421 0 0 0 0 -1556.8877975884534 -1414.6011105009311 0 -1414.6011105009311 -367.63930123174214 0 0 0 0 -2358.7201092522591 -582.72234787823982 0 -582.72234787823982 1048.3324513083935 0 0 0 0 -1413.9458890956466 -157.46366549639424 0 -157.46366549639424 606.42290063302789 0 0 0 0 -1149.5717915716104 -486.51716438152653 0 -486.51716438152653 321.2018610771338 0 0 0 0 -1015.0700391611899 525.16480810263602 0 525.16480810263602 33.712368717096979 0 0 0 0 136.9514688205345 -69.734482308755105 0 -69.734482308755105 -41.168156668660231 0 0 0 0 -1822.7055397762961 -60.583003463536443 0 -60.583003463536443 400.43798476216762 0 0 0 0 -1753.4696439436229 -205.88022662113872 0 -205.88022662113872 608.61118700593943 0 0 0 0 -101.84449828480547 -286.25193771843078 0 -286.25193771843078 33.171082885135547 0 0 0 0 -64.408524199007843 -63.509476328807068 0 -63.509476328807068 84.714145376405213 0 0 0 0 86.883334916641616 -676.76304275795701 0 -676.76304275795701 150.0648492986802 0 0 0 0 -24.826450474875774 -39.950542693198884 0 -39.950542693198884 -18.456609098730183 0 0 0 0 -642.71406659722197 -584.6531712301985 0 -584.6531712301985 -126.51954102722448 0 0 0 0 653.53320832780446 152.72769160225289 0 152.72769160225289 -404.61314882483566 0 0 0 0 -11.97163885852725 -10.413533903733835 0 -10.413533903733835 -12.191547378806945 0 0 0 0 614.00719073873915 -686.51948632902349 0 -686.51948632902349 -964.78429860662436 0 0 0 0 379.10751549456654 -428.11579901703226 0 -428.11579901703226 73.502937605982879 0 0 0 0 809.02998945605577 -392.26736878275551 0 -392.26736878275551 -999.16528553731041 0 0 0 0 -3117.5458773133432 497.45092248020228 0 497.45092248020228 269.05901678478403 0 0 0 0 -2254.95226170143 -218.1293207151175 0 -218.1293207151175 214.81601036919164 0 0 0 0 -2407.4535387108481 -280.4356477454312 0 -280.4356477454312 338.67732476445963 0 0 0 0 -1894.3831850626857 675.40023444166945 0 675.40023444166945 29.091999458003556 0 0 0 0 -3616.6469311527326 -758.98988459582324 0 -758.98988459582324 308.32571274155634 0 0 0 0 -1308.444537142801 -735.27818462889991 0 -735.27818462889991 -411.66345267473662 0 0 0 0 -2280.966634922399 -908.76560135559703 0 -908.76560135559703 -194.59278339926823 0 0 0 0 -879.31014905129996 -437.07150899656699 0 -437.07150899656699 -426.24969557248551 0 0 0 0 -1240.2962042840445 -802.48887060949346 0 -802.48887060949346 -796.12922855069337 0 0 0 0 -1296.4928628067573 -721.15170248241338 0 -721.15170248241338 -171.60629432705173 0 0 0 0 -939.15844426862168 -388.07438951846416 0 -388.07438951846416 122.31620496559481 0 0 0 0 -1466.3307722017089 -396.37465226003405 0 -396.37465226003405 97.187066367259831 0 0 0 0 -1759.7258515357789 -543.64687063136626 0 -543.64687063136626 327.80207510225591 0 0 0 0 -886.47601731408213 -496.35778292934265 0 -496.35778292934265 124.84801548664109 0 0 0 0 -1343.6700436697101 -240.77034617490426 0 -240.77034617490426 548.2095967438654 0 0 0 0 -1607.0876145064904 -181.04500303565146 0 -181.04500303565146 803.74864278225141 0 0 0 0 -1438.4165137422606 -302.6551287959519 0 -302.6551287959519 579.12711614955333 0 0 0 0 -643.3207282123476 -237.99774982835515 0 -237.99774982835515 327.6628100209964 0 0 0 0 -118.89712773807332 -484.90831623114354 0 -484.90831623114354 -53.210969834181014 0 0 0 0 -77.211254313071549 -433.33179394221224 0 -433.33179394221224 -423.46825251619157 0 0 0 0 -498.0337842926383 -412.7858255267347 0 -412.7858255267347 -19.781702689135273 0 0 0 0 -534.40114986697881 -529.52070176688721 0 -529.52070176688721 -332.85558271300397 0 0 0 0 -842.1644108077744 -549.83402341607143 0 -549.83402341607143 -270.08235210430576 0 0 0 0 -90.051224008104327 -534.92339225232718 0 -534.92339225232718 -120.72722865064861 0 0 0 0 222.9420587194727 -329.4593366252011 0 -329.4593366252011 -29.128706472314661 0 0 0 0 412.62768026214144 -537.08056508710433 0 -537.08056508710433 -104.89344853154034 0 0 0 0 646.77468074735953 -270.06588231056958 0 -270.06588231056958 28.269248553137004 0 0 0 0 308.66408581536234 -352.08473207195129 0 -352.08473207195129 195.88707234590402 0 0 0 0 513.19450034127658 -432.27283357423948 0 -432.27283357423948 -71.273894923433545 0 0 0 0 -89.022166752811245 -387.82334450469534 0 -387.82334450469534 258.33077792244148 0 0 0 0 142.50455095094367 -570.08635621210851 0 -570.08635621210851 -47.452991106976242 0 0 0 0 -66.950887668360338 -34.701746926300984 0 -34.701746926300984 18.490611172397621 0 0 0 0 4.1053225991781801 -51.375680913195538 0 -51.375680913195538 17.618816238027648 0 0 0 0 -97.328687967751648 -77.154538224975113 0 -77.154538224975113 39.878919328784832 0 0 0 0 -45.948305465436491 -60.411396848438166 0 -60.411396848438166 -7.9110984851478747 0 0 0 0 50.167795325980933 -183.68105507280052 0 -183.68105507280052 -36.688781670120079 0 0 0 0 -8.6731988090459708 -78.337869310307724 0 -78.337869310307724 64.17094602209545 0 0 0 0 -2.0781422936929328 1.0693982976800953 0 1.0693982976800953 -5.2108248133047255 0 0 0 0 208.94987340645639 -43.28619720766801 0 -43.28619720766801 -35.695038883481175 0 0 0 0 -298.96468787371577 -51.689473763937713 0 -51.689473763937713 63.79416449413111 0 0 0 0 98.753382383723874 -219.56593524862546 0 -219.56593524862546 -123.4994500494322 0 0 0 0 18.989388327314373 20.73857604679506 0 20.73857604679506 -91.884645869229644 0 0 0 0 -84.579383136067918 -220.23946700205124 0 -220.23946700205124 -165.5466710725741 0 0 0 0 23.548144994976155 -11.383918156079744 0 -11.383918156079744 88.643989942691405 0 0 0 0 -81.181778353235131 -186.40745516863899 0 -186.40745516863899 -353.21180367157649 0 0 0 0 -188.02252921168929 -64.914205364450027 0 -64.914205364450027 127.85082419130777 0 0 0 0 53.915268292256769 -383.6028930672619 0 -383.6028930672619 -275.44753921320807 0 0 0 0 -28.988652797021853 -47.943579906917819 0 -47.943579906917819 10.052438667404964 0 0 0 0 -32.426926304960944 -362.0178700412398 0 -362.0178700412398 705.21248565102724 0 0 0 0 122.10334399971271 -92.001920971513755 0 -92.001920971513755 -46.765287898684619 0 0 0 0 -51.532550627683733 -55.428017955375246 0 -55.428017955375246 20.938546816803239 0 0 0 0 98.817716717807343 -298.40521645491754 0 -298.40521645491754 229.12195743779193 0 0 0 0 240.60197759881157 -137.83809474925511 0 -137.83809474925511 -704.93027685866036 0 0 0 0 -100.00091646325677 466.52289232962539 0 466.52289232962539 -1760.7543027292631 0 0 0 0 0.55040859350585869 -54.082825169281463 0 -54.082825169281463 6.233884057236736 0 0 0 0 -11.034545522961102 -10.740121840324505 0 -10.740121840324505 -5.8835765880105555 0 0 0 0 -70.713568354161978 -12.058423255068092 0 -12.058423255068092 6.5108110480283266 0 0 0 0 -131.66916150870929 -511.00168841206323 0 -511.00168841206323 -1685.8414316565468 0 0 0 0 -731.55462308071765 -743.04856065075728 0 -743.04856065075728 -760.00327163421753 0 0 0 0 375.0466805639926 338.80945306400827 0 338.80945306400827 -1619.3622100482171 0 0 0 0 -904.06537643840011 -314.10815884703698 0 -314.10815884703698 -163.81582190109475 0 0 0 0 542.19090480314253 -1530.1253855503528 0 -1530.1253855503528 -1572.0935145500625 0 0 0 0 32.609615718089117 -1295.0519729866792 0 -1295.0519729866792 607.37674726269324 0 0 0 0 152.83423587740435 -1992.0587099161421 0 -1992.0587099161421 2385.0201678936573 0 0 0 0 -33.980669056329134 1054.529742848983 0 1054.529742848983 2477.8511352045753 0 0 0 0 2400.2988277374407 -407.41873950111039 0 -407.41873950111039 -164.62912303260538 0 0 0 0 -521.94213377742562 -157.68131479380463 0 -157.68131479380463 449.81132588908804 0 0 0 0 -1.0433493484158376 -4.774309857008074 0 -4.774309857008074 9.5464560100179483 0 0 0 0 214.16424805018323 -1552.6519184436693 0 -1552.6519184436693 1225.310272498311 0 0 0 0 63.485534217470558 -1109.5378703116294 0 -1109.5378703116294 -175.53836533137473 0 0 0 0 -121.06088450116113 -1028.3436005452277 0 -1028.3436005452277 544.52515054847754 0 0 0 0 -171.73373774289666 -1169.8053117644558 0 -1169.8053117644558 603.91249360845961 0 0 0 0 -117.25953317578205 -994.00898606879855 0 -994.00898606879855 751.80102240027918 0 0 0 0 493.84272037348637 -1199.4885372006102 0 -1199.4885372006102 517.76164953763873 0 0 0 0 518.40907559895277 -1001.149510911875 0 -1001.149510911875 -87.764417330996366 0 0 0 0 1066.6209474186799 -1486.6298810103071 0 -1486.6298810103071 208.7348767149233 0 0 0 0 671.17224661571345 -241.46748605518042 0 -241.46748605518042 -152.30223678624316 0 0 0 0 242.18847357490995 -788.49202664358745 0 -788.49202664358745 862.72974124158645 0 0 0 0 -30.021962436836645 -279.95081265838667 0 -279.95081265838667 20.959558965754695 0 0 0 0 -45.32319330138489 -475.20460902136983 0 -475.20460902136983 -115.4628641248346 0 0 0 0 228.16924776871747 -199.74253705462979 0 -199.74253705462979 -305.91833277199476 0 0 0 0 -21.205917113484361 -209.39807022817467 0 -209.39807022817467 -252.77377776635694 0 0 0 0 54.743965998721251 -87.308512727191555 0 -87.308512727191555 -84.950620927313139 0 0 0 0 4190.5033316234567 -267.67506038684223 0 -267.67506038684223 -378.14849515687092 0 0 0 0 1253.8059184651966 -2401.260656920942 0 -2401.260656920942 2087.6268603094068 0 0 0 0 -763.30531907263003 -42.00017619846767 0 -42.00017619846767 1410.7724783232006 0 0 0 0 8.3713824073092482 -12.530524759776625 0 -12.530524759776625 30.392026091672108 0 0 0 0 -387.05998123591507 -557.70620831627457 0 -557.70620831627457 -71.776398438916658 0 0 0 0 -39.145261765395084 -460.20079838992592 0 -460.20079838992592 -168.65101306170982 0 0 0 0 754.41830935128382 -815.87980532749498 0 -815.87980532749498 -429.16081799720268 0 0 0 0 1616.769579556312 -874.2575219897717 0 -874.2575219897717 -1398.63679074416 0 0 0 0 1411.2700378842092 -322.35141840184224 0 -322.35141840184224 -103.88404691685355 0 0 0 0 -1110.5252407859261 -285.43165754887377 0 -285.43165754887377 697.62835850968258 0 0 0 0 718.94521415148483 -487.66253821774444 0 -487.66253821774444 -716.68536107087675 0 0 0 0 -1082.4893185888359 -1503.7135231367611 0 -1503.7135231367611 -265.18542090474784 0 0 0 0 14.507656986929055 -36.35242083957921 0 -36.35242083957921 64.453370086661153 0 0 0 0 -1883.5188280729485 -1894.2184138642533 0 -1894.2184138642533 155.96289346919366 0 0 0 0 -526.066291838084 -7.9861047375889029 0 -7.9861047375889029 201.26810251719144 0 0 0 0 -1148.7097938989955 497.81896014339145 0 497.81896014339145 673.65704509715852 0 0 0 0 -1662.2962906812681 -145.4094442128735 0 -145.4094442128735 312.74855240742181 0 0 0 0 12.628723987128069 -31.478690728252865 0 -31.478690728252865 62.090856369966332 0 0 0 0 -1256.1557443647307 -181.06330005065865 0 -181.06330005065865 315.87513689033949 0 0 0 0 -350.92013930223402 461.15122757756762 0 461.15122757756762 121.39818724947872 0 0 0 0 -818.65852896199158 -255.56123226658747 0 -255.56123226658747 -976.71105193407857 0 0 0 0 -73.915704942352022 -94.772758377250284 0 -94.772758377250284 -22.756562224180016 0 0 0 0 -73.571092557847805 -144.10975007672278 0 -144.10975007672278 -192.25976382732188 0 0 0 0 -250.14013691867513 364.80023804035955 0 364.80023804035955 -100.54978282777665 0 0 0 0 11.237300434626718 -22.747044474150172 0 -22.747044474150172 49.352682185672904 0 0 0 0 -282.03736221178406 -556.88208206673335 0 -556.88208206673335 -547.12692933681683 0 0 0 0 -53.839410859611235 -157.93778635782292 0 -157.93778635782292 -189.47282343810821 0 0 0 0 -72.663995635268748 -84.874797746851073 0 -84.874797746851073 -360.49967557519994 0 0 0 0 235.0545602010734 -93.303971462057234 0 -93.303971462057234 -366.50017734137691 0 0 0 0 264.31565686723297 -71.665825635194778 0 -71.665825635194778 -590.77426577512233 0 0 0 0 1322.974323203649 295.08425099285159 0 295.08425099285159 199.13213926091248 0 0 0 0 56.11558408836936 -116.07879385272645 0 -116.07879385272645 145.97356452520762 0 0 0 0 -50.512978577883587 262.53884763502083 0 262.53884763502083 110.8910504734522 0 0 0 0 -108.74048602428775 127.31695087589287 0 127.31695087589287 -119.9159624111926 0 0 0 0 1.7325030093697578 2.5779248892767264 0 2.5779248892767264 -3.3719986104210875 0 0 0 0 -6.9665481184747478 26.864316882376443 0 26.864316882376443 0.14507760624474031 0 0 0 0 100.61023674414537 109.20240835145523 0 109.20240835145523 71.035121970329783 0 0 0 0 -45.15962346273227 11.53141554492322 0 11.53141554492322 23.983645988955686 0 0 0 0 -41.790419181423204 28.730692227596592 0 28.730692227596592 19.785580960524385 0 0 0 0 -236.06696246013598 51.434144086446395 0 51.434144086446395 192.76559651896241 0 0 0 0 -255.32712020437975 -7.0285625640644867 0 -7.0285625640644867 55.318607119221269 0 0 0 0 -333.46961873525834 19.572143150351621 0 19.572143150351621 95.73830528696999 0 0 0 0 -170.326209291743 15.79485960897 0 15.79485960897 -4.1215926467557438 0 0 0 0 -170.32620929173754 15.794859608973638 0 15.794859608973638 -4.1215926467557438 0 0 0 0 -170.32620929171389 15.794859609013656 0 15.794859609013656 -4.1215926467411919 0 0 0 0 -44.490035061144226 -12.148420597295626 0 -12.148420597295626 1.4312010544308578 0 0 0 0 -162.95901043461981 33.618523728551736 0 33.618523728551736 23.689610530760547 0 0 0 0 -159.83348422461313 -3.7091602541604516 0 -3.7091602541604516 17.087670869543217 0 0 0 0 -23.187239990830292 -10.04830489067929 0 -10.04830489067929 4.5300276128340471 0 0 0 0 27.429761504427006 -112.2434848960238 0 -112.2434848960238 133.49876626886544 0 0 0 0 -204.39488097190042 47.796456565141852 0 47.796456565141852 27.268850859552913 0 0 0 0 -72.683980573150563 -77.964445114125823 0 -77.964445114125823 84.990937411926112 0 0 0 0 -75.214241772097012 -101.03218018155167 0 -101.03218018155167 14.923865427634155 0 0 0 0 -5.9939479791246946 -1.5841267558786427 0 -1.5841267558786427 0.63569314674299449 0 0 0 0 -63.238103363618123 -83.869970522544833 0 -83.869970522544833 -19.894448593302599 0 0 0 0 145.72514564574885 -94.757490236888771 0 -94.757490236888771 54.58471411994833 0 0 0 0 376.75244788734199 -60.729505735893326 0 -60.729505735893326 -217.26684081183339 0 0 0 0 -320.73448561472833 -209.93079293892697 0 -209.93079293892697 -37.835385241021868 0 0 0 0 -27.695594043014353 166.93518463174405 0 166.93518463174405 -291.44600772241074 0 0 0 0 -30.697596382686243 -232.32263099732563 0 -232.32263099732563 -261.7550476428878 0 0 0 0 -215.57087560744185 -270.23051608505193 0 -270.23051608505193 -184.69926716749615 0 0 0 0 -98.268118915028481 -169.61533785653501 0 -169.61533785653501 -123.06533539851807 0 0 0 0 0.0014958956875119611 4.4253045610428643 0 4.4253045610428643 -2.1092710265090631 0 0 0 0 -241.61995675287835 -130.54889191724033 0 -130.54889191724033 15.379785438941326 0 0 0 0 61.004941669219988 -237.01144839764947 0 -237.01144839764947 -131.9146655527652 0 0 0 0 -84.23057341502863 -405.47805440532557 0 -405.47805440532557 -67.776370483087192 0 0 0 0 44.117990421309514 -223.41135444259504 0 -223.41135444259504 -138.49652958131492 0 0 0 0 101.16389367029478 -140.9162770830485 0 -140.9162770830485 28.040902474181564 0 0 0 0 -37.710432657855563 -324.24262584956938 0 -324.24262584956938 -16.677539459545585 0 0 0 0 107.02406914367748 -151.59328068081254 0 -151.59328068081254 47.443662144915834 0 0 0 0 30.711909029345634 -105.49137147014925 0 -105.49137147014925 101.73224590503689 0 0 0 0 -5.1291400360132684 -224.80980343325336 0 -224.80980343325336 -1.6269624810738605 0 0 0 0 177.89673948704149 -109.37859010809552 0 -109.37859010809552 -5.2609349200126871 0 0 0 0 109.70135677112557 -279.24467800806195 0 -279.24467800806195 138.02915973374317 0 0 0 0 111.95173783392966 -141.2733672353292 0 -141.2733672353292 68.837665295864781 0 0 0 0 88.644922243416659 -112.14137989586743 0 -112.14137989586743 64.891228676598985 0 0 0 0 -284.93771092737188 -38.018688998863581 0 -38.018688998863581 175.65315837194066 0 0 0 0 -8.7879053158375768 -53.612531480837973 0 -53.612531480837973 7.9035255190558473 0 0 0 0 -21.379596732006299 -77.588600085693457 0 -77.588600085693457 61.167826319027 0 0 0 0 28.706933196110185 -108.89783789956709 0 -108.89783789956709 82.765141566444072 0 0 0 0 39.799352292902768 -120.89951621560976 0 -120.89951621560976 67.137555255299958 0 0 0 0 -82.849275111769543 -47.946357697513157 0 -47.946357697513157 54.597347663735505 0 0 0 0 39.614024360635085 -105.04341018208652 0 -105.04341018208652 65.427264464557538 0 0 0 0 11.402113289539273 -88.188198670193572 0 -88.188198670193572 43.87132417980277 0 0 0 0 56.973243774365983 -218.40094669422615 0 -218.40094669422615 24.618465656074477 0 0 0 0 90.327237750752829 -10.527915723063415 0 -10.527915723063415 237.70091768283601 0 0 0 0 27.03351875655062 -269.05178619315484 0 -269.05178619315484 234.35245948066566 0 0 0 0 -31.931519090256188 -149.9645929525941 0 -149.9645929525941 -12.053920264384942 0 0 0 0 45.468381496056821 -82.222714030873149 0 -82.222714030873149 32.214444793332902 0 0 0 0 9.8779569186881417 -122.00854667937165 0 -122.00854667937165 51.095521195386027 0 0 0 0 12.145736266713357 -139.39223613776267 0 -139.39223613776267 -140.39676597006473 0 0 0 0 70.790627803960604 -86.112207304594961 0 -86.112207304594961 60.795058568298501 0 0 0 0 62.78279429068607 -55.751094297761711 0 -55.751094297761711 -128.10491844555145 0 0 0 0 -21.003222615333016 -16.136824392373537 0 -16.136824392373537 14.783841878941743 0 0 0 0 -193.11770590568631 -143.55214526088639 0 -143.55214526088639 292.42729208527089 0 0 0 0 122.91994455314125 -80.336745691673968 0 -80.336745691673968 97.881431536237869 0 0 0 0 193.2214216250577 -44.340561042089121 0 -44.340561042089121 15.295185277023734 0 0 0 0 56.354561002707271 -63.125582073048676 0 -63.125582073048676 29.04383127505989 0 0 0 0 0.058708543576358352 -122.66381286712294 0 -122.66381286712294 -63.0828134492549 0 0 0 0 120.74320646887645 21.733705321691559 0 21.733705321691559 115.27964216545206 0 0 0 0 -15.815470254767774 -64.495246909966426 0 -64.495246909966426 58.60521569469762 0 0 0 0 74.403513520495721 -50.369973238155026 0 -50.369973238155026 -65.6850409310711 0 0 0 0 148.05340930221428 -7.131457998219048 0 -7.131457998219048 66.121269215222128 0 0 0 0 187.91768361028517 -49.199662467523012 0 -49.199662467523012 46.723454752440375 0 0 0 0 181.11761436777306 82.816197584800648 0 82.816197584800648 277.30422402205522 0 0 0 0 -9.6204152638920846 -14.78771880915642 0 -14.78771880915642 25.596002194569333 0 0 0 0 128.44705212855479 15.370396813681509 0 15.370396813681509 44.712559532324121 0 0 0 0 137.17492372355628 -93.176900546846468 0 -93.176900546846468 -40.768850974856832 0 0 0 0 67.968497334877611 -79.417196258737476 0 -79.417196258737476 -17.399304271824803 0 0 0 0 -10.688187952646331 -111.36299099071039 0 -111.36299099071039 5.8507036720329779 0 0 0 0 -23.832107659123722 -197.23048313522304 0 -197.23048313522304 108.88676174408101 0 0 0 0 -19.219944812437461 -49.956330722658095 0 -49.956330722658095 31.231652797920106 0 0 0 0 -72.541824947416899 -128.1482386769967 0 -128.1482386769967 20.483649624289683 0 0 0 0 50.957457202148362 -105.1481994596279 0 -105.1481994596279 33.471294219540141 0 0 0 0 47.425722639234579 -77.285451257343937 0 -77.285451257343937 44.297561734854838 0 0 0 0 -1.7367246655048802 -119.86675742177249 0 -119.86675742177249 34.816347204042813 0 0 0 0 10.266009004212719 -121.77844837878229 0 -121.77844837878229 -4.3063496382383164 0 0 0 0 -19.811890977893199 -140.13320193053369 0 -140.13320193053369 46.842436004306364 0 0 0 0 -12.609861258850287 -139.5027236225551 0 -139.5027236225551 44.630206516092585 0 0 0 0 -9.0030191665427992 -150.17519457720482 0 -150.17519457720482 55.959897831060516 0 0 0 0 -57.032902900755289 -170.28288419343517 0 -170.28288419343517 57.657950404249277 0 0 0 0 -74.475987997313496 -113.8457019438938 0 -113.8457019438938 85.284863961245719 0 0 0 0 -7.6792004302624264 -110.87398947958354 0 -110.87398947958354 60.963110655171477 0 0 0 0 -9.3778327296313364 -122.05871665342738 0 -122.05871665342738 49.868687994792708 0 0 0 0 -8.0591631312572645 -108.25178209095293 0 -108.25178209095293 43.716049402566568 0 0 0 0 5.2784262047789525 -111.63806869590917 0 -111.63806869590917 44.468486770783784 0 0 0 0 -5.5218007942748955 -92.241198544314102 0 -92.241198544314102 61.801529093514546 0 0 0 0 42.244199471594627 -81.611258757561046 0 -81.611258757561046 69.075021808597938 0 0 0 0 -29.286099357639614 -124.6580905006922 0 -124.6580905006922 94.535822818565066 0 0 0 0 49.246135413819616 -71.987892511118019 0 -71.987892511118019 62.130004199920123 0 0 0 0 -44.632672424355405 -23.865476552997279 0 -23.865476552997279 60.885841757022718 0 0 0 0 94.630868102447494 -410.14734386300552 0 -410.14734386300552 21.416282493488325 0 0 0 0 -207.88535772103569 7.6650089094764553 0 7.6650089094764553 74.292182067597423 0 0 0 0 -142.21024835376375 -86.429414500886196 0 -86.429414500886196 50.036988254207245 0 0 0 0 -7.6904746058654396 -17.221631246915337 0 -17.221631246915337 6.2605673853312567 0 0 0 0 -38.439810432360218 -100.5318286263373 0 -100.5318286263373 78.651344185927883 0 0 0 0 124.59934641016662 -61.819527228282823 0 -61.819527228282823 -186.78780648961038 0 0 0 0 -2.3961006422278643 -2.1754150783944226 0 -2.1754150783944226 -3.4483229604233259 0 0 0 0 -770.51176635427328 104.69249451623909 0 104.69249451623909 39.403300761667197 0 0 0 0 -56.655359029486135 -315.80499486008193 0 -315.80499486008193 -261.88366514176232 0 0 0 0 -424.7296409393166 -433.82742338332355 0 -433.82742338332355 41.047561825922458 0 0 0 0 341.16626467352035 -0.63194685114285676 0 -0.63194685114285676 -15.034898383193649 0 0 0 0 -220.81256120266335 -242.04876374643936 0 -242.04876374643936 181.47645276911499 0 0 0 0 -8.103660158252751 -121.3288762101547 0 -121.3288762101547 3.1668754884058217 0 0 0 0 -5.1421006903656234 -132.26152682714746 0 -132.26152682714746 32.427943297661841 0 0 0 0 -62.836825786744171 -70.293714768722424 0 -70.293714768722424 -13.07195547178577 0 0 0 0 36.669218124308827 -129.05825984073454 0 -129.05825984073454 32.654734684459982 0 0 0 0 -0.67909158090878918 -162.5050847593684 0 -162.5050847593684 44.034953807531565 0 0 0 0 46.530946823215345 -144.53698680833622 0 -144.53698680833622 50.478647130737954 0 0 0 0 -65.645556591000059 -122.70845274253952 0 -122.70845274253952 50.345538319426851 0 0 0 0 -49.413597508147518 -73.290398978768621 0 -73.290398978768621 11.812666410067919 0 0 0 0 -145.03754157226649 -61.324940092694305 0 -61.324940092694305 127.34659522285801 0 0 0 0 -133.24091680085621 -55.203430031731841 0 -55.203430031731841 62.783456268625741 0 0 0 0 -9.8599576093623114 -24.439693919313964 0 -24.439693919313964 71.768661706637914 0 0 0 0 -154.93656903959527 26.242736552505448 0 26.242736552505448 15.698642340503284 0 0 0 0 -301.01701443727507 -306.57164643512078 0 -306.57164643512078 -96.266648391865601 0 0 0 0 -23.029874667593539 -11.206504593399544 0 -11.206504593399544 69.49391709956052 0 0 0 0 -486.99659165624689 70.1770697529264 0 70.1770697529264 -167.0550956413208 0 0 0 0 -475.45989025761082 15.114068974347902 0 15.114068974347902 83.189544586115517 0 0 0 0 -84.196341761555232 -148.38175664727896 0 -148.38175664727896 42.937036311152042 0 0 0 0 2.9987381036679963 -20.413368992671806 0 -20.413368992671806 18.738324549022934 0 0 0 0 -145.92172637963085 -498.12440441172657 0 -498.12440441172657 -261.05049235509068 0 0 0 0 -295.47256859806657 -316.90336401507375 0 -316.90336401507375 110.68854194770938 0 0 0 0 -357.60706852298608 -123.60764742058745 0 -123.60764742058745 -470.6406461482984 0 0 0 0 3.2599417255187646 -4.1698318012411519 0 -4.1698318012411519 -3.5653684759878388 0 0 0 0 -165.58373781039336 -427.97714419553085 0 -427.97714419553085 -453.58878915727837 0 0 0 0 -463.9077992677594 -508.91771540839545 0 -508.91771540839545 -422.62579917331459 0 0 0 0 -481.21207760297239 -533.08860794648081 0 -533.08860794648081 -144.56122392707039 0 0 0 0 -185.87000657575845 -289.01668098527443 0 -289.01668098527443 -191.12004800798604 0 0 0 0 -212.98773267058277 -337.12246379390854 0 -337.12246379390854 -121.8831286268578 0 0 0 0 -125.42372060133152 -149.52359719842229 0 -149.52359719842229 -20.2037559170858 0 0 0 0 -58.347760310665763 -181.65377517092566 0 -181.65377517092566 -10.655974583743955 0 0 0 0 40.160048159329506 -77.650908165592341 0 -77.650908165592341 74.125015413827128 0 0 0 0 69.469561971814983 -103.58155661812452 0 -103.58155661812452 52.677727747373865 0 0 0 0 64.607510500965873 -104.80472940734398 0 -104.80472940734398 60.288091138012533 0 0 0 0 83.206506198017451 -151.85598724159718 0 -151.85598724159718 -8.2903241388121387 0 0 0 0 -1.1486718445012229 -156.45286476379988 0 -156.45286476379988 46.533083152549807 0 0 0 0 78.14325910682237 -100.05449628817951 0 -100.05449628817951 37.08820179756367 0 0 0 0 58.548026420492945 -73.902002364300415 0 -73.902002364300415 80.047410300520653 0 0 0 0 159.4955793754707 -56.555468418693636 0 -56.555468418693636 40.216158135626756 0 0 0 0 110.69309544273347 -119.29276427308287 0 -119.29276427308287 41.364104711603431 0 0 0 0 -416.64056664723284 -502.71120626605625 0 -502.71120626605625 -145.17238085158169 0 0 0 0 170.3966234192776 11.583362010769633 0 11.583362010769633 65.385243908421216 0 0 0 0 69.560006488085492 -90.656844214538069 0 -90.656844214538069 131.95960848806135 0 0 0 0 64.686060092794293 -79.483290172642882 0 -79.483290172642882 80.614958862573445 0 0 0 0 -511.70051039251848 -372.58456754512736 0 -372.58456754512736 67.712804762879387 0 0 0 0 -381.88521095974829 -440.7178907093803 0 -440.7178907093803 -170.54813569145335 0 0 0 0 -33.108785355680368 -3.0223628007486667 0 -3.0223628007486667 26.451206377975979 0 0 0 0 -548.06364505874444 -716.22549166611134 0 -716.22549166611134 -477.21597591627506 0 0 0 0 1.6515402454733703 -2.6025078713146712 0 -2.6025078713146712 -2.0915997830426249 0 0 0 0 37.425471100192226 -728.71999324599165 0 -728.71999324599165 -469.01778514038597 0 0 0 0 329.11219246082692 -194.3811993747222 0 -194.3811993747222 -347.88220713888586 0 0 0 0 -756.26363856261742 -521.66169838186943 0 -521.66169838186943 -427.48529736723867 0 0 0 0 -935.32729616881625 -872.726777927277 0 -872.726777927277 -464.14641211430717 0 0 0 0 -420.42299446120887 -238.7932461283217 0 -238.7932461283217 -133.3491895085026 0 0 0 0 -182.93121257019811 -240.65869385425322 0 -240.65869385425322 -174.40967293393624 0 0 0 0 -108.35093218841575 -339.55874016981397 0 -339.55874016981397 -165.54099134376156 0 0 0 0 415.24294511358312 -427.58318833198427 0 -427.58318833198427 79.704282604790933 0 0 0 0 49.413656727430862 -266.60453168377808 0 -266.60453168377808 39.13058095931774 0 0 0 0 7.6158552956112544 -146.63529801547338 0 -146.63529801547338 106.49063315175954 0 0 0 0 8.5614018661410682 -29.646597069341453 0 -29.646597069341453 7.7116586310058892 0 0 0 0 32.971834991738433 -113.76013138078997 0 -113.76013138078997 72.226891129677824 0 0 0 0 -8.2036405402541277 -74.397322606653688 0 -74.397322606653688 107.70900506166072 0 0 0 0 -6.107337200241659 0.50162427467853377 0 0.50162427467853377 -2.3546239803745976 0 0 0 0 72.555607161648368 -87.470786591889919 0 -87.470786591889919 18.945055848409538 0 0 0 0 160.37832966557471 67.02944042418676 0 67.02944042418676 -479.73704697965877 0 0 0 0 -203.70919188747212 -137.86120386147741 0 -137.86120386147741 186.63703491989145 0 0 0 0 -5.7493748037950354 -181.32602365792536 0 -181.32602365792536 47.891338650384569 0 0 0 0 -116.45486025086575 -271.90280325902495 0 -271.90280325902495 -6.4382801035571902 0 0 0 0 59.261352048534718 -178.25697388539038 0 -178.25697388539038 -165.74865867653716 0 0 0 0 -2.9013558485312387 27.323792146122287 0 27.323792146122287 -60.034416265958498 0 0 0 0 -205.67516446350783 -46.963847027956945 0 -46.963847027956945 148.91382124877418 0 0 0 0 -95.703780750061924 -376.32505194114219 0 -376.32505194114219 -73.967659890535288 0 0 0 0 360.70675017361646 -262.73103878422626 0 -262.73103878422626 98.169643040011579 0 0 0 0 89.469401567272143 -145.25428734789057 0 -145.25428734789057 198.83399983544223 0 0 0 0 -3.424170867321024 -2.9273106075676196 0 -2.9273106075676196 -2.5809110084806832 0 0 0 0 -0.12361956745075986 -1.5773394588233884 0 -1.5773394588233884 -1.271424814780687 0 0 0 0 717.35135562790674 -120.5969963263924 0 -120.5969963263924 -189.11587328921451 0 0 0 0 890.47845422879618 -423.05297737913315 0 -423.05297737913315 -205.99721387933823 0 0 0 0 29.823885906735086 -87.705703874296887 0 -87.705703874296887 16.68022409704281 0 0 0 0 20.249627258723194 -86.305348501457956 0 -86.305348501457956 44.124647950149665 0 0 0 0 -213.19653695114539 -81.238505977633395 0 -81.238505977633395 42.550490447116317 0 0 0 0 43.376961053625564 -131.27276079175499 0 -131.27276079175499 101.04381549998652 0 0 0 0 8.1772852702673049 -16.42638189124952 0 -16.42638189124952 4.3252859469031932 0 0 0 0 142.98529784302082 -162.58542837658388 0 -162.58542837658388 92.479261538799619 0 0 0 0 51.475051222354523 -113.01369520133994 0 -113.01369520133994 118.91779514474911 0 0 0 0 89.725040704579442 -92.515460100799828 0 -92.515460100799828 36.582909823657246 0 0 0 0 -27.071030726267011 -20.297521600827238 0 -20.297521600827238 36.245122216603619 0 0 0 0 38.675240360549651 -108.96373676034727 0 -108.96373676034727 118.3285685582814 0 0 0 0 16.929243178310571 -91.823900231109292 0 -91.823900231109292 156.64235871518395 0 0 0 0 72.421550696266564 -77.133222479311002 0 -77.133222479311002 76.04931248556025 0 0 0 0 -691.26464949518413 87.418972011284495 0 87.418972011284495 997.40716351236915 0 0 0 0 -210.18867053179565 -373.40009223255038 0 -373.40009223255038 -145.27259859298647 0 0 0 0 2.4894686343193442 -4.6050032112833819 0 -4.6050032112833819 0.9243156073840737 0 0 0 0 31.479171515340568 -527.88686505091027 0 -527.88686505091027 -118.33766797062708 0 0 0 0 -1762.1394082420666 -1586.7247892765517 0 -1586.7247892765517 -884.85415056796046 0 0 0 0 1346.3626288375935 409.97085600603896 0 409.97085600603896 -703.27059496307629 0 0 0 0 889.49899185090908 -218.23716469469946 0 -218.23716469469946 -866.84916765012895 0 0 0 0 114.83314807563147 -183.8974727075547 0 -183.8974727075547 -860.86893855814378 0 0 0 0 374.17264239458382 428.94633064011578 0 428.94633064011578 266.40823584471946 0 0 0 0 -377.8817216512598 -1053.8520556281073 0 -1053.8520556281073 -1666.4712617751939 0 0 0 0 1552.0724230422311 -532.13689227562827 0 -532.13689227562827 -1343.9574641021318 0 0 0 0 104.24629902033485 -1273.9060079045739 0 -1273.9060079045739 -743.12164305322221 0 0 0 0 -531.5344588676453 -979.35738314437185 0 -979.35738314437185 -764.8592825778469 0 0 0 0 152.00882413884392 -385.48104273571516 0 -385.48104273571516 -19.129212925006868 0 0 0 0 -3.8488911602880904 -4.9036704440039216 0 -4.9036704440039216 -0.55912053135960171 0 0 0 0 -267.09974645470265 -534.40924517842723 0 -534.40924517842723 319.08604963060498 0 0 0 0 -417.00917149610905 -971.61065351395882 0 -971.61065351395882 -735.37832001928473 0 0 0 0 -321.23456178279594 -873.39547567279806 0 -873.39547567279806 -1063.627893229961 0 0 0 0 -494.70596956784721 -625.05747542946483 0 -625.05747542946483 -258.49899899290176 0 0 0 0 -678.55881238905567 -701.8809228245882 0 -701.8809228245882 -621.57391202388681 0 0 0 0 -360.27675856732822 -609.27927028799604 0 -609.27927028799604 -1038.9972428628862 0 0 0 0 -441.66350921661797 -1033.6411777657631 0 -1033.6411777657631 -1687.1205964157125 0 0 0 0 -499.97600792639423 -964.7268411215482 0 -964.7268411215482 -981.84421620546163 0 0 0 0 35.994290881211327 -37.752829012744463 0 -37.752829012744463 18.503688941240739 0 0 0 0 -722.09092296829476 -980.37133236356021 0 -980.37133236356021 -707.51203699898906 0 0 0 0 -730.27414593279718 -953.84019906797766 0 -953.84019906797766 -792.36613356071757 0 0 0 0 -404.22366867042729 -917.2816189503792 0 -917.2816189503792 -1076.9318850686541 0 0 0 0 -492.45297574739379 -626.54750641423016 0 -626.54750641423016 -736.7115084688412 0 0 0 0 -440.36457669911033 -1190.5971012172085 0 -1190.5971012172085 -1380.4530208223732 0 0 0 0 38.230965572406831 -49.798247248783397 0 -49.798247248783397 45.141530115344324 0 0 0 0 7.3304008551931474 -62.904458663979312 0 -62.904458663979312 4.2153604672275833 0 0 0 0 57.908104828729293 -54.912649605192286 0 -54.912649605192286 -39.485926980927843 0 0 0 0 -1095.827556431861 -1255.5296043562994 0 -1255.5296043562994 -1226.2060055127367 0 0 0 0 -448.90353778573626 -930.12164881326862 0 -930.12164881326862 -1743.7672536137688 0 0 0 0 -1867.7875941793027 -1376.6914399971283 0 -1376.6914399971283 -775.73244651999539 0 0 0 0 10.003449406458579 -1.7401800421274345 0 -1.7401800421274345 -2.8837834473147836 0 0 0 0 -765.94992010066926 -368.14327512828459 0 -368.14327512828459 -1203.4524968500118 0 0 0 0 11.768466706117877 -5.6204469823333838 0 -5.6204469823333838 -8.5733255718780015 0 0 0 0 299.90070887070033 -19.602030668596854 0 -19.602030668596854 -275.29777024566829 0 0 0 0 230.17013981779201 190.86291946426263 0 190.86291946426263 114.44044641690562 0 0 0 0 62.112981267982065 -85.646117483845174 0 -85.646117483845174 51.05892588144556 0 0 0 0 18.174456636072136 -51.942665942660824 0 -51.942665942660824 65.104603033942112 0 0 0 0 76.000422415061621 -192.94573095691158 0 -192.94573095691158 -230.30076918780105 0 0 0 0 -30.40904485489591 -381.41840327929822 0 -381.41840327929822 -452.14644706677063 0 0 0 0 -200.45546538958297 -449.75470126580331 0 -449.75470126580331 -390.68537216349796 0 0 0 0 98.098333901665683 -65.560169650829266 0 -65.560169650829266 -201.34784197386762 0 0 0 0 -271.20106076404409 -237.80225891507143 0 -237.80225891507143 -276.49834194040886 0 0 0 0 -0.14078783424727703 -1.1705162251229098 0 -1.1705162251229098 0.22388226370378561 0 0 0 0 -587.60651072270048 -344.86401872302667 0 -344.86401872302667 -223.63960203333409 0 0 0 0 -35.417146051502641 -372.82100004248423 0 -372.82100004248423 -473.9670197514497 0 0 0 0 -181.97911992241097 -603.47266405546543 0 -603.47266405546543 -550.62263025940047 0 0 0 0 -386.66946199903032 -603.62986434356571 0 -603.62986434356571 -377.75168813983328 0 0 0 0 -392.24399857476965 -692.17023166154831 0 -692.17023166154831 -557.56963915223605 0 0 0 0 -839.57766749896837 -557.49205721286125 0 -557.49205721286125 -324.35230781792779 0 0 0 0 -720.87949542396382 -710.26118899160792 0 -710.26118899160792 -514.13223796540842 0 0 0 0 25.762501768806651 -19.617710035348708 0 -19.617710035348708 -3.7596442280076872 0 0 0 0 50.615196093220959 -67.893346672823569 0 -67.893346672823569 79.288350057356638 0 0 0 0 -923.40761278621449 -840.14712211498318 0 -840.14712211498318 -481.38851631733996 0 0 0 0 33.86679484819615 6.0666785528919718 0 6.0666785528919718 156.42058503671069 0 0 0 0 344.46263240311237 -186.82804149332514 0 -186.82804149332514 -313.66025243577315 0 0 0 0 -714.68453088009119 -716.60561057348968 0 -716.60561057348968 -700.68091487634229 0 0 0 0 -1251.8501362063253 -642.89205308479723 0 -642.89205308479723 -661.21872667964635 0 0 0 0 -428.16439337200427 -750.90807183500874 0 -750.90807183500874 -1034.412107500757 0 0 0 0 -1081.3208814012178 -1059.1344184641639 0 -1059.1344184641639 -1030.9646547177399 0 0 0 0 -1756.2715502719075 -908.3618157543242 0 -908.3618157543242 -601.18859624842298 0 0 0 0 -296.85656031610779 -678.95655078377604 0 -678.95655078377604 -714.95418665336183 0 0 0 0 -433.76174542422814 -516.58832745358086 0 -516.58832745358086 -525.08328249438637 0 0 0 0 -62.587263565434114 -341.31107894798333 0 -341.31107894798333 -657.3788206225945 0 0 0 0 -328.24128494254182 -163.76764760938386 0 -163.76764760938386 -190.65648913045879 0 0 0 0 -98.797878774814308 -449.10107299632364 0 -449.10107299632364 -1099.9365446191186 0 0 0 0 -732.33286407630294 -1245.9134774866179 0 -1245.9134774866179 -1761.938451369766 0 0 0 0 -13.014271481642936 -224.33114605582523 0 -224.33114605582523 -36.110341833598795 0 0 0 0 -7.5696785686545098 -5.9262378068646626 0 -5.9262378068646626 -0.14814931646125906 0 0 0 0 272.21185873288778 -113.84824563976872 0 -113.84824563976872 -503.13236794804652 0 0 0 0 21.893651051188499 -179.84078293528 0 -179.84078293528 -121.94812240828469 0 0 0 0 18.663479979884926 180.65109428707515 0 180.65109428707515 -112.95658519638528 0 0 0 0 -8.2428136282425868 -3.6527938756298965 0 -3.6527938756298965 0.18241795096472835 0 0 0 0 53.432440967898401 -18.179307504524331 0 -18.179307504524331 -135.88031437763129 0 0 0 0 -82.22704184082977 -194.7295801207365 0 -194.7295801207365 287.32957632835314 0 0 0 0 303.84934015133695 -225.24233523696603 0 -225.24233523696603 -158.18094228369591 0 0 0 0 69.786932430935849 28.001611219428014 0 28.001611219428014 -452.56876952446873 0 0 0 0 -44.347397604207799 77.329146818341542 0 77.329146818341542 -126.88864200466196 0 0 0 0 -341.76719400883303 -89.926157110006898 0 -89.926157110006898 -72.408845095706056 0 0 0 0 -234.31293958726383 -196.42919360035739 0 -196.42919360035739 -528.1874553806847 0 0 0 0 -78.242663423316117 -13.789258939974388 0 -13.789258939974388 -360.11923611944076 0 0 0 0 -317.59082883456722 -17.840420065811486 0 -17.840420065811486 -123.59343071085095 0 0 0 0 -555.38106867915849 79.270102813228732 0 79.270102813228732 19.359128369571408 0 0 0 0 -368.48807423759717 132.45579786646704 0 132.45579786646704 -55.376884284094558 0 0 0 0 -736.71733174740302 135.34967818479299 0 135.34967818479299 -10.564736499276478 0 0 0 0 -691.34705552244122 -194.22953144539497 0 -194.22953144539497 -164.02699848380871 0 0 0 0 -297.44038931624891 317.96251358478185 0 317.96251358478185 525.29372846644947 0 0 0 0 -320.84237132005001 166.95766563127836 0 166.95766563127836 -106.4266543356207 0 0 0 0 -3.2665214005299248 1.586791143557555 0 1.586791143557555 -0.28719355697913329 0 0 0 0 38.597081301835715 -1.2274704353549168 0 -1.2274704353549168 -27.788836220694066 0 0 0 0 -958.20340271232999 106.93924000801053 0 106.93924000801053 460.33778379976866 0 0 0 0 -4.3320816838041338 -0.80402282827370186 0 -0.80402282827370186 0.02609923000304093 0 0 0 0 -985.55472641511005 72.841292638331652 0 72.841292638331652 160.10753573109105 0 0 0 0 -234.53850138889356 460.75320668789936 0 460.75320668789936 239.95387316303095 0 0 0 0 -316.90234071113809 47.453482413948223 0 47.453482413948223 103.07408961413512 0 0 0 0 -250.24315052520978 75.736032831744524 0 75.736032831744524 -18.759425545329577 0 0 0 0 -304.50793652731954 137.38610322334716 0 137.38610322334716 -55.011869904526975 0 0 0 0 -373.10145262665174 131.19928659431025 0 131.19928659431025 -8.1364590351004153 0 0 0 0 -210.98835613857227 -11.251678332846495 0 -11.251678332846495 17.064994099469914 0 0 0 0 -241.9666499331197 -13.012751843223668 0 -13.012751843223668 100.51793669522158 0 0 0 0 -301.74046315683154 18.314756604733702 0 18.314756604733702 177.7545672768756 0 0 0 0 -320.82123485887678 6.0346689345442428 0 6.0346689345442428 355.83598476269253 0 0 0 0 -2.0727051311631755 -0.65501359533351433 0 -0.65501359533351433 0.18738247667003094 0 0 0 0 -253.24679590741653 -209.55225719134978 0 -209.55225719134978 108.23389827228675 0 0 0 0 -386.17834649544966 -97.294052086617739 0 -97.294052086617739 194.94643670777896 0 0 0 0 -193.71635746636093 102.56873773765983 0 102.56873773765983 94.17661557449901 0 0 0 0 -6.0953860485264499 3.3485754714085942 0 3.3485754714085942 -0.46224525933200766 0 0 0 0 -317.46341865413933 -9.7488304031539883 0 -9.7488304031539883 46.65329467158881 0 0 0 0 -406.8994275145451 -100.45108243125287 0 -100.45108243125287 200.30416566352142 0 0 0 0 -288.94774753201136 -157.48724042592539 0 -157.48724042592539 -48.672581082239049 0 0 0 0 -654.96366225705788 -77.113623904268024 0 -77.113623904268024 -93.318449952377705 0 0 0 0 -363.6575151289735 70.269393618033064 0 70.269393618033064 -46.661223752860678 0 0 0 0 -906.76792557121416 -345.81614588821594 0 -345.81614588821594 -27.402673237738782 0 0 0 0 -497.21495998870523 -250.10662811297516 0 -250.10662811297516 -86.536284052814153 0 0 0 0 -178.09337318462349 -152.75607152775046 0 -152.75607152775046 -118.86740421586728 0 0 0 0 -339.74743116440368 -165.58992823416338 0 -165.58992823416338 -42.173945604488836 0 0 0 0 -534.62407290270494 -170.45280992051266 0 -170.45280992051266 43.906890570739051 0 0 0 0 -518.45395171511245 -208.79607880037111 0 -208.79607880037111 -135.1273471704335 0 0 0 0 -503.7608066977773 -229.79655384184662 0 -229.79655384184662 -133.59747463586973 0 0 0 0 -560.44166701714857 -180.8604726585545 0 -180.8604726585545 -45.08473227101058 0 0 0 0 -681.78258348985401 -450.38555956184791 0 -450.38555956184791 -240.98784233161859 0 0 0 0 0.54080485075722606 -3.2489022543838146 0 -3.2489022543838146 1.6712070456532331 0 0 0 0 -686.79355015005785 -306.32204387514139 0 -306.32204387514139 -27.99191824441732 0 0 0 0 -776.72851478948724 -445.870372624624 0 -445.870372624624 -388.01277736879638 0 0 0 0 -863.9077461524862 -833.06496688622883 0 -833.06496688622883 -372.49941769384895 0 0 0 0 0.10333075478587261 -4.0671582434934948 0 -4.0671582434934948 2.9848714293108287 0 0 0 0 -787.63581860025806 -293.60665149034685 0 -293.60665149034685 -99.637079397987691 0 0 0 0 -821.75503047391612 -569.58106223768118 0 -569.58106223768118 -295.38472255483794 0 0 0 0 -592.83625869904063 -272.8749968979464 0 -272.8749968979464 -183.69183916230395 0 0 0 0 -619.59685506813275 -233.03048569151179 0 -233.03048569151179 66.191837814098108 0 0 0 0 -435.9961776153832 -270.23179277091549 0 -270.23179277091549 -206.87103907107667 0 0 0 0 51.715893248048815 -157.12734936603374 0 -157.12734936603374 -31.013253081480798 0 0 0 0 -537.14770181660788 -12.799357553500158 0 -12.799357553500158 31.880201955427765 0 0 0 0 -425.98043108322599 -363.12383535629851 0 -363.12383535629851 -115.4817637619708 0 0 0 0 -2.4438243169740375 1.5555997360906275 0 1.5555997360906275 -0.8775590867364258 0 0 0 0 25.7821277046977 365.37172876712009 0 365.37172876712009 43.966870447038673 0 0 0 0 -452.71347328196498 167.50706924050246 0 167.50706924050246 104.80371120224299 0 0 0 0 -214.14029886440949 -23.748697096423712 0 -23.748697096423712 -140.93372854094196 0 0 0 0 -818.83679779679369 26.086026085766207 0 26.086026085766207 -55.511964188008278 0 0 0 0 -614.69897850741654 -283.46884083988516 0 -283.46884083988516 -308.45465084585885 0 0 0 0 -1111.8254843190543 -490.88641185876781 0 -490.88641185876781 -347.61653137822577 0 0 0 0 -1075.5202484092806 107.07459611657396 0 107.07459611657396 -196.96168096621113 0 0 0 0 -600.49017824060866 -79.164960022477317 0 -79.164960022477317 -182.0294174557057 0 0 0 0 -391.71018899995033 157.23393601675343 0 157.23393601675343 -252.98373695834016 0 0 0 0 -193.34232555875496 -161.82665068127244 0 -161.82665068127244 -444.20751937921159 0 0 0 0 -569.01424577042781 -145.4561014773426 0 -145.4561014773426 -108.05115991318235 0 0 0 0 -585.07393288120602 -58.359660683909169 0 -58.359660683909169 -566.970088465343 0 0 0 0 -458.78274964321918 -286.47382813224158 0 -286.47382813224158 -778.19278975296766 0 0 0 0 -448.61267171645613 -370.88264768881891 0 -370.88264768881891 -161.24317914337735 0 0 0 0 -1848.4246184306776 -405.85647812050229 0 -405.85647812050229 -213.46955855831038 0 0 0 0 -982.50304801453422 110.40394125215971 0 110.40394125215971 -1205.0225378661708 0 0 0 0 -880.69440657081577 -188.31102145825571 0 -188.31102145825571 -360.06550442887237 0 0 0 0 -2580.8366896651532 -1883.2531817479612 0 -1883.2531817479612 -681.69106129417196 0 0 0 0 -0.87506941842835317 -2.4125887165278712 0 -2.4125887165278712 1.1150994604385005 0 0 0 0 -1171.5942902001261 -1350.944151841526 0 -1350.944151841526 -432.11740740746609 0 0 0 0 -2203.824345219633 347.65028155881737 0 347.65028155881737 -1108.2049436696252 0 0 0 0 -994.98361356918031 -682.86025158348639 0 -682.86025158348639 -68.941752665574313 0 0 0 0 -151.55452868124848 -689.50989009051409 0 -689.50989009051409 -777.81391636535409 0 0 0 0 -24.926762755359505 -463.13164287906011 0 -463.13164287906011 -473.08330385031877 0 0 0 0 -2.6065272643463686 -1159.7769944119354 0 -1159.7769944119354 -1215.7216056946345 0 0 0 0 0.84511741451547806 -1.1661500185323348 0 -1.1661500185323348 -0.84500794779626176 0 0 0 0 -714.85233569202683 -119.78493895794963 0 -119.78493895794963 144.96288593825011 0 0 0 0 737.16908381935718 180.31848051078032 0 180.31848051078032 -640.61760522161785 0 0 0 0 -291.43868097048107 -31.245485832128907 0 -31.245485832128907 167.68525027309079 0 0 0 0 -565.12424349660068 -672.4980088889024 0 -672.4980088889024 -509.23950882253121 0 0 0 0 -633.16548349956793 -726.65797319444391 0 -726.65797319444391 -31.27658560139389 0 0 0 0 240.19488939335679 -314.50901947516104 0 -314.50901947516104 180.8560578678007 0 0 0 0 460.11854815466722 -590.46981653758849 0 -590.46981653758849 524.10206206954899 0 0 0 0 83.601715806864377 -119.23201402182895 0 -119.23201402182895 -31.922130702525465 0 0 0 0 54.815923699384712 -67.317735932056166 0 -67.317735932056166 -3.9248892073665047 0 0 0 0 21.528391920028298 -108.69446505408996 0 -108.69446505408996 -10.176209185468906 0 0 0 0 -51.154823106205292 -67.026297580868786 0 -67.026297580868786 10.323144754273585 0 0 0 0 5.3679554796828057 -51.771203966698977 0 -51.771203966698977 -5.7603443574533948 0 0 0 0 -4.8610352279938525 -90.686225462970469 0 -90.686225462970469 -8.9355976106380695 0 0 0 0 -52.808100743965952 -82.95739457806485 0 -82.95739457806485 10.017696793969662 0 0 0 0 445.02210943651335 -122.34940564522185 0 -122.34940564522185 -70.333290618553292 0 0 0 0 3.2688042176690431 -29.045610276407785 0 -29.045610276407785 -2.29277935337646 0 0 0 0 -54.034858703370446 -84.138976435591758 0 -84.138976435591758 36.989630435573417 0 0 0 0 -45.413683791865182 -74.662692727628141 0 -74.662692727628141 -25.822811060716361 0 0 0 0 916.88219848983135 23.74142040728475 0 23.74142040728475 -80.999786422151374 0 0 0 0 267.99936467980297 -321.55491832380358 0 -321.55491832380358 -16.010113077634742 0 0 0 0 725.62016425909678 -631.91399043393631 0 -631.91399043393631 190.2512348115124 0 0 0 0 271.86215248858935 -274.64558922321885 0 -274.64558922321885 -203.88425912001185 0 0 0 0 -176.37053218885512 -306.99061029168524 0 -306.99061029168524 50.685106288277893 0 0 0 0 -283.49642360292819 -40.986987726748339 0 -40.986987726748339 62.436557495675515 0 0 0 0 143.99909929914065 -13.215072463492106 0 -13.215072463492106 -121.16342554836228 0 0 0 0 1020.7069952901784 -200.88185572651128 0 -200.88185572651128 -68.754378225043183 0 0 0 0 132.03239667376329 -35.047634298956837 0 -35.047634298956837 416.48557906371207 0 0 0 0 184.32930214645421 -191.05396492249201 0 -191.05396492249201 -157.93230897690228 0 0 0 0 369.01769530894671 -53.225976453009935 0 -53.225976453009935 -61.644588497183577 0 0 0 0 -368.38985107149711 185.50969256615645 0 185.50969256615645 -21.403532418971736 0 0 0 0 -400.4743800779579 -4.181648039866559 0 -4.181648039866559 -1.0588546257567941 0 0 0 0 227.63886918166827 59.660965370581835 0 59.660965370581835 -218.76277804614347 0 0 0 0 232.6513152663465 -215.39249298696086 0 -215.39249298696086 36.187165494309738 0 0 0 0 513.98068335109201 -364.16111030158118 0 -364.16111030158118 19.486617579008453 0 0 0 0 397.3755493622557 -180.61554758396233 0 -180.61554758396233 -18.335014197102282 0 0 0 0 462.91006566716533 -286.49375640319886 0 -286.49375640319886 -20.99826502148062 0 0 0 0 -51.700118538797945 -64.797658755852268 0 -64.797658755852268 2.8140293539361778 0 0 0 0 324.53659480559691 -182.40690217004885 0 -182.40690217004885 127.63958295734483 0 0 0 0 353.13816835537364 -158.32771824474912 0 -158.32771824474912 -37.467859395888809 0 0 0 0 12.298753403490991 -109.11520493807984 0 -109.11520493807984 195.2492031557922 0 0 0 0 292.22013864336623 -241.87946531562193 0 -241.87946531562193 253.64744157395762 0 0 0 0 33.478551075808355 92.547628520798753 0 92.547628520798753 -32.769851157070661 0 0 0 0 100.15478289801104 4.2929600650768407 0 4.2929600650768407 82.733243171693175 0 0 0 0 -2.3926172632036184 -1.4725705941610556 0 -1.4725705941610556 -0.074629180315319843 0 0 0 0 -242.39545856565383 -228.44793856631441 0 -228.44793856631441 25.926310681577888 0 0 0 0 -115.67848483345369 102.42697876877355 0 102.42697876877355 205.41617629898246 0 0 0 0 38.956822540360008 -111.51975776281688 0 -111.51975776281688 67.798844451870536 0 0 0 0 -72.775771775224712 -139.2924762614748 0 -139.2924762614748 248.42744855721867 0 0 0 0 -225.5697080371574 -103.78669721316692 0 -103.78669721316692 81.317218550477264 0 0 0 0 -143.56944122781715 -33.420967585905601 0 -33.420967585905601 16.279501930141123 0 0 0 0 -0.28388926530294611 -0.92692463532659986 0 -0.92692463532659986 -0.11708098930647282 0 0 0 0 196.12780707109778 -155.39272568166052 0 -155.39272568166052 -162.91167913954996 0 0 0 0 31.268448143251589 -134.29899597107578 0 -134.29899597107578 -6.6724639947206015 0 0 0 0 8.7902594707229582 -166.36081912905502 0 -166.36081912905502 20.988084002645337 0 0 0 0 22.449233485338482 -144.3821962014481 0 -144.3821962014481 20.968967830081311 0 0 0 0 159.04885066623319 -182.16734857011033 0 -182.16734857011033 4.8114690324364346 0 0 0 0 25.992812401695119 -180.11058732671518 0 -180.11058732671518 40.207644837922999 0 0 0 0 157.15456931727454 -187.64507934517223 0 -187.64507934517223 -58.093122999591287 0 0 0 0 -143.13178179485112 -207.88620518922107 0 -207.88620518922107 -41.179645828990033 0 0 0 0 -46.80599502914265 -216.71307045905269 0 -216.71307045905269 -50.12407897945377 0 0 0 0 49.971684233823908 -105.7024512452449 0 -105.7024512452449 -207.3524403343763 0 0 0 0 51.739418657952001 -131.94746198840971 0 -131.94746198840971 -62.686077188831405 0 0 0 0 145.02557546120806 -98.572313741351536 0 -98.572313741351536 -66.369934784901488 0 0 0 0 115.40223916246759 -69.832878803332278 0 -69.832878803332278 -157.39298239101481 0 0 0 0 46.50529699485196 -28.163855997408973 0 -28.163855997408973 -103.52741192874237 0 0 0 0 -50.229094127931603 -80.53178073894378 0 -80.53178073894378 -152.39033595195724 0 0 0 0 49.071592653304378 -19.218703629164338 0 -19.218703629164338 -209.18856207380304 0 0 0 0 -40.593740068245097 44.505204476059589 0 44.505204476059589 -48.197977544784408 0 0 0 0 30.716397168493131 -50.195758169509645 0 -50.195758169509645 -81.13657480777897 0 0 0 0 74.145465484383749 -53.563287101176684 0 -53.563287101176684 -81.079170354336384 0 0 0 0 -671.86122631992839 411.54471748646756 0 411.54471748646756 -50.669844150148492 0 0 0 0 -8.7341224911871649 -4.5800718038994432 0 -4.5800718038994432 -3.8399880507762418 0 0 0 0 -22.45002007524954 24.073562704782489 0 24.073562704782489 -408.24720844823605 0 0 0 0 -106.70517992316672 -226.71153612497437 0 -226.71153612497437 -441.17680828688481 0 0 0 0 -734.68870618537721 -213.92244566872068 0 -213.92244566872068 -119.32560409813595 0 0 0 0 -54.388487208115293 -97.53080182671124 0 -97.53080182671124 -38.42875607527094 0 0 0 0 -209.45576012056517 -101.38321886917038 0 -101.38321886917038 -28.323907433572458 0 0 0 0 -206.3380797768732 -119.78820973523398 0 -119.78820973523398 -105.65467988506134 0 0 0 0 -479.92812007957764 -38.717559481592616 0 -38.717559481592616 25.074990428212914 0 0 0 0 -335.46212639412806 141.07565186886859 0 141.07565186886859 -55.837093844747869 0 0 0 0 -340.96399733401631 111.95433513567696 0 111.95433513567696 -2.8750400467652071 0 0 0 0 -336.73134609864155 134.35622438263545 0 134.35622438263545 -13.9055520681286 0 0 0 0 -344.14731223264607 120.91812267047862 0 120.91812267047862 -108.50869713861903 0 0 0 0 -289.03174207755364 25.902973559510428 0 25.902973559510428 52.451768403028836 0 0 0 0 -192.07746997582581 -54.530203350543161 0 -54.530203350543161 -261.31066600447957 0 0 0 0 -370.59616184905826 80.58424213132821 0 80.58424213132821 -90.531911112990201 0 0 0 0 -581.59947090615151 263.50042706648128 0 263.50042706648128 -248.81999810131674 0 0 0 0 -161.61073503306397 24.190621619964077 0 24.190621619964077 -5.2723335447008139 0 0 0 0 -328.7695871366177 -28.798124328774975 0 -28.798124328774975 206.22329009744863 0 0 0 0 -346.72917514541041 53.34956508630421 0 53.34956508630421 106.90129045819049 0 0 0 0 -391.32403573253396 134.84531037777924 0 134.84531037777924 10.255483143562742 0 0 0 0 -309.15433195829974 38.433650700855651 0 38.433650700855651 26.071554991809535 0 0 0 0 -279.54638562387481 -122.46905309031717 0 -122.46905309031717 274.97632090278785 0 0 0 0 -278.5199287605974 -27.294834385145805 0 -27.294834385145805 -24.771819208450324 0 0 0 0 -222.28702009412154 -27.899590501387138 0 -27.899590501387138 381.03707830191706 0 0 0 0 -256.98846459226479 -49.643713329132879 0 -49.643713329132879 109.37537899848553 0 0 0 0 -250.07245465379992 -124.61163612727114 0 -124.61163612727114 192.39552029829065 0 0 0 0 -257.84165351726369 -175.15428299639461 0 -175.15428299639461 200.33525516501686 0 0 0 0 -242.7292136959004 -410.90958593074902 0 -410.90958593074902 391.32859433497288 0 0 0 0 -199.2437853505653 -302.59482968895827 0 -302.59482968895827 466.44875274895458 0 0 0 0 -230.76116680309497 -106.00792246091441 0 -106.00792246091441 81.583312972623389 0 0 0 0 -158.34873465918645 -318.59018317686423 0 -318.59018317686423 75.981719571592521 0 0 0 0 -249.38964396321899 -362.44892547263771 0 -362.44892547263771 107.57933565197163 0 0 0 0 -183.73581053620364 -528.48658762112609 0 -528.48658762112609 285.0965927649595 0 0 0 0 -229.88966684976913 -388.66332229729596 0 -388.66332229729596 424.53395275818184 0 0 0 0 -149.27623212377512 -53.942702167929383 0 -53.942702167929383 -736.27693625446409 0 0 0 0 -191.99693484793352 -243.75133349586395 0 -243.75133349586395 -87.618519512820058 0 0 0 0 -138.20496534631093 -216.96760056113999 0 -216.96760056113999 -97.496499404936912 0 0 0 0 -216.53785065551074 -531.00285600351526 0 -531.00285600351526 236.22408683033427 0 0 0 0 -108.84517255394167 -468.62899297352124 0 -468.62899297352124 -100.92875039711225 0 0 0 0 -99.032017581826949 -175.86568550918309 0 -175.86568550918309 116.21758064330788 0 0 0 0 -502.4284610424429 -522.97366642043835 0 -522.97366642043835 -181.69105144125933 0 0 0 0 -178.94958665391096 -177.10990500883781 0 -177.10990500883781 667.44111789716408 0 0 0 0 233.10549578710197 -359.03740215115977 0 -359.03740215115977 170.17551305850793 0 0 0 0 -29.375403954807553 -432.23458425651188 0 -432.23458425651188 649.16738900588825 0 0 0 0 180.7164829223766 -248.36566547611437 0 -248.36566547611437 667.58058887303378 0 0 0 0 50.530237082952226 -457.89615665761812 0 -457.89615665761812 249.26112647200353 0 0 0 0 -142.1840560353121 -414.48976833931374 0 -414.48976833931374 589.42466944965417 0 0 0 0 -62.443287581530967 -181.58842303939673 0 -181.58842303939673 265.95913123303035 0 0 0 0 16.647676812441205 -512.63452778344799 0 -512.63452778344799 649.60177401939291 0 0 0 0 29.23578972343239 89.896086991931952 0 89.896086991931952 812.98124221674516 0 0 0 0 12.642415182056595 -1.3539481422076847 0 -1.3539481422076847 -2.1047189521700318 0 0 0 0 -94.586042305309093 -0.81480921363981906 0 -0.81480921363981906 1637.3796552448766 0 0 0 0 1.8521608639003091 1.4348653150693451 0 1.4348653150693451 -0.85410367620137606 0 0 0 0 542.54322290778509 415.70285454503028 0 415.70285454503028 354.95490436554246 0 0 0 0 -70.430569562624441 -214.50435891967209 0 -214.50435891967209 532.16231982037425 0 0 0 0 1038.400855559863 29.4450772741111 0 29.4450772741111 584.91273569513578 0 0 0 0 339.43443711895816 -624.49246010925344 0 -624.49246010925344 1281.281215167226 0 0 0 0 955.80960332439645 126.08550483889121 0 126.08550483889121 731.9869017607416 0 0 0 0 -170.35178874650956 -645.3242572175659 0 -645.3242572175659 28.518088506432832 0 0 0 0 -322.35355709773285 -742.40752907939168 0 -742.40752907939168 474.87867615079449 0 0 0 0 -129.75971557311641 -532.84408757910569 0 -532.84408757910569 278.55364519403156 0 0 0 0 -130.04595961657333 -489.94017995932018 0 -489.94017995932018 213.02975925058126 0 0 0 0 20.607033905852774 -12.288172371035245 0 -12.288172371035245 3.8057380151926665 0 0 0 0 -109.75539210070565 -248.04747806948944 0 -248.04747806948944 398.8392968909684 0 0 0 0 -59.636289614743873 -278.62604004103196 0 -278.62604004103196 12.271634537490854 0 0 0 0 -222.05390092340531 -570.3121286782407 0 -570.3121286782407 -507.36352304684988 0 0 0 0 -20.96127246537435 -36.460093412737479 0 -36.460093412737479 -5.2344856520867324 0 0 0 0 23.822985497280513 -13.223588180874884 0 -13.223588180874884 2.4491715683546147 0 0 0 0 53.98598630886211 -23.844299977699023 0 -23.844299977699023 -3.6075806463777269 0 0 0 0 65.436974052136065 -11.636463505536085 0 -11.636463505536085 -101.63390654990508 0 0 0 0 77.638146421532838 -130.71555472031832 0 -130.71555472031832 -361.62960134010063 0 0 0 0 198.32471833184081 -119.42920882984617 0 -119.42920882984617 -190.00410975869454 0 0 0 0 74.678610869388194 -95.345722165620828 0 -95.345722165620828 -155.51331884336832 0 0 0 0 141.1655220330039 -158.7194815704861 0 -158.7194815704861 -139.19162609285559 0 0 0 0 203.78903493053622 -192.423730513794 0 -192.423730513794 -163.79332495151175 0 0 0 0 -39.405692718415217 -62.461464712836104 0 -62.461464712836104 -41.33295422585519 0 0 0 0 337.30425857328737 143.93788857688196 0 143.93788857688196 -1271.6482183585031 0 0 0 0 -403.58667495385453 524.29966522922041 0 524.29966522922041 -572.98270794755081 0 0 0 0 446.7988778810759 87.247198672484956 0 87.247198672484956 -351.35472164384555 0 0 0 0 55.324226902841474 411.87105011749372 0 411.87105011749372 710.47880981964408 0 0 0 0 112.31897451263649 -18.49587092827278 0 -18.49587092827278 -449.27544297745044 0 0 0 0 113.91959713793767 143.30244752715953 0 143.30244752715953 -169.63586643878079 0 0 0 0 26.246192155491741 1.8342196362016239 0 1.8342196362016239 -4.9795999624968346 0 0 0 0 -3.3551595020253444 -220.51973776119121 0 -220.51973776119121 -192.1974600632384 0 0 0 0 3.5557108978864562 -404.77367782758665 0 -404.77367782758665 -546.66763654307579 0 0 0 0 -659.60275365339839 -713.45195891811454 0 -713.45195891811454 -387.4204432482511 0 0 0 0 -180.81597808940569 -726.43077311401794 0 -726.43077311401794 -1060.9778172308579 0 0 0 0 -490.34760400655796 -162.51097673263575 0 -162.51097673263575 436.25780411303276 0 0 0 0 -662.96832595595697 -355.83875262153742 0 -355.83875262153742 220.27201937339851 0 0 0 0 -19.069627842218125 -0.0079767623696511691 0 -0.0079767623696511691 -0.55137270694099527 0 0 0 0 23.050344634302746 -452.97504688502522 0 -452.97504688502522 -2126.6566381554876 0 0 0 0 -824.46033666354015 -1242.0374268322303 0 -1242.0374268322303 -242.95849763066508 0 0 0 0 346.91744649974862 -558.66304941815906 0 -558.66304941815906 33.570609971582599 0 0 0 0 -1266.6581953593341 -355.0787555449424 0 -355.0787555449424 18.097726159583544 0 0 0 0 -153.03661342472697 -133.38782495638225 0 -133.38782495638225 -312.38750474737026 0 0 0 0 125.8571882714823 15.315813731744129 0 15.315813731744129 -15.831207678420469 0 0 0 0 -44.690658790234693 -21.376445134825133 0 -21.376445134825133 -1.3935718564637369 0 0 0 0 21.950886509366683 -204.86367154143227 0 -204.86367154143227 46.129332836670073 0 0 0 0 39.274601885539596 -110.7985309859796 0 -110.7985309859796 -589.85043185676477 0 0 0 0 -33.684850212193851 -227.04733937982928 0 -227.04733937982928 -288.46486943140917 0 0 0 0 30.908003746226314 -104.61568002928107 0 -104.61568002928107 -102.2824911822463 0 0 0 0 50.57910915534012 -130.62342022408848 0 -130.62342022408848 -68.625474636442959 0 0 0 0 28.903929693659677 -81.265367463355091 0 -81.265367463355091 -51.326928685967061 0 0 0 0 33.724415681040341 -86.3096697269348 0 -86.3096697269348 -26.22395569922287 0 0 0 0 -20.572590696940139 -53.019829073412353 0 -53.019829073412353 -44.936317723011598 0 0 0 0 -5.4725655711672658 -49.703705450214784 0 -49.703705450214784 -15.909115401001486 0 0 0 0 -9.3758521813433617 -67.615003325452562 0 -67.615003325452562 -18.23349909184617 0 0 0 0 -9.265216562608785 -85.871359517342697 0 -85.871359517342697 10.23692946464746 0 0 0 0 39.506438557261475 -36.439582888993314 0 -36.439582888993314 -3.6000768754684884 0 0 0 0 16.670807017799234 -122.51939465783653 0 -122.51939465783653 -88.965051118662814 0 0 0 0 34.037711716366175 -202.99807234852051 0 -202.99807234852051 -279.93721874027688 0 0 0 0 47.484252232134168 -349.10275523791643 0 -349.10275523791643 -146.73397632360138 0 0 0 0 -41.820913049574301 -310.60588308244041 0 -310.60588308244041 -332.48531573032233 0 0 0 0 5.7131819393616752 -165.2633700389415 0 -165.2633700389415 -160.55667609893135 0 0 0 0 138.42856926428067 -429.67580988404734 0 -429.67580988404734 -14.041651535662822 0 0 0 0 -6.3736795892920526 -8.842986932752865 0 -8.842986932752865 -2.5527930369592866 0 0 0 0 -48.293633831497573 -138.76122647266311 0 -138.76122647266311 628.47589440789307 0 0 0 0 -159.30528748935831 -158.88153956925453 0 -158.88153956925453 422.98517702831305 0 0 0 0 -95.020908233767841 -243.43121241109475 0 -243.43121241109475 131.89559498523886 0 0 0 0 -24.554422592516858 -269.24457836621241 0 -269.24457836621241 139.65633826062549 0 0 0 0 -45.454616718496162 -29.54061529975786 0 -29.54061529975786 -13.415344667325684 0 0 0 0 -14.149168606681087 -31.443617858939888 0 -31.443617858939888 -26.977904694518656 0 0 0 0 -69.437531596120607 -81.359197484183824 0 -81.359197484183824 -0.43208374611276668 0 0 0 0 11.471349599157548 -27.170790664519046 0 -27.170790664519046 11.60011515223411 0 0 0 0 -48.875448838465672 -30.142751663417584 0 -30.142751663417584 -4.3606907886860427 0 0 0 0 -13.017035123182723 -22.99804868044157 0 -22.99804868044157 -40.339211507553046 0 0 0 0 -21.965419591787423 -17.949182657828686 0 -17.949182657828686 -8.9104934362295012 0 0 0 0 -374.96679467933063 -74.553145120618865 0 -74.553145120618865 540.95974570114049 0 0 0 0 -336.71008391658324 -220.60529226554354 0 -220.60529226554354 423.53676750260638 0 0 0 0 -75.972262570165185 288.01926530519631 0 288.01926530519631 530.95566684135702 0 0 0 0 -177.19457079651329 6.2140784825896844 0 6.2140784825896844 82.771031028376456 0 0 0 0 -505.37162467285816 -97.42128340745694 0 -97.42128340745694 1082.6156162320403 0 0 0 0 -451.06243449932117 -94.634010673482408 0 -94.634010673482408 560.7794175753952 0 0 0 0 -113.37743394869176 385.66222849654878 0 385.66222849654878 1666.0393953606545 0 0 0 0 -575.52912367198951 -405.76603437605081 0 -405.76603437605081 986.7176471305429 0 0 0 0 53.108600239429506 -987.74910269016982 0 -987.74910269016982 1480.0889747584588 0 0 0 0 -355.47888298767066 -555.34089192340616 0 -555.34089192340616 -126.24968238652764 0 0 0 0 -656.33724001962037 -434.79729123165816 0 -434.79729123165816 777.39154481833975 0 0 0 0 -391.52176151455933 -540.10708468349912 0 -540.10708468349912 -185.25914104663752 0 0 0 0 68.350528096911148 -63.632926545105875 0 -63.632926545105875 -36.59592295470793 0 0 0 0 -220.45743263471377 -20.209558148268115 0 -20.209558148268115 222.81813110292569 0 0 0 0 -40.8682622943181 -51.829184400291268 0 -51.829184400291268 -13.597661028894606 0 0 0 0 -4.3187875229643282 6.355685880127794 0 6.355685880127794 26.274284270439125 0 0 0 0 62.607271028689865 -209.96163007284122 0 -209.96163007284122 665.48886595606746 0 0 0 0 7.776794101892591 3.2453390836271012 0 3.2453390836271012 -1.109844522782339 0 0 0 0 64.302627093878982 -87.784756176239171 0 -87.784756176239171 28.414361902672681 0 0 0 0 -777.99708359430952 120.32827523133165 0 120.32827523133165 104.69226795150826 0 0 0 0 -82.670997840559721 -627.66238118788897 0 -627.66238118788897 184.65045004691638 0 0 0 0 -421.61707059333276 -225.52432478883202 0 -225.52432478883202 443.41005882396712 0 0 0 0 376.98710327894514 -1324.9176613516538 0 -1324.9176613516538 -816.59798558001057 0 0 0 0 -1107.9693943568564 -1902.8197665079497 0 -1902.8197665079497 -702.87346679045004 0 0 0 0 -990.63747241713691 -526.62136510252094 0 -526.62136510252094 -510.60988093499327 0 0 0 0 -0.49692284031480938 -2.4650299305919816 0 -2.4650299305919816 3.3869126486429479 0 0 0 0 1463.69988024142 621.41176730208008 0 621.41176730208008 -23.790083301923005 0 0 0 0 -416.51907547471637 -733.39847900574387 0 -733.39847900574387 -1151.9992812319124 0 0 0 0 -956.96626931166247 -648.53463602514239 0 -648.53463602514239 -177.48754247945908 0 0 0 0 -307.91820956404263 -797.57937612848764 0 -797.57937612848764 -408.77961739916645 0 0 0 0 -180.35084432417716 -344.5006434846473 0 -344.5006434846473 -112.75045779439097 0 0 0 0 570.28737687806642 -1279.6102792585043 0 -1279.6102792585043 919.69364931965538 0 0 0 0 -769.58164160128945 -610.92912878295465 0 -610.92912878295465 1013.231225935182 0 0 0 0 -507.40270296914969 -887.46594444963921 0 -887.46594444963921 425.65805179529707 0 0 0 0 -264.70365303131985 -359.09484124371374 0 -359.09484124371374 598.25569592287502 0 0 0 0 -548.02468149794731 -189.64358946349239 0 -189.64358946349239 517.68635508860461 0 0 0 0 -434.0535012069231 -108.88250983745093 0 -108.88250983745093 719.86579681534204 0 0 0 0 -232.70967990466306 -263.78338009848085 0 -263.78338009848085 -46.665579050182714 0 0 0 0 -582.23079833247903 -371.49876766783564 0 -371.49876766783564 2.4542784878285602 0 0 0 0 -153.03289112271159 -403.99410112921032 0 -403.99410112921032 -348.7626364330863 0 0 0 0 -394.52888566968613 -385.74833072679758 0 -385.74833072679758 -610.16429031506414 0 0 0 0 5.4065813068955322 -286.08506319189473 0 -286.08506319189473 22.056611659791088 0 0 0 0 -279.99605209033871 -319.26762574099121 0 -319.26762574099121 72.297484195893048 0 0 0 0 -384.93435092398431 -227.33705024157098 0 -227.33705024157098 437.95688559600967 0 0 0 0 -205.49919321129346 -317.11808445738279 0 -317.11808445738279 776.4976063813956 0 0 0 0 -214.41935354788438 -208.31706416133966 0 -208.31706416133966 418.11157777219341 0 0 0 0 -259.87825240407255 -84.444113921912503 0 -84.444113921912503 764.56077120863483 0 0 0 0 -203.08472802464894 183.6248771117971 0 183.6248771117971 1054.3140367028973 0 0 0 0 -140.27828819693241 -274.88043870966067 0 -274.88043870966067 1046.3985751914624 0 0 0 0 -205.76029885524622 -17.432199284310627 0 -17.432199284310627 550.49796963397239 0 0 0 0 -291.42985838257846 -192.454854671063 0 -192.454854671063 762.55098705404089 0 0 0 0 -187.04491624174261 -120.65757040913741 0 -120.65757040913741 809.66241544843069 0 0 0 0 -200.01901226057817 -223.80648185985774 0 -223.80648185985774 795.65198705299554 0 0 0 0 -203.50596858900099 -49.617113827131107 0 -49.617113827131107 746.53409934006049 0 0 0 0 2.3940178097191165 -189.1396933597789 0 -189.1396933597789 460.08143814423238 0 0 0 0 -41.723825793480501 2.8327317747098277 0 2.8327317747098277 182.96882752634701 0 0 0 0 41.396812615937961 -363.75959682084067 0 -363.75959682084067 743.20156786558618 0 0 0 0 -50.610550735656261 -31.498935169199314 0 -31.498935169199314 -5.0659254037202572 0 0 0 0 26.012168031986221 -17.334307312336023 0 -17.334307312336023 94.639079519038205 0 0 0 0 -117.3336295967747 -10.695278795959894 0 -10.695278795959894 546.96140459280286 0 0 0 0 -59.455358859413536 -44.082009717436449 0 -44.082009717436449 274.69158359648372 0 0 0 0 -5.7528793123425501 -18.948708076937002 0 -18.948708076937002 21.222119880067055 0 0 0 0 103.84141220934544 -187.3418357401024 0 -187.3418357401024 206.66262316620123 0 0 0 0 333.90221197254505 -119.47825744600414 0 -119.47825744600414 155.51502480745421 0 0 0 0 161.43758833152242 -677.95669307454227 0 -677.95669307454227 1522.3582836497026 0 0 0 0 0.089330035763374838 -2.548577868897496 0 -2.548577868897496 11.702582975765154 0 0 0 0 1071.8718916908747 -784.47539766911723 0 -784.47539766911723 234.36908734704775 0 0 0 0 424.10381992789189 -855.56708129223989 0 -855.56708129223989 1985.8255885496801 0 0 0 0 170.65451531486178 624.57953006752723 0 624.57953006752723 1443.8825903271354 0 0 0 0 112.44255828909081 252.56464914383105 0 252.56464914383105 328.53540721848185 0 0 0 0 27.678044531890919 -167.16158573346911 0 -167.16158573346911 790.88810439119698 0 0 0 0 710.31098206268143 -277.95307883367423 0 -277.95307883367423 194.58851100523316 0 0 0 0 183.75167687900102 -541.18504265118099 0 -541.18504265118099 902.23061838062495 0 0 0 0 44.887623533879378 -256.52655234564008 0 -256.52655234564008 357.32793514346122 0 0 0 0 382.88528620458965 -312.21431846237465 0 -312.21431846237465 -18.612597230880056 0 0 0 0 11.030699367547641 -400.54900681818981 0 -400.54900681818981 411.81659646582557 0 0 0 0 390.54922911274843 -161.44046372565936 0 -161.44046372565936 138.60190924044582 0 0 0 0 380.66435042496414 14.256614875212108 0 14.256614875212108 -37.830180477511021 0 0 0 0 154.79191828655894 -251.03889106187853 0 -251.03889106187853 198.28159811999649 0 0 0 0 327.87590711640223 257.30726379069893 0 257.30726379069893 1266.7166578936594 0 0 0 0 326.52587430899075 -71.733725834485085 0 -71.733725834485085 498.20380117782042 0 0 0 0 1243.2202445950061 -130.47089646165477 0 -130.47089646165477 490.07085838254716 0 0 0 0 115.08126831817935 -143.44915904422669 0 -143.44915904422669 549.11798433062359 0 0 0 0 -41.248278796723753 12.562533466309105 0 12.562533466309105 636.09322685012012 0 0 0 0 176.55297079102456 171.63844256342418 0 171.63844256342418 390.76987850160367 0 0 0 0 55.980544750571426 -62.347221407584584 0 -62.347221407584584 24.002037725833361 0 0 0 0 -77.515960355083735 105.15124642438786 0 105.15124642438786 231.72893965267576 0 0 0 0 -138.71742664961494 -54.991918028063083 0 -54.991918028063083 -90.932417093363256 0 0 0 0 -103.18787000395969 -143.97793090229243 0 -143.97793090229243 313.25036955859105 0 0 0 0 -147.30402935684469 -252.7094768774441 0 -252.7094768774441 514.12345177988027 0 0 0 0 73.676240249678813 -387.42387728779431 0 -387.42387728779431 623.07340248482069 0 0 0 0 -59.647365720025846 -421.75843914403958 0 -421.75843914403958 811.01842880211916 0 0 0 0 172.38292346178787 -482.95807404490915 0 -482.95807404490915 646.20615596389689 0 0 0 0 37.215932892095225 -362.72683090580176 0 -362.72683090580176 675.18535922485171 0 0 0 0 -180.36619895154581 -490.27076986795146 0 -490.27076986795146 632.8778910650035 0 0 0 0 -220.31508010849939 -469.47164327848441 0 -469.47164327848441 -700.2315054988976 0 0 0 0 -236.22628532550425 -541.38845303525159 0 -541.38845303525159 923.4149493353616 0 0 0 0 -2.4793859289081723 -1.2264608172675082 0 -1.2264608172675082 -0.10322262970203155 0 0 0 0 122.05122637534441 2.6084777804935584 0 2.6084777804935584 -542.31898104440188 0 0 0 0 -197.42635191099544 -376.41600265627494 0 -376.41600265627494 -569.99605548620457 0 0 0 0 -427.71669677832688 -266.46900741539139 0 -266.46900741539139 -594.82815201487392 0 0 0 0 -417.74160156327343 -178.93355709251045 0 -178.93355709251045 -1199.337848314055 0 0 0 0 -776.57080651158321 -715.44549375875795 0 -715.44549375875795 -695.46092826001404 0 0 0 0 -217.71847594238352 -537.88618616620079 0 -537.88618616620079 -639.2634655696238 0 0 0 0 28.10178616572739 -37.915361336592468 0 -37.915361336592468 -31.542922039578116 0 0 0 0 -195.39523948103306 -256.12485995733005 0 -256.12485995733005 -333.63536888732051 0 0 0 0 442.88612611975987 -222.51906463054183 0 -222.51906463054183 -1570.5556209615315 0 0 0 0 -5.2323792420353996 -25.810021864179006 0 -25.810021864179006 26.407027667428395 0 0 0 0 -40.335393916069734 -231.00553812948056 0 -231.00553812948056 -65.43206687195925 0 0 0 0 296.65936921734283 -565.09154402822242 0 -565.09154402822242 -86.825260814759531 0 0 0 0 -238.6646350441124 -81.320771436014184 0 -81.320771436014184 405.88468653720338 0 0 0 0 22.504049227849109 -64.925759859460271 0 -64.925759859460271 34.469728638999868 0 0 0 0 -293.54569921272923 -198.71218285382201 0 -198.71218285382201 -30.6426280733358 0 0 0 0 -110.12225024699001 -456.33997988521696 0 -456.33997988521696 -419.84549167563091 0 0 0 0 -86.822672762297771 -345.62150570483209 0 -345.62150570483209 -345.23120489160647 0 0 0 0 -512.07475791651086 -623.40840879369352 0 -623.40840879369352 -274.92072269311757 0 0 0 0 -243.29663382611761 -428.94510426531269 0 -428.94510426531269 -204.32395651872503 0 0 0 0 -248.17284310556715 -600.1186664255074 0 -600.1186664255074 -501.43835329997819 0 0 0 0 -536.29205356184684 -682.31468523711374 0 -682.31468523711374 -399.93247499148129 0 0 0 0 -962.69937299602316 -120.91949012450641 0 -120.91949012450641 615.03664820507402 0 0 0 0 -1639.8673909685313 -655.09974624589086 0 -655.09974624589086 -227.64141728006507 0 0 0 0 2.3373259477809256 -5.0232814663371812 0 -5.0232814663371812 1.0651564169617984 0 0 0 0 -2.6131582682694443 -7.2023296793100258 0 -7.2023296793100258 4.1696933500809052 0 0 0 0 -477.03079920828168 -645.74880229856353 0 -645.74880229856353 -408.87954541778163 0 0 0 0 -1012.3442744679996 -1297.6636803590009 0 -1297.6636803590009 -1199.4247709032206 0 0 0 0 -447.44957877717206 -757.21570967261323 0 -757.21570967261323 -583.95915858293301 0 0 0 0 -114.62211743849912 -494.65532165090553 0 -494.65532165090553 -931.55967311706627 0 0 0 0 -154.51687854659394 -474.77258590640849 0 -474.77258590640849 -512.3815518511401 0 0 0 0 -147.53258042756352 -487.09013273044548 0 -487.09013273044548 -536.01122806797503 0 0 0 0 -122.13764541425917 -354.09343597503903 0 -354.09343597503903 -278.56432872702135 0 0 0 0 -195.67242461608839 -430.52096361652366 0 -430.52096361652366 -346.92471601528268 0 0 0 0 -234.00413874181322 -539.9603241682853 0 -539.9603241682853 -373.31716471593245 0 0 0 0 -325.3566076128991 -520.78370363467548 0 -520.78370363467548 -310.54286101227626 0 0 0 0 -282.24756162888661 -600.88759053393733 0 -600.88759053393733 -404.85642105356237 0 0 0 0 -256.43819535299554 -594.75864977945093 0 -594.75864977945093 -403.43294808230712 0 0 0 0 -305.69496648499262 -591.78714297586339 0 -591.78714297586339 -395.45343360758852 0 0 0 0 -304.70106315198063 -500.21895085944561 0 -500.21895085944561 -455.16683218383696 0 0 0 0 -365.99155631545 -600.2715848107473 0 -600.2715848107473 -395.5506327511539 0 0 0 0 23.285153481340544 -58.714169753525312 0 -58.714169753525312 43.634728727069785 0 0 0 0 -183.93604382415651 -564.17474616514664 0 -564.17474616514664 -567.07658872376487 0 0 0 0 -269.18068949814187 -549.66483722307021 0 -549.66483722307021 -560.01222199579206 0 0 0 0 -233.47075539517391 -568.13643168289855 0 -568.13643168289855 -891.7267775242799 0 0 0 0 -500.03126744090696 -543.06087777257198 0 -543.06087777257198 -503.92119806587289 0 0 0 0 -311.34227666442166 -430.13507174371625 0 -430.13507174371625 -498.97945755681758 0 0 0 0 -391.8985966920518 -643.01135758333112 0 -643.01135758333112 -784.04429139679996 0 0 0 0 -602.60982185688044 -522.17865626940329 0 -522.17865626940329 -675.76049704827165 0 0 0 0 -438.9023872417456 -675.85609510957147 0 -675.85609510957147 -590.50614455169125 0 0 0 0 -443.94549541900051 -433.21401020641497 0 -433.21401020641497 -563.09210830890515 0 0 0 0 -429.8034870524134 -542.37383981331368 0 -542.37383981331368 -295.63856981435674 0 0 0 0 -256.18550175073324 -346.66298754292075 0 -346.66298754292075 -277.62485554080195 0 0 0 0 -382.04154335393832 -342.83741391738295 0 -342.83741391738295 -104.79605636390625 0 0 0 0 -477.19329270174785 -528.95466203680553 0 -528.95466203680553 -324.31098225156893 0 0 0 0 -418.90387620592082 -483.95326023142843 0 -483.95326023142843 -94.125578153238166 0 0 0 0 -172.24303180828429 -196.42369251498894 0 -196.42369251498894 -85.889987816801295 0 0 0 0 -56.63790141116624 -150.06693954797811 0 -150.06693954797811 -79.368624487280613 0 0 0 0 -314.47754190057458 -337.7222989751026 0 -337.7222989751026 -129.07241419658021 0 0 0 0 -187.72067895408691 -383.15606442165154 0 -383.15606442165154 -244.25710757196066 0 0 0 0 -196.69009444607218 -337.39446352404048 0 -337.39446352404048 -180.6325661491137 0 0 0 0 -44.857218021163135 -181.08327746739087 0 -181.08327746739087 -130.12212297195856 0 0 0 0 98.573383985713008 3.3191873317227873 0 3.3191873317227873 -53.031958573090378 0 0 0 0 -25.218471782274719 -222.02658674035047 0 -222.02658674035047 -51.491213718458312 0 0 0 0 42.442215532937553 48.54862785106161 0 48.54862785106161 123.21031937448424 0 0 0 0 172.11370167795667 98.266265544659291 0 98.266265544659291 -24.294561259070178 0 0 0 0 99.512747600841976 -165.6548675441154 0 -165.6548675441154 96.147950897313422 0 0 0 0 41.858117254072567 -69.350306696229381 0 -69.350306696229381 -62.990499313533292 0 0 0 0 -12.032119862022228 -43.720402923245274 0 -43.720402923245274 -37.920249274437083 0 0 0 0 -12.375624781911029 -137.30852279804822 0 -137.30852279804822 -159.73128881388584 0 0 0 0 78.990996748878388 21.097095301360241 0 21.097095301360241 -97.429065836855443 0 0 0 0 -49.752033112501522 -151.5958905476582 0 -151.5958905476582 -21.596451273537241 0 0 0 0 -100.14452266710578 -239.63706160194852 0 -239.63706160194852 -239.47499087103643 0 0 0 0 -61.620258315349929 -232.01842702961585 0 -232.01842702961585 -342.43132023104999 0 0 0 0 -126.57391043537064 -118.21220185580023 0 -118.21220185580023 -317.48515799398592 0 0 0 0 -73.556481646664906 -140.07864838866226 0 -140.07864838866226 -514.053699097145 0 0 0 0 -51.961359385648393 -310.2962672066933 0 -310.2962672066933 -665.41583899778198 0 0 0 0 -106.116509487234 -300.02199949155329 0 -300.02199949155329 -431.72116164461477 0 0 0 0 -37.880358090973459 -123.19379912097065 0 -123.19379912097065 -340.59766507873428 0 0 0 0 1.7563271563049057 0.5118103214626899 0 0.5118103214626899 -182.12011803448695 0 0 0 0 -1.258821988700376 -9.3879134258193631 0 -9.3879134258193631 -1.2993692581630114 0 0 0 0 -84.259884175266052 -20.407511885299755 0 -20.407511885299755 172.78560398898844 0 0 0 0 -79.552310983854113 144.19715844975872 0 144.19715844975872 -14.744400788287749 0 0 0 0 28.076661187313711 -43.778777221591369 0 -43.778777221591369 -16.32194348397627 0 0 0 0 -7.5693157267087372 -39.298359952816099 0 -39.298359952816099 -134.10378484065586 0 0 0 0 147.89842272616079 -4.9454967969722929 0 -4.9454967969722929 -47.722423693761812 0 0 0 0 -64.445262362422696 -44.884415318973709 0 -44.884415318973709 -2.6497794908594798 0 0 0 0 -169.10319645552227 77.715086616692133 0 77.715086616692133 75.338227520667715 0 0 0 0 -227.74518526021711 -153.31608795865031 0 -153.31608795865031 109.11421855195658 0 0 0 0 -222.62091937375953 -127.8168334935981 0 -127.8168334935981 183.32261576259043 0 0 0 0 -65.439656153319447 89.760112724330838 0 89.760112724330838 145.75982170685893 0 0 0 0 -12.941242334159369 -6.4299869101442653 0 -6.4299869101442653 9.1244994367605159 0 0 0 0 -94.396109000613933 -320.02148718398712 0 -320.02148718398712 238.66530138847884 0 0 0 0 -25.820288855033141 -226.86465141997178 0 -226.86465141997178 -268.48113293449569 0 0 0 0 -44.290526474978833 -221.3289068847771 0 -221.3289068847771 -153.4284560525557 0 0 0 0 -74.85997093104379 -222.69497851890446 0 -222.69497851890446 27.683712533966172 0 0 0 0 -65.710221581568476 -253.87042139565165 0 -253.87042139565165 -118.60705019651505 0 0 0 0 -102.88703187451756 -29.245067453564843 0 -29.245067453564843 213.92133023954375 0 0 0 0 -107.83288611180615 -369.96526545137749 0 -369.96526545137749 -185.32637087034527 0 0 0 0 -0.45277838574838825 -178.92129139837925 0 -178.92129139837925 -767.97809680449427 0 0 0 0 -409.74639394291444 -338.4420007794979 0 -338.4420007794979 253.03574608080089 0 0 0 0 188.83088459986902 -65.633684942564287 0 -65.633684942564287 31.815429424867034 0 0 0 0 277.65419076647368 194.90252072977819 0 194.90252072977819 5.0636571706854738 0 0 0 0 318.85535832469395 -105.77142435302812 0 -105.77142435302812 -104.80036740700598 0 0 0 0 38.918071295472032 -40.730758445604522 0 -40.730758445604522 -11.302687865826272 0 0 0 0 -42.732636538959923 -194.90051556607068 0 -194.90051556607068 -7.7116120570426574 0 0 0 0 155.36951414093346 -362.59854647928114 0 -362.59854647928114 -15.088575913570821 0 0 0 0 -134.09696329066355 -119.72079500419204 0 -119.72079500419204 -47.527002973395611 0 0 0 0 -47.779632480680448 193.83386160375085 0 193.83386160375085 395.56135549908504 0 0 0 0 54.776742735295556 31.801569594346802 0 31.801569594346802 -7.2111297863884829 0 0 0 0 -282.44591048318398 -126.05078291568498 0 -126.05078291568498 212.18285763665335 0 0 0 0 -190.38921838992974 -564.31159722266602 0 -564.31159722266602 175.5265243413487 0 0 0 0 -139.51782890704635 -74.834765340856393 0 -74.834765340856393 119.57595201779623 0 0 0 0 -239.60956835909747 -177.04231063846964 0 -177.04231063846964 685.67637197536533 0 0 0 0 -196.58122803685546 -489.78734256149619 0 -489.78734256149619 548.94323709407763 0 0 0 0 275.440643173235 -511.27729633998388 0 -511.27729633998388 -288.89723525056615 0 0 0 0 -94.688184695027303 -202.89886538250721 0 -202.89886538250721 -543.39412965619704 0 0 0 0 -389.67201996358926 -584.70574296091218 0 -584.70574296091218 -308.61672504551768 0 0 0 0 -72.923987239322742 -609.17341094384028 0 -609.17341094384028 -690.26834042888368 0 0 0 0 -159.98159209407459 -341.44761315145297 0 -341.44761315145297 -307.87727856312995 0 0 0 0 1.248746579818544 -665.44417363536922 0 -665.44417363536922 -809.96411440041265 0 0 0 0 41.165700194429675 -49.593487553474873 0 -49.593487553474873 5.2736741958892708 0 0 0 0 208.36567737278529 -123.19358149906475 0 -123.19358149906475 -440.97904035596002 0 0 0 0 168.7915654607641 130.82807251601116 0 130.82807251601116 -654.80900420292164 0 0 0 0 -1034.0872667080839 -64.993919496118906 0 -64.993919496118906 236.64941974368412 0 0 0 0 -46.900943651911803 -512.45332534008776 0 -512.45332534008776 19.433150153134193 0 0 0 0 -212.2727084749713 -163.42988710069039 0 -163.42988710069039 196.30795560806291 0 0 0 0 -46.230943656344607 -197.39902971529227 0 -197.39902971529227 139.91363871190697 0 0 0 0 -278.9626957356304 -298.10374984655937 0 -298.10374984655937 168.60830446804175 0 0 0 0 -103.11738118228095 -174.67569240002194 0 -174.67569240002194 132.78443220324698 0 0 0 0 -102.25549168155703 -139.46238350078056 0 -139.46238350078056 -34.462449777114671 0 0 0 0 -103.65314569292605 -92.474215244026709 0 -92.474215244026709 158.78256242627685 0 0 0 0 -190.89234435818071 -123.33606792508363 0 -123.33606792508363 81.817528119585404 0 0 0 0 81.77378181189124 28.826872236732015 0 28.826872236732015 20.174401776937884 0 0 0 0 -6.7337720889698005 -0.1574665273366378 0 -0.1574665273366378 1.4508392882879946 0 0 0 0 -106.34387985033391 187.45254236987239 0 187.45254236987239 508.35158773142757 0 0 0 0 -82.586616571134073 -104.01242037588236 0 -104.01242037588236 136.62968724683742 0 0 0 0 -93.75670560447179 -244.70611611132335 0 -244.70611611132335 -180.42894470434476 0 0 0 0 -132.35935237195918 2.0340753693963052 0 2.0340753693963052 8.9726673940313049 0 0 0 0 4.7117065271049796 33.315056924924647 0 33.315056924924647 91.982416838058271 0 0 0 0 3.1303415647216184 -4.5934414054086687 0 -4.5934414054086687 5.2266709901331012 0 0 0 0 -27.124765298256534 -25.16364254013024 0 -25.16364254013024 89.704602081513713 0 0 0 0 -46.478864588953002 -59.821294113560725 0 -59.821294113560725 -178.71473467968463 0 0 0 0 0.48398857975499254 -2.083108985297855 0 -2.083108985297855 2.6427439551140708 0 0 0 0 -24.283938914340979 -266.07215497161269 0 -266.07215497161269 -270.94022694922751 0 0 0 0 -24.531140659826633 107.88072759480565 0 107.88072759480565 392.0580898107728 0 0 0 0 -33.145544611557852 -74.268694358965149 0 -74.268694358965149 47.257324330807023 0 0 0 0 -75.445755113578343 -53.108172898522753 0 -53.108172898522753 138.54042554003536 0 0 0 0 34.839363033035625 8.2035579451385274 0 8.2035579451385274 101.50483165566402 0 0 0 0 -13.118944040208021 -12.483524588272402 0 -12.483524588272402 38.379571397147025 0 0 0 0 -91.25178727346065 -43.792228535203321 0 -43.792228535203321 206.00597356511935 0 0 0 0 -116.69253187146231 -47.018062257670834 0 -47.018062257670834 58.760436449424617 0 0 0 0 36.536968925389047 -82.843682111493933 0 -82.843682111493933 79.705876307091046 0 0 0 0 -842.6387621439535 -222.05753732753146 0 -222.05753732753146 282.80957761277386 0 0 0 0 110.03201063186134 -20.216876513208263 0 -20.216876513208263 56.170304845043574 0 0 0 0 -100.98974335379899 -203.14153104288562 0 -203.14153104288562 -27.852257961421856 0 0 0 0 -90.805128832864284 -36.974212455170345 0 -36.974212455170345 121.63106918385893 0 0 0 0 -123.01503299005708 -105.14755902712932 0 -105.14755902712932 -172.65238360168587 0 0 0 0 -18.827191283843518 2.6107070517414996 0 2.6107070517414996 1.6090440673533521 0 0 0 0 -271.24014025726501 -420.42231661157712 0 -420.42231661157712 -339.18599311471917 0 0 0 0 -26.90452555588945 90.078986287732732 0 90.078986287732732 210.82553529679717 0 0 0 0 -211.17206305603759 -27.797968257560569 0 -27.797968257560569 -251.6904275783163 0 0 0 0 -298.8210380665405 -122.66920884677529 0 -122.66920884677529 197.02301015442936 0 0 0 0 43.839636766555486 -249.20766806148458 0 -249.20766806148458 -817.16514614268567 0 0 0 0 222.12776025797575 101.56309875305305 0 101.56309875305305 -20.219437211533659 0 0 0 0 -97.916515924101986 -241.1608099268924 0 -241.1608099268924 10.706191400437092 0 0 0 0 -723.8269776999914 -1000.232857756062 0 -1000.232857756062 161.14459847888793 0 0 0 0 47.010650922216669 -62.493703294024499 0 -62.493703294024499 41.394349419259299 0 0 0 0 -959.79334852491229 -499.3757428092722 0 -499.3757428092722 1138.9848780813627 0 0 0 0 -513.50809945997025 -922.68035558895099 0 -922.68035558895099 -422.56626334029716 0 0 0 0 -512.88761136077756 -916.39720704699539 0 -916.39720704699539 -389.0241807528655 0 0 0 0 -560.86216973716182 -592.16190813191497 0 -592.16190813191497 208.37825331726344 0 0 0 0 -598.98811627827672 -269.75703282773611 0 -269.75703282773611 -1744.5516286701895 0 0 0 0 -406.06628425421513 514.16345279778398 0 514.16345279778398 -660.76969770441065 0 0 0 0 1.8333328063163208 -480.12569343119685 0 -480.12569343119685 -210.92677708562405 0 0 0 0 -297.83821964723029 -754.2567147607333 0 -754.2567147607333 -1074.8874443394598 0 0 0 0 -557.77150315272593 -693.33681157036335 0 -693.33681157036335 -654.65725049661705 0 0 0 0 -181.00938969560593 -37.061722705664579 0 -37.061722705664579 -589.80868001515046 0 0 0 0 -437.31250804428419 -372.87131771552959 0 -372.87131771552959 -602.78255053485918 0 0 0 0 -922.46214255774976 -679.66237519020797 0 -679.66237519020797 -696.20281271068234 0 0 0 0 -384.6109619628769 -399.80234623428987 0 -399.80234623428987 -647.03723059635377 0 0 0 0 -1246.1897542598454 -851.57761338012642 0 -851.57761338012642 -90.271346514084144 0 0 0 0 -1230.5538076192315 -768.95898362304433 0 -768.95898362304433 272.17998981158598 0 0 0 0 -856.20165246695979 -484.16634843805514 0 -484.16634843805514 -159.7233320371015 0 0 0 0 -1277.5916632830922 280.20711489120731 0 280.20711489120731 -491.42533692630241 0 0 0 0 -1006.5931897262053 -1320.4548852010776 0 -1320.4548852010776 -839.15701055271347 0 0 0 0 -1184.3429484504341 -84.188631382694439 0 -84.188631382694439 428.48450392873201 0 0 0 0 915.96262218450283 389.02431347939273 0 389.02431347939273 443.05255270347698 0 0 0 0 -151.23546096849896 -865.00227762656868 0 -865.00227762656868 -297.41610367668909 0 0 0 0 -10.324252430070672 -5.9672416398069004 0 -5.9672416398069004 3.3294715740794913 0 0 0 0 -21.076807215029909 -10.868800198544236 0 -10.868800198544236 21.03567283181161 0 0 0 0 311.47470131160844 186.41005397537447 0 186.41005397537447 166.33725346683059 0 0 0 0 20.527391717594583 -835.8784541876812 0 -835.8784541876812 435.18910719366977 0 0 0 0 -19.435009509332303 -738.07493208213418 0 -738.07493208213418 717.67069765430642 0 0 0 0 -75.860575016013172 531.32017390958208 0 531.32017390958208 614.69687495857943 0 0 0 0 -462.29932471496795 128.20346167316893 0 128.20346167316893 85.424664383854179 0 0 0 0 -477.53783481384016 158.28692690937169 0 158.28692690937169 439.62142542275251 0 0 0 0 -721.24835720955161 -835.54251410499273 0 -835.54251410499273 -85.164634807530092 0 0 0 0 -58.778692898857116 -52.435444070462836 0 -52.435444070462836 -13.036003925764817 0 0 0 0 -54.078187270162744 48.327447565367038 0 48.327447565367038 138.79931429683347 0 0 0 0 -80.586808357005623 -41.786382391331728 0 -41.786382391331728 7.2504016688054449 0 0 0 0 45.678000894113211 -936.14130112872226 0 -936.14130112872226 140.06863822706509 0 0 0 0 -433.25877240081172 -630.95528769234079 0 -630.95528769234079 1027.9781306182849 0 0 0 0 12.532033614261309 -579.44878643116681 0 -579.44878643116681 -366.07489302486647 0 0 0 0 45.678000894156867 -936.14130112880957 0 -936.14130112880957 140.06863822718151 0 0 0 0 -498.72628736145271 355.54374064650619 0 355.54374064650619 -66.014026406446646 0 0 0 0 -458.12706551178417 -49.658854987908853 0 -49.658854987908853 883.10841257032007 0 0 0 0 -24.581003995495848 -26.622291163497721 0 -26.622291163497721 53.606664864040795 0 0 0 0 72.492351732959719 -100.82803235004121 0 -100.82803235004121 95.156293952546548 0 0 0 0 0.95672261876461562 -1066.3156526342282 0 -1066.3156526342282 578.01115159346227 0 0 0 0 -17.09617279894637 -13.890651155185253 0 -13.890651155185253 -5.5451436482053396 0 0 0 0 73.625727274575183 -149.11712810282188 0 -149.11712810282188 243.57624200676219 0 0 0 0 67.439181147470663 -748.67005627299659 0 -748.67005627299659 434.00305122441205 0 0 0 0 45.678000894120487 -936.14130112870771 0 -936.14130112870771 140.06863822706509 0 0 0 0 167.59683160808345 -195.59940657069092 0 -195.59940657069092 343.30832685348287 0 0 0 0 381.08280094652946 -267.84367116103385 0 -267.84367116103385 248.23322567521245 0 0 0 0 140.56208957888884 -36.507987860357389 0 -36.507987860357389 215.23446821726975 0 0 0 0 254.53396079062804 -62.914793563686544 0 -62.914793563686544 184.0669465251267 0 0 0 0 46.880380516311561 -15.378396689004148 0 -15.378396689004148 225.45204604131868 0 0 0 0 105.53490243552369 -117.70484625347308 0 -117.70484625347308 251.17855136218714 0 0 0 0 -324.43538863318099 -1275.2090155678379 0 -1275.2090155678379 -1696.8289615214162 0 0 0 0 54.580232313572196 -70.663612515971181 0 -70.663612515971181 336.66455244618464 0 0 0 0 -3.8682514028770072 3.7335162469597094 0 3.7335162469597094 2.1244648374448332 0 0 0 0 -76.900042997920536 122.81834864740813 0 122.81834864740813 133.92559818076552 0 0 0 0 -0.097726928026531823 -39.497124296016409 0 -39.497124296016409 215.92362422600127 0 0 0 0 -493.59781360985653 -313.14017298804538 0 -313.14017298804538 -1097.0574198448739 0 0 0 0 -150.09909350740782 -604.03421109599731 0 -604.03421109599731 -1681.7846046150516 0 0 0 0 -446.26746439326962 -834.38761857405188 0 -834.38761857405188 -864.72877492158113 0 0 0 0 -55.227147513578529 92.172873196119326 0 92.172873196119326 70.718449071297073 0 0 0 0 -147.56354912140887 -76.872345299889275 0 -76.872345299889275 119.76260195486248 0 0 0 0 -44.379940436512697 36.716509572783252 0 36.716509572783252 -97.024284296785481 0 0 0 0 -296.69201304458693 -684.70578173489776 0 -684.70578173489776 -1104.8510761855869 0 0 0 0 -22.767125087910827 2.5785640632518607 0 2.5785640632518607 43.846115226231205 0 0 0 0 -40.567319452114269 11.200579858130226 0 11.200579858130226 77.011875491003991 0 0 0 0 -81.659823245960069 98.608514487845241 0 98.608514487845241 77.044719486162649 0 0 0 0 -87.275209171799361 -43.586994123339537 0 -43.586994123339537 215.40734875785711 0 0 0 0 -15.650066023230465 -44.711133563705516 0 -44.711133563705516 130.16447411192348 0 0 0 0 -23.071681710076518 -44.375372724207409 0 -44.375372724207409 267.45944008481456 0 0 0 0 -87.932510515754984 -17.718096577700635 0 -17.718096577700635 92.762959553932888 0 0 0 0 23.925201886740979 61.161604279928724 0 61.161604279928724 51.21504447874031 0 0 0 0 -42.865281238136156 -6.5846697068110984 0 -6.5846697068110984 75.715531382978554 0 0 0 0 -102.96667040674947 138.98975539504318 0 138.98975539504318 228.71873924679676 0 0 0 0 -173.43003499272982 44.999228201750157 0 44.999228201750157 165.76080518122762 0 0 0 0 53.133750363938816 131.7223194547405 0 131.7223194547405 79.089719748357311 0 0 0 0 -61.822035483405671 -216.50143049351755 0 -216.50143049351755 160.27149075444322 0 0 0 0 -8.3579188894646315 0.57545719650378402 0 0.57545719650378402 7.3910464934043603 0 0 0 0 -99.501671216303293 -233.11555545197916 0 -233.11555545197916 240.88203980194521 0 0 0 0 -67.385304005838407 -176.08176999057468 0 -176.08176999057468 97.990907599509228 0 0 0 0 -435.46045564683664 186.11709576592693 0 186.11709576592693 106.52052315539913 0 0 0 0 -48.797659930973168 -76.20762647720403 0 -76.20762647720403 157.9169224853249 0 0 0 0 -13.071032778888366 -18.830639228023301 0 -18.830639228023301 2.8959743299475349 0 0 0 0 -102.90797085402301 -65.227797909086803 0 -65.227797909086803 175.28571483762062 0 0 0 0 -3.4770316982838487 -31.131126620694459 0 -31.131126620694459 86.650130462661195 0 0 0 0 -1.1472081445353979 -97.299743271774787 0 -97.299743271774787 66.480925896430563 0 0 0 0 -73.849135175521951 17.783069757722842 0 17.783069757722842 84.820447863115987 0 0 0 0 -802.91211994523837 -207.37066877569305 0 -207.37066877569305 104.42896010236291 0 0 0 0 -144.80710234717117 -185.48254170232394 0 -185.48254170232394 -167.12343932926888 0 0 0 0 22.141908448054892 53.880096980094095 0 53.880096980094095 -51.702772251068382 0 0 0 0 5.8747234929853533 -30.171974355591104 0 -30.171974355591104 49.332015760994864 0 0 0 0 -2.1803819587045759 -11.147919355907369 0 -11.147919355907369 15.438222530958797 0 0 0 0 10.362160259479424 86.57626886342041 0 86.57626886342041 750.45593114526127 0 0 0 0 -5.4418737880031216 -22.379520135877613 0 -22.379520135877613 -10.931864719550219 0 0 0 0 -284.26165631461481 -240.44853833365778 0 -240.44853833365778 48.246776517680701 0 0 0 0 402.48743280180497 -1244.3071519477089 0 -1244.3071519477089 1402.9662586424893 0 0 0 0 -1936.1004745178434 -257.9068740252842 0 -257.9068740252842 141.01661248477467 0 0 0 0 -355.11725611410475 -73.619408184542408 0 -73.619408184542408 -14.790733605215792 0 0 0 0 -2.6103961048266058 -5.149663908025218 0 -5.149663908025218 -7.7116685102015481 0 0 0 0 478.91929053304193 -1146.7483848517368 0 -1146.7483848517368 -579.02796683649649 0 0 0 0 -707.29969407995668 -2172.6073066749959 0 -2172.6073066749959 -477.64671278223977 0 0 0 0 -1462.5453422678929 -1378.3526263138119 0 -1378.3526263138119 242.91521009214921 0 0 0 0 -753.34172790804951 -1355.0847404351589 0 -1355.0847404351589 -262.06675428786548 0 0 0 0 -509.6986910745909 -848.01541504475608 0 -848.01541504475608 537.52256320041488 0 0 0 0 -174.77776564216401 -962.41067899169866 0 -962.41067899169866 -0.80371339526027441 0 0 0 0 445.32407582874839 -911.88972791786364 0 -911.88972791786364 -816.04123404342681 0 0 0 0 596.06321496127202 -1392.6784233705257 0 -1392.6784233705257 -292.31912294419453 0 0 0 0 1986.4510093938661 -1406.2613501584565 0 -1406.2613501584565 -670.5643899749266 0 0 0 0 417.9509565889748 871.6771118190336 0 871.6771118190336 1091.0213241616439 0 0 0 0 -1667.8042590770419 -1078.5162603851059 0 -1078.5162603851059 -81.056586397193314 0 0 0 0 -6.6883866304342519 -789.14669828513433 0 -789.14669828513433 -412.30371035453572 0 0 0 0 -168.0436735301364 -70.910292096705234 0 -70.910292096705234 -1128.8547921609133 0 0 0 0 -267.91774745512521 -596.86868777624477 0 -596.86868777624477 29.555597272672458 0 0 0 0 -1073.8474823077522 -254.15780951274428 0 -254.15780951274428 0.13262100500287488 0 0 0 0 -5.5224939761226253 -6.8105889389079834 0 -6.8105889389079834 -12.784507973591758 0 0 0 0 565.66254000303888 -421.88679823346683 0 -421.88679823346683 -95.050531796819996 0 0 0 0 -3137.9021524404343 914.18541791669486 0 914.18541791669486 1355.1617538270366 0 0 0 0 -210.01993834108725 426.52623934602889 0 426.52623934602889 -1152.6960409939929 0 0 0 0 2610.7174472405841 -234.79887694257377 0 -234.79887694257377 -4.1911750261497218 0 0 0 0 -187.15132398430433 -1349.6015240319975 0 -1349.6015240319975 1648.1321953220722 0 0 0 0 762.03365928102721 -1298.8901516013866 0 -1298.8901516013866 166.05333076833631 0 0 0 0 -9.4840890482110893 -20.168092090254504 0 -20.168092090254504 -9.9540582008972933 0 0 0 0 -1524.4327595648465 360.76092063618125 0 360.76092063618125 682.41036038086168 0 0 0 0 844.4545666779577 -121.77808472001516 0 -121.77808472001516 101.25302462742548 0 0 0 0 -1073.6296482247708 -1175.6899789198505 0 -1175.6899789198505 175.11270795222663 0 0 0 0 -16.100030401854674 -34.892689553233623 0 -34.892689553233623 -47.09162047769405 0 0 0 0 49.322480362912756 -204.77335062474958 0 -204.77335062474958 58.741471304354491 0 0 0 0 -308.18396313489939 -131.29335638156772 0 -131.29335638156772 180.74458210183366 0 0 0 0 -313.12427341026796 -98.155375619526239 0 -98.155375619526239 185.42621124649304 0 0 0 0 -420.67053868864252 -35.771454317308098 0 -35.771454317308098 156.4386939489923 0 0 0 0 -72.033897237357451 -106.71608970452507 0 -106.71608970452507 220.07046520493168 0 0 0 0 -95.393568543917354 -178.34111964795738 0 -178.34111964795738 127.77087780435249 0 0 0 0 -218.26997628081426 -115.84667809328812 0 -115.84667809328812 17.433220198334311 0 0 0 0 -532.82570563726767 -280.62293049856089 0 -280.62293049856089 -0.52632336480019148 0 0 0 0 -425.8577433065584 -265.66372435080848 0 -265.66372435080848 169.36085995519534 0 0 0 0 -375.76283757433703 -53.808749503805302 0 -53.808749503805302 71.616497940416366 0 0 0 0 553.99692692799727 -246.35668075254944 0 -246.35668075254944 -25.94126374964253 0 0 0 0 -942.2258655093392 157.41387056520034 0 157.41387056520034 66.915870402415521 0 0 0 0 2.4053626102572707 3.3166471130509763 0 3.3166471130509763 -5.6517981556719974 0 0 0 0 -243.34937789275136 -173.67444176055142 0 -173.67444176055142 166.45246067418338 0 0 0 0 -429.71469499617524 18.928387377440231 0 18.928387377440231 28.860555908860988 0 0 0 0 70.740377516573062 -362.69016700683278 0 -362.69016700683278 0.26401079228930202 0 0 0 0 126.36143209662987 -418.86587494793639 0 -418.86587494793639 60.118634582438972 0 0 0 0 -174.31975809499636 -129.42877350973868 0 -129.42877350973868 84.115286359708989 0 0 0 0 -232.01738689694321 -408.91678043961292 0 -408.91678043961292 -245.68771629681578 0 0 0 0 1.3408791803443592 -22.325817936635417 0 -22.325817936635417 19.873666223434952 0 0 0 0 -198.2407585674955 -82.637977721111383 0 -82.637977721111383 294.41181153402431 0 0 0 0 -168.79305708318134 -218.34475262608612 0 -218.34475262608612 318.79823044427758 0 0 0 0 108.57349159682053 -54.405034321098356 0 -54.405034321098356 177.38881367026988 0 0 0 0 -2.0841057504927107 -10.942014786688503 0 -10.942014786688503 35.526814868277583 0 0 0 0 -45.13662967180062 -87.120593388139241 0 -87.120593388139241 227.76718126604101 0 0 0 0 -6.8134312005936835 -43.673087809456199 0 -43.673087809456199 180.80267911104698 0 0 0 0 -125.20776893297443 -27.317166698499932 0 -27.317166698499932 221.19161964462364 0 0 0 0 -23.375639873858546 -45.020044950315025 0 -45.020044950315025 50.652983356043478 0 0 0 0 -368.40798869675928 -27.967737472936278 0 -27.967737472936278 165.72036096174998 0 0 0 0 -395.99448898526316 -43.074822335496719 0 -43.074822335496719 158.34484199032886 0 0 0 0 -363.67923540939955 -98.607264390331693 0 -98.607264390331693 206.2644805102027 0 0 0 0 -322.57484496801771 -87.77486618241528 0 -87.77486618241528 174.21927658777713 0 0 0 0 -304.93387400381471 -58.854028177898726 0 -58.854028177898726 179.67825109543628 0 0 0 0 -69.484799307305366 -108.69743684324203 0 -108.69743684324203 282.70633477235242 0 0 0 0 -70.890590501941915 -100.47319201395294 0 -100.47319201395294 265.19990307683474 0 0 0 0 -13.791285380022742 -53.215257245865509 0 -53.215257245865509 183.44596595483108 0 0 0 0 -107.9233829951736 -148.47615662836324 0 -148.47615662836324 162.73648849324672 0 0 0 0 -98.366707213936024 -121.66515756890294 0 -121.66515756890294 -58.297442221746678 0 0 0 0 -48.289489825932833 -56.83491290663369 0 -56.83491290663369 -48.085897435026709 0 0 0 0 -98.417019153734145 -105.40819943125098 0 -105.40819943125098 -8.0843919380567968 0 0 0 0 -52.539401085537975 19.292662978812587 0 19.292662978812587 47.416229251815821 0 0 0 0 3.4516881723781268 -1.9527820079986213 0 -1.9527820079986213 1.0499006568627465 0 0 0 0 8.2010172156451517 -138.90627068477261 0 -138.90627068477261 227.65335240436252 0 0 0 0 476.10874362305913 -513.84765653839713 0 -513.84765653839713 243.01439935233793 0 0 0 0 179.96728070004974 -162.61920133485546 0 -162.61920133485546 -53.050932023921632 0 0 0 0 -61.030007106150151 -110.7112581213878 0 -110.7112581213878 -55.545820346276741 0 0 0 0 488.11400587116441 174.38849216296512 0 174.38849216296512 -472.33401692152256 0 0 0 0 -168.14906505167164 -295.9682767787308 0 -295.9682767787308 -121.32135357768129 0 0 0 0 16.326423318198067 -368.24997368472395 0 -368.24997368472395 -479.27718535411259 0 0 0 0 -29.683435930812266 -127.74079923368117 0 -127.74079923368117 -325.63091044250177 0 0 0 0 41.988959023044515 -11.509311320542992 0 -11.509311320542992 4.9519751977106239 0 0 0 0 -53.427742270367162 -288.6827742564783 0 -288.6827742564783 -81.309084982683999 0 0 0 0 -23.39856551214325 -156.55114942630462 0 -156.55114942630462 -157.64669595537271 0 0 0 0 55.456290341787941 -35.416263784229102 0 -35.416263784229102 -14.94051973947785 0 0 0 0 -65.867010017274879 -127.79498661337857 0 -127.79498661337857 -113.77351008151891 0 0 0 0 -0.82815209802356549 -84.42106839409098 0 -84.42106839409098 -83.542111903247132 0 0 0 0 38.293692069612007 -10.511519816252985 0 -10.511519816252985 24.522455548256403 0 0 0 0 52.066206759779107 -61.7130135565925 0 -61.7130135565925 -52.182244688669016 0 0 0 0 -5.1974328637482055 -48.599063466644225 0 -48.599063466644225 1.8949777140200581 0 0 0 0 -56.378918909164945 -67.199143219895831 0 -67.199143219895831 18.088954924153242 0 0 0 0 -23.769846743076783 -76.635931631111077 0 -76.635931631111077 -39.786489247751888 0 0 0 0 33.017498659104639 -99.275641718267678 0 -99.275641718267678 -135.53862317057792 0 0 0 0 4.6277884455781741 -77.854147610906708 0 -77.854147610906708 -99.086572019912296 0 0 0 0 45.657976634440274 -119.04387191978458 0 -119.04387191978458 -137.82456748092955 0 0 0 0 -26.643663439173906 -98.736226935743616 0 -98.736226935743616 -71.893118922278518 0 0 0 0 -63.514351434321725 -139.06722815956164 0 -139.06722815956164 -109.54395277503863 0 0 0 0 -34.35251145568327 -96.604553841061716 0 -96.604553841061716 -72.478813057015941 0 0 0 0 209.06284285945151 -56.401101329741181 0 -56.401101329741181 -166.16665853257291 0 0 0 0 9.6373398015756599 -74.013557207865631 0 -74.013557207865631 -79.050135451965502 0 0 0 0 -42.071983052714714 -97.135714343424468 0 -97.135714343424468 -70.645685650495579 0 0 0 0 83.544464563819929 -45.103295072382025 0 -45.103295072382025 67.854235092308954 0 0 0 0 -7.9380069030528801 -33.277516710896435 0 -33.277516710896435 12.691085511969192 0 0 0 0 -3.1958916419134766 -93.04806964963791 0 -93.04806964963791 -94.243649860953155 0 0 0 0 50.698032409885997 -31.80384562758853 0 -31.80384562758853 -10.468144718383058 0 0 0 0 -160.85526761088113 -119.99115103528311 0 -119.99115103528311 -151.10621493113285 0 0 0 0 -122.00338378610468 -174.10105816818395 0 -174.10105816818395 -159.18140558435698 0 0 0 0 -27.247174989799532 -77.551461822531564 0 -77.551461822531564 -81.383377291786019 0 0 0 0 35.273447350224359 -17.070735484256659 0 -17.070735484256659 6.4476288520162086 0 0 0 0 19.010803899574398 -5.1605990005797082 0 -5.1605990005797082 -6.5996565176900504 0 0 0 0 130.01704310302739 -87.216779557697009 0 -87.216779557697009 -92.822733458277071 0 0 0 0 -31.130360793866203 -69.76973913225811 0 -69.76973913225811 -94.882905039761681 0 0 0 0 -55.342682791142579 -38.713094535647542 0 -38.713094535647542 -92.013560635678004 0 0 0 0 -104.38022413127328 209.63538768079161 0 209.63538768079161 22.204186936967744 0 0 0 0 -124.56435945264093 -160.06823074034037 0 -160.06823074034037 -226.78800455885357 0 0 0 0 -370.0478541528646 -224.56249682024645 0 -224.56249682024645 -182.02572989693726 0 0 0 0 -162.65521460622767 -106.18558352714535 0 -106.18558352714535 -140.28471552330302 0 0 0 0 -318.24292872214573 -307.52766887174221 0 -307.52766887174221 -64.297472400518018 0 0 0 0 -194.03672025239939 -383.94779063276656 0 -383.94779063276656 -210.97953682404477 0 0 0 0 -387.82952179797394 -423.30231814034414 0 -423.30231814034414 -203.80665246795979 0 0 0 0 -191.53172641547644 -375.76509186270414 0 -375.76509186270414 -186.02743721018487 0 0 0 0 -84.972740764820628 -370.12496772505256 0 -370.12496772505256 -310.37889737694786 0 0 0 0 -107.35925913760002 -477.07490145571501 0 -477.07490145571501 -88.034924856212456 0 0 0 0 -111.63254743356083 -517.01345837242116 0 -517.01345837242116 -245.04380200697778 0 0 0 0 -214.66499195325378 -269.84431532208691 0 -269.84431532208691 -359.11131981969811 0 0 0 0 15.882651409066625 -3.3556499904403552 0 -3.3556499904403552 -0.36985429979614537 0 0 0 0 -118.43161143092948 -460.36141314169799 0 -460.36141314169799 -449.43618526860882 0 0 0 0 -32.792407909351823 -231.03910535818977 0 -231.03910535818977 47.759454164552153 0 0 0 0 -38.571670712322842 -36.171242282122563 0 -36.171242282122563 -29.900782199572632 0 0 0 0 -109.69927941614696 -471.40084695545374 0 -471.40084695545374 -101.30013706994941 0 0 0 0 -108.47424331847287 -186.82004496004083 0 -186.82004496004083 191.53860908614297 0 0 0 0 189.89475904131177 -726.97465128620388 0 -726.97465128620388 585.11995380008011 0 0 0 0 -496.65172732531209 -105.0455098960083 0 -105.0455098960083 738.06010214486014 0 0 0 0 -182.72751698586762 -36.284340972364589 0 -36.284340972364589 -70.256811297411332 0 0 0 0 889.82722033435812 -1394.1101995396339 0 -1394.1101995396339 -331.03725608489185 0 0 0 0 620.25628727286676 -65.580952190153766 0 -65.580952190153766 -61.277656701757223 0 0 0 0 -52.602846004796447 -562.55848800620879 0 -562.55848800620879 -804.91590412116784 0 0 0 0 -340.28674945748935 -1132.4448062441952 0 -1132.4448062441952 -192.81734284468985 0 0 0 0 -1133.133170381614 594.304955124142 0 594.304955124142 -151.77676781017544 0 0 0 0 -1025.058801125826 -651.0331652987079 0 -651.0331652987079 -191.36236674850807 0 0 0 0 -117.04561331481591 -579.3089840081393 0 -579.3089840081393 -258.97367260543979 0 0 0 0 -4.7671313197459284 -3.2330455280882404 0 -3.2330455280882404 -4.4516459569736071 0 0 0 0 -383.46146104212676 -1105.3596966146288 0 -1105.3596966146288 828.70455734706775 0 0 0 0 874.9525903933245 -395.02858297216881 0 -395.02858297216881 -494.04639346535259 0 0 0 0 222.60112749086511 -387.86994184455762 0 -387.86994184455762 1068.3787939986942 0 0 0 0 -1778.8382487972704 -2105.2942662967253 0 -2105.2942662967253 283.28415277056047 0 0 0 0 -1865.0341554187034 843.33657808817225 0 843.33657808817225 975.31645408881013 0 0 0 0 -15.798296295015184 -14.555310023930417 0 -14.555310023930417 -8.3978598528977955 0 0 0 0 1603.9245160732899 -319.4110332565615 0 -319.4110332565615 -526.21005516459991 0 0 0 0 747.24594798507314 -1965.7454449495708 0 -1965.7454449495708 -1562.049085106526 0 0 0 0 734.79521209415907 -36.519012067466974 0 -36.519012067466974 -613.52337826689472 0 0 0 0 1193.6064691085198 -1325.5696659223056 0 -1325.5696659223056 92.140251961973263 0 0 0 0 1133.9324501137162 42.614545329037355 0 42.614545329037355 -634.51909736769449 0 0 0 0 1642.2295698887101 -1470.6217001158511 0 -1470.6217001158511 653.04423170303926 0 0 0 0 -766.79159456207708 -828.38168813618904 0 -828.38168813618904 -408.44358541211113 0 0 0 0 -1128.1256919029838 -91.488008840744442 0 -91.488008840744442 -177.48482423511086 0 0 0 0 4.6565473952984107 -5.8472560652118233 0 -5.8472560652118233 4.3401823881202972 0 0 0 0 1393.9440982108426 299.07013828514027 0 299.07013828514027 -934.8880918819923 0 0 0 0 -1008.4744352572634 -924.22358518985493 0 -924.22358518985493 -276.65883894349099 0 0 0 0 -257.58672398639828 535.50387071534351 0 535.50387071534351 -433.59756985047716 0 0 0 0 932.99868650337157 -311.62419417026103 0 -311.62419417026103 -504.13537659242866 0 0 0 0 1644.1044366415626 -335.84994550456759 0 -335.84994550456759 -640.32852818293031 0 0 0 0 1617.5413405296758 -353.34650569121368 0 -353.34650569121368 13.867925432190532 0 0 0 0 1166.9204788303177 -17.554676608735463 0 -17.554676608735463 -780.04500914434902 0 0 0 0 2495.7831444496205 -611.86619887650158 0 -611.86619887650158 -803.02295216481434 0 0 0 0 -1033.1319378040171 -556.67868380845175 0 -556.67868380845175 -65.641563687138841 0 0 0 0 -857.55993333728884 -715.80674563147204 0 -715.80674563147204 -284.19615880708443 0 0 0 0 -495.75561167266278 -627.79095281538321 0 -627.79095281538321 -435.59462319773957 0 0 0 0 -850.53196556543298 -334.50498313242861 0 -334.50498313242861 -652.58102198480628 0 0 0 0 4.4629190087022081 -9.9156829723387432 0 -9.9156829723387432 10.537531417481659 0 0 0 0 -732.53308340519288 -636.20971145831572 0 -636.20971145831572 -435.22824145664163 0 0 0 0 -752.30133636778555 -714.08723009958339 0 -714.08723009958339 -314.27452776709106 0 0 0 0 -0.68841492944763161 -4.2013914503902896 0 -4.2013914503902896 6.3538488433650286 0 0 0 0 -376.66240581807142 -529.16148399126541 0 -529.16148399126541 -852.58187486438692 0 0 0 0 -1141.4716701179277 -1124.1453436318188 0 -1124.1453436318188 -685.83279746561311 0 0 0 0 -539.53680465774505 -149.04713510147303 0 -149.04713510147303 83.303341833903687 0 0 0 0 -188.19735740315809 -725.61994226626121 0 -725.61994226626121 0.69293489720843271 0 0 0 0 -679.10677257928637 -614.63720280027337 0 -614.63720280027337 132.61983390254318 0 0 0 0 1037.2608162901379 -427.3147772927623 0 -427.3147772927623 -188.23118695586163 0 0 0 0 1235.9198727262265 138.97654722932202 0 138.97654722932202 271.9086561454169 0 0 0 0 1547.8172727847841 -379.96347341148612 0 -379.96347341148612 -263.95228092334582 0 0 0 0 1092.1746800399269 -189.19275123819534 0 -189.19275123819534 -332.79181624260673 0 0 0 0 103.8517605529596 -483.94197333861666 0 -483.94197333861666 -521.10764921975351 0 0 0 0 1093.7699877185514 -154.89387925644405 0 -154.89387925644405 -587.9494718821079 0 0 0 0 47.347667875390471 -225.45410495436954 0 -225.45410495436954 -8.1172812134318519 0 0 0 0 238.67480172199248 -491.07357688075717 0 -491.07357688075717 0.34131863510992844 0 0 0 0 2184.7769756118942 25.177366940348293 0 25.177366940348293 -97.737541210488416 0 0 0 0 1161.9587081403552 70.066605826112209 0 70.066605826112209 59.537174203258473 0 0 0 0 1195.5313250435486 -375.09136776085325 0 -375.09136776085325 347.77073983440641 0 0 0 0 2162.2835920353409 161.45969641454758 0 161.45969641454758 9.8860117275617085 0 0 0 0 17.990900671724376 -27.047761995592737 0 -27.047761995592737 29.706319597433321 0 0 0 0 1689.4107777575773 -38.374375963830971 0 -38.374375963830971 0.039372140265186317 0 0 0 0 6.4242661388052511 -28.320406367478427 0 -28.320406367478427 39.969746988848783 0 0 0 0 -1.8849515767924458 12.352338868979132 0 12.352338868979132 -35.119150679791346 0 0 0 0 1.0489317010835038 -3.1812354028189418 0 -3.1812354028189418 3.4452591799030756 0 0 0 0 4.2920631449997018 -24.364456522191176 0 -24.364456522191176 36.51691679819487 0 0 0 0 2.2983044166778051 1.5849737181356574 0 1.5849737181356574 -2.0226635351911 0 0 0 0 -58.039777597054353 -44.673911783134827 0 -44.673911783134827 -18.591327632442699 0 0 0 0 -46.830660465392384 -64.001357731336611 0 -64.001357731336611 30.394237087501097 0 0 0 0 -21.67341174095316 -14.18014675802084 0 -14.18014675802084 -1.8796916761609808 0 0 0 0 27.874453351930732 -21.682083929046996 0 -21.682083929046996 2.2550841643641775 0 0 0 0 -48.99989999698937 -80.264492248941679 0 -80.264492248941679 13.306616264322656 0 0 0 0 2.2059645983608789 -1.8419727721484378 0 -1.8419727721484378 -34.134995409927797 0 0 0 0 -62.01291383075619 -47.210402744691237 0 -47.210402744691237 17.517658837459749 0 0 0 0 900.83020650952676 34.4548737086443 0 34.4548737086443 -122.85571168280148 0 0 0 0 45.312229425180703 -33.512147664234362 0 -33.512147664234362 8.4358082975377329 0 0 0 0 11.229240216975565 -1.1277659505326483 0 -1.1277659505326483 -10.593644954483068 0 0 0 0 1758.7884664202925 442.6724206512099 0 442.6724206512099 33.875737896683859 0 0 0 0 4.1839220972537987 -5.7061764223125522 0 -5.7061764223125522 -2.0909182364065231 0 0 0 0 17.457413251919206 -2.0999795974930748 0 -2.0999795974930748 57.323104875016725 0 0 0 0 5.6378580640594009 -9.3446047366596758 0 -9.3446047366596758 -4.9541619576921221 0 0 0 0 6.8558849451375039 -19.632579015595184 0 -19.632579015595184 -5.7978480301728155 0 0 0 0 5.3267126708491404 -9.0218437753202636 0 -9.0218437753202636 -2.6434572574283379 0 0 0 0 20.42430359156501 -21.670599142954885 0 -21.670599142954885 -9.5407563224941327 0 0 0 0 2.1560741914773942 1.0694190176552496 0 1.0694190176552496 -4.5800349896589978 0 0 0 0 1123.491390573914 -648.83443851079937 0 -648.83443851079937 -160.42615858977661 0 0 0 0 106.15800643001057 -62.556283127407369 0 -62.556283127407369 13.434808383462951 0 0 0 0 17.366894536845166 -32.418468961896906 0 -32.418468961896906 -2.1946792728558648 0 0 0 0 35.817997132668097 -16.628635482760728 0 -16.628635482760728 11.042591932480718 0 0 0 0 46.988587297833874 -35.137718579244392 0 -35.137718579244392 -138.82153002248378 0 0 0 0 27.020817188193178 37.284788492470398 0 37.284788492470398 -59.493796583381481 0 0 0 0 -23.211298011679901 -305.86916289740475 0 -305.86916289740475 299.48572700677323 0 0 0 0 792.34902547420643 176.41366019382258 0 176.41366019382258 -500.1313671633543 0 0 0 0 14.93600015123566 -5.0079626635927923 0 -5.0079626635927923 1.1672723116166992 0 0 0 0 13.434018616655521 -9.5348866809799802 0 -9.5348866809799802 82.396813558894792 0 0 0 0 -17.831366109522701 -65.918845412545068 0 -65.918845412545068 -24.438273306994233 0 0 0 0 52.388571261599736 -50.473930859283243 0 -50.473930859283243 -57.4887823961908 0 0 0 0 25.44927070681328 -21.55173001941148 0 -21.55173001941148 -3.9831618399516628 0 0 0 0 7.191375594740423 -4.0495829049825236 0 -4.0495829049825236 -0.18048474545344106 0 0 0 0 23.571615809974901 -55.494539421721129 0 -55.494539421721129 -88.489178244004506 0 0 0 0 18.606844237296173 -47.211173935604165 0 -47.211173935604165 -34.809961714490782 0 0 0 0 -8.8915602716770081 -119.53442135553632 0 -119.53442135553632 -55.05925594017026 0 0 0 0 -19.299060063885804 -54.291069751168834 0 -54.291069751168834 -57.413008322182577 0 0 0 0 30.274026536661339 -17.418187358326747 0 -17.418187358326747 4.2509628480470383 0 0 0 0 19.545352419628898 -8.0003666339121082 0 -8.0003666339121082 -29.079389032529434 0 0 0 0 15.955225307185856 -80.316196821600897 0 -80.316196821600897 -68.206906727369642 0 0 0 0 -2.2124426061675422 -51.28292693090043 0 -51.28292693090043 2.9486985898402054 0 0 0 0 33.828646348728171 -85.15582180430647 0 -85.15582180430647 -41.245086932904087 0 0 0 0 17.541605069601019 -49.588685532326053 0 -49.588685532326053 -37.119752936268924 0 0 0 0 -3.255439822977678 -86.328165546947275 0 -86.328165546947275 177.32743947680865 0 0 0 0 30.107118291618917 -82.172988775273552 0 -82.172988775273552 -0.68882489347015508 0 0 0 0 47.786147190529221 -86.339788602923363 0 -86.339788602923363 19.002380250196438 0 0 0 0 18.001416584637127 -52.018545571670984 0 -52.018545571670984 67.302730335388333 0 0 0 0 111.81183697785036 -84.285820211196551 0 -84.285820211196551 74.524735802162468 0 0 0 0 -16.395711536025146 -13.022692094877129 0 -13.022692094877129 108.31713942530041 0 0 0 0 6.8078381779014308 -56.599675959339947 0 -56.599675959339947 15.991034534730716 0 0 0 0 -53.036684769178464 -57.031685354013462 0 -57.031685354013462 -0.19560510586761909 0 0 0 0 -55.974119504287955 -86.671185770337615 0 -86.671185770337615 -153.54450624887249 0 0 0 0 -1.1169152354329082 -4.5542323291601576 0 -4.5542323291601576 0.98691148815125018 0 0 0 0 -113.27772410508101 45.538793642284872 0 45.538793642284872 -1081.736243748921 0 0 0 0 -83.352811357882089 -312.88281769605237 0 -312.88281769605237 0.0078778329334454611 0 0 0 0 -46.132975661136925 -235.787625031473 0 -235.787625031473 -345.16957413419732 0 0 0 0 -13.878207666336225 -8.5301284910917445 0 -8.5301284910917445 -1.8404752114204541 0 0 0 0 -18.963046793476963 -99.487339613871882 0 -99.487339613871882 182.03040562081151 0 0 0 0 460.0507719709185 -95.376172691088868 0 -95.376172691088868 -1327.6446621197101 0 0 0 0 16.655586293310989 -5.3428843693109229 0 -5.3428843693109229 0.25870133003627416 0 0 0 0 -4.384978203280899 -5.3015237305196479 0 -5.3015237305196479 -1.6165987610249175 0 0 0 0 -230.81133428828434 -83.157064388593426 0 -83.157064388593426 348.92385438402198 0 0 0 0 -0.37096927479789343 -8.6177975815889454 0 -8.6177975815889454 0.1397288002327457 0 0 0 0 -1240.4567331904327 -609.59260020486545 0 -609.59260020486545 -825.12277465098305 0 0 0 0 -25.32439901019734 -21.053209594258078 0 -21.053209594258078 -0.01711500805686228 0 0 0 0 6.8512958493756742 -15.683306878112489 0 -15.683306878112489 -8.2672874985582894 0 0 0 0 -5.3124383055321385 -0.29997560953387392 0 -0.29997560953387392 0.90141420922464022 0 0 0 0 36.21581548006543 -734.20763463553158 0 -734.20763463553158 -835.22107991352459 0 0 0 0 -527.10637058375687 -493.54107397615735 0 -493.54107397615735 21.382727192773018 0 0 0 0 3.6534161267254515 -5.8406538353361555 0 -5.8406538353361555 -3.5541508546844511 0 0 0 0 394.88522449106767 -172.34122379866312 0 -172.34122379866312 -268.75929847595398 0 0 0 0 -185.32190346661082 -316.8172815516009 0 -316.8172815516009 4.1686236807363457 0 0 0 0 -49.057734517456083 -176.66275436266733 0 -176.66275436266733 3.3761446891876403 0 0 0 0 -182.96275650027383 -151.99947581405286 0 -151.99947581405286 0.71010096181271365 0 0 0 0 -126.91278568252733 -162.62392615678073 0 -162.62392615678073 -27.689471769117517 0 0 0 0 -123.41714472368221 -141.98336619016482 0 -141.98336619016482 22.439391159859952 0 0 0 0 -93.733879999594137 -91.977626867053914 0 -91.977626867053914 73.216346289060311 0 0 0 0 -100.40304301387096 -61.807808193130768 0 -61.807808193130768 102.39998153453053 0 0 0 0 50.490295342544414 41.22719857010452 0 41.22719857010452 167.70016824032064 0 0 0 0 -443.95475091258027 -283.12008150968904 0 -283.12008150968904 168.99439056590199 0 0 0 0 -313.97698156775186 -137.37846073332184 0 -137.37846073332184 196.46757224606699 0 0 0 0 0.79234646779514151 -4.0493874396197498 0 -4.0493874396197498 1.4543089015496662 0 0 0 0 -9.3207862509151482 -6.823223957310347 0 -6.823223957310347 2.0569088614138309 0 0 0 0 -9.1397627559005628 -10.438130522976735 0 -10.438130522976735 -0.023866839503170922 0 0 0 0 -8.0463532312589976 -10.808404412562851 0 -10.808404412562851 4.0824063922460709 0 0 0 0 4.3702408197641489 -15.778957457558136 0 -15.778957457558136 -12.68163811150589 0 0 0 0 -4.9229082194586269 -1.4568279370820392 0 -1.4568279370820392 1.5238692160626215 0 0 0 0 -7.6156770580855664 -18.003786948611378 0 -18.003786948611378 -7.6434708968590712 0 0 0 0 -18.236820146516038 -14.640650468121748 0 -14.640650468121748 -5.9572913550655358 0 0 0 0 6.7650859659479465 -25.901525342778768 0 -25.901525342778768 -4.7205337052000687 0 0 0 0 2.6408097586536314 -17.159656174757401 0 -17.159656174757401 -10.271939005644526 0 0 0 0 5.8413562428140722 -25.232491904433118 0 -25.232491904433118 -4.5986665847012773 0 0 0 0 -2.5364204531615542 -16.864014808583306 0 -16.864014808583306 -9.5317745528882369 0 0 0 0 -5.9820488833302079 -22.691351268622384 0 -22.691351268622384 3.6758913497033063 0 0 0 0 0.22840539783646818 -25.984037437970983 0 -25.984037437970983 0.3337795352563262 0 0 0 0 -0.78647811902192188 -28.092514606018085 0 -28.092514606018085 0.13764339317276608 0 0 0 0 -19.141310601841553 -26.6140048521208 0 -26.6140048521208 -15.981632670217266 0 0 0 0 -7.3228682371495495 -13.44426825770168 0 -13.44426825770168 3.9117239839436024 0 0 0 0 -16.406806522627448 -8.0861390370700974 0 -8.0861390370700974 10.77929720657994 0 0 0 0 -7.8457621790053977 -6.3153224785156397 0 -6.3153224785156397 5.909475548672475 0 0 0 0 -45.716052137006045 -60.300137133272074 0 -60.300137133272074 -18.451889517833479 0 0 0 0 42.443316871705065 2.9592540079247556 0 2.9592540079247556 -2.6395529805595288 0 0 0 0 24.023884063064394 -14.115504293567255 0 -14.115504293567255 -13.259834309750204 0 0 0 0 -42.627930881899374 -58.82837101817131 0 -58.82837101817131 -18.507292436808711 0 0 0 0 -15.011467510877992 -37.184493874490727 0 -37.184493874490727 -46.91779261463671 0 0 0 0 -195.50776492092791 -176.82439206111303 0 -176.82439206111303 -46.822309827664867 0 0 0 0 5.0557695257539752 -4.7877134942940955 0 -4.7877134942940955 -1.7833997938949437 0 0 0 0 2.8243576750646753 -20.901359230483649 0 -20.901359230483649 -5.1429031934239902 0 0 0 0 -396.12648596566578 -240.50673845759593 0 -240.50673845759593 -290.92347046302166 0 0 0 0 3.1607465734573275 -0.31585653245562639 0 -0.31585653245562639 -2.5095514411004842 0 0 0 0 25.550467268754822 3.3741585140551535 0 3.3741585140551535 -15.450442975675003 0 0 0 0 19.068281274267065 -5.654428289970383 0 -5.654428289970383 -24.898275668732822 0 0 0 0 1.5276429757977894 -33.294059113322874 0 -33.294059113322874 8.4408653825521469 0 0 0 0 -0.13178061994306844 -2.4506496935536575 0 -2.4506496935536575 -3.4937008243878154 0 0 0 0 -433.85349692118325 -230.69783978888881 0 -230.69783978888881 -88.126785153785022 0 0 0 0 -201.411306155278 -138.48690620806883 0 -138.48690620806883 -95.277979208824036 0 0 0 0 -200.04524806314294 -112.51263529495918 0 -112.51263529495918 -180.61037043458782 0 0 0 0 -343.88263713730703 -105.05142458103364 0 -105.05142458103364 -129.86645622609649 0 0 0 0 -179.60160513233495 -154.83262234397262 0 -154.83262234397262 -125.19106274022488 0 0 0 0 0.61951752470885246 2.3781574711011473 0 2.3781574711011473 -0.38010154437722576 0 0 0 0 -358.49613043348268 -307.9693942476224 0 -307.9693942476224 -149.36924294501659 0 0 0 0 -364.35435540817571 -168.62318170987783 0 -168.62318170987783 -128.29089068085887 0 0 0 0 -128.13319110324028 -98.540003250273003 0 -98.540003250273003 -175.41130324947881 0 0 0 0 -223.25470008499906 -141.17849877357366 0 -141.17849877357366 -121.55395689018769 0 0 0 0 -242.97164937786692 -107.93928928431706 0 -107.93928928431706 -135.75836175947916 0 0 0 0 -188.72760753638431 -219.60467641118885 0 -219.60467641118885 -208.43278864072636 0 0 0 0 -346.86088752264914 -199.47868924107752 0 -199.47868924107752 -116.14869027375244 0 0 0 0 72.134661106738349 25.83544613889535 0 25.83544613889535 -52.515869407099672 0 0 0 0 19.029793700384289 -61.120778437041736 0 -61.120778437041736 -78.18276391067775 0 0 0 0 9.9721083107579034 -52.933017939067213 0 -52.933017939067213 -64.430256344610825 0 0 0 0 14.216239792801161 -38.528020511028444 0 -38.528020511028444 8.5697497779328842 0 0 0 0 -44.032875502985917 -80.224797994647815 0 -80.224797994647815 -14.84298676106846 0 0 0 0 -36.406649570114496 -87.450856323717744 0 -87.450856323717744 -37.681802526087267 0 0 0 0 -83.794578886779163 -131.20869106474856 0 -131.20869106474856 -78.504672935872804 0 0 0 0 -163.5673648200891 -182.13756139563338 0 -182.13756139563338 -86.375122555939015 0 0 0 0 -121.12996337851291 -131.777377178194 0 -131.777377178194 -26.761299366165076 0 0 0 0 -88.226010603446412 -141.02536325479741 0 -141.02536325479741 -129.49924765113974 0 0 0 0 -116.36656469464288 -126.32390498119639 0 -126.32390498119639 -113.2676999217656 0 0 0 0 -72.904130005987099 -103.42553991821478 0 -103.42553991821478 -65.113248630615999 0 0 0 0 -59.815492207763782 -89.59404077797808 0 -89.59404077797808 -78.869127759331604 0 0 0 0 -11.265206927489089 -81.108429598258226 0 -81.108429598258226 -115.83712977328105 0 0 0 0 -119.54365677934402 -130.57329488688265 0 -130.57329488688265 -109.62351021723589 0 0 0 0 -58.418614740374323 -80.111440022708848 0 -80.111440022708848 -146.46249431424076 0 0 0 0 -121.44623193417283 -118.44215914740926 0 -118.44215914740926 -151.67271576510393 0 0 0 0 -44.534477296223486 -61.253032213251572 0 -61.253032213251572 -135.07899690265913 0 0 0 0 -126.32388548055587 -117.22021201030293 0 -117.22021201030293 -99.544180445198435 0 0 0 0 4.8181838944801711 -58.372135710247676 0 -58.372135710247676 -98.389258930321375 0 0 0 0 -2.8938779022146264 -25.451985273786704 0 -25.451985273786704 -21.477015020136605 0 0 0 0 14.807327354399604 -70.078472697001416 0 -70.078472697001416 -76.347005963936681 0 0 0 0 -15.687757190073398 -66.910998648618261 0 -66.910998648618261 -68.962319664249662 0 0 0 0 16.919587972003683 -60.544430233101593 0 -60.544430233101593 -78.134799361599107 0 0 0 0 -15.753778249913921 20.102417202477227 0 20.102417202477227 96.347242209492833 0 0 0 0 1.1404713931560764 -65.578884083755838 0 -65.578884083755838 14.158746069151675 0 0 0 0 -23.905849095569771 -43.540237012979816 0 -43.540237012979816 33.972361111212876 0 0 0 0 -17.72208068987311 -72.424518808176799 0 -72.424518808176799 -62.725932493296568 0 0 0 0 -17.810117852888652 -215.39738704641968 0 -215.39738704641968 -146.78352234241902 0 0 0 0 -11.607000979702917 -28.425909549800537 0 -28.425909549800537 18.346455219369147 0 0 0 0 -68.26354332284609 -51.698603112905403 0 -51.698603112905403 -1.1103072637561127 0 0 0 0 -13.318242721546994 -47.487835703359451 0 -47.487835703359451 -4.373513943166472 0 0 0 0 -54.741338407564399 -102.97944135921716 0 -102.97944135921716 15.902519200550159 0 0 0 0 45.275413790905077 -22.817394001715002 0 -22.817394001715002 -36.857482054794673 0 0 0 0 -59.925830751004469 -51.026826028464711 0 -51.026826028464711 -25.29098360799253 0 0 0 0 -135.09010002068226 -72.678514965948125 0 -72.678514965948125 4.5437316685565747 0 0 0 0 -116.66610564241216 -187.21086759201444 0 -187.21086759201444 -338.69681602221681 0 0 0 0 -104.27418300689533 -67.451686952394084 0 -67.451686952394084 -127.00631432749651 0 0 0 0 -36.643108908696377 -163.16689748779754 0 -163.16689748779754 -214.26874623035837 0 0 0 0 -169.15897270933419 -62.003376709733857 0 -62.003376709733857 -48.153121831652243 0 0 0 0 -132.97376647307919 -194.64838713648169 0 -194.64838713648169 -92.515590383089148 0 0 0 0 -39.250618681626108 -38.082787758140853 0 -38.082787758140853 26.720852376498669 0 0 0 0 -115.39164105447344 -97.782712358603021 0 -97.782712358603021 98.587096774004749 0 0 0 0 -58.045064462372466 -86.247857783935615 0 -86.247857783935615 -4.8631722048739903 0 0 0 0 -25.598025539274659 -86.84471139328798 0 -86.84471139328798 5.3786783878895221 0 0 0 0 -47.242688073773024 -13.00612137549615 0 -13.00612137549615 -0.0225894795221393 0 0 0 0 -7.8460438719284866 -73.975866645669157 0 -73.975866645669157 -40.625462045820314 0 0 0 0 -31.885033259132804 -40.919932262178236 0 -40.919932262178236 25.326432657108796 0 0 0 0 -95.17694889298582 46.474999226076761 0 46.474999226076761 140.84993586782366 0 0 0 0 -10.747691976743226 -110.87732228011009 0 -110.87732228011009 -34.315195966351894 0 0 0 0 -32.954103927439149 -51.668682863980223 0 -51.668682863980223 3.5164619710448051 0 0 0 0 -51.415100380305375 -66.929206446642638 0 -66.929206446642638 68.250508927390911 0 0 0 0 -39.6393293588917 -65.289758546867233 0 -65.289758546867233 -58.199130588734988 0 0 0 0 -67.331578758225078 -11.066511595447082 0 -11.066511595447082 69.083804139045242 0 0 0 0 -43.704678906994729 -51.6897156039023 0 -51.6897156039023 -5.1141216745354363 0 0 0 0 7.2171015186904697 -102.15161070679096 0 -102.15161070679096 7.2897782340442063 0 0 0 0 -38.018288364397449 -58.446253382171562 0 -58.446253382171562 -30.05228267617349 0 0 0 0 -1.262630503228138 -49.668217676015047 0 -49.668217676015047 -61.800556751531985 0 0 0 0 1.2534792736951204 -82.573183487191272 0 -82.573183487191272 -49.843645624405326 0 0 0 0 24.826458988742893 -13.110343443171161 0 -13.110343443171161 -12.204855882917968 0 0 0 0 -180.66982641204595 -156.55757730189362 0 -156.55757730189362 -177.33421689655552 0 0 0 0 -202.54447166889804 -318.17664463553228 0 -318.17664463553228 -233.12695169035578 0 0 0 0 -112.87380034401576 -366.49420734385785 0 -366.49420734385785 -207.23091848954027 0 0 0 0 -128.91750110477005 -221.85881270341633 0 -221.85881270341633 -250.47509434589301 0 0 0 0 -206.67849693859716 -217.38504455902876 0 -217.38504455902876 -232.9350201098423 0 0 0 0 -87.610987660444152 -174.07532805086521 0 -174.07532805086521 -334.41192597443296 0 0 0 0 -85.245868543519464 -264.23281442864391 0 -264.23281442864391 303.80977287272253 0 0 0 0 0.053848958172665107 1.0357495221302599 0 1.0357495221302599 0.69941414765385446 0 0 0 0 69.961112902154127 -77.72679177383543 0 -77.72679177383543 -9.3497115385180223 0 0 0 0 50.004127298694584 12.440874786105269 0 12.440874786105269 -158.73680278487154 0 0 0 0 -33.107047657900694 -145.70233150661807 0 -145.70233150661807 -196.53341974513023 0 0 0 0 -163.89557792433334 -134.05223834185745 0 -134.05223834185745 -317.80780917167431 0 0 0 0 -147.75289564036575 -206.81409390342014 0 -206.81409390342014 -83.616766255407128 0 0 0 0 -188.80639699198946 -74.814276358432835 0 -74.814276358432835 -205.36914540373255 0 0 0 0 -50.191125516976172 -72.774230236565927 0 -72.774230236565927 -66.504334630793892 0 0 0 0 152.14278972557986 0.43447724061115878 0 0.43447724061115878 -184.61784360761521 0 0 0 0 -111.99918462534879 -215.3805951091781 0 -215.3805951091781 -190.68234822058002 0 0 0 0 -175.72781457843848 -295.31864162026613 0 -295.31864162026613 -187.94169434864307 0 0 0 0 -5.4119237305475991 -28.068805148739415 0 -28.068805148739415 35.846906682730207 0 0 0 0 -308.88825595712115 -186.9765694783855 0 -186.9765694783855 -60.816878954763524 0 0 0 0 0.15024803173932355 -10.804362687988032 0 -10.804362687988032 2.0780544973856294 0 0 0 0 -355.65336622030736 -236.12659812706988 0 -236.12659812706988 -195.51816139317816 0 0 0 0 -192.83132330343506 -282.9429861788085 0 -282.9429861788085 -510.67215975979343 0 0 0 0 -8.3009590904122916 -3.3162185064645371 0 -3.3162185064645371 17.720799456915628 0 0 0 0 -34.552668377757072 48.496148023899877 0 48.496148023899877 197.93423819063901 0 0 0 0 -10.074103474908043 -1.9923149100504816 0 -1.9923149100504816 182.65153975752764 0 0 0 0 -80.405720732646643 -31.588243813559643 0 -31.588243813559643 32.317917102382836 0 0 0 0 -39.460042125167092 -83.33565177154378 0 -83.33565177154378 -91.380455675087433 0 0 0 0 -253.51749831819325 -175.97020263198647 0 -175.97020263198647 85.983159437317227 0 0 0 0 -307.97724571886647 51.233903131746047 0 51.233903131746047 257.1232207773719 0 0 0 0 51.208254583296366 21.186013009864837 0 21.186013009864837 36.456804904059027 0 0 0 0 -2.552563165408742 -3.287530556276181 0 -3.287530556276181 0.18047457097692465 0 0 0 0 -28.086586175151751 -183.65240612176422 0 -183.65240612176422 -418.31480613027907 0 0 0 0 -74.848206646889054 -30.543002426696603 0 -30.543002426696603 15.404040291299765 0 0 0 0 -186.56057461026649 8.1970414365787292 0 8.1970414365787292 342.9586235343595 0 0 0 0 -64.659742407551676 69.557388864639506 0 69.557388864639506 82.144274522128399 0 0 0 0 -165.18426784617077 -245.30462654023086 0 -245.30462654023086 -85.825372406310635 0 0 0 0 -146.68843970154376 -80.037278063133272 0 -80.037278063133272 255.47190928412601 0 0 0 0 -158.25731810835714 -162.8426112945599 0 -162.8426112945599 -10.495960728522732 0 0 0 0 278.76230457639031 -103.35044277794805 0 -103.35044277794805 -242.27901674652821 0 0 0 0 9.4980223110299562 -58.884282256007708 0 -58.884282256007708 51.123994680964699 0 0 0 0 -55.542769369814778 -176.30899987964949 0 -176.30899987964949 -9.8032685596008378 0 0 0 0 -55.361954213891295 -56.455375361467304 0 -56.455375361467304 -28.25366036433752 0 0 0 0 -146.72579203889472 -57.811025441682432 0 -57.811025441682432 -27.808565545781676 0 0 0 0 93.92711294342007 -73.524414014420472 0 -73.524414014420472 -56.056743434779492 0 0 0 0 19.420601578518472 88.525380478389707 0 88.525380478389707 33.241079476560117 0 0 0 0 -51.342127432639955 -47.209729042328149 0 -47.209729042328149 11.259712148953227 0 0 0 0 -48.77068916225835 -73.74543038115371 0 -73.74543038115371 65.033634436660577 0 0 0 0 -2085.9238663965371 -744.41888523439411 0 -744.41888523439411 75.955015619882033 0 0 0 0 -53.192406938328517 -45.013832601321781 0 -45.013832601321781 24.203834239544193 0 0 0 0 -987.8838547123305 -176.52189303202613 0 -176.52189303202613 87.554949378580204 0 0 0 0 -4.8556108523140438 -7.3248700516398841 0 -7.3248700516398841 -12.992198009698797 0 0 0 0 962.25885523147008 699.46819358128414 0 699.46819358128414 518.63036721161916 0 0 0 0 1474.1685351960914 -2434.4628120333073 0 -2434.4628120333073 -1612.7591255208827 0 0 0 0 -16.952500692103058 -32.495871901861392 0 -32.495871901861392 -7.8942980468273163 0 0 0 0 -66.475898563854628 -50.189473696427967 0 -50.189473696427967 65.679200332655981 0 0 0 0 -47.384881695537786 -65.427162351899852 0 -65.427162351899852 26.888952364492994 0 0 0 0 -83.867004453344123 -94.634292279720114 0 -94.634292279720114 -34.381138021318634 0 0 0 0 -56.368597364751622 -84.304374911851482 0 -84.304374911851482 -49.604069974680897 0 0 0 0 -91.38207881776907 -91.134972036568797 0 -91.134972036568797 -39.60042742510268 0 0 0 0 -104.17662864558224 -140.57343581217719 0 -140.57343581217719 -120.55771149956945 0 0 0 0 15.183096264374242 -26.780176087454436 0 -26.780176087454436 -18.686154447465356 0 0 0 0 -130.61290218754948 -135.67746445719968 0 -135.67746445719968 -45.919000313697325 0 0 0 0 -47.055368871722749 -108.42290280519956 0 -108.42290280519956 -121.77122396422783 0 0 0 0 -55.143088044678734 -49.823782180450507 0 -49.823782180450507 -51.205794764333405 0 0 0 0 27.992486381903898 -12.914220940547182 0 -12.914220940547182 -9.8240655133956807 0 0 0 0 -39.534423430706738 -141.22645072281011 0 -141.22645072281011 -97.990968840807909 0 0 0 0 -83.68679975656778 -69.034976019000169 0 -69.034976019000169 -72.416708799864864 0 0 0 0 -77.317602849056129 -89.665555553947343 0 -89.665555553947343 -39.76874065001175 0 0 0 0 -103.17823906237572 -82.658243988924369 0 -82.658243988924369 -7.6823703992413357 0 0 0 0 -3.0322999418045384 -0.16973252214174295 0 -0.16973252214174295 3.8908774766833858 0 0 0 0 -78.653204727670527 -42.457706798682921 0 -42.457706798682921 -53.501605078112334 0 0 0 0 -30.99475582701416 -75.207904640315974 0 -75.207904640315974 -131.70173472940223 0 0 0 0 -67.19778676682472 -127.38997996426042 0 -127.38997996426042 8.006672468589386 0 0 0 0 -11.189040635945275 -169.79111548115907 0 -169.79111548115907 -109.2488683016818 0 0 0 0 -296.72353587544785 -180.08588438366132 0 -180.08588438366132 -74.512644030590309 0 0 0 0 -112.68134713435211 -89.273378848127322 0 -89.273378848127322 44.691564344102517 0 0 0 0 -37.975116881389113 -47.01181237239507 0 -47.01181237239507 -35.40295890159905 0 0 0 0 -55.097523031185119 19.039445349641028 0 19.039445349641028 133.47496148531354 0 0 0 0 -27.530869333723402 -16.954975421942805 0 -16.954975421942805 34.3625646119051 0 0 0 0 -23.404240761956316 -123.77566033106996 0 -123.77566033106996 26.660335011692951 0 0 0 0 -126.17227687476043 -39.046488531315845 0 -39.046488531315845 110.08815273099754 0 0 0 0 -13.608192387052441 100.08789238958707 0 100.08789238958707 147.22521347383736 0 0 0 0 20.502626744286317 51.83813590956197 0 51.83813590956197 3.4083020279940683 0 0 0 0 -52.364086170877272 -72.978124259418109 0 -72.978124259418109 -67.210456960041483 0 0 0 0 -30.60681632525602 -11.40004310537455 0 -11.40004310537455 36.952029476900833 0 0 0 0 -36.630049360312114 38.13134432258812 0 38.13134432258812 7.7470709759363672 0 0 0 0 -74.756982174625591 -56.886131737672258 0 -56.886131737672258 3.4107944176309131 0 0 0 0 -249.7821831282763 -172.99288149508357 0 -172.99288149508357 -140.95112156379037 0 0 0 0 -100.17846227576229 -77.102711470230133 0 -77.102711470230133 -33.355479460136849 0 0 0 0 -23.422273937656428 -86.128619591341703 0 -86.128619591341703 -66.545966925899847 0 0 0 0 -110.51216199444752 -135.39796021123766 0 -135.39796021123766 -100.72918130245671 0 0 0 0 -98.289906070262077 -101.51377620846324 0 -101.51377620846324 -69.294483768084319 0 0 0 0 -82.165753556604614 -69.783482018377981 0 -69.783482018377981 -79.244412244068371 0 0 0 0 -6.1304574465322332 -5.1378209376449036 0 -5.1378209376449036 0.059731471768202482 0 0 0 0 9.9241516026886529 -6.1943003876367584 0 -6.1943003876367584 49.916780827188632 0 0 0 0 30.836276263784384 66.333932538167574 0 66.333932538167574 64.079072729466134 0 0 0 0 -31.092708383420678 -8.9521292276433257 0 -8.9521292276433257 35.190922735872562 0 0 0 0 -1.1744845319397683 2.5499162553742849 0 2.5499162553742849 9.4510016715950655 0 0 0 0 -44.466095148643944 42.355442865693476 0 42.355442865693476 99.674211849604035 0 0 0 0 -71.134403820737134 -90.086118095676284 0 -90.086118095676284 -12.942347328469623 0 0 0 0 -48.206434460291348 -55.691581746941665 0 -55.691581746941665 -8.957566651981324 0 0 0 0 -42.386877707351232 -59.913870760821737 0 -59.913870760821737 -49.226195114402799 0 0 0 0 -123.67586652769387 -67.152679633740263 0 -67.152679633740263 -41.488463454821613 0 0 0 0 21.607076273350685 22.317671105090994 0 22.317671105090994 36.537167239177506 0 0 0 0 -0.85656804167730627 -2.4620874661617052 0 -2.4620874661617052 2.1733686173969318 0 0 0 0 1.5388212550424214 2.7238657688867534 0 2.7238657688867534 26.717521025857423 0 0 0 0 -4.843328054169433 3.9835206655479283 0 3.9835206655479283 15.153177123587341 0 0 0 0 -30.096581212214758 -4.3509555556681789 0 -4.3509555556681789 36.369540786575669 0 0 0 0 -2.8265757013359689 7.0556885253026849 0 7.0556885253026849 12.845754454276175 0 0 0 0 15.834438164401945 -4.2851581647882995 0 -4.2851581647882995 17.789320465642959 0 0 0 0 -61.323329835848199 -38.688582790418877 0 -38.688582790418877 -0.060992268132395111 0 0 0 0 -45.276744171087557 -47.588873692006018 0 -47.588873692006018 -12.837119874922791 0 0 0 0 0.70938280648988439 -9.0410055673564784 0 -9.0410055673564784 0.0017498205334911744 0 0 0 0 4.347148897810257 -9.7705938894941937 0 -9.7705938894941937 -1.253402145463042 0 0 0 0 4.0931589345597246 -0.070974186032685793 0 -0.070974186032685793 -3.8839444394932912 0 0 0 0 -4.0177241060664528 6.8260184991449933 0 6.8260184991449933 -0.96723635847229161 0 0 0 0 -136.11871698330106 12.060236521123443 0 12.060236521123443 -66.345484846970066 0 0 0 0 -22.247527623946553 -52.516990744617942 0 -52.516990744617942 -69.440216810151469 0 0 0 0 -115.77525045840594 -60.433451317738218 0 -60.433451317738218 0.98892968737345655 0 0 0 0 -325.12677367335345 -108.98067581947544 0 -108.98067581947544 -0.21501245711988304 0 0 0 0 -150.7874139739688 -165.34691752440267 0 -165.34691752440267 -146.45450837017415 0 0 0 0 -625.24131280183065 -447.82629406266642 0 -447.82629406266642 -252.2120127085218 0 0 0 0 -264.08827912767447 -114.31049315581913 0 -114.31049315581913 -274.11499739314968 0 0 0 0 -1015.7957104428642 -271.45080820432486 0 -271.45080820432486 -0.20675671131175477 0 0 0 0 -1304.7740038548218 -482.07361237452642 0 -482.07361237452642 191.44718529327656 0 0 0 0 -2.4484227328712915 0.9371542859915678 0 0.9371542859915678 -6.2652822687151684 0 0 0 0 -1722.7817753481359 -142.68931740456901 0 -142.68931740456901 1.0398369376198389 0 0 0 0 -658.97240612670066 330.49356963179162 0 330.49356963179162 -160.73107197773061 0 0 0 0 -2301.8959783699975 1053.4616810827793 0 1053.4616810827793 252.93795486220915 0 0 0 0 -2914.7428173187072 -879.61847377158847 0 -879.61847377158847 93.311529711874755 0 0 0 0 379.2461776923883 -498.18896787195263 0 -498.18896787195263 -499.97817483745166 0 0 0 0 -492.06076046560338 -1019.1735529177677 0 -1019.1735529177677 -769.2315716715093 0 0 0 0 -1.8687796181113487 -2.0005652512098635 0 -2.0005652512098635 -5.9306101657483055 0 0 0 0 -1710.6975878396079 -1335.0508066061302 0 -1335.0508066061302 -1214.6847270028047 0 0 0 0 -3997.9920509034055 213.2157429356339 0 213.2157429356339 263.47193833056372 0 0 0 0 -10.265184549860749 -12.950538688106427 0 -12.950538688106427 -21.772174743893572 0 0 0 0 -89.041296131552372 50.190719627993531 0 50.190719627993531 101.55781511987152 0 0 0 0 -159.61899362382246 47.533646752861387 0 47.533646752861387 6.3080219634575769 0 0 0 0 -198.4720329603806 -172.85238306433985 0 -172.85238306433985 -189.55474351937301 0 0 0 0 -533.40463012127657 -188.76569356491382 0 -188.76569356491382 -130.84825539049052 0 0 0 0 1278.732525691732 -525.13336931008598 0 -525.13336931008598 221.75846894146525 0 0 0 0 881.69997451050767 -1203.0454097365146 0 -1203.0454097365146 0.060251202303334139 0 0 0 0 94.434860882392968 -822.35971443323069 0 -822.35971443323069 155.54032474713676 0 0 0 0 100.58286919002603 -803.83679392330214 0 -803.83679392330214 -391.14677661290625 0 0 0 0 -1958.1250744552308 -672.10397013375768 0 -672.10397013375768 292.38194594600645 0 0 0 0 -938.19236709053439 -1082.2887478373596 0 -1082.2887478373596 -0.12038730847416446 0 0 0 0 -959.16681860260724 -380.68561240378767 0 -380.68561240378767 -113.58213921257357 0 0 0 0 -426.63502342143738 -442.7550052193983 0 -442.7550052193983 12.210292376330472 0 0 0 0 403.61778514574689 -664.59766779921483 0 -664.59766779921483 -139.59636736000266 0 0 0 0 371.77192972860939 -188.64484172172524 0 -188.64484172172524 36.808578053794918 0 0 0 0 117.52687418835922 -1065.1523966214954 0 -1065.1523966214954 -427.54588434750622 0 0 0 0 626.94697103353246 -1488.4822074572439 0 -1488.4822074572439 -81.69898440299221 0 0 0 0 -6.0821097290177306 -7.9676576024471899 0 -7.9676576024471899 -4.9343034468003566 0 0 0 0 398.16857586151491 -831.34771081283361 0 -831.34771081283361 1120.6531853652268 0 0 0 0 1225.5299283625791 -1012.6186800588621 0 -1012.6186800588621 -440.89567752821495 0 0 0 0 242.52289857337746 -1312.4388536297774 0 -1312.4388536297774 882.87364081080887 0 0 0 0 1286.7048806745915 -1891.5036218094901 0 -1891.5036218094901 66.106991029053461 0 0 0 0 886.02360340848099 -437.16752487562462 0 -437.16752487562462 -143.87199752488232 0 0 0 0 979.71290431207308 -988.17996414126537 0 -988.17996414126537 822.56897634759662 0 0 0 0 1452.8953738252676 -894.18273462225625 0 -894.18273462225625 471.61477600011858 0 0 0 0 1186.1795077314018 -1056.3025236211706 0 -1056.3025236211706 844.07277276960667 0 0 0 0 698.54603012341249 -763.63667341090331 0 -763.63667341090331 883.93963320909097 0 0 0 0 804.08085035467957 -772.07798145068955 0 -772.07798145068955 634.74459086387651 0 0 0 0 745.8543088964143 -885.57279683909655 0 -885.57279683909655 740.85116979441955 0 0 0 0 772.22732791925228 -705.72724782756995 0 -705.72724782756995 424.91755519488652 0 0 0 0 -16.4690611145746 -16.841685422208585 0 -16.841685422208585 -10.023952090130081 0 0 0 0 632.32571997194282 -1060.0488934927344 0 -1060.0488934927344 1049.9383342915826 0 0 0 0 624.3476012628671 -1681.4884916799128 0 -1681.4884916799128 520.17180537657623 0 0 0 0 652.08521067924448 -345.80117989941937 0 -345.80117989941937 784.00542781576587 0 0 0 0 475.12587158943643 -1436.5226810395825 0 -1436.5226810395825 -1014.2039580076525 0 0 0 0 -261.89275941851156 -1209.3017007613907 0 -1209.3017007613907 -59.311250770944753 0 0 0 0 425.45166986525146 -1466.5444885369579 0 -1466.5444885369579 -244.10076366610883 0 0 0 0 480.17253878248448 -1213.6178166094178 0 -1213.6178166094178 -325.26124752157557 0 0 0 0 485.86600231931789 -1263.206016017175 0 -1263.206016017175 61.156901109410683 0 0 0 0 694.11660256906907 -1048.888548500101 0 -1048.888548500101 -332.75590977320098 0 0 0 0 848.77252574437716 -881.19762427240676 0 -881.19762427240676 371.91339137015166 0 0 0 0 818.95692222598882 -1090.8067035069835 0 -1090.8067035069835 -128.3542719422112 0 0 0 0 947.97717194608413 -1007.5290850833408 0 -1007.5290850833408 529.62276090439263 0 0 0 0 938.45172204420669 -1145.3462419111602 0 -1145.3462419111602 64.113727939184173 0 0 0 0 719.1075132858241 -1293.5416860084515 0 -1293.5416860084515 -117.55542075025733 0 0 0 0 855.76386520102096 -1248.2498953045724 0 -1248.2498953045724 -29.57565327588236 0 0 0 0 679.16954084407371 -1213.6768646000783 0 -1213.6768646000783 142.63569357106462 0 0 0 0 589.42822492172127 -1065.7230296451453 0 -1065.7230296451453 101.48222458932287 0 0 0 0 593.08907143806573 -1340.8178396903822 0 -1340.8178396903822 -38.70044865379532 0 0 0 0 721.80943596972065 -983.20785201632316 0 -983.20785201632316 133.10672089725267 0 0 0 0 1044.1454247455258 -1130.0121512654587 0 -1130.0121512654587 199.37396149532287 0 0 0 0 935.81147728824362 -786.38580809133418 0 -786.38580809133418 563.23355047375662 0 0 0 0 1434.2087897137098 -611.9915067552356 0 -611.9915067552356 502.01652371694217 0 0 0 0 1174.695074747222 -858.92001782857551 0 -858.92001782857551 502.14509278367041 0 0 0 0 1203.3653111066815 -915.68421702324122 0 -915.68421702324122 363.40115572398645 0 0 0 0 850.02770899861935 -898.95668527041562 0 -898.95668527041562 445.90001364900672 0 0 0 0 1084.189886080203 -775.27840246886626 0 -775.27840246886626 489.74726321647177 0 0 0 0 1218.0824624660236 -902.13431941512681 0 -902.13431941512681 506.02014996210346 0 0 0 0 1585.2451529505488 -820.54039813412237 0 -820.54039813412237 416.96751906485588 0 0 0 0 -123.08627359457387 -63.899760996508121 0 -63.899760996508121 83.670734082566923 0 0 0 0 -60.039423099122359 -179.81010887780576 0 -179.81010887780576 205.6935487064402 0 0 0 0 -193.46857782341249 7.0871906883985503 0 7.0871906883985503 60.225879465753678 0 0 0 0 -125.22446672755177 81.272106674863608 0 81.272106674863608 55.777932932571275 0 0 0 0 -32.136645309393842 -32.34706120703089 0 -32.34706120703089 24.047888649545371 0 0 0 0 -29.853628857518231 -44.027606164451285 0 -44.027606164451285 -55.080055829110506 0 0 0 0 -1487.0804410689525 -261.11358801779716 0 -261.11358801779716 52.604667782899924 0 0 0 0 -1478.1006056362166 -339.43119900513557 0 -339.43119900513557 534.55636954057263 0 0 0 0 -1579.5962686321909 121.90041083279357 0 121.90041083279357 1470.2275510864274 0 0 0 0 -1609.187549068236 -97.262689077848336 0 -97.262689077848336 210.61030978922827 0 0 0 0 -2004.8216813487161 -1060.7370969766489 0 -1060.7370969766489 1517.7528996989099 0 0 0 0 -2141.5526685427249 -1611.6572652870527 0 -1611.6572652870527 -103.08094394567888 0 0 0 0 -10.934189557048796 -8.9606046239835138 0 -8.9606046239835138 -4.0927363672554407 0 0 0 0 -548.70686410713824 -322.62690784384904 0 -322.62690784384904 -339.74036928796158 0 0 0 0 -1318.4564873543713 -635.8093510367471 0 -635.8093510367471 -279.22926197150082 0 0 0 0 -1275.7750546111929 -854.58130089292536 0 -854.58130089292536 530.09753472659258 0 0 0 0 93.814718088295194 -85.974039644279401 0 -85.974039644279401 -9.6030527301481925 0 0 0 0 -323.60054555703937 -1206.2985956168814 0 -1206.2985956168814 -1569.2720156906289 0 0 0 0 -1769.5355298286595 -1512.6020874792157 0 -1512.6020874792157 -1427.846958591399 0 0 0 0 -4.6286944987197671 0.88730883726810816 0 0.88730883726810816 2.4961492695044569 0 0 0 0 -761.10952344631914 -2447.7699574359976 0 -2447.7699574359976 -810.87664443685208 0 0 0 0 278.88132034358568 -677.37806058098795 0 -677.37806058098795 865.18372683770758 0 0 0 0 -216.79112902622728 216.98907450749539 0 216.98907450749539 989.05798041063827 0 0 0 0 -66.795843581479858 -89.785731872136239 0 -89.785731872136239 543.16666495558457 0 0 0 0 -177.56186840277223 -235.45681308765779 0 -235.45681308765779 867.23879399141879 0 0 0 0 -722.47574423762853 -97.787720277221524 0 -97.787720277221524 880.8905614438263 0 0 0 0 -57.899486868307577 32.541927601705538 0 32.541927601705538 851.38835197757726 0 0 0 0 39.712229879376537 -334.28946124786307 0 -334.28946124786307 363.97743545619596 0 0 0 0 68.412661614333047 -573.64749001647579 0 -573.64749001647579 553.87623650171736 0 0 0 0 1.8882022303158124 -11.868613802348705 0 -11.868613802348705 -8.2907108117130406 0 0 0 0 -8.1924301815524814 -174.73811434508571 0 -174.73811434508571 -164.43965156021295 0 0 0 0 -44.088401837288984 -109.90985665979679 0 -109.90985665979679 -11.536906664259732 0 0 0 0 -104.02800936672793 -38.774742008132307 0 -38.774742008132307 -6.3727244110923493 0 0 0 0 -20.446630662702518 -12.080091238023414 0 -12.080091238023414 -5.23265062493806 0 0 0 0 75.19035360878479 -159.38301715883426 0 -159.38301715883426 -212.02872616838431 0 0 0 0 -39.547816649822607 -51.890423783945955 0 -51.890423783945955 -43.038380565586181 0 0 0 0 -0.77762926383729791 -40.26690853011678 0 -40.26690853011678 530.41215475476929 0 0 0 0 42.999335484695621 163.61959514056798 0 163.61959514056798 431.38663115724921 0 0 0 0 -34.174779741792008 -138.15280777576845 0 -138.15280777576845 280.61863273721247 0 0 0 0 -10.817271479344498 -6.3029217953584507 0 -6.3029217953584507 8.9680334359411518 0 0 0 0 88.317960190288431 -92.510725395317422 0 -92.510725395317422 181.61299091763794 0 0 0 0 -6.0015744916745462 -58.617006111366209 0 -58.617006111366209 171.76122746933834 0 0 0 0 60.088247402742127 -93.238604452599247 0 -93.238604452599247 -55.915704253886361 0 0 0 0 -293.9855341736984 -204.12959994960693 0 -204.12959994960693 155.79797212429185 0 0 0 0 71.628804500462365 -250.93007996509914 0 -250.93007996509914 -152.67092467502516 0 0 0 0 -177.39254804831944 -320.16899368231498 0 -320.16899368231498 -76.917464596335776 0 0 0 0 29.357672999642773 -46.635772210466342 0 -46.635772210466342 71.323169645656606 0 0 0 0 -32.03349013911793 -58.854000750405248 0 -58.854000750405248 15.719135116291 0 0 0 0 227.88740156294079 -12.897156847189763 0 -12.897156847189763 -100.29869161429815 0 0 0 0 247.10738356565707 -10.279458386961778 0 -10.279458386961778 -231.76366024221352 0 0 0 0 83.009181503069158 -75.720861469405008 0 -75.720861469405008 -119.47256729114451 0 0 0 0 331.35835461859824 -252.68559627869399 0 -252.68559627869399 -7.9913308329996653 0 0 0 0 25.524952324398328 -124.82618148630718 0 -124.82618148630718 219.34684620107873 0 0 0 0 344.49316036218079 -694.92463580548065 0 -694.92463580548065 -311.13291119915084 0 0 0 0 305.18764500608268 -125.04378892250679 0 -125.04378892250679 -407.22151451374521 0 0 0 0 30.142708156265144 -52.935373679571057 0 -52.935373679571057 -447.06144801147457 0 0 0 0 502.97467183933622 -806.94564861983235 0 -806.94564861983235 -119.20767366605287 0 0 0 0 647.13235033430465 -579.49719924440433 0 -579.49719924440433 150.06059257173911 0 0 0 0 -375.5530932833426 -86.247883170277419 0 -86.247883170277419 64.675567661877722 0 0 0 0 -2.684312894479163 -3.2811335877870036 0 -3.2811335877870036 -10.38889275990158 0 0 0 0 194.4302418331572 -64.199182764292345 0 -64.199182764292345 152.15920863521751 0 0 0 0 1113.4252823474671 -554.47876170736708 0 -554.47876170736708 -36.483584137875368 0 0 0 0 859.65578604984512 -1212.9829606430321 0 -1212.9829606430321 733.46473508662893 0 0 0 0 1867.7523322771667 -1403.3769725095262 0 -1403.3769725095262 166.88435947108519 0 0 0 0 2204.7526745475307 -1695.348548662304 0 -1695.348548662304 408.06946512375725 0 0 0 0 2606.1665543753043 -278.4255158580454 0 -278.4255158580454 -70.321493882274808 0 0 0 0 6.1078188458583256 -16.692086846839217 0 -16.692086846839217 2.2612969293502942 0 0 0 0 -475.50227985025413 -190.6098069333384 0 -190.6098069333384 16.811885284502353 0 0 0 0 -326.52404271787236 -311.14100042019709 0 -311.14100042019709 -54.223674772933009 0 0 0 0 -230.43816765124939 -165.1499133257239 0 -165.1499133257239 16.577884008561057 0 0 0 0 5.8148429192467574 -22.375426404949323 0 -22.375426404949323 -26.704334540566265 0 0 0 0 91.14927144178364 -186.87982446252317 0 -186.87982446252317 -47.544862216760521 0 0 0 0 26.328299285525631 -49.96617078250415 0 -49.96617078250415 66.148839173044394 0 0 0 0 943.63859882119186 -575.81951815755929 0 -575.81951815755929 -1001.0859486185946 0 0 0 0 918.24623278804211 -292.34775845446711 0 -292.34775845446711 -364.83313256471774 0 0 0 0 613.04989943269902 -998.37491870320082 0 -998.37491870320082 -442.47221624408849 0 0 0 0 138.81901966129226 -1627.64834100812 0 -1627.64834100812 -1132.8396509104932 0 0 0 0 528.18900272500377 -1289.3005266491027 0 -1289.3005266491027 -338.29203092653188 0 0 0 0 676.76246173794789 -1120.5847153716495 0 -1120.5847153716495 -603.08009399939328 0 0 0 0 562.44997930239037 -1237.9986160277081 0 -1237.9986160277081 37.734629477563431 0 0 0 0 552.89655989976745 -1096.1804218236502 0 -1096.1804218236502 -340.77071577896277 0 0 0 0 -638.95942546921287 -1087.979435133755 0 -1087.979435133755 350.30329679936403 0 0 0 0 119.45098547143425 -1233.0334427395064 0 -1233.0334427395064 120.16001621598843 0 0 0 0 478.51351933017577 -1364.298608295052 0 -1364.298608295052 -83.310688695699355 0 0 0 0 -83.101966930698836 -1264.4140663617727 0 -1264.4140663617727 -22.979042404316715 0 0 0 0 1164.5411835708364 -1237.665850899728 0 -1237.665850899728 -26.047399447145835 0 0 0 0 417.77748504966075 -1776.8527196573723 0 -1776.8527196573723 210.56099997591809 0 0 0 0 2025.5004467477665 -832.88722292147577 0 -832.88722292147577 -223.02147857501404 0 0 0 0 11.46544725008215 -10.322859436885437 0 -10.322859436885437 3.8675110335887553 0 0 0 0 -775.9727082489735 -1841.4936320953311 0 -1841.4936320953311 -785.82365590994596 0 0 0 0 -132.92845810795552 -1616.3339240216083 0 -1616.3339240216083 454.11887647044932 0 0 0 0 -682.44496722597978 -1427.3808481506094 0 -1427.3808481506094 398.30661936556862 0 0 0 0 114.23235839049812 -189.89699165034835 0 -189.89699165034835 739.50275350127777 0 0 0 0 -1492.7924092269641 -763.69554012869776 0 -763.69554012869776 671.01585344935302 0 0 0 0 -12.483247694186474 -18.922504201450117 0 -18.922504201450117 -27.324501436674609 0 0 0 0 513.48083411421976 -31.501983968599234 0 -31.501983968599234 -2352.5605914827588 0 0 0 0 513.92690603775736 5.2939013544519185 0 5.2939013544519185 -1375.8660830059234 0 0 0 0 -150.77416554592492 -414.9709257314571 0 -414.9709257314571 -188.42605607894075 0 0 0 0 -354.50448608034276 -375.80735509542137 0 -375.80735509542137 -195.73979422041157 0 0 0 0 209.7706209005155 -753.93016683176029 0 -753.93016683176029 -1552.9851661314606 0 0 0 0 207.86390733745066 -964.11408197186392 0 -964.11408197186392 -345.83088051478262 0 0 0 0 -394.98106766734418 -633.29269905965339 0 -633.29269905965339 -292.48962375390693 0 0 0 0 -992.37753115013038 -1617.6242948918007 0 -1617.6242948918007 719.17960733039945 0 0 0 0 222.58699145821447 -1596.9828663796943 0 -1596.9828663796943 -2367.1741978461532 0 0 0 0 -142.11794063985872 -84.278401059185853 0 -84.278401059185853 42.148452686899873 0 0 0 0 -889.23092344668839 -299.07211604145414 0 -299.07211604145414 21.466274353675544 0 0 0 0 1.5691409106226217 -3.7676143258892623 0 -3.7676143258892623 13.780050417828477 0 0 0 0 -30.163470135551208 -36.9378743722921 0 -36.9378743722921 53.144240331851961 0 0 0 0 -455.84975965959893 -37.481202956128982 0 -37.481202956128982 -153.71215889070118 0 0 0 0 -35.471326660665824 -32.092923565364387 0 -32.092923565364387 -0.61858746082506855 0 0 0 0 -477.7811406303299 338.71470150361711 0 338.71470150361711 -75.240769481670213 0 0 0 0 -606.79200384454452 -429.77268994200858 0 -429.77268994200858 334.29567552232766 0 0 0 0 -603.63081693027198 1076.6317760548482 0 1076.6317760548482 -1480.5637564705867 0 0 0 0 11.20290208179685 -24.536903560296594 0 -24.536903560296594 25.193343599361981 0 0 0 0 961.93005755665217 -705.0299765257987 0 -705.0299765257987 564.39249453504453 0 0 0 0 555.87006999428559 -167.69169895248342 0 -167.69169895248342 213.44084730262693 0 0 0 0 -376.63688668944451 172.84255345253041 0 172.84255345253041 204.06273385259556 0 0 0 0 136.91290425614807 188.58429390584479 0 188.58429390584479 791.1793561593804 0 0 0 0 149.35957255375979 218.47177919928072 0 218.47177919928072 46.516048257319198 0 0 0 0 -485.2637678410174 -131.09104890892559 0 -131.09104890892559 562.40742580720689 0 0 0 0 -103.66330417704376 -34.179775050198714 0 -34.179775050198714 -67.336218731128611 0 0 0 0 -83.996425767671781 607.31498709632217 0 607.31498709632217 -318.03781638540386 0 0 0 0 -511.20683862891019 1.7157615658870782 0 1.7157615658870782 51.268697253166465 0 0 0 0 -40.069208916879901 -24.99862353202451 0 -24.99862353202451 -7.3331406561855488 0 0 0 0 -19.218457726865665 -38.159398123721203 0 -38.159398123721203 -37.621447580454046 0 0 0 0 12.724601863267907 -12.18240950756261 0 -12.18240950756261 -21.711827937167584 0 0 0 0 -18.87798593030675 -70.199884953877699 0 -70.199884953877699 45.164343690936221 0 0 0 0 -30.256488252067356 -93.30911021475913 0 -93.30911021475913 37.353579122169322 0 0 0 0 -41.164719489199342 -35.026748976160889 0 -35.026748976160889 47.2805806920951 0 0 0 0 26.354507345924503 -81.656710517170723 0 -81.656710517170723 18.033015542401699 0 0 0 0 -33.885801028212882 -74.888092941182549 0 -74.888092941182549 31.228050580713898 0 0 0 0 -31.057200011942768 -44.885485049628187 0 -44.885485049628187 1.4926780679961666 0 0 0 0 -45.752333069933229 -58.261873851246492 0 -58.261873851246492 42.455702776020189 0 0 0 0 -39.010009977738832 -43.016352980193382 0 -43.016352980193382 -14.822041597303183 0 0 0 0 -30.711392769240774 -71.918030891518356 0 -71.918030891518356 6.3815465541701997 0 0 0 0 -57.866406338402157 -80.494748694343798 0 -80.494748694343798 39.143541546276538 0 0 0 0 -5.032264365987686 -21.695286898827675 0 -21.695286898827675 7.5155297995049466 0 0 0 0 -221.45087555433565 -226.16216360713952 0 -226.16216360713952 -23.829064154720982 0 0 0 0 -121.9129745978571 -141.16005629178835 0 -141.16005629178835 -92.241662551077752 0 0 0 0 -48.149508360779976 -72.449712326784834 0 -72.449712326784834 -40.181338654691629 0 0 0 0 1636.7896056703903 -1893.7362655505058 0 -1893.7362655505058 1150.8323860011669 0 0 0 0 1243.0894342065294 -1437.0963518988392 0 -1437.0963518988392 649.01773211969703 0 0 0 0 -1472.5873788494355 -257.3294830801151 0 -257.3294830801151 449.72423863576842 0 0 0 0 -1.6047163660178967 -0.97902111570989092 0 -0.97902111570989092 1.3500176695316668 0 0 0 0 -216.85741501882148 -141.56122755813703 0 -141.56122755813703 -54.865166530282295 0 0 0 0 -321.31088556756367 -303.69724646165923 0 -303.69724646165923 2.7425532379129436 0 0 0 0 26.957092623075368 -36.30800115733291 0 -36.30800115733291 936.8276941103104 0 0 0 0 12.831567876442691 -19.505514485436663 0 -19.505514485436663 14.899020358057101 0 0 0 0 878.67495450405841 -615.05684621009277 0 -615.05684621009277 1995.403955639471 0 0 0 0 1146.5791712511709 -232.03476464762207 0 -232.03476464762207 130.69910907077428 0 0 0 0 1542.7862432916663 358.42424566119735 0 358.42424566119735 854.44703851993836 0 0 0 0 2740.966665544729 -925.44995428227776 0 -925.44995428227776 109.95301494527666 0 0 0 0 1344.7547687729166 -704.2534238059925 0 -704.2534238059925 -220.56533601468254 0 0 0 0 1023.1463970413388 -623.30591375138465 0 -623.30591375138465 80.206193918292229 0 0 0 0 356.32030449484591 246.85174156898574 0 246.85174156898574 15.431768801645376 0 0 0 0 1208.8336131798496 -400.54107503814157 0 -400.54107503814157 -296.86182695737807 0 0 0 0 813.11421171487018 -440.51029148069938 0 -440.51029148069938 -401.36985928628746 0 0 0 0 136.62935873511015 254.02689740674396 0 254.02689740674396 -786.90223871789931 0 0 0 0 126.75417020104555 -196.55253031707468 0 -196.55253031707468 -230.38358429726213 0 0 0 0 695.57524127428042 -567.62703173159389 0 -567.62703173159389 -92.18282797790016 0 0 0 0 886.48552534453484 -598.46148503482254 0 -598.46148503482254 -164.58375266502844 0 0 0 0 705.24034821439272 -876.8746927111788 0 -876.8746927111788 186.44692087778458 0 0 0 0 1051.9817040862199 -1405.3260925616987 0 -1405.3260925616987 655.15868017682806 0 0 0 0 557.10473781862675 -915.31353879284143 0 -915.31353879284143 177.84987758594798 0 0 0 0 556.67002776907236 -828.80453281912912 0 -828.80453281912912 242.58288650588656 0 0 0 0 269.32254079192353 -809.74363703285053 0 -809.74363703285053 570.00932230289618 0 0 0 0 637.83219364334946 -814.48586147629976 0 -814.48586147629976 205.22344946381054 0 0 0 0 537.29395055231726 -600.64360649458831 0 -600.64360649458831 271.09755932597909 0 0 0 0 622.94845607940806 -585.30731788507546 0 -585.30731788507546 198.32928013916535 0 0 0 0 493.41882501474174 -561.31290599343265 0 -561.31290599343265 244.58532999796444 0 0 0 0 501.2584055188272 -282.86997613632047 0 -282.86997613632047 9.9192735025280854 0 0 0 0 0.1392735809253054 -1.3434434084426101 0 -1.3434434084426101 -0.40674894910063131 0 0 0 0 264.28609098192828 -309.09969098427246 0 -309.09969098427246 16.378381905175047 0 0 0 0 250.6426695825794 -486.78126641020935 0 -486.78126641020935 251.28175354572795 0 0 0 0 -210.7123457424459 -234.51882112992462 0 -234.51882112992462 138.4196421086599 0 0 0 0 784.09438039346423 -316.35584400098014 0 -316.35584400098014 33.802532357454766 0 0 0 0 138.91036988317501 -273.17735532442748 0 -273.17735532442748 -24.639235271228245 0 0 0 0 -338.83440188565601 -85.132621812925208 0 -85.132621812925208 269.48033277044306 0 0 0 0 -0.26743193602641924 -3.1541816029216108 0 -3.1541816029216108 -0.87277110440487604 0 0 0 0 187.33599874171705 -160.39114801840151 0 -160.39114801840151 -46.770094052917557 0 0 0 0 234.51008562556672 -196.50131996095297 0 -196.50131996095297 -171.71363241224026 0 0 0 0 83.718615276724449 -238.52557741790952 0 -238.52557741790952 -43.335494106722763 0 0 0 0 -198.3125882276654 -234.34105904463649 0 -234.34105904463649 -76.486212970296037 0 0 0 0 -124.24444288381346 -104.46476958150743 0 -104.46476958150743 -138.08940455790798 0 0 0 0 231.86970961937186 67.435517500402057 0 67.435517500402057 430.48520712790196 0 0 0 0 134.49763717580208 -310.038049016679 0 -310.038049016679 -225.45386052874346 0 0 0 0 0.062388336795237365 -2.0997027261291521 0 -2.0997027261291521 3.3472097695087655 0 0 0 0 -2.2048512024775846 -489.98241546707141 0 -489.98241546707141 -275.96106109976972 0 0 0 0 352.29957739480233 -83.24889371725294 0 -83.24889371725294 -222.95110878736887 0 0 0 0 -207.71786802457791 -349.41047602547042 0 -349.41047602547042 143.20567665994167 0 0 0 0 219.18199871561956 -253.34240965393474 0 -253.34240965393474 -6.7822218684959807 0 0 0 0 275.97113851723407 -325.80823236962169 0 -325.80823236962169 -2.8549091996101197 0 0 0 0 263.09454290795111 -289.51714542655827 0 -289.51714542655827 -36.350940311021986 0 0 0 0 264.8714134963011 -336.24163825196592 0 -336.24163825196592 25.6668343816782 0 0 0 0 -96.05517454593064 -260.79422091574088 0 -260.79422091574088 97.880365980985516 0 0 0 0 -391.38321781119248 -184.43183765036611 0 -184.43183765036611 161.16682395491807 0 0 0 0 -90.723819354076113 -222.50316792334343 0 -222.50316792334343 58.469749360687274 0 0 0 0 -487.84899373924782 -72.253954299816542 0 -72.253954299816542 108.83590158351581 0 0 0 0 -373.20335361178149 -113.12966634747863 0 -113.12966634747863 90.200292214809451 0 0 0 0 -450.00752941250539 -140.98703136082622 0 -140.98703136082622 96.313206773651473 0 0 0 0 -70.113273454927096 -110.16078656155696 0 -110.16078656155696 23.839638568749876 0 0 0 0 -532.2746882342326 34.399330049716809 0 34.399330049716809 -51.937421505601378 0 0 0 0 -881.47365171362617 47.673076948194648 0 47.673076948194648 83.121087830477336 0 0 0 0 -551.98922647683503 -253.83974840759765 0 -253.83974840759765 149.18707989781251 0 0 0 0 -230.43707427238405 -267.5815614524181 0 -267.5815614524181 -16.17747869642335 0 0 0 0 139.42000305640977 -119.92322013079684 0 -119.92322013079684 20.178093872058525 0 0 0 0 158.36004150009899 -216.13896863899504 0 -216.13896863899504 51.269883016240783 0 0 0 0 406.76729659174089 -283.85706796479644 0 -283.85706796479644 -1.2293632451037411 0 0 0 0 -94.572945196384453 -111.64124447273578 0 -111.64124447273578 24.12420577203028 0 0 0 0 265.85167755882867 -157.49348150057631 0 -157.49348150057631 -48.249415648620925 0 0 0 0 202.20092183905217 -194.45362124494204 0 -194.45362124494204 95.448142295757862 0 0 0 0 225.85181139578344 -143.81702584620143 0 -143.81702584620143 -81.63862292299018 0 0 0 0 91.959517907089321 -64.796482277357427 0 -64.796482277357427 -92.189728188925073 0 0 0 0 177.2416259768479 -125.8122415186408 0 -125.8122415186408 -121.48387721402105 0 0 0 0 135.02985491060372 -140.11938394251501 0 -140.11938394251501 -40.140627838030923 0 0 0 0 169.73038148816704 -143.5540443143982 0 -143.5540443143982 -28.132789647723257 0 0 0 0 178.13598227018997 -110.50515827076333 0 -110.50515827076333 -92.162134494254133 0 0 0 0 12.845114408133668 -397.15476240493444 0 -397.15476240493444 -115.23168889003864 0 0 0 0 168.00096610308927 -73.262166035955602 0 -73.262166035955602 10.783827813037561 0 0 0 0 164.55926061121863 -85.844186697111581 0 -85.844186697111581 -75.365934949906659 0 0 0 0 22.303293076562113 -69.034100698110706 0 -69.034100698110706 -7.2153070921922335 0 0 0 0 45.959603929419245 -133.92020576627692 0 -133.92020576627692 -39.232251407345757 0 0 0 0 138.14294015532869 -35.489879200362338 0 -35.489879200362338 -157.62487613694975 0 0 0 0 36.701291305947684 -14.53793882621784 0 -14.53793882621784 -0.71519450873032042 0 0 0 0 72.796211344125823 -84.405651146858872 0 -84.405651146858872 -112.20042095860117 0 0 0 0 -1220.6938737472665 74.346011781017296 0 74.346011781017296 -461.91272971799481 0 0 0 0 -684.17613428790355 -759.64678413326328 0 -759.64678413326328 -387.84665376556222 0 0 0 0 -2359.6654420089908 -263.4752167808474 0 -263.4752167808474 34.821485737236799 0 0 0 0 -2387.7462871492248 -272.56629453404184 0 -272.56629453404184 37.251010433537886 0 0 0 0 -199.08652736258955 -161.70757709162353 0 -161.70757709162353 -230.30091039417312 0 0 0 0 -816.5137854484783 -377.05388455218053 0 -377.05388455218053 16.364001271256711 0 0 0 0 -1324.4935864111758 523.66934911193675 0 523.66934911193675 16.090289156069048 0 0 0 0 -814.24023201734963 -381.46239962732216 0 -381.46239962732216 -27.887216897914186 0 0 0 0 298.60965362952084 -239.58653277121994 0 -239.58653277121994 -27.386683349861414 0 0 0 0 179.89689431573333 -187.87315564581581 0 -187.87315564581581 10.770597030001227 0 0 0 0 -36.799860530507544 -23.102185267050714 0 -23.102185267050714 28.856211391534771 0 0 0 0 34.128600710388938 -11.195197954890737 0 -11.195197954890737 -1.4186619624042009 0 0 0 0 -2349.7560708865058 -288.57479093328584 0 -288.57479093328584 23.425198437122162 0 0 0 0 -2388.9922429617818 -312.86046453544805 0 -312.86046453544805 8.3956928880070336 0 0 0 0 -659.05581919410906 -703.05549570358562 0 -703.05549570358562 107.09310363375698 0 0 0 0 149.4004117561999 -126.8877319113235 0 -126.8877319113235 -712.41157627764915 0 0 0 0 -80.541214884455258 -627.32405647158157 0 -627.32405647158157 -648.32133198296469 0 0 0 0 174.97085178496957 -85.828308737951488 0 -85.828308737951488 14.187564980198516 0 0 0 0 -330.97128734536818 644.77923849679064 0 644.77923849679064 556.58357033153516 0 0 0 0 5.89037971088419 -6.6596032558333889 0 -6.6596032558333889 10.569386707816705 0 0 0 0 56.649615044647362 332.71931878577743 0 332.71931878577743 -863.44807539245448 0 0 0 0 -1725.8432932298019 -502.16342393864761 0 -502.16342393864761 -210.06095247797202 0 0 0 0 -131.74346869407873 -91.995783775796554 0 -91.995783775796554 -52.49817931522557 0 0 0 0 -2.9754296270927796 -28.203941844037445 0 -28.203941844037445 22.17441146203393 0 0 0 0 -178.94716479647468 -87.396665756394214 0 -87.396665756394214 412.03545598222991 0 0 0 0 -76.716822327274713 -138.36363991837425 0 -138.36363991837425 -2.026328853211453 0 0 0 0 -128.46720715850097 -109.01969718197506 0 -109.01969718197506 9.5994292448594933 0 0 0 0 -53.989405982456674 -45.980281827534839 0 -45.980281827534839 -1.8990244289783504 0 0 0 0 -181.19280266934766 -157.17237656221187 0 -157.17237656221187 -9.4894665344036184 0 0 0 0 -174.07183067294682 -136.77396055217105 0 -136.77396055217105 -85.904058532014005 0 0 0 0 -72.425383364277877 -145.69128740209999 0 -145.69128740209999 -74.17313442719751 0 0 0 0 -72.936055003288857 -143.06441726726189 0 -143.06441726726189 -68.828297290805494 0 0 0 0 25.411760078336471 -42.898284733841535 0 -42.898284733841535 19.778095480105236 0 0 0 0 -66.538554333037609 -181.7852280653824 0 -181.7852280653824 -80.278521197731607 0 0 0 0 -121.5933404813477 -344.47079733722785 0 -344.47079733722785 -100.08851042168499 0 0 0 0 -51.993194579151613 -72.867288429257869 0 -72.867288429257869 -14.562624999338567 0 0 0 0 -135.10088969833487 -221.28008951357333 0 -221.28008951357333 -93.384304926625191 0 0 0 0 1.5852299927798548 -63.217466174617186 0 -63.217466174617186 31.774996425508817 0 0 0 0 -119.10408743370317 -156.38127116399482 0 -156.38127116399482 -40.626163613698736 0 0 0 0 -52.881580496999959 -60.33198775522186 0 -60.33198775522186 -22.763537344609801 0 0 0 0 12.116699522433919 -288.46745765361266 0 -288.46745765361266 -127.80658326478442 0 0 0 0 -159.59551646950058 -330.95545232123914 0 -330.95545232123914 -127.01943503807706 0 0 0 0 28.366814386838087 -80.653466194402426 0 -80.653466194402426 -57.524751348770224 0 0 0 0 56.757484036630643 -59.046770828657117 0 -59.046770828657117 12.565678652255968 0 0 0 0 28.396536189349717 -82.105809023072652 0 -82.105809023072652 -32.899162071567844 0 0 0 0 -30.188786935184908 -91.121962136923685 0 -91.121962136923685 -0.98678025749541121 0 0 0 0 -8.0656598643874027 -57.311313198072526 0 -57.311313198072526 -18.779874854431057 0 0 0 0 27.191475412202635 -88.804539414297324 0 -88.804539414297324 -343.69134081198717 0 0 0 0 -211.47033337615721 -196.43470383233216 0 -196.43470383233216 -102.41935860758531 0 0 0 0 -47.022207591225197 -245.00588448886629 0 -245.00588448886629 -165.27513085064129 0 0 0 0 47.486970516058136 12.745371902215993 0 12.745371902215993 -71.640132025393541 0 0 0 0 32.905016086789146 -126.23403718038753 0 -126.23403718038753 -160.82630064734258 0 0 0 0 42.996812672190615 -32.148633368649485 0 -32.148633368649485 7.6067058555447886 0 0 0 0 61.249955324550683 -203.92768960029935 0 -203.92768960029935 -30.036550496966811 0 0 0 0 20.897924216596039 -88.612099731592025 0 -88.612099731592025 -67.804026250261813 0 0 0 0 61.672129631414251 -41.759225842412235 0 -41.759225842412235 2.725073891868135 0 0 0 0 15.048637512911831 -21.574660426911294 0 -21.574660426911294 -9.7983369185563731 0 0 0 0 4.1768494851867217 -95.553540699889709 0 -95.553540699889709 -66.647052494095988 0 0 0 0 -215.75789232835814 -213.08457901303336 0 -213.08457901303336 -82.660174499350433 0 0 0 0 -213.68126076663611 -230.75904689748859 0 -230.75904689748859 -218.94257473135804 0 0 0 0 -51.870116438567351 -62.07367992712944 0 -62.07367992712944 -31.777026562242042 0 0 0 0 -146.19656977647992 -237.62490742497062 0 -237.62490742497062 -213.40347811844549 0 0 0 0 -123.09913585680624 -35.211191620612226 0 -35.211191620612226 136.89505649093189 0 0 0 0 -25.260405214559 -24.624438091287544 0 -24.624438091287544 7.4628585352641039 0 0 0 0 -39.310793168796863 -63.144000867836439 0 -63.144000867836439 11.897982372538536 0 0 0 0 -27.434465650515534 -42.92403280317447 0 -42.92403280317447 20.637391332951381 0 0 0 0 -231.20087061868617 -186.95201132041984 0 -186.95201132041984 -83.482948478966136 0 0 0 0 -144.76551128587016 -184.18786461247305 0 -184.18786461247305 -208.86740010371432 0 0 0 0 -230.60692818618554 -173.68743431571056 0 -173.68743431571056 -210.10204973338841 0 0 0 0 3.8233519195111967 -6.7865832982151915 0 -6.7865832982151915 9.6891159780693386 0 0 0 0 -219.12041981042694 -147.85304212933443 0 -147.85304212933443 -180.21244042637409 0 0 0 0 -280.28761819469582 -189.65569833205518 0 -189.65569833205518 -126.45316878292942 0 0 0 0 -267.73138735923271 -253.26097781157114 0 -253.26097781157114 -192.30008999181155 0 0 0 0 19.942019796730634 -31.894002340114412 0 -31.894002340114412 0.27199787167074874 0 0 0 0 -170.59245544018086 -236.13473855287884 0 -236.13473855287884 -211.17761419297312 0 0 0 0 -47.846886265437206 -57.905744390998734 0 -57.905744390998734 -42.358926240733126 0 0 0 0 -11.300157543937473 -26.990674568225245 0 -26.990674568225245 -32.886629674445714 0 0 0 0 -5.7990755450037454 -11.436276654986955 0 -11.436276654986955 -4.6851967568582324 0 0 0 0 -204.63114826947094 -228.44711229699715 0 -228.44711229699715 -129.12103137956001 0 0 0 0 -24.269045090190048 -51.25816228954136 0 -51.25816228954136 -41.11439206310024 0 0 0 0 -30.899270693438666 -68.647452202552813 0 -68.647452202552813 -58.181129920485546 0 0 0 0 127.89282330978313 -6.9889339269793709 0 -6.9889339269793709 -51.302449930211878 0 0 0 0 28.923433871066663 -100.06330557486217 0 -100.06330557486217 -43.652037708514399 0 0 0 0 -117.22991362565517 -116.38029706200177 0 -116.38029706200177 -44.488659902373911 0 0 0 0 -94.098909278109204 -210.93990315349947 0 -210.93990315349947 -40.896877763341763 0 0 0 0 9.7392715875830618 -211.39335211427533 0 -211.39335211427533 -74.642036778765032 0 0 0 0 -97.29501464223631 -236.21935128427504 0 -236.21935128427504 -66.329289260786027 0 0 0 0 -290.79547883791383 -395.96596086888167 0 -395.96596086888167 24.99674146752659 0 0 0 0 28.651259688807031 -43.989207220062923 0 -43.989207220062923 72.350582838341211 0 0 0 0 -207.97210318588623 -257.94474003636424 0 -257.94474003636424 -66.710306942593888 0 0 0 0 -107.22168516802776 -177.77863576961681 0 -177.77863576961681 -82.110559503011245 0 0 0 0 -89.168180299675441 -214.26296460519006 0 -214.26296460519006 -50.401753563099192 0 0 0 0 107.63901367477956 -290.21319073925406 0 -290.21319073925406 -41.259555222772178 0 0 0 0 372.09509084705496 -278.14898606458155 0 -278.14898606458155 -45.225162851977075 0 0 0 0 535.73084487884353 -137.37218502385076 0 -137.37218502385076 50.88813430556911 0 0 0 0 -555.15038674841708 -200.80370266999671 0 -200.80370266999671 32.161400535827852 0 0 0 0 -0.25469481377037084 -1.655339099584225 0 -1.655339099584225 -0.49838752582360257 0 0 0 0 -201.94951313871934 -124.31045273298696 0 -124.31045273298696 48.471554201663821 0 0 0 0 260.79947076102326 -118.89046960819542 0 -118.89046960819542 -53.132472600293113 0 0 0 0 215.25159337154764 -80.660082430564216 0 -80.660082430564216 46.910552679837565 0 0 0 0 175.54011833116965 -299.10067223968872 0 -299.10067223968872 -45.538855329679791 0 0 0 0 -176.96146683775441 -120.31954016870441 0 -120.31954016870441 -49.434914836952885 0 0 0 0 -183.00436085337014 -112.41031001273632 0 -112.41031001273632 -59.012385057591018 0 0 0 0 -172.7012054619554 -159.6662374715379 0 -159.6662374715379 -155.42966941713894 0 0 0 0 3.123127700839774 -0.21267806518210364 0 -0.21267806518210364 1.6110283185571745 0 0 0 0 355.12878381851624 -30.177456023411651 0 -30.177456023411651 -48.942286790839717 0 0 0 0 -187.93467194152618 -164.11397328081875 0 -164.11397328081875 31.731735304492759 0 0 0 0 -1179.6799880439648 -1297.458568758444 0 -1297.458568758444 -3836.4986712913051 0 0 0 0 8.8384331329580164 -764.94758461083984 0 -764.94758461083984 -6641.4947552112862 0 0 0 0 -243.43706268163805 -2776.7941847757247 0 -2776.7941847757247 -4895.1403315679636 0 0 0 0 -640.28473363850208 -3127.1437790088421 0 -3127.1437790088421 -3745.1203982162624 0 0 0 0 3122.5644674703726 -2737.7994110294931 0 -2737.7994110294931 -4851.7183407880948 0 0 0 0 -840.87622426563757 -3308.8640220339803 0 -3308.8640220339803 -3889.8771546195276 0 0 0 0 -114.06246786886913 -1205.2004187397361 0 -1205.2004187397361 -168.75207971570489 0 0 0 0 -1.7407004846609198 -2002.3199853957049 0 -2002.3199853957049 -791.94026945353107 0 0 0 0 889.22928792757739 -1300.5792388720292 0 -1300.5792388720292 -3944.1050240667482 0 0 0 0 -314.87658904901764 -1341.4609970878355 0 -1341.4609970878355 1691.8663725229708 0 0 0 0 -363.74490437949135 -1694.7065428428323 0 -1694.7065428428323 -521.48896476436494 0 0 0 0 1.2450754784731544 -2289.6441486952826 0 -2289.6441486952826 379.52960047644592 0 0 0 0 -2738.1637654399674 -5145.1870456991892 0 -5145.1870456991892 -1502.0475096283772 0 0 0 0 -2308.7178130330867 -3143.638020596467 0 -3143.638020596467 0.75108450467087096 0 0 0 0 -10.859505529017156 -14.492247532335924 0 -14.492247532335924 -12.709053745407743 0 0 0 0 -1915.0020114995568 -657.06610902064131 0 -657.06610902064131 1247.1659253404869 0 0 0 0 2160.0273047284318 -1316.1899034250309 0 -1316.1899034250309 -672.35425987972849 0 0 0 0 764.45197214788641 -1445.7759164465024 0 -1445.7759164465024 486.95767805798096 0 0 0 0 849.2767533291335 -877.96186473299167 0 -877.96186473299167 820.21152010111837 0 0 0 0 2445.4664052471926 -1905.4759723238094 0 -1905.4759723238094 464.50873504965602 0 0 0 0 1624.1821326586214 -1777.2271991050584 0 -1777.2271991050584 955.68715709125536 0 0 0 0 -24.9493783577729 -36.149548806664043 0 -36.149548806664043 -33.962903457389757 0 0 0 0 2159.7718045168149 -2510.1964613115633 0 -2510.1964613115633 189.25694371932696 0 0 0 0 1475.7632998764238 -2188.4405689939922 0 -2188.4405689939922 1071.6520830641966 0 0 0 0 -27.832037277075614 -41.207506831153793 0 -41.207506831153793 -40.826619878190058 0 0 0 0 93.207674577366561 -554.38796915960847 0 -554.38796915960847 717.66475447913035 0 0 0 0 -1746.7421283842996 -2317.4426475005894 0 -2317.4426475005894 671.51376351172803 0 0 0 0 -1531.1310851745002 -2146.6535836813055 0 -2146.6535836813055 -44.923518498617341 0 0 0 0 -1306.3734745935799 -2129.0011513461141 0 -2129.0011513461141 82.940830157735036 0 0 0 0 -805.32170581356331 -1362.5845178007585 0 -1362.5845178007585 794.34495489416986 0 0 0 0 590.23895708648888 -969.38262284137636 0 -969.38262284137636 228.46407553851895 0 0 0 0 -35.513025923915848 -1696.5460093120819 0 -1696.5460093120819 402.51256358390674 0 0 0 0 -570.05352372980269 -1747.2991122495005 0 -1747.2991122495005 -1.6384783431567485 0 0 0 0 -1739.6162266315805 -1409.4809944526205 0 -1409.4809944526205 370.18194241351739 0 0 0 0 -2520.8538989923109 -1801.7244348425374 0 -1801.7244348425374 -184.87335504092334 0 0 0 0 -1730.5552655216347 -1279.9137018969216 0 -1279.9137018969216 -518.31250620080391 0 0 0 0 -1352.0149657639508 -1603.2702104941104 0 -1603.2702104941104 -545.42549932400289 0 0 0 0 -1398.130057483766 -2195.6731761160117 0 -2195.6731761160117 260.74216917384183 0 0 0 0 -1758.1626265342056 -2613.0144530354155 0 -2613.0144530354155 47.224880112902611 0 0 0 0 -862.25012071351375 -2947.489715325366 0 -2947.489715325366 -971.64997008294449 0 0 0 0 740.22159890782495 -1821.3688521750664 0 -1821.3688521750664 -630.18479071145703 0 0 0 0 -0.76727910269706001 -6.8464998960266428 0 -6.8464998960266428 3.2542476687039539 0 0 0 0 -598.04833518745727 -1846.5417970111448 0 -1846.5417970111448 -2502.1142730785505 0 0 0 0 -1086.480400069704 -1800.5810549071757 0 -1800.5810549071757 -1343.4705713162548 0 0 0 0 -1.0428427875845045 -14.767343612956154 0 -14.767343612956154 3.3449639255694024 0 0 0 0 -486.63963128189789 -1213.7976909799618 0 -1213.7976909799618 -2669.8874622541116 0 0 0 0 -678.44120781439415 -2503.7954890414621 0 -2503.7954890414621 -2875.0052158744074 0 0 0 0 -1133.5381149086752 -2368.7551261756525 0 -2368.7551261756525 -1952.0260065140028 0 0 0 0 -743.49140602256375 -2241.9170923835773 0 -2241.9170923835773 -4326.0518402157759 0 0 0 0 -2428.3836479570891 -4285.7876165525595 0 -4285.7876165525595 -1791.0204236354766 0 0 0 0 -3548.0066868356516 -2263.7852101130484 0 -2263.7852101130484 1417.3825561049634 0 0 0 0 -12.820939312203222 -19.386218479792703 0 -19.386218479792703 -20.289566516325692 0 0 0 0 -682.24864002206596 -2295.1493438397447 0 -2295.1493438397447 -4411.4953266217926 0 0 0 0 -609.55874962023518 -2239.5986943966491 0 -2239.5986943966491 -4381.884295561722 0 0 0 0 0.26327205537302234 -8.9881446114930554 0 -8.9881446114930554 -0.054014018572445366 0 0 0 0 -681.61797464560368 -2191.9073765509893 0 -2191.9073765509893 -4300.2099486531442 0 0 0 0 -1363.9635075582992 -2932.424664520935 0 -2932.424664520935 -3108.3168717643275 0 0 0 0 146.01480625937984 -1895.642598940387 0 -1895.642598940387 -3303.603241924231 0 0 0 0 -110.62201069372531 -1819.8279921789508 0 -1819.8279921789508 -2880.2075854823051 0 0 0 0 21.566696070603939 -1416.9964335393997 0 -1416.9964335393997 -1795.3685154464911 0 0 0 0 -18.657900213976973 -851.26994535749691 0 -851.26994535749691 -1670.2069277279752 0 0 0 0 -254.49932471400825 -1355.8622558551215 0 -1355.8622558551215 -2755.0130001142388 0 0 0 0 -566.66872733739729 -1187.2300948576776 0 -1187.2300948576776 -1614.2286951756105 0 0 0 0 -371.39031232587877 -1511.7905758826673 0 -1511.7905758826673 -1755.5686972438561 0 0 0 0 -1001.1171024645737 -1608.7891033308115 0 -1608.7891033308115 -2997.6040076358986 0 0 0 0 -1005.6337302719539 -96.22253613562907 0 -96.22253613562907 205.50484397100809 0 0 0 0 -15.549956545537441 -7.5180891510111394 0 -7.5180891510111394 -1.9702764439223017 0 0 0 0 -312.97516146460839 -1110.1055619362296 0 -1110.1055619362296 -2820.7964094104827 0 0 0 0 -1227.044642575609 -1678.3556147240815 0 -1678.3556147240815 -1301.4631142614671 0 0 0 0 -112.13674202647235 -294.67954548582202 0 -294.67954548582202 -680.48221364693018 0 0 0 0 187.99463593109977 -6.3926320036189281 0 -6.3926320036189281 -232.8937369229825 0 0 0 0 -44.34616794104447 -14.094224097033702 0 -14.094224097033702 40.667179065765026 0 0 0 0 -91.340818423370365 -53.820246004448563 0 -53.820246004448563 -20.095554752362659 0 0 0 0 -132.66288972849725 -44.769911828254408 0 -44.769911828254408 85.100271391449496 0 0 0 0 -72.366572496880394 -53.41144643646291 0 -53.41144643646291 -7.3740467218986652 0 0 0 0 -129.98804404948896 -204.6545622759877 0 -204.6545622759877 103.87377389945323 0 0 0 0 -11.841171264277747 -5.6833408420619378 0 -5.6833408420619378 -5.4005823201891303 0 0 0 0 -280.65964417072973 -851.43342608313833 0 -851.43342608313833 -2202.6695150831074 0 0 0 0 -1427.8493855629204 -1921.6417979674879 0 -1921.6417979674879 -1360.4293647865561 0 0 0 0 153.17235714072012 3.9990555296099046 0 3.9990555296099046 -205.17892785486765 0 0 0 0 -28.030601841659518 -485.53824811195227 0 -485.53824811195227 -1037.7685708094359 0 0 0 0 -592.10817821790988 -1002.7021041317639 0 -1002.7021041317639 -539.39731170020195 0 0 0 0 -841.63299577488579 -1189.5358630051633 0 -1189.5358630051633 -676.84089127776679 0 0 0 0 -932.76820401828445 -1457.6843048869996 0 -1457.6843048869996 -1058.9741762532358 0 0 0 0 -1898.6233382221835 -1274.6786293913392 0 -1274.6786293913392 579.08259763557726 0 0 0 0 -3.8893049410606295 -9.0230086522429929 0 -9.0230086522429929 2.9603186617650294 0 0 0 0 -1197.5348090717889 -1580.2721867917862 0 -1580.2721867917862 -781.84423267027887 0 0 0 0 -1373.1288817371551 -2278.0180253572848 0 -2278.0180253572848 -3134.8021942380437 0 0 0 0 -792.9312581467675 -928.1254335273552 0 -928.1254335273552 -2786.0658037390294 0 0 0 0 -1520.2109272112284 -1646.3581656310489 0 -1646.3581656310489 -2780.7280875723518 0 0 0 0 -997.99292511736712 -1950.494833677094 0 -1950.494833677094 -907.52354832527635 0 0 0 0 -1266.7229751030463 -1749.297885127984 0 -1749.297885127984 -810.15359089901904 0 0 0 0 -4083.8318853671371 -2403.3449231826744 0 -2403.3449231826744 -291.05718060954678 0 0 0 0 -1904.1436274290027 -1289.5623702861485 0 -1289.5623702861485 -806.254289869903 0 0 0 0 0.71926907175254939 -12.730162458826214 0 -12.730162458826214 6.288164512619062 0 0 0 0 -1764.7447522715811 -1662.747942146445 0 -1662.747942146445 -677.80219395546374 0 0 0 0 -3424.0694702194814 -1640.1115803432986 0 -1640.1115803432986 0.078600018168799579 0 0 0 0 -1061.6106346018933 -1278.4990758126733 0 -1278.4990758126733 -524.02762017771602 0 0 0 0 -767.9721899362703 -2082.4031215273353 0 -2082.4031215273353 -0.21380075224442407 0 0 0 0 819.28481862529588 -1410.1349839662653 0 -1410.1349839662653 -577.7142821162779 0 0 0 0 -1.4874833455456979 -5.9084330929822215 0 -5.9084330929822215 3.2837620156422531 0 0 0 0 -1919.4064002382947 -1763.6673015059714 0 -1763.6673015059714 -0.35742562550876755 0 0 0 0 -1389.3593474394002 -1846.7689222299814 0 -1846.7689222299814 -376.05730890549603 0 0 0 0 -1343.7781309660786 -1691.7976709026625 0 -1691.7976709026625 -157.3491734599811 0 0 0 0 -1050.9939425695284 -2070.6458642527723 0 -2070.6458642527723 -431.64124010656087 0 0 0 0 -1770.2376034662302 -1716.5113565667416 0 -1716.5113565667416 -367.3549013123411 0 0 0 0 -1399.9881451494512 -1874.5623124524245 0 -1874.5623124524245 -462.12429069289647 0 0 0 0 -1309.3493553065273 -1805.4018275523485 0 -1805.4018275523485 -696.90413174414425 0 0 0 0 -1159.6979182995274 -1618.1750464948054 0 -1618.1750464948054 -650.09204197835061 0 0 0 0 -1323.0943108722422 -1461.1821323788317 0 -1461.1821323788317 -541.06537563451275 0 0 0 0 -1250.3670484756585 -762.7494565944944 0 -762.7494565944944 -172.54702569413712 0 0 0 0 -1027.5463755708988 -1159.2712799848887 0 -1159.2712799848887 -250.7199435090879 0 0 0 0 -1468.0345554933556 -639.09275678344784 0 -639.09275678344784 -100.17370065533032 0 0 0 0 -911.87086842617282 -633.15423293296772 0 -633.15423293296772 -294.57251089373312 0 0 0 0 -2131.3521696363896 -1516.0739357460261 0 -1516.0739357460261 -329.03800267288534 0 0 0 0 -1763.0542940925297 -1745.3947642788262 0 -1745.3947642788262 -532.97454927203944 0 0 0 0 -3372.1229214267223 -866.30556881309531 0 -866.30556881309531 -95.546827089114231 0 0 0 0 4572.0128880639604 -1752.0837092277798 0 -1752.0837092277798 -397.61949583506794 0 0 0 0 -4748.7061358642459 -1358.2683999033252 0 -1358.2683999033252 309.35721785680653 0 0 0 0 -4.961402941413624 -12.353612769111237 0 -12.353612769111237 -5.3482179524464755 0 0 0 0 -2621.7823076208588 -1875.5477769595745 0 -1875.5477769595745 -401.15865561235114 0 0 0 0 -1695.9584323677409 -1247.5706145517615 0 -1247.5706145517615 -0.057770495186559856 0 0 0 0 -2380.1572528831894 -1368.9521792795276 0 -1368.9521792795276 -310.67791858042619 0 0 0 0 2168.5254652761505 -1092.020251335096 0 -1092.020251335096 -0.60494562805163088 0 0 0 0 2844.4881879572786 -2167.3703520703275 0 -2167.3703520703275 -186.51566116255708 0 0 0 0 2628.8404682151368 -730.53318351842518 0 -730.53318351842518 81.778671755891992 0 0 0 0 3808.4458797689076 -769.78914957243251 0 -769.78914957243251 -44.084898037748644 0 0 0 0 2187.5979369466659 -993.17359629672137 0 -993.17359629672137 758.04735368279944 0 0 0 0 2119.543664573881 -1310.8031329821024 0 -1310.8031329821024 -47.678710395142843 0 0 0 0 -14.178582557914837 -33.202228186567389 0 -33.202228186567389 -6.2948732256812718 0 0 0 0 3848.4793218549294 -1210.2090331361869 0 -1210.2090331361869 -127.58757359338051 0 0 0 0 -1069.1398279407149 -375.42442172532901 0 -375.42442172532901 -128.20726123123313 0 0 0 0 2135.8969626641483 -1389.2611147713324 0 -1389.2611147713324 667.82618087499577 0 0 0 0 2090.9923228965199 -1198.7251275995004 0 -1198.7251275995004 300.0370874353539 0 0 0 0 1270.986929641851 -1327.6275590689202 0 -1327.6275590689202 681.4628036582144 0 0 0 0 1838.8986526599037 -1094.1945356429787 0 -1094.1945356429787 517.40811363991088 0 0 0 0 2145.0415093650081 -1063.0692360453977 0 -1063.0692360453977 511.96605594432913 0 0 0 0 1902.2327079392453 -686.53181695201965 0 -686.53181695201965 506.99262531782733 0 0 0 0 2227.747238851005 -720.95549855994977 0 -720.95549855994977 471.52133105814573 0 0 0 0 1752.9704145807045 -811.88844224254717 0 -811.88844224254717 456.65208778581291 0 0 0 0 1489.0509928166139 -975.3289161104185 0 -975.3289161104185 536.8110249703459 0 0 0 0 1790.1799863158085 -873.9408825761202 0 -873.9408825761202 339.76717057396309 0 0 0 0 609.25057262355404 -226.37527584201598 0 -226.37527584201598 -348.72717932920204 0 0 0 0 -161.11020528934023 -371.14677920172107 0 -371.14677920172107 -25.193646549363621 0 0 0 0 478.12385668812931 -668.07258813733279 0 -668.07258813733279 -435.68255491368473 0 0 0 0 -67.55838960382971 -494.58685686998069 0 -494.58685686998069 -168.4679785129556 0 0 0 0 575.74663181928918 536.13853826334525 0 536.13853826334525 429.00375581911067 0 0 0 0 13.121386037848424 -312.4180604362482 0 -312.4180604362482 146.69851463625673 0 0 0 0 -170.12545678310562 -124.29978249972919 0 -124.29978249972919 356.52667128300527 0 0 0 0 3051.5814733928564 -1347.8086362871036 0 -1347.8086362871036 126.11973586375825 0 0 0 0 -20.209265533077996 -10.109139762796985 0 -10.109139762796985 22.503733699733857 0 0 0 0 -20.5868415954249 -41.124387753467573 0 -41.124387753467573 6.4150350469274144 0 0 0 0 -39.376082030328689 29.955157237724052 0 29.955157237724052 -32.41014555966467 0 0 0 0 -454.4885782476922 -561.1016386436313 0 -561.1016386436313 -283.52398162848112 0 0 0 0 -531.69400857962319 -292.35742372044479 0 -292.35742372044479 -5.6812063657562248 0 0 0 0 -12.256609708449105 -221.28846432291903 0 -221.28846432291903 -104.56994528534415 0 0 0 0 -757.70349035326217 -684.17091754836292 0 -684.17091754836292 -209.48777156953292 0 0 0 0 -121.12064096622635 -249.40549553974415 0 -249.40549553974415 -316.11446453641111 0 0 0 0 -314.74229278058192 -278.43120356048894 0 -278.43120356048894 -47.809036856255261 0 0 0 0 -1.5889900720067089 83.502703422665945 0 83.502703422665945 203.04029877366702 0 0 0 0 -195.40298011925188 -33.50612992864626 0 -33.50612992864626 102.11971323820762 0 0 0 0 -323.81906117340259 -196.83096688404476 0 -196.83096688404476 158.6960975228867 0 0 0 0 -58.484929571219254 29.269901801279048 0 29.269901801279048 26.012295927561354 0 0 0 0 -1.5299760031732035 -4.0253368503637859 0 -4.0253368503637859 8.355346675454939 0 0 0 0 -5.2894500090769725 -80.650018037558766 0 -80.650018037558766 77.127359722919209 0 0 0 0 -23.050627532677026 -29.665505841461709 0 -29.665505841461709 152.63720121484948 0 0 0 0 -48.550366581577691 -23.257756826060358 0 -23.257756826060358 -106.07122995929603 0 0 0 0 -163.84598211720731 -39.140879293248872 0 -39.140879293248872 152.02753045891586 0 0 0 0 -124.73613175577049 -49.839594190228524 0 -49.839594190228524 30.246963002239859 0 0 0 0 -68.766316244196503 -58.478879270514796 0 -58.478879270514796 -5.337367211326935 0 0 0 0 -61.900440313504077 -107.89529569084698 0 -107.89529569084698 16.324349664719193 0 0 0 0 -79.490981488372199 -76.120090322539909 0 -76.120090322539909 60.313472145819105 0 0 0 0 -40.902714347757865 -95.994098646449856 0 -95.994098646449856 -12.372549006940972 0 0 0 0 -17.048311259830371 -85.193982178956503 0 -85.193982178956503 -34.899671805440448 0 0 0 0 -9.71242377283005 -59.961624373142911 0 -59.961624373142911 2.7416973846587211 0 0 0 0 -2.4660238974578306 -59.559246922164185 0 -59.559246922164185 10.846981821924487 0 0 0 0 -1.239504780882271 -62.267733618064085 0 -62.267733618064085 23.622602082963567 0 0 0 0 -50.119435202870989 -69.200988555992325 0 -69.200988555992325 17.883581140109811 0 0 0 0 -42.13185470527975 -81.367186038857454 0 -81.367186038857454 -13.380115801442457 0 0 0 0 17.381652074574959 -386.08200329632382 0 -386.08200329632382 -643.38312516707447 0 0 0 0 19.470214562757917 -79.784703448691346 0 -79.784703448691346 -5.0243583880916134 0 0 0 0 545.53141803410836 -671.13120734433323 0 -671.13120734433323 -226.67027945194059 0 0 0 0 93.345509269391187 -103.84655489379657 0 -103.84655489379657 -25.930234278028365 0 0 0 0 2.1356424636178417 -44.111062312862487 0 -44.111062312862487 33.410350916878087 0 0 0 0 18.464131512237998 -57.42132370359414 0 -57.42132370359414 -0.20540937254438063 0 0 0 0 10.715216851059552 -68.886254531963175 0 -68.886254531963175 38.215931889865658 0 0 0 0 30.109245184579805 -42.975529312888199 0 -42.975529312888199 -33.653750380396914 0 0 0 0 17.39236048636667 -115.57625604014902 0 -115.57625604014902 43.669938549923245 0 0 0 0 8.0882365381998227 -22.112394085577506 0 -22.112394085577506 13.43560630122677 0 0 0 0 37.195330138172721 -72.447750835635816 0 -72.447750835635816 -2.4163902729633264 0 0 0 0 71.679312457301421 -102.63526959283627 0 -102.63526959283627 19.749183157924563 0 0 0 0 68.945598065271042 -92.582009092962835 0 -92.582009092962835 3.6939403362339363 0 0 0 0 132.44851781216857 3.349744981751428 0 3.349744981751428 -313.51827432023128 0 0 0 0 43.761458431319625 -22.483585575788311 0 -22.483585575788311 -28.401819075050298 0 0 0 0 19.075746646723942 -25.485263749453253 0 -25.485263749453253 -53.094016670622295 0 0 0 0 997.13462722461554 -462.71740337107622 0 -462.71740337107622 14.222035468934337 0 0 0 0 2051.4647062502336 -323.68906551071268 0 -323.68906551071268 -223.70788491837448 0 0 0 0 -6.8333132382164763 -20.366089363412243 0 -20.366089363412243 3.2539645818992255 0 0 0 0 1844.6812473161845 -1132.7752077642945 0 -1132.7752077642945 624.23835759327631 0 0 0 0 72.254191368362228 -76.120881667036713 0 -76.120881667036713 -13.994458627156291 0 0 0 0 108.63943451287923 -219.81017136669834 0 -219.81017136669834 127.85969134273182 0 0 0 0 1704.7620528323168 -965.25379458574753 0 -965.25379458574753 457.04414074734086 0 0 0 0 -19.144665716463862 -51.194459811817296 0 -51.194459811817296 24.731789766555266 0 0 0 0 1705.8901500387292 -865.09204441517068 0 -865.09204441517068 411.7842861082172 0 0 0 0 -160.8369341968646 -159.59217334633286 0 -159.59217334633286 77.723337207804434 0 0 0 0 7.8070295520592481 -56.251645951560931 0 -56.251645951560931 9.097169297223445 0 0 0 0 -54.20353925685049 -62.566466156538809 0 -62.566466156538809 50.562593756825663 0 0 0 0 1914.4224622465263 -511.39569318649592 0 -511.39569318649592 474.88111620696873 0 0 0 0 2142.5578677718731 -1059.8412547652842 0 -1059.8412547652842 430.86678449553438 0 0 0 0 1906.8576022151392 -908.04408885413432 0 -908.04408885413432 336.85495400213404 0 0 0 0 1762.707862804964 -1076.3177014766552 0 -1076.3177014766552 593.05887070170138 0 0 0 0 1767.490743806673 -890.93772491489653 0 -890.93772491489653 356.77506407734472 0 0 0 0 1830.8063591516548 -783.638965104823 0 -783.638965104823 326.06105429120362 0 0 0 0 1694.5512674994388 -879.54265016266436 0 -879.54265016266436 355.45100013312185 0 0 0 0 1595.5410973784165 -797.0176997690287 0 -797.0176997690287 358.92006869008765 0 0 0 0 1770.7296133358177 -885.36639914894477 0 -885.36639914894477 327.72769258735934 0 0 0 0 468.82243763803854 61.809600653286907 0 61.809600653286907 -108.353690971795 0 0 0 0 -1.5706965771967418 -8.4436308181886091 0 -8.4436308181886091 3.8749149630518787 0 0 0 0 -17.012915713596158 -196.95267884628265 0 -196.95267884628265 53.161220548441634 0 0 0 0 -40.245713185984641 -166.51783932122635 0 -166.51783932122635 61.485187268815935 0 0 0 0 55.934014410013333 -196.12616381645785 0 -196.12616381645785 41.909253388526849 0 0 0 0 115.71564280317398 -171.28384656365961 0 -171.28384656365961 -29.333236968726851 0 0 0 0 96.346186621085508 -139.33459451400267 0 -139.33459451400267 14.501327844453044 0 0 0 0 366.44400278542889 -148.54480967394193 0 -148.54480967394193 -73.186610934673809 0 0 0 0 193.0823065766017 -405.75276968284743 0 -405.75276968284743 -139.34794178741868 0 0 0 0 318.0327710591373 -60.77313063541078 0 -60.77313063541078 -63.220299289911054 0 0 0 0 185.67252097418532 -62.013398064504145 0 -62.013398064504145 23.968288649164606 0 0 0 0 142.71375812137558 -103.10078402432555 0 -103.10078402432555 -2.6995307836914435 0 0 0 0 80.22248790046433 59.702414177154424 0 59.702414177154424 160.44173827301711 0 0 0 0 169.45649305387633 -9.8354424235440092 0 -9.8354424235440092 59.141787290107459 0 0 0 0 90.05166284594452 -74.647097791923443 0 -74.647097791923443 20.305302638139437 0 0 0 0 6.6705889985896647 -86.720058201870415 0 -86.720058201870415 29.903670640400378 0 0 0 0 8.9195344489126001 -115.39326553131104 0 -115.39326553131104 35.503238644683734 0 0 0 0 66.911897602723911 -113.06649933298468 0 -113.06649933298468 22.624680963170249 0 0 0 0 155.9574763339624 -454.25271206934121 0 -454.25271206934121 -58.21557711395144 0 0 0 0 94.324744353842107 -322.8131414393647 0 -322.8131414393647 141.65955882387061 0 0 0 0 -100.05587748573453 -510.02433360988653 0 -510.02433360988653 30.224302408387302 0 0 0 0 -172.2448683686016 -352.42680123804894 0 -352.42680123804894 101.66201147253742 0 0 0 0 -221.15862689753703 -447.26597718581615 0 -447.26597718581615 193.74224232125562 0 0 0 0 -30.266358335626364 -46.40404210108936 0 -46.40404210108936 -68.278535103113256 0 0 0 0 -946.22964388596301 -2707.897923126533 0 -2707.897923126533 -307.04371239274042 0 0 0 0 267.23082869051723 -737.73682824322168 0 -737.73682824322168 -149.69719381716277 0 0 0 0 275.53337127168197 -359.14392844987742 0 -359.14392844987742 -46.974433571609552 0 0 0 0 1185.8950114314284 -99.334442631632555 0 -99.334442631632555 -1092.8354165767087 0 0 0 0 -747.83608422890393 -855.48594293135102 0 -855.48594293135102 -44.391524871898582 0 0 0 0 1.1810543274145431 -0.81769572643059973 0 -0.81769572643059973 -20.085408102876386 0 0 0 0 -1404.8604073976458 2615.921102483655 0 2615.921102483655 1621.8765606232409 0 0 0 0 619.85178825147523 -337.71441557199432 0 -337.71441557199432 106.64437630120665 0 0 0 0 -17.843776357446046 -52.841594550634738 0 -52.841594550634738 -67.48188683640933 0 0 0 0 -69.036551682082063 -354.6799088988264 0 -354.6799088988264 32.818704092467669 0 0 0 0 -84.840098417655099 -370.87361399894871 0 -370.87361399894871 119.44696025474695 0 0 0 0 -101.22343360258674 -341.79669305929565 0 -341.79669305929565 156.88000680842742 0 0 0 0 -132.35414839725127 -375.44991735678923 0 -375.44991735678923 233.79944780203368 0 0 0 0 -197.92911499012553 -298.96317943472968 0 -298.96317943472968 145.03435964182427 0 0 0 0 -64.333048034546664 -129.74262913130224 0 -129.74262913130224 -97.006123538958491 0 0 0 0 -243.22096907395826 -419.67954307658874 0 -419.67954307658874 279.98548315397056 0 0 0 0 -81.831734249833971 -452.04834145041968 0 -452.04834145041968 211.3195255366154 0 0 0 0 -221.3540070877425 -314.60103539872216 0 -314.60103539872216 480.6728409807547 0 0 0 0 -12.197825036768336 -166.04471522658423 0 -166.04471522658423 -151.07462981215212 0 0 0 0 61.418454585423973 -97.133007694549036 0 -97.133007694549036 -5.231050486458912 0 0 0 0 -444.64048600531532 -112.01785318541806 0 -112.01785318541806 222.82086563370103 0 0 0 0 -802.48270759255684 -154.97621500440437 0 -154.97621500440437 -99.151628272811649 0 0 0 0 26.774693118254334 2.136603815551382 0 2.136603815551382 -6.2158451375333925 0 0 0 0 -85.75658688841213 -9.7904095630728989 0 -9.7904095630728989 -126.006264409094 0 0 0 0 -7.6377022753979986 0.16516180395888114 0 0.16516180395888114 -34.095483050291932 0 0 0 0 -580.57830178711447 -284.66772781359759 0 -284.66772781359759 -15.951803770207334 0 0 0 0 -253.01372344970878 -70.581274084361212 0 -70.581274084361212 -113.86070327766356 0 0 0 0 -405.81186636694474 -269.91438594390638 0 -269.91438594390638 -106.429357074172 0 0 0 0 -16.930006590474818 -76.049836655828798 0 -76.049836655828798 2.8590001694595344 0 0 0 0 -29.315282429524814 -180.47010103462526 0 -180.47010103462526 52.826130753674079 0 0 0 0 -50.39516609555676 -9.3345325115816991 0 -9.3345325115816991 13.162310118845028 0 0 0 0 -331.46585936385964 -68.876723651665088 0 -68.876723651665088 13.94745593159314 0 0 0 0 -378.46229138046328 -422.51284341373685 0 -422.51284341373685 89.346852832706645 0 0 0 0 -475.66302902387906 -636.55382781427033 0 -636.55382781427033 -608.65413567473297 0 0 0 0 -66.842516918408904 -91.746215043770221 0 -91.746215043770221 10.763658844660654 0 0 0 0 -744.54886515323597 -252.77942920190253 0 -252.77942920190253 -65.800056543645042 0 0 0 0 -391.1984738299434 -87.599664540502999 0 -87.599664540502999 -1115.8687293375297 0 0 0 0 -34.728057378010021 -0.76910203010908162 0 -0.76910203010908162 -14.106270347055101 0 0 0 0 -216.79758783655416 177.53259868424357 0 177.53259868424357 -102.70567047921941 0 0 0 0 -171.60138940300021 -10.1338993132822 0 -10.1338993132822 -289.24302892485866 0 0 0 0 -205.68950287232292 -245.18162993124133 0 -245.18162993124133 344.0971365061996 0 0 0 0 -469.08999511550792 -153.38626209076392 0 -153.38626209076392 98.822509117686423 0 0 0 0 -399.53682668678812 -398.93054617099733 0 -398.93054617099733 -613.48888567549875 0 0 0 0 -251.03840383005445 -619.78515054727904 0 -619.78515054727904 -676.38379145247018 0 0 0 0 -660.1292584357725 -279.18310788259259 0 -279.18310788259259 -668.46759414720873 0 0 0 0 -224.41086762959458 -460.58914921298128 0 -460.58914921298128 -964.21084693631565 0 0 0 0 -248.68734433701502 -501.91744860365816 0 -501.91744860365816 -31.502766291072476 0 0 0 0 -191.52847448507964 -311.24155336536205 0 -311.24155336536205 -250.09364489655127 0 0 0 0 96.422438131332456 -234.89222663632245 0 -234.89222663632245 130.87434400731945 0 0 0 0 113.05948655206157 -208.29618746404594 0 -208.29618746404594 -780.93324064226908 0 0 0 0 153.59142272081226 -410.62100052437745 0 -410.62100052437745 -702.21239007655822 0 0 0 0 162.6380220141466 -292.22824718220295 0 -292.22824718220295 -1421.5122941746085 0 0 0 0 4.8203623527081731 -74.995971196887979 0 -74.995971196887979 -52.281997180614837 0 0 0 0 170.28872668655822 -181.48388686476392 0 -181.48388686476392 -29.45043464317132 0 0 0 0 -90.331495442023794 -115.38968807479603 0 -115.38968807479603 31.030715539641506 0 0 0 0 -124.85697258243817 -140.70260884513846 0 -140.70260884513846 83.265429305291036 0 0 0 0 795.25919309849269 -309.15723220651853 0 -309.15723220651853 -239.24330043063674 0 0 0 0 -81.165689091427737 -114.43688669291562 0 -114.43688669291562 5.8339624193356485 0 0 0 0 216.41373935978299 -283.94590952344834 0 -283.94590952344834 74.181109900993761 0 0 0 0 81.576473418594105 -295.35412270722372 0 -295.35412270722372 -27.426883161580918 0 0 0 0 -55.347822645948327 -147.02762977574821 0 -147.02762977574821 -137.29777446948719 0 0 0 0 -273.6704019458266 -473.55467683327151 0 -473.55467683327151 -685.53035000713589 0 0 0 0 -413.89730734316981 -492.52155769810634 0 -492.52155769810634 -429.16550099017331 0 0 0 0 -96.308069117716514 -134.75237037047918 0 -134.75237037047918 -45.588918788067531 0 0 0 0 262.30606195301516 -105.3894767649399 0 -105.3894767649399 -359.59281304094475 0 0 0 0 -217.00063331393176 -588.4908258124342 0 -588.4908258124342 -282.09221720329515 0 0 0 0 -30.15883277944522 -228.34221720182177 0 -228.34221720182177 324.40885487588821 0 0 0 0 -571.3171748212917 -733.27384720940972 0 -733.27384720940972 -461.79401727732329 0 0 0 0 -340.43993328849319 -471.60502216196983 0 -471.60502216196983 -273.34598606835061 0 0 0 0 -684.66649346887425 -902.37954585323678 0 -902.37954585323678 -145.62168088160979 0 0 0 0 -574.08257884519116 -899.73349343223526 0 -899.73349343223526 -884.61703889377532 0 0 0 0 -753.26534079003613 -1345.1026596719094 0 -1345.1026596719094 -987.87366108648712 0 0 0 0 -785.42771944549168 -351.46927499683807 0 -351.46927499683807 777.55995470490598 0 0 0 0 399.09253952404833 -682.3803741384254 0 -682.3803741384254 -300.30311891349993 0 0 0 0 -284.26207378678373 -721.21814806748444 0 -721.21814806748444 -1921.2557327198447 0 0 0 0 -64.053185661216645 -112.49148900161074 0 -112.49148900161074 -24.900327071695358 0 0 0 0 45.500308242568053 -56.256604464525431 0 -56.256604464525431 -21.312547528375021 0 0 0 0 -876.96241906262003 -1641.4232379444147 0 -1641.4232379444147 -3212.2247243212041 0 0 0 0 -357.94038385417662 -324.80852660389428 0 -324.80852660389428 -1436.3070332166681 0 0 0 0 -289.93958714971086 -723.06494295567973 0 -723.06494295567973 -948.96521656516416 0 0 0 0 -231.57863705921773 -765.26118246698024 0 -765.26118246698024 -1246.8564380481257 0 0 0 0 -188.35518952866551 -777.93640659877565 0 -777.93640659877565 -1874.2783150333707 0 0 0 0 -280.09325675372384 -518.28088043126627 0 -518.28088043126627 -1191.9877922100131 0 0 0 0 -237.07976164773572 -492.3720322096342 0 -492.3720322096342 -759.16716758865368 0 0 0 0 -215.45677875446563 -362.54780725048477 0 -362.54780725048477 -1195.9502074409102 0 0 0 0 -225.39841090276605 -444.37287901117452 0 -444.37287901117452 -1019.3046235966031 0 0 0 0 -382.56812919488948 -534.63712166483401 0 -534.63712166483401 968.48711416266451 0 0 0 0 -248.48220714560011 -482.72498530127632 0 -482.72498530127632 -946.80097480252152 0 0 0 0 -257.77447082969593 -531.75623618417012 0 -531.75623618417012 -1101.3979105190374 0 0 0 0 -333.59205247265345 -434.03864409104062 0 -434.03864409104062 -973.4673180670361 0 0 0 0 -765.6589062375715 -255.23522174645041 0 -255.23522174645041 -957.15827341753175 0 0 0 0 -413.6426372975402 -544.82977907042368 0 -544.82977907042368 -1034.365652633307 0 0 0 0 -48.519298199593322 -162.51087973196263 0 -162.51087973196263 -229.90723337037707 0 0 0 0 9.7945064321031623 -1.2451609327749225 0 -1.2451609327749225 -37.819991926922825 0 0 0 0 -457.75418585114312 -10.241506511117223 0 -10.241506511117223 -1846.7869304802734 0 0 0 0 -116.21635332834558 -166.50767929348513 0 -166.50767929348513 -213.91682232359744 0 0 0 0 -850.14189490457647 -413.9315212443762 0 -413.9315212443762 -283.54473479985609 0 0 0 0 -867.82318633637624 -688.97704162652371 0 -688.97704162652371 -130.85719326325489 0 0 0 0 -516.41069470874208 -545.42409245475937 0 -545.42409245475937 -626.67110852517362 0 0 0 0 -829.66670727092423 -670.7844902221259 0 -670.7844902221259 -585.4522011771187 0 0 0 0 -644.32096213831392 -843.00152833028915 0 -843.00152833028915 -452.52352534906822 0 0 0 0 -609.41531581032905 -708.9922770580306 0 -708.9922770580306 -445.23162891782158 0 0 0 0 -738.89717744104564 -887.26106454940964 0 -887.26106454940964 -642.15360146382591 0 0 0 0 -1182.1871787245982 -1187.1751603685261 0 -1187.1751603685261 -638.65620843364013 0 0 0 0 -952.77701234084088 -861.4925609643542 0 -861.4925609643542 -256.10588936089334 0 0 0 0 -887.63937936793081 -658.01340742043976 0 -658.01340742043976 -712.46828442456535 0 0 0 0 -726.37811447752392 -868.24955411593419 0 -868.24955411593419 -897.40262517613883 0 0 0 0 -649.3685603874037 -668.19850579728518 0 -668.19850579728518 -551.70796689766939 0 0 0 0 -532.75723369960906 -702.92792417160126 0 -702.92792417160126 -657.81534150359221 0 0 0 0 957.40763009082002 336.87223712339619 0 336.87223712339619 -175.22007712653249 0 0 0 0 3.867735080273718 -2.9300323819648497 0 -2.9300323819648497 -10.950292529874446 0 0 0 0 9.0337306189609876 -3.7466230216239182 0 -3.7466230216239182 -28.066993028234947 0 0 0 0 81.922476513427682 -408.18260157183613 0 -408.18260157183613 -264.03174362698746 0 0 0 0 -134.63523869891651 -243.33052011982363 0 -243.33052011982363 -165.57110094551899 0 0 0 0 275.14675473373791 12.998165121531201 0 12.998165121531201 -90.327046413091011 0 0 0 0 222.9908081945614 -294.52424154226901 0 -294.52424154226901 -201.47676692148525 0 0 0 0 -60.12099583573945 -195.82328272493942 0 -195.82328272493942 -216.07472342568508 0 0 0 0 -41.312551894428907 -187.96251254512754 0 -187.96251254512754 -240.6935118255351 0 0 0 0 -16.116312256563106 -258.87753787726615 0 -258.87753787726615 -270.66645175032318 0 0 0 0 -80.75862387518282 -231.09052748670365 0 -231.09052748670365 -285.41127309035801 0 0 0 0 -77.686185995291453 -383.23741986817186 0 -383.23741986817186 -408.31757511716569 0 0 0 0 -101.14286830264609 -246.64205064836278 0 -246.64205064836278 -268.90723550572875 0 0 0 0 -141.43156270607142 -179.7009653784171 0 -179.7009653784171 -380.09810505715723 0 0 0 0 -200.30377375659009 53.536332470212074 0 53.536332470212074 407.91160105470044 0 0 0 0 -218.13813833447057 36.309393580493634 0 36.309393580493634 579.68251577379124 0 0 0 0 3.0907909105037561 -2.4861021085789048 0 -2.4861021085789048 1.4137008060003495 0 0 0 0 -89.390544392750598 -405.58640741599447 0 -405.58640741599447 -157.35670595805277 0 0 0 0 -82.144821370427962 -99.042710149675258 0 -99.042710149675258 94.581739405592089 0 0 0 0 -66.252677867305465 28.478533198824152 0 28.478533198824152 483.41946933999861 0 0 0 0 337.55080604492105 -151.05185054746107 0 -151.05185054746107 302.78115939922282 0 0 0 0 43.178939508041367 -288.50884132011561 0 -288.50884132011561 516.36025017733846 0 0 0 0 -100.92601944681519 -382.19497515480361 0 -382.19497515480361 -47.35611122980481 0 0 0 0 -113.49567120167194 -340.36299555520236 0 -340.36299555520236 210.62064360691147 0 0 0 0 -40.280173474748153 -238.42313290094535 0 -238.42313290094535 -352.21247310144827 0 0 0 0 -36.606673804395541 -255.8717851192614 0 -255.8717851192614 -272.46283584632329 0 0 0 0 -356.77118661566055 -200.32729296347679 0 -200.32729296347679 -185.56262803728168 0 0 0 0 -228.88739684782922 -265.40231932463939 0 -265.40231932463939 -166.57490335703187 0 0 0 0 -136.81978821352823 -285.34379220487608 0 -285.34379220487608 -183.83775310021883 0 0 0 0 -135.84097644058056 -290.05636031331233 0 -290.05636031331233 -181.31120984192239 0 0 0 0 -74.58252581753186 171.76601347807446 0 171.76601347807446 -726.02901869022753 0 0 0 0 -433.10823231496033 -376.52938233631721 0 -376.52938233631721 -137.15314767602831 0 0 0 0 6.9887266245165733 1.2077169881857799 0 1.2077169881857799 -10.648278262812596 0 0 0 0 11.210481073328623 0.33570862117949218 0 0.33570862117949218 -40.30813225348561 0 0 0 0 -219.42517300756299 -579.76776251982665 0 -579.76776251982665 -786.95454331680958 0 0 0 0 -302.35815657716012 -355.42143538963865 0 -355.42143538963865 -230.64876662232564 0 0 0 0 -291.23908872832544 -209.34703499666648 0 -209.34703499666648 -274.10684380415478 0 0 0 0 -526.43955841759453 -103.82666285266168 0 -103.82666285266168 -71.597299057393684 0 0 0 0 -92.642407252278645 -295.58159996187896 0 -295.58159996187896 -184.63231133428053 0 0 0 0 -216.23185332654975 -250.53047294447606 0 -250.53047294447606 -25.544490729196696 0 0 0 0 -131.99034339821083 -333.42554252518312 0 -333.42554252518312 -119.80972384518827 0 0 0 0 -332.59512784393155 -313.19466077379184 0 -313.19466077379184 -99.935435086517828 0 0 0 0 -217.79828514007386 -292.71851475512085 0 -292.71851475512085 -145.92737569840392 0 0 0 0 -294.13294011008838 -223.38615440694775 0 -223.38615440694775 -27.20927269171807 0 0 0 0 -218.3115583093022 -182.60022529728303 0 -182.60022529728303 -96.339010542578762 0 0 0 0 -228.06293142039794 -129.4244663657737 0 -129.4244663657737 145.84892400614626 0 0 0 0 -174.37835211644415 -286.74021343243658 0 -286.74021343243658 2.6907334234711016 0 0 0 0 -166.91941676789429 -219.48176852053439 0 -219.48176852053439 249.03279336757259 0 0 0 0 -125.40716231433908 -63.496684584621107 0 -63.496684584621107 19.046131572205923 0 0 0 0 -142.07598474188126 -51.733011510001234 0 -51.733011510001234 320.77641113629215 0 0 0 0 -254.40417684687418 -66.206773979502032 0 -66.206773979502032 24.256740581433405 0 0 0 0 -210.84774292525253 -114.11961322965362 0 -114.11961322965362 74.091020623149234 0 0 0 0 -113.35974765874562 52.913135386523209 0 52.913135386523209 68.574501096302356 0 0 0 0 -285.041523797845 -221.71409389241308 0 -221.71409389241308 -49.362529225909384 0 0 0 0 -58.559226201032288 -126.09995619652909 0 -126.09995619652909 -123.80014408897841 0 0 0 0 -470.31411863339599 -185.55754084330692 0 -185.55754084330692 2.3601225791135221 0 0 0 0 -466.50229393719928 -287.51163949025795 0 -287.51163949025795 -119.6443560802727 0 0 0 0 -207.68864087306429 -65.321067259072152 0 -65.321067259072152 81.05475975794252 0 0 0 0 -72.417911620963423 148.41084131878597 0 148.41084131878597 40.482181969156954 0 0 0 0 75.283204359322554 -144.21993313046551 0 -144.21993313046551 -167.62837911721726 0 0 0 0 -28.834629148157546 -18.665008614145336 0 -18.665008614145336 101.59604835415666 0 0 0 0 -146.43668397169677 81.234651871774986 0 81.234651871774986 240.20931303984253 0 0 0 0 -95.521549924044109 -36.02769468969359 0 -36.02769468969359 24.042908672534011 0 0 0 0 -120.53840779523199 -60.70824608486717 0 -60.70824608486717 39.696500659253154 0 0 0 0 -842.54862993719871 60.08772372736712 0 60.08772372736712 483.26344567147316 0 0 0 0 -81.929375557403546 -54.815317906206474 0 -54.815317906206474 -120.23655532217163 0 0 0 0 -142.67998977934622 -115.13409486315686 0 -115.13409486315686 270.58039971042308 0 0 0 0 -195.75826270439939 -117.58577578014774 0 -117.58577578014774 290.42517291821423 0 0 0 0 -176.13990613283022 -39.224881229340099 0 -39.224881229340099 357.43064092457644 0 0 0 0 -20.804487858579989 -19.079293281894479 0 -19.079293281894479 -12.371141655663763 0 0 0 0 -92.3832265115052 -192.13024842782033 0 -192.13024842782033 113.1359623981989 0 0 0 0 50.086435646531754 78.590813373783021 0 78.590813373783021 57.00717488367809 0 0 0 0 49.142858985651401 79.882569040186354 0 79.882569040186354 196.27833418754744 0 0 0 0 -89.523412963739247 46.874977114901412 0 46.874977114901412 245.75312366674916 0 0 0 0 -72.67546432375093 -48.250539613094588 0 -48.250539613094588 23.739013792930564 0 0 0 0 -109.74078610670404 -101.21679845095787 0 -101.21679845095787 19.374466299585038 0 0 0 0 -564.39223234563906 -704.87787595007103 0 -704.87787595007103 -329.60840092872968 0 0 0 0 -104.76795010118371 -69.653879868115979 0 -69.653879868115979 32.400790386443973 0 0 0 0 -83.890377469171654 -1068.3653801768378 0 -1068.3653801768378 -2222.2924327453948 0 0 0 0 -76.404352593104704 -387.5336651313628 0 -387.5336651313628 -977.65525254257955 0 0 0 0 -203.99066620736266 -226.68472954257595 0 -226.68472954257595 -1075.5762611473911 0 0 0 0 108.77116953916266 -409.35451968314737 0 -409.35451968314737 -2922.9631456441325 0 0 0 0 74.115186212482513 -501.62724009069643 0 -501.62724009069643 419.49630521192012 0 0 0 0 -52.129924247954079 -76.58573853165052 0 -76.58573853165052 33.423747019834423 0 0 0 0 -79.778622415170332 -72.853992671721073 0 -72.853992671721073 33.288467079082281 0 0 0 0 288.400058397885 216.7174874622724 0 216.7174874622724 207.50331526543596 0 0 0 0 1.5908822507117293 -408.20770839749457 0 -408.20770839749457 358.01770502615545 0 0 0 0 241.49931181380816 -821.82069834337562 0 -821.82069834337562 565.84859494183911 0 0 0 0 438.43404083707719 -336.36299042563041 0 -336.36299042563041 320.05345282296184 0 0 0 0 246.33615599611221 -497.30881620757827 0 -497.30881620757827 718.10577545696287 0 0 0 0 5.0837989905348309 -6.3545826514267105 0 -6.3545826514267105 -3.5243822195537575 0 0 0 0 259.63604192246567 -610.31624242832186 0 -610.31624242832186 1394.225938195872 0 0 0 0 611.27384107057878 344.21209053665007 0 344.21209053665007 1281.0463103268266 0 0 0 0 230.60567102937785 -288.37717084723408 0 -288.37717084723408 436.99285730747579 0 0 0 0 1122.5060517623206 -723.47421531554573 0 -723.47421531554573 530.74719253000512 0 0 0 0 -251.70399792733588 339.76322806624648 0 339.76322806624648 138.58959362283349 0 0 0 0 -204.16824763562545 33.827427442427506 0 33.827427442427506 309.8705236414462 0 0 0 0 -439.91162028165127 -305.80133509721782 0 -305.80133509721782 74.744882967577723 0 0 0 0 5.9243330329680362 -6.6704259505652601 0 -6.6704259505652601 5.2833879631063496 0 0 0 0 -286.72586974809019 -364.91252868810261 0 -364.91252868810261 -214.5746082945916 0 0 0 0 -109.58913531224971 -358.99693430230536 0 -358.99693430230536 -214.74937468058488 0 0 0 0 5.0329849410805991 -3.7731871776237256 0 -3.7731871776237256 1.5112193109121677 0 0 0 0 704.6829081834876 -962.11129514849745 0 -962.11129514849745 -635.5067851323256 0 0 0 0 -323.17609277947486 -328.57672398052455 0 -328.57672398052455 869.98748182038253 0 0 0 0 -299.76236298137519 -300.81591093397037 0 -300.81591093397037 510.43542975842138 0 0 0 0 -272.55828341358574 -347.50989574178675 0 -347.50989574178675 -100.37868233634072 0 0 0 0 -39.973798950944911 -825.11371451515879 0 -825.11371451515879 -618.91238934556895 0 0 0 0 112.34016912489096 -503.36888160314447 0 -503.36888160314447 -38.594744437388727 0 0 0 0 -193.26066603880099 -777.96197899559229 0 -777.96197899559229 513.32623706199229 0 0 0 0 -215.63805797696114 -894.07404382810273 0 -894.07404382810273 27.14817457294339 0 0 0 0 9.468960009602597 -139.0014430151823 0 -139.0014430151823 -685.02142009003865 0 0 0 0 90.417886028590146 -555.21226212031252 0 -555.21226212031252 -358.385341733112 0 0 0 0 76.21213534893468 -609.04531068832875 0 -609.04531068832875 -556.39689795265076 0 0 0 0 34.420411774772219 -745.53897813964431 0 -745.53897813964431 -973.9112850360375 0 0 0 0 136.53062525387213 -589.75303063033061 0 -589.75303063033061 -763.38738552533323 0 0 0 0 129.12981263163238 -216.01128610884552 0 -216.01128610884552 -389.3733117810043 0 0 0 0 223.53539997991174 -303.6715751777665 0 -303.6715751777665 -996.89770443716679 0 0 0 0 -3.2463354814005356 -4.4152320242046414 0 -4.4152320242046414 -6.5670925277280787 0 0 0 0 139.44437096288311 -24.954542463026883 0 -24.954542463026883 -631.49649817481986 0 0 0 0 105.68955370609183 58.906000970106106 0 58.906000970106106 -116.96332298088237 0 0 0 0 118.31332788140571 -239.02331449240955 0 -239.02331449240955 -435.72318115408416 0 0 0 0 -12.515971397660905 -235.75389171319694 0 -235.75389171319694 -14.183933513966622 0 0 0 0 16.260908692871453 -104.71311428261833 0 -104.71311428261833 -13.356502702110447 0 0 0 0 -49.906940303771989 -125.45066879278602 0 -125.45066879278602 146.25022284747683 0 0 0 0 15.615829276066506 -179.64313420622784 0 -179.64313420622784 243.40349510791566 0 0 0 0 -35.211040089066955 -107.44149058641779 0 -107.44149058641779 116.41863607944106 0 0 0 0 -42.341653216746636 -68.063537615118548 0 -68.063537615118548 128.74078209049185 0 0 0 0 -16.764441888837609 -153.33633392862976 0 -153.33633392862976 191.83640497105807 0 0 0 0 -26.911722899372762 -68.965002147956966 0 -68.965002147956966 205.4403977872862 0 0 0 0 952.00585797749227 -37.12663045055524 0 -37.12663045055524 391.21203734626761 0 0 0 0 414.56873444269877 -1298.9491864921583 0 -1298.9491864921583 533.56516959838882 0 0 0 0 -51.612919457518728 -51.228408853916335 0 -51.228408853916335 328.42774389020633 0 0 0 0 86.851140002603643 94.198514230789442 0 94.198514230789442 81.579483993322356 0 0 0 0 592.47458241693676 -890.33872859299663 0 -890.33872859299663 -102.00643699198554 0 0 0 0 808.50964043987915 -312.68091531705068 0 -312.68091531705068 -68.587551408738364 0 0 0 0 1429.6192579121525 -812.94334957128922 0 -812.94334957128922 -298.64225295578944 0 0 0 0 56.510519505507546 -126.99623248294665 0 -126.99623248294665 195.49372083748312 0 0 0 0 -6.2613535825382769 -16.815476151721199 0 -16.815476151721199 -15.653029056845583 0 0 0 0 52.438128020618024 -72.937797140920338 0 -72.937797140920338 204.33848425015458 0 0 0 0 1537.8952163156991 35.133653661634526 0 35.133653661634526 62.303968087973772 0 0 0 0 -552.63542243395932 -391.01117212713143 0 -391.01117212713143 -120.87058996197447 0 0 0 0 -1.357561359385727 -42.018031221552519 0 -42.018031221552519 239.82324108834291 0 0 0 0 6.9266299610411011 -19.713534229078107 0 -19.713534229078107 12.851235015867715 0 0 0 0 -528.79201475469745 -463.26766052988387 0 -463.26766052988387 83.853677925188094 0 0 0 0 6.107133668492736 -12.496914971071021 0 -12.496914971071021 12.080574620375629 0 0 0 0 -105.98440776704956 97.421611121817477 0 97.421611121817477 788.50033333000465 0 0 0 0 13.693071624671575 -31.072506374861405 0 -31.072506374861405 243.87529301655013 0 0 0 0 -24.737231969746063 -78.815764206759923 0 -78.815764206759923 219.33615871571601 0 0 0 0 -24.899325489648618 -76.252831884703483 0 -76.252831884703483 212.01203669140523 0 0 0 0 -126.87320375573472 -244.66831819642539 0 -244.66831819642539 123.76625502551178 0 0 0 0 -10.176528050506022 -234.63045172909915 0 -234.63045172909915 -30.61783436164842 0 0 0 0 -106.36799478080502 -135.70461658683143 0 -135.70461658683143 414.23349917015003 0 0 0 0 -142.35134902633581 -241.27564946711027 0 -241.27564946711027 537.48958951780514 0 0 0 0 -214.44519480111194 -453.56359782034269 0 -453.56359782034269 179.50858339111437 0 0 0 0 -288.85314851408475 -756.49816232061858 0 -756.49816232061858 309.04595343641631 0 0 0 0 -79.213131435964897 -681.86870173514581 0 -681.86870173514581 -264.70865307048371 0 0 0 0 22.724945692570145 -701.45714049713763 0 -701.45714049713763 -348.467841233738 0 0 0 0 -162.72160720961983 -762.73680221319955 0 -762.73680221319955 -126.965455057074 0 0 0 0 20.914742306830476 -790.7955284347031 0 -790.7955284347031 -644.24467492237454 0 0 0 0 -90.764905103482306 -548.91792869973142 0 -548.91792869973142 -221.46069723820619 0 0 0 0 -46.274814207397867 -439.65723463956965 0 -439.65723463956965 20.976505441809422 0 0 0 0 -363.1494424179109 -734.07235893068719 0 -734.07235893068719 1321.6045758632026 0 0 0 0 1.3063094707758864 -892.95936211177104 0 -892.95936211177104 319.46253941602481 0 0 0 0 -10.082205275844899 -439.3598760936402 0 -439.3598760936402 100.52892837243417 0 0 0 0 3.5369991870975355 472.287148304109 0 472.287148304109 1883.7716482272554 0 0 0 0 -155.61044983657484 -213.26705038137152 0 -213.26705038137152 503.36664063898934 0 0 0 0 3.7424533665704871 -3.7400574613671722 0 -3.7400574613671722 3.3610047424185723 0 0 0 0 102.92112061148509 -272.65427612454369 0 -272.65427612454369 -797.18166566022774 0 0 0 0 -409.79085635246884 -792.21196802766281 0 -792.21196802766281 -528.18026082308279 0 0 0 0 1.0028012760740239 -296.84594802537322 0 -296.84594802537322 -331.11825041770862 0 0 0 0 -0.32792874647128867 -678.77911283939682 0 -678.77911283939682 -1093.6902926223265 0 0 0 0 -0.056436925369780511 -620.91955317515749 0 -620.91955317515749 -218.57557536623062 0 0 0 0 0.90875647815119009 -594.51055366117362 0 -594.51055366117362 1108.5842297776471 0 0 0 0 30.355301695744856 -193.65101933252299 0 -193.65101933252299 403.58828075134079 0 0 0 0 -395.69685303657752 -47.198292881716043 0 -47.198292881716043 2200.7495946251729 0 0 0 0 19.751134957318584 -77.106611307396605 0 -77.106611307396605 16.327818993307972 0 0 0 0 14.604879538761452 547.38345468547777 0 547.38345468547777 3045.9046540722484 0 0 0 0 12.388908890504183 15.260683197150883 0 15.260683197150883 -139.30588944677896 0 0 0 0 31.749456295904906 -22.424258294609899 0 -22.424258294609899 -77.871278203205463 0 0 0 0 0.27861724196601528 12.287171418103446 0 12.287171418103446 -111.10584943427239 0 0 0 0 347.22893964379909 86.853477913122333 0 86.853477913122333 792.89576017105719 0 0 0 0 -282.30608251756348 -208.05060986945318 0 -208.05060986945318 915.59440326075855 0 0 0 0 -62.743481043662541 -769.87996825392656 0 -769.87996825392656 185.04220140169491 0 0 0 0 -95.464943018188933 -359.79929067607736 0 -359.79929067607736 81.245200878502146 0 0 0 0 -703.63483539010485 -561.00255933384688 0 -561.00255933384688 573.34793985784927 0 0 0 0 -963.95327407319564 -79.501715111517115 0 -79.501715111517115 41.245630417550274 0 0 0 0 -2.4187076396101475 -6.317488096724901 0 -6.317488096724901 3.3540372972437638 0 0 0 0 -358.07488056001603 -604.68914025271806 0 -604.68914025271806 504.69485756569338 0 0 0 0 -234.78661364405707 48.573816645272018 0 48.573816645272018 687.61559311493875 0 0 0 0 -396.8762821548371 -158.81333155076936 0 -158.81333155076936 1471.9510831014049 0 0 0 0 -18.923109063458469 -78.36503382728165 0 -78.36503382728165 35.684126022338731 0 0 0 0 417.5932906033122 -368.87777044845279 0 -368.87777044845279 -1469.3914604959282 0 0 0 0 303.59150325512746 36.225712929073779 0 36.225712929073779 -4164.6045200614662 0 0 0 0 -9.7281943061570928 16.106713569109104 0 16.106713569109104 -30.41779591294852 0 0 0 0 277.96589706922532 459.17531472620612 0 459.17531472620612 -707.62812294479227 0 0 0 0 70.924234510668612 704.91550489268047 0 704.91550489268047 269.06037245417247 0 0 0 0 -851.18494318686135 -1350.0789557047501 0 -1350.0789557047501 -3414.7948258664255 0 0 0 0 -1452.2505348328268 -3845.8835323989333 0 -3845.8835323989333 -7633.0667714055962 0 0 0 0 0.32484343998658005 -1894.6416685559379 0 -1894.6416685559379 -5346.9735869418655 0 0 0 0 -17.941899221318181 44.346549789491462 0 44.346549789491462 -95.805519501840081 0 0 0 0 -1670.2398844627314 -1708.9191870261129 0 -1708.9191870261129 -2111.4517779359849 0 0 0 0 335.65844396140892 281.02844707759505 0 281.02844707759505 -682.66165995606207 0 0 0 0 -154.18035476343357 -566.74564597950666 0 -566.74564597950666 -294.15549108874984 0 0 0 0 -13.392060931326057 -26.633722284466216 0 -26.633722284466216 -48.295186253603021 0 0 0 0 8.7455498106137384 -101.73276422180788 0 -101.73276422180788 -38.354197115771967 0 0 0 0 -2.4873586263129255 -243.53709836907728 0 -243.53709836907728 -399.65142051803559 0 0 0 0 1.6889078548949499 -8.7488745811301669 0 -8.7488745811301669 -7.9648413279873296 0 0 0 0 -543.80792737726006 -133.31946968151533 0 -133.31946968151533 13.959128200278428 0 0 0 0 -183.55698672117433 -192.83942552449662 0 -192.83942552449662 -109.98468781812699 0 0 0 0 -131.41634540545056 47.316425762684958 0 47.316425762684958 -73.527704327403626 0 0 0 0 3.0893820172559288 -2.4469461824885457 0 -2.4469461824885457 -2.863016533438568 0 0 0 0 0.5433158276573522 -38.624758238698632 0 -38.624758238698632 13.465604969458582 0 0 0 0 -28.330698201025371 -32.515019664326246 0 -32.515019664326246 -30.588996341033635 0 0 0 0 -17.395815634452447 -58.44486675873668 0 -58.44486675873668 -12.194849057814281 0 0 0 0 -12.805848029005574 -50.449088642839342 0 -50.449088642839342 -34.841448164537724 0 0 0 0 -20.115452851750888 -43.774902821256546 0 -43.774902821256546 -49.607030220322486 0 0 0 0 -13.720462349097943 -26.3851702861175 0 -26.3851702861175 -13.888579233496557 0 0 0 0 82.277104744658573 -11.812174951828638 0 -11.812174951828638 5.0019470045390335 0 0 0 0 -2.2217779714261496 -0.52612484966928008 0 -0.52612484966928008 0.044027175078227287 0 0 0 0 -26.07992854441909 -162.28050764172895 0 -162.28050764172895 284.40266787905421 0 0 0 0 262.75350424810313 -196.07955343195499 0 -196.07955343195499 -418.26919619862019 0 0 0 0 278.9826114357229 9.6533724786249877 0 9.6533724786249877 2.50691618451674 0 0 0 0 -21.382416482956614 -163.76043553273485 0 -163.76043553273485 -91.633383949039853 0 0 0 0 89.94987982892053 -273.61704696629386 0 -273.61704696629386 -17.313349218544317 0 0 0 0 184.45822085504187 -142.68592755281497 0 -142.68592755281497 -242.49569592094485 0 0 0 0 242.52506326945149 -453.13543047275016 0 -453.13543047275016 -41.412111532496056 0 0 0 0 406.66594990227532 -438.37929254234814 0 -438.37929254234814 -173.47640265156224 0 0 0 0 457.12758923516958 -229.43722343629997 0 -229.43722343629997 -111.33856985392049 0 0 0 0 618.87151623945101 4.2386229578332859 0 4.2386229578332859 -84.713546617713291 0 0 0 0 372.54116016619082 -216.74595500214491 0 -216.74595500214491 -35.326179860159755 0 0 0 0 263.6702872859023 -290.21781150055904 0 -290.21781150055904 -82.048266878220602 0 0 0 0 -1091.9626597160532 -968.19399967988466 0 -968.19399967988466 -854.03768875524474 0 0 0 0 6.5307858687011162 -0.98606641300233377 0 -0.98606641300233377 -32.154920199900289 0 0 0 0 -1263.6445292810677 -790.13770540707992 0 -790.13770540707992 -336.94096583212558 0 0 0 0 5.7916760077002039 0.57524707275285891 0 0.57524707275285891 -51.144617092681187 0 0 0 0 -279.68816979730036 -239.35592904170335 0 -239.35592904170335 -598.40058094053529 0 0 0 0 126.57603728864342 53.595983118208096 0 53.595983118208096 -118.02708594018259 0 0 0 0 -1222.8270058542257 -1324.69479113544 0 -1324.69479113544 -783.40524921580436 0 0 0 0 -509.95737763398211 -856.98037947893681 0 -856.98037947893681 -1060.946461700958 0 0 0 0 -356.30947170438594 -823.42323860117904 0 -823.42323860117904 -1310.4424357655953 0 0 0 0 -0.41935165475820213 2.2915053835451005 0 2.2915053835451005 -7.2310473246426028 0 0 0 0 -505.36074759525945 -768.65391645210184 0 -768.65391645210184 -1279.6529679855339 0 0 0 0 -0.91855591229978018 -291.84274407047633 0 -291.84274407047633 -484.94961308922939 0 0 0 0 4.6428555356524157 -2.6724995681916255 0 -2.6724995681916255 -8.6174048432738033 0 0 0 0 0.11392892895673867 -587.58370384857335 0 -587.58370384857335 -1120.2177450288618 0 0 0 0 -538.70756205363432 -733.72643611886087 0 -733.72643611886087 -814.18600185345713 0 0 0 0 -1078.9924997561902 -781.22593106494242 0 -781.22593106494242 -992.74838962317153 0 0 0 0 -542.19642285846476 -773.94767151524184 0 -773.94767151524184 -925.29068844921858 0 0 0 0 5.6462428636443747 -1.9255481592064427 0 -1.9255481592064427 -13.763357750694638 0 0 0 0 -553.48105672348174 -620.67922800612723 0 -620.67922800612723 -992.76739452546462 0 0 0 0 -1254.4269483412791 -1020.3023770566579 0 -1020.3023770566579 -1153.203354404257 0 0 0 0 -238.38036811249913 -979.78782025272812 0 -979.78782025272812 -1628.0979706600701 0 0 0 0 -370.16803743343917 -720.28818990267609 0 -720.28818990267609 -1189.2672866893081 0 0 0 0 -284.12530458172114 -862.04987305482064 0 -862.04987305482064 -1319.4924060239937 0 0 0 0 -7.253334877139423 -595.67873308664275 0 -595.67873308664275 -1250.4185939300332 0 0 0 0 -0.41706973750842735 -849.06645199327249 0 -849.06645199327249 -720.1746358569726 0 0 0 0 -323.8976186597065 -1024.7192588438284 0 -1024.7192588438284 -931.16667785152094 0 0 0 0 -575.57295896159485 -768.74195452564527 0 -768.74195452564527 -1171.4098535473604 0 0 0 0 -202.82986966229873 -881.73520214591417 0 -881.73520214591417 -142.47801650290057 0 0 0 0 -318.43847444860148 -540.70511642566635 0 -540.70511642566635 -592.39316047137254 0 0 0 0 -86.778815484471124 -387.54072014643407 0 -387.54072014643407 -197.39047563697386 0 0 0 0 86.161845504277153 -895.10844837303011 0 -895.10844837303011 -841.811418628502 0 0 0 0 -195.50108384585474 -992.2004944448563 0 -992.2004944448563 -581.27465042883705 0 0 0 0 -221.63939204253256 -753.2577252935298 0 -753.2577252935298 -237.596518347249 0 0 0 0 -323.7581334663555 -1077.4252013814403 0 -1077.4252013814403 -633.659508210083 0 0 0 0 -447.57475277522462 -678.85481201466609 0 -678.85481201466609 -1023.6631808245511 0 0 0 0 -293.69771794663393 -1165.9962611897281 0 -1165.9962611897281 -2092.6087888863549 0 0 0 0 -208.68967076380068 -1228.7706221915378 0 -1228.7706221915378 -1086.182445939412 0 0 0 0 383.2085464981501 -983.77805683870974 0 -983.77805683870974 -1378.1745157451805 0 0 0 0 75.079261294085882 -939.6122216297299 0 -939.6122216297299 -859.63253726062248 0 0 0 0 280.49087865895126 -874.19955754520925 0 -874.19955754520925 -1144.2555745623831 0 0 0 0 665.42300140611769 -603.15817891843108 0 -603.15817891843108 -1118.5023713714036 0 0 0 0 407.23644051917654 -932.32584729987138 0 -932.32584729987138 -1316.3255603333964 0 0 0 0 418.55648597734398 -610.8554365080854 0 -610.8554365080854 -860.67848882602266 0 0 0 0 -1227.3476014345001 -1865.2645216664719 0 -1865.2645216664719 -1681.7520013261092 0 0 0 0 241.78105732236872 -265.27775267675315 0 -265.27775267675315 -2275.8853960982524 0 0 0 0 2.0204766639787977 -1.1655007700469469 0 -1.1655007700469469 -8.6683557377433829 0 0 0 0 208.94858550917706 -921.40786606683105 0 -921.40786606683105 -1231.6355153094264 0 0 0 0 -2480.7531134999299 -1861.9182093242343 0 -1861.9182093242343 38.706264603271848 0 0 0 0 1437.0851085425529 315.99571440491673 0 315.99571440491673 -235.49969025926839 0 0 0 0 3.1568253019119936 -2.4849558487449883 0 -2.4849558487449883 -11.763381208073895 0 0 0 0 864.94082722402527 -517.68121588756185 0 -517.68121588756185 -1157.4200853999864 0 0 0 0 620.6843960851329 -210.79934370353294 0 -210.79934370353294 -584.43969663162716 0 0 0 0 320.11040525257704 -483.71965356018336 0 -483.71965356018336 -194.32806315924972 0 0 0 0 309.53674096841132 -422.49294236530841 0 -422.49294236530841 -386.19687192971469 0 0 0 0 304.89027383393841 -599.61988836105593 0 -599.61988836105593 -538.58093438225114 0 0 0 0 203.18954700035101 -609.18061042713089 0 -609.18061042713089 -741.62449012033903 0 0 0 0 357.02534977986215 -527.22176278875122 0 -527.22176278875122 -704.35704366320715 0 0 0 0 320.58304959221277 -686.4731923531217 0 -686.4731923531217 -881.56328558171424 0 0 0 0 475.75914874936279 -535.90600437761896 0 -535.90600437761896 -879.81569556303293 0 0 0 0 450.63495036039967 -730.5917805304598 0 -730.5917805304598 -1056.049084370854 0 0 0 0 302.82786012085853 -726.7457313563209 0 -726.7457313563209 -938.56571396698564 0 0 0 0 241.02984081915929 -912.29016514286195 0 -912.29016514286195 -1096.4227880598082 0 0 0 0 336.77969514389406 -767.89669048988435 0 -767.89669048988435 -895.94559455366107 0 0 0 0 320.28626762150452 -599.27775737709044 0 -599.27775737709044 -834.01333635227638 0 0 0 0 61.022881606433657 -656.02925369535296 0 -656.02925369535296 -846.38464873622434 0 0 0 0 215.4493297120498 -753.83682622692868 0 -753.83682622692868 -842.77218970030663 0 0 0 0 190.44852493220242 -794.94445584864297 0 -794.94445584864297 -900.25346065684789 0 0 0 0 137.78808271301386 -795.31927610656567 0 -795.31927610656567 -652.18905298238678 0 0 0 0 424.15431240439648 -453.76011299822676 0 -453.76011299822676 -1027.993966462338 0 0 0 0 -183.21765151378349 -666.78893538162447 0 -666.78893538162447 -1029.7832859203627 0 0 0 0 -300.93059676377015 -514.15555365236105 0 -514.15555365236105 -780.85176167071768 0 0 0 0 124.71021276610554 -539.1255431973259 0 -539.1255431973259 -797.85642931409529 0 0 0 0 68.490684859876637 -507.1150052101475 0 -507.1150052101475 -811.23046114649333 0 0 0 0 61.486767476457317 -453.45900005727754 0 -453.45900005727754 -885.76445470932231 0 0 0 0 -114.69133832590887 -619.71999868312196 0 -619.71999868312196 -793.46290840492293 0 0 0 0 18.704286759370007 -474.79042489763015 0 -474.79042489763015 -653.08710903399333 0 0 0 0 243.76169039809611 -536.77387938421816 0 -536.77387938421816 -849.18614173920651 0 0 0 0 167.67934453269118 -633.01102362922757 0 -633.01102362922757 -328.20308586692408 0 0 0 0 233.09489120742364 -560.92514914811545 0 -560.92514914811545 -669.46984012834127 0 0 0 0 -44.866306160620297 -372.04608279604872 0 -372.04608279604872 -706.15177969929937 0 0 0 0 196.74898976723489 -365.37328584999705 0 -365.37328584999705 375.19416365367215 0 0 0 0 375.72858141825782 -388.42565830743933 0 -388.42565830743933 211.13834205854073 0 0 0 0 0.50253142915073568 -0.049128068588061069 0 -0.049128068588061069 -0.32048947787934168 0 0 0 0 385.86755666029057 -177.04264743983367 0 -177.04264743983367 379.59042807367496 0 0 0 0 712.52726452433853 -362.50581795933613 0 -362.50581795933613 209.34420718353795 0 0 0 0 293.81984893919434 -479.19884014874697 0 -479.19884014874697 397.51371796951571 0 0 0 0 431.99141200013401 -547.66844133256382 0 -547.66844133256382 391.34932969464717 0 0 0 0 421.76908929365163 -459.38335308381284 0 -459.38335308381284 200.49441710575047 0 0 0 0 231.9689528827148 -563.24415235951528 0 -563.24415235951528 379.6015755951812 0 0 0 0 304.85327931771826 -651.57210514547023 0 -651.57210514547023 95.848342385157594 0 0 0 0 332.74718151136767 -488.1365938756062 0 -488.1365938756062 -238.21061543600445 0 0 0 0 223.91921728369925 -607.29367394386099 0 -607.29367394386099 -25.716597269747581 0 0 0 0 208.58038574736565 -482.32216956614866 0 -482.32216956614866 84.433726993316668 0 0 0 0 275.87293484435941 -614.04199781516763 0 -614.04199781516763 -232.72563586203614 0 0 0 0 254.06823847687338 -481.36855460608786 0 -481.36855460608786 -61.717215433745878 0 0 0 0 117.18035898195376 -349.4143887631999 0 -349.4143887631999 191.30408833870024 0 0 0 0 220.52179719597916 -527.14248863035755 0 -527.14248863035755 -6.7595399864003411 0 0 0 0 256.24443451978732 -578.76697748761944 0 -578.76697748761944 168.97325435769744 0 0 0 0 120.05595035187434 -372.74830424927495 0 -372.74830424927495 325.50470839921036 0 0 0 0 179.17403975475463 -530.50870371274505 0 -530.50870371274505 542.00715890889114 0 0 0 0 95.809643720338499 -239.99483947499357 0 -239.99483947499357 707.49089262547932 0 0 0 0 101.12501211700146 -410.3490002248509 0 -410.3490002248509 298.86466425654362 0 0 0 0 96.361480992316501 -271.32419913006015 0 -271.32419913006015 243.31140216353015 0 0 0 0 -5.9049736393029093 -1.9019938464125659 0 -1.9019938464125659 -0.21060990387569234 0 0 0 0 -53.735163103905506 -46.452926617319463 0 -46.452926617319463 249.48239105198809 0 0 0 0 54.693937168129196 -133.7073607915313 0 -133.7073607915313 0.13049283633881714 0 0 0 0 -57.549956523347646 -78.098229521128815 0 -78.098229521128815 -15.643285097754415 0 0 0 0 14.143936564506262 -11.68528000767526 0 -11.68528000767526 -3.6114391768876999 0 0 0 0 66.662909082893748 -36.723590314089961 0 -36.723590314089961 -86.244419225957245 0 0 0 0 68.594700012945395 -119.7880393198102 0 -119.7880393198102 -106.43652222443779 0 0 0 0 7.7309148073254619 -297.44139818896656 0 -297.44139818896656 -351.88406119563297 0 0 0 0 -6.9978676256338304 -4.2834588611527025 0 -4.2834588611527025 1.6723767506226892 0 0 0 0 46.097570621306545 -9.2774449737268299 0 -9.2774449737268299 0.27545586575901382 0 0 0 0 12.153904910752317 -94.018615929770021 0 -94.018615929770021 71.144922503895941 0 0 0 0 -99.743243632430676 -330.3691839664134 0 -330.3691839664134 218.0159468252532 0 0 0 0 656.7976584197022 173.88882372570515 0 173.88882372570515 -836.12439066251682 0 0 0 0 12.689921516151628 0.33601171739744018 0 0.33601171739744018 2.4987879306576772 0 0 0 0 862.34278292825911 -1294.6823471805692 0 -1294.6823471805692 1972.1398077762424 0 0 0 0 1830.5584560082352 -1095.6334131860676 0 -1095.6334131860676 1158.1935048770392 0 0 0 0 1478.1017024395114 -1340.7158314098997 0 -1340.7158314098997 1646.8688398477098 0 0 0 0 109.71173619752517 -721.79900492818706 0 -721.79900492818706 2216.911585867565 0 0 0 0 2.5246945578301165 1.7635065418546674 0 1.7635065418546674 -1.5151037324923493 0 0 0 0 857.40926022577332 -778.24836766767839 0 -778.24836766767839 1560.8039647614169 0 0 0 0 905.21552935386717 -844.25224235186215 0 -844.25224235186215 1053.5925913281972 0 0 0 0 467.96068956766976 -580.75370822097466 0 -580.75370822097466 972.27409166676807 0 0 0 0 1131.396872259822 -248.63223428838683 0 -248.63223428838683 352.52467243064893 0 0 0 0 1627.212157149479 -729.68704976407753 0 -729.68704976407753 571.10900283264345 0 0 0 0 789.0525882122929 -348.23426067240598 0 -348.23426067240598 644.25026248705399 0 0 0 0 879.86836052115541 -708.4670525626334 0 -708.4670525626334 608.04342359107977 0 0 0 0 136.61391410062788 -407.30291329626198 0 -407.30291329626198 866.95539461916633 0 0 0 0 576.90845336188795 -457.99428799241286 0 -457.99428799241286 433.4344835165175 0 0 0 0 326.09016657806933 -584.39807249664227 0 -584.39807249664227 723.91851074263104 0 0 0 0 466.94902106793597 -605.83459318257519 0 -605.83459318257519 726.61899753058242 0 0 0 0 83.350890926027205 -346.01386972291948 0 -346.01386972291948 1126.1482757327321 0 0 0 0 34.242098924223683 -3.61369423868382 0 -3.61369423868382 569.77284094945935 0 0 0 0 -68.107414773083292 -151.86447684074665 0 -151.86447684074665 396.71895291893452 0 0 0 0 -25.9877553950937 12.889071696401516 0 12.889071696401516 404.13057808319468 0 0 0 0 138.46462649857858 80.559811586761498 0 80.559811586761498 523.66467354887027 0 0 0 0 353.28661612121505 165.29819530956229 0 165.29819530956229 711.53833569160633 0 0 0 0 164.97939233202487 -86.655027425222215 0 -86.655027425222215 483.14367710465922 0 0 0 0 1654.4210088678374 5.1000491060385684 0 5.1000491060385684 441.11595059863612 0 0 0 0 -33.534862919914303 346.12580669493764 0 346.12580669493764 619.29107857552299 0 0 0 0 128.14452696331136 -209.48272969309528 0 -209.48272969309528 363.44877889106283 0 0 0 0 -181.92573374579661 -337.42234552849914 0 -337.42234552849914 641.60965996231243 0 0 0 0 -115.56426105939317 -370.14114774082555 0 -370.14114774082555 225.38588843669277 0 0 0 0 -78.14077808141883 -377.30262217138079 0 -377.30262217138079 226.75127820567286 0 0 0 0 59.601229550171411 -378.74167238222071 0 -378.74167238222071 156.36331220027932 0 0 0 0 -90.380649855680531 -374.5350754093015 0 -374.5350754093015 281.30179957018117 0 0 0 0 101.81215297619929 -189.67334860403935 0 -189.67334860403935 -310.21583130856015 0 0 0 0 94.783995741602666 -284.90237493441555 0 -284.90237493441555 18.291855040763039 0 0 0 0 92.96464981380268 -290.92631508786144 0 -290.92631508786144 29.661464526945565 0 0 0 0 -22.711939375963993 -133.0736888729225 0 -133.0736888729225 113.22466288496798 0 0 0 0 -85.515314273245167 0.43798615853665979 0 0.43798615853665979 86.006935112360225 0 0 0 0 -19.198982113062812 -133.86754743208985 0 -133.86754743208985 15.418619872893032 0 0 0 0 -30.328554047664511 -173.10754994023591 0 -173.10754994023591 195.11951535284607 0 0 0 0 -56.319582822354278 -11.768892422893259 0 -11.768892422893259 232.52568087834698 0 0 0 0 -45.678206073556794 -148.78889524782426 0 -148.78889524782426 341.33406718390506 0 0 0 0 -38.332110881237895 60.4089424106769 0 60.4089424106769 254.92222489404958 0 0 0 0 -35.725695318658836 -28.955101530584216 0 -28.955101530584216 246.52767295686499 0 0 0 0 15.585346037783893 79.504070926639542 0 79.504070926639542 163.86712191362312 0 0 0 0 -41.779268991012941 34.400559200828866 0 34.400559200828866 154.23072339269856 0 0 0 0 -68.970333701508935 -40.014950940005292 0 -40.014950940005292 169.52595640889922 0 0 0 0 -42.414026858066791 33.987982127990108 0 33.987982127990108 156.9101770191337 0 0 0 0 -29.132453589205397 19.500392575675505 0 19.500392575675505 143.90641042065545 0 0 0 0 -22.595527913013939 57.298685040113924 0 57.298685040113924 157.07476463842613 0 0 0 0 -41.76592587120831 35.888950003194623 0 35.888950003194623 133.26630622868834 0 0 0 0 -6.4743987762776669 22.317491487934603 0 22.317491487934603 136.77698825795233 0 0 0 0 -18.257661947005545 56.632851122614738 0 56.632851122614738 153.61024706659373 0 0 0 0 -7.6545825625071302 29.80782170475868 0 29.80782170475868 97.727894965271844 0 0 0 0 -7.7437263369502034 68.168935087640421 0 68.168935087640421 109.01230047640274 0 0 0 0 -11.901095525856363 103.42457061907044 0 103.42457061907044 87.233672668851796 0 0 0 0 -40.731942271493608 64.977224393187498 0 64.977224393187498 167.62873314685567 0 0 0 0 138.96222920366563 -19.576307897707011 0 -19.576307897707011 -65.020297178351029 0 0 0 0 13.007623139186762 17.097453352922457 0 17.097453352922457 185.36129053090917 0 0 0 0 90.14162083651172 126.28493365632312 0 126.28493365632312 321.33055163054087 0 0 0 0 68.794393429154297 -32.139143211130431 0 -32.139143211130431 343.41337790137914 0 0 0 0 524.46642483190226 -29.109627193007327 0 -29.109627193007327 277.58290356631915 0 0 0 0 165.66209994329256 -105.61724982086162 0 -105.61724982086162 280.55106944708677 0 0 0 0 65.282303392916219 71.523856170362706 0 71.523856170362706 163.33244464124073 0 0 0 0 10.365446028648876 -221.33919189771404 0 -221.33919189771404 -295.88420711589788 0 0 0 0 0.19797943447650823 -0.47313790646060738 0 -0.47313790646060738 -0.11249701826382363 0 0 0 0 -342.68509019060002 -146.66290377792757 0 -146.66290377792757 -71.948236542659288 0 0 0 0 69.282642145553837 -19.721255579712306 0 -19.721255579712306 -101.40396090687136 0 0 0 0 -394.12021680192572 -103.49781018034463 0 -103.49781018034463 50.213646778698603 0 0 0 0 -251.19154788734159 -491.14992891941438 0 -491.14992891941438 -772.65756336302002 0 0 0 0 -3.5814816354651384 0.089248118690733236 0 0.089248118690733236 0.17072161642911965 0 0 0 0 -190.74606135993963 -389.01017530183526 0 -389.01017530183526 -747.6361578664546 0 0 0 0 -387.17167402844643 -604.20390173984924 0 -604.20390173984924 -528.89622277499075 0 0 0 0 -549.05047677148832 -508.94254168268526 0 -508.94254168268526 -706.52869762333285 0 0 0 0 -526.71464358066441 -419.80909865247304 0 -419.80909865247304 -744.60891678002008 0 0 0 0 -398.67813993054733 -676.93619065564781 0 -676.93619065564781 -1275.080665271511 0 0 0 0 -1867.3873604437176 -1635.2843493921955 0 -1635.2843493921955 -1168.5636221907553 0 0 0 0 -58.912407393407193 -616.16656799581324 0 -616.16656799581324 -467.85235757507326 0 0 0 0 -278.71163398932549 -420.67081213419442 0 -420.67081213419442 -597.16027438435412 0 0 0 0 -343.97081517172046 -168.25927352124563 0 -168.25927352124563 -614.83395718810789 0 0 0 0 -477.65778951548418 -814.73196320329589 0 -814.73196320329589 -871.44397032249253 0 0 0 0 -634.52021883310954 -358.36069669199424 0 -358.36069669199424 -454.58892171780462 0 0 0 0 -242.25382170485682 -229.09471553247567 0 -229.09471553247567 -583.80688724364882 0 0 0 0 -153.54288582684239 88.227630945395504 0 88.227630945395504 -158.28706565169705 0 0 0 0 -149.97114747425076 19.836957837567752 0 19.836957837567752 -33.088979339212528 0 0 0 0 -274.09846746905532 -268.23478520065328 0 -268.23478520065328 -471.8733681380254 0 0 0 0 -69.614733167472878 92.850634815142257 0 92.850634815142257 -114.70076389738824 0 0 0 0 -60.041440288623562 55.185560873226677 0 55.185560873226677 -170.72509266638372 0 0 0 0 -22.216816194937564 98.746060121164192 0 98.746060121164192 -139.83594161744259 0 0 0 0 -35.69284801636968 128.81070163140794 0 128.81070163140794 -114.72704321764468 0 0 0 0 -180.61206542287255 -34.124785267806146 0 -34.124785267806146 -2.4773614128134795 0 0 0 0 -6.3644010469681689 -1.1140859325957422 0 -1.1140859325957422 -0.13724167405239029 0 0 0 0 -67.96645535298012 120.63661444450827 0 120.63661444450827 -215.57267317893275 0 0 0 0 -1.1240805660235651 -0.23065688243914906 0 -0.23065688243914906 0.26645406263085647 0 0 0 0 20.030716449953616 57.334842996606312 0 57.334842996606312 30.311352678618277 0 0 0 0 21.463603170312126 12.754154461938015 0 12.754154461938015 7.7082229293882847 0 0 0 0 7.6903826378111262 -5.5374727290618466 0 -5.5374727290618466 -14.313358330749907 0 0 0 0 -2.1340439083166984 0.46145789077368704 0 0.46145789077368704 -1.887019201012599 0 0 0 0 -27.029635630009579 18.722858407556487 0 18.722858407556487 145.33043498963525 0 0 0 0 -11.15432061383035 13.002866437411285 0 13.002866437411285 1.8656023789953906 0 0 0 0 -7.4484097685059396 1.0466065665006354 0 1.0466065665006354 0.40300829608574418 0 0 0 0 1.1478774718125351 122.289212256881 0 122.289212256881 -131.15298823050034 0 0 0 0 98.352462442562683 -39.232812741387534 0 -39.232812741387534 -251.56786771965562 0 0 0 0 -26.512607521202881 82.58983303111745 0 82.58983303111745 -8.4566014425945468 0 0 0 0 -7.0388755986102183 0.16543894305144136 0 0.16543894305144136 -0.88130088948700092 0 0 0 0 0.47592597493530775 -9.3186340406061205 0 -9.3186340406061205 -6.7069363520072898 0 0 0 0 82.066172787221149 30.24144789863567 0 30.24144789863567 -125.12744058388853 0 0 0 0 193.27531589529826 -147.07100619426637 0 -147.07100619426637 25.874504203871766 0 0 0 0 -29.42069787660148 98.104987281603826 0 98.104987281603826 -109.5631858893903 0 0 0 0 116.53453731437912 27.001005313992209 0 27.001005313992209 -102.97720618000403 0 0 0 0 17.041018812509719 152.05323008265259 0 152.05323008265259 -141.10994516732171 0 0 0 0 94.282472623526701 39.59477553682882 0 39.59477553682882 69.217246964923106 0 0 0 0 20.683495201054029 -83.944677641455201 0 -83.944677641455201 -118.07734572079517 0 0 0 0 333.77420787309529 7.3891111681004986 0 7.3891111681004986 141.8920610017376 0 0 0 0 160.45157194961212 80.764043909359316 0 80.764043909359316 -37.705905203489237 0 0 0 0 210.93833867604553 -121.27305041799627 0 -121.27305041799627 7.4738570092595182 0 0 0 0 150.42399584876694 -221.52064806836643 0 -221.52064806836643 84.010369076233474 0 0 0 0 203.01540280962945 -109.30651057852083 0 -109.30651057852083 77.82570253549784 0 0 0 0 400.16244795668172 -374.74033341773611 0 -374.74033341773611 399.19954910132219 0 0 0 0 0.73143630688946359 -0.8366021778826962 0 -0.8366021778826962 3.4842029164781252 0 0 0 0 -47.469044930607197 143.54223263112544 0 143.54223263112544 -192.86206829582807 0 0 0 0 0.45685089843419746 -4.9051857743816782 0 -4.9051857743816782 3.6754699444903451 0 0 0 0 507.64876530284528 -298.34743767144391 0 -298.34743767144391 182.459540383079 0 0 0 0 -62.823561763209 51.472725533266384 0 51.472725533266384 -114.45399864006322 0 0 0 0 151.88275427630288 10.381217121619557 0 10.381217121619557 -175.17054731836834 0 0 0 0 -47.361987204116303 37.697530087298219 0 37.697530087298219 -191.2621986787708 0 0 0 0 -21.742409188635065 76.515428981292644 0 76.515428981292644 -143.28244216967141 0 0 0 0 -36.842592988999968 -454.78654005527915 0 -454.78654005527915 405.51657800312387 0 0 0 0 -100.85067726109992 217.78981467167614 0 217.78981467167614 -708.40625012961959 0 0 0 0 -2.362937398761801 -0.82634225097605452 0 -0.82634225097605452 0.96178789307271018 0 0 0 0 349.21266704206937 -187.09070506513672 0 -187.09070506513672 -159.08852361807658 0 0 0 0 415.38254386442713 -384.0599437991259 0 -384.0599437991259 168.67295629542878 0 0 0 0 97.596445007249713 -149.3558669113263 0 -149.3558669113263 -143.23039250906731 0 0 0 0 21.814614946430083 53.029045082919765 0 53.029045082919765 1211.4437634848291 0 0 0 0 -71.63228776819102 -120.03998576751907 0 -120.03998576751907 -5.6124871856293339 0 0 0 0 1.5676610761201744 -1.2511592006790977 0 -1.2511592006790977 9.2726222543897165 0 0 0 0 111.59413295128616 -3.4676597410652903 0 -3.4676597410652903 63.755627523347812 0 0 0 0 206.32027751998976 79.747609134370578 0 79.747609134370578 -102.44360549242265 0 0 0 0 37.766989812313113 -36.620469442677859 0 -36.620469442677859 42.026894274396909 0 0 0 0 28.406860061141685 -11.230845705212666 0 -11.230845705212666 -3.2212247167589396 0 0 0 0 154.77744424482808 10.340958018961828 0 10.340958018961828 -194.10630546777247 0 0 0 0 37.953373761498369 -72.533074437145842 0 -72.533074437145842 -11.845218507132813 0 0 0 0 -13.47484482312052 -6.4608873269717577 0 -6.4608873269717577 3.2967202128658926 0 0 0 0 89.620624617223825 -42.095877239759801 0 -42.095877239759801 -17.434487853502077 0 0 0 0 413.6931385519274 -202.93474770744251 0 -202.93474770744251 -120.34690088845673 0 0 0 0 -341.13397842069389 -1094.5779240672391 0 -1094.5779240672391 776.28852079930948 0 0 0 0 -25.938463736337937 -57.875976565684937 0 -57.875976565684937 -7.9647014506637674 0 0 0 0 5.8746646271829377 -93.854682084675005 0 -93.854682084675005 22.976052504280233 0 0 0 0 -36.874199552721905 -40.858523128532866 0 -40.858523128532866 -24.98572828685792 0 0 0 0 4.038002383953426 -89.705566820915919 0 -89.705566820915919 18.974602786853211 0 0 0 0 10.148671792790992 -97.480123874687706 0 -97.480123874687706 20.609738376901078 0 0 0 0 14.406123171960644 -91.470238159898145 0 -91.470238159898145 6.5834496730822138 0 0 0 0 -7.1674231983779464 -79.584349438770005 0 -79.584349438770005 122.32223317795251 0 0 0 0 92.745379902153218 -160.04378605318561 0 -160.04378605318561 -113.9568071316753 0 0 0 0 34.875807128162705 -57.777767466679506 0 -57.777767466679506 -101.46601064684364 0 0 0 0 34.155141331216385 -16.856370666841713 0 -16.856370666841713 -7.7211340470022378 0 0 0 0 -39.340662303671706 -19.180386117186572 0 -19.180386117186572 9.7471056065469384 0 0 0 0 -5.2044728304426826 -100.20900851410624 0 -100.20900851410624 -12.920849734597141 0 0 0 0 16.094368586424423 -87.580545823136703 0 -87.580545823136703 -22.734185333560927 0 0 0 0 -15.40035290193191 -91.886211665384508 0 -91.886211665384508 -15.228603723335254 0 0 0 0 -90.954636865018983 -13.298249544292048 0 -13.298249544292048 315.70457997852645 0 0 0 0 2.8147743221562109 -0.63140325400584629 0 -0.63140325400584629 -0.89752796554078884 0 0 0 0 -39.589711186650675 -139.59634595871012 0 -139.59634595871012 179.98469562124956 0 0 0 0 -47.331058432260761 -30.112506516146823 0 -30.112506516146823 122.81291695067557 0 0 0 0 -23.533701631691656 -84.780906290299754 0 -84.780906290299754 81.512398026621668 0 0 0 0 -39.875169442441802 -22.197916232062589 0 -22.197916232062589 -10.386593575539166 0 0 0 0 -54.859929170823307 -115.53438616050335 0 -115.53438616050335 142.0796178036926 0 0 0 0 -51.089809900033288 -25.708937357212562 0 -25.708937357212562 143.78057211735722 0 0 0 0 -23.162033291941043 -52.163578836414672 0 -52.163578836414672 164.27143702079775 0 0 0 0 -24.546909808705095 19.503994456255896 0 19.503994456255896 142.26623770562583 0 0 0 0 -79.660866769932909 9.7304093701968668 0 9.7304093701968668 147.26673153644515 0 0 0 0 -61.926491191348759 -0.17364658923906973 0 -0.17364658923906973 136.35760273791675 0 0 0 0 -95.281981352643925 -73.946846565955639 0 -73.946846565955639 96.310233982920181 0 0 0 0 -99.087040980652091 -32.503350564293214 0 -32.503350564293214 51.560587944735744 0 0 0 0 -80.531657739542425 -65.810829513471617 0 -65.810829513471617 -58.023723803235043 0 0 0 0 -123.93991823963006 -64.053247763673426 0 -64.053247763673426 87.099823734341044 0 0 0 0 -132.00427671386569 -30.58136179174835 0 -30.58136179174835 -76.857294992485549 0 0 0 0 4.5648858770714469 -3.0697054369062187 0 -3.0697054369062187 1.3391709355966412 0 0 0 0 -187.63465645563701 -206.36646865313287 0 -206.36646865313287 -127.04674505746516 0 0 0 0 -103.02361328090774 -156.06716407956992 0 -156.06716407956992 -51.566703157928714 0 0 0 0 -109.97035895168665 -248.07096833991091 0 -248.07096833991091 -178.21678922139108 0 0 0 0 -141.2671622899943 -81.69664581156394 0 -81.69664581156394 -47.403229801113412 0 0 0 0 39.682076602271309 -35.030237346763613 0 -35.030237346763613 24.50747119009381 0 0 0 0 -94.050717866804916 -149.52512781678524 0 -149.52512781678524 -103.89595268406265 0 0 0 0 116.40033550083172 -194.68047925416249 0 -194.68047925416249 -99.507035100519715 0 0 0 0 -215.63542947248789 -357.56972902404959 0 -357.56972902404959 -317.38057590825338 0 0 0 0 -87.943776331921981 -78.6004826267108 0 -78.6004826267108 -251.05843374684628 0 0 0 0 4.0661532500419071 -2.6573748277185985 0 -2.6573748277185985 0.94545405122549653 0 0 0 0 -114.98392794483516 -85.311168468917458 0 -85.311168468917458 82.459586823800691 0 0 0 0 -62.548513670466491 -110.90891871292115 0 -110.90891871292115 -63.010614068785799 0 0 0 0 -223.40887393941375 -181.27719327131763 0 -181.27719327131763 103.3997019353119 0 0 0 0 -228.50730775523698 -153.91204768637726 0 -153.91204768637726 -13.961182403494604 0 0 0 0 33.445466523122747 -38.025307070096318 0 -38.025307070096318 24.11229798662464 0 0 0 0 -154.42140752790147 -40.622842897169903 0 -40.622842897169903 114.62101131941563 0 0 0 0 88.021745818608906 10.063790365122259 0 10.063790365122259 41.149956197969004 0 0 0 0 -149.03329086659505 -108.67421649497373 0 -108.67421649497373 246.61219985718344 0 0 0 0 -85.798013541170803 127.3469916975655 0 127.3469916975655 353.89392407899504 0 0 0 0 -189.18338112186757 -234.19350921334626 0 -234.19350921334626 -33.71061468777043 0 0 0 0 -64.351213227775588 -144.87631846471777 0 -144.87631846471777 -81.338050620324793 0 0 0 0 36.332776110188661 -36.133973762027125 0 -36.133973762027125 25.34711433619637 0 0 0 0 -60.097548023739364 -111.10466403454484 0 -111.10466403454484 -36.784101377968909 0 0 0 0 -117.22670943182311 -114.85640456352849 0 -114.85640456352849 -10.596365959019749 0 0 0 0 -82.661692224879516 -125.12714425914601 0 -125.12714425914601 -34.187664835582837 0 0 0 0 -104.52269567246549 -143.31058886376923 0 -143.31058886376923 10.732906524091959 0 0 0 0 -63.279556617606431 -86.030697527090524 0 -86.030697527090524 20.877033354023297 0 0 0 0 -6.619944695434242 -322.79755463138645 0 -322.79755463138645 960.39120991306845 0 0 0 0 3.3848669175941382 -0.96986141348995147 0 -0.96986141348995147 -0.44338553312235263 0 0 0 0 -24.269534049145989 -13.783687491133126 0 -13.783687491133126 -0.94734242900831944 0 0 0 0 58.277906478295336 -165.94782700526048 0 -165.94782700526048 -442.46639551428234 0 0 0 0 133.52861012917128 -409.2892116233088 0 -409.2892116233088 -263.2493306604083 0 0 0 0 -153.75954696617555 -163.22083197872416 0 -163.22083197872416 135.8754168489977 0 0 0 0 13.079048118117498 -109.7273122840852 0 -109.7273122840852 -31.041981494818174 0 0 0 0 -121.36921276993235 -188.6964199738286 0 -188.6964199738286 -59.202963570525753 0 0 0 0 -1.5809598339354789 -11.056193377367777 0 -11.056193377367777 -0.3687987306483933 0 0 0 0 -233.62821791763417 -114.51383257139241 0 -114.51383257139241 -98.69001368987665 0 0 0 0 59.477271274867235 -24.807590508640715 0 -24.807590508640715 -29.761354764050338 0 0 0 0 -27.775047922070371 -137.61004827901706 0 -137.61004827901706 -101.44086217122094 0 0 0 0 -90.854311148024863 11.761996969107713 0 11.761996969107713 111.5734273435155 0 0 0 0 5.7459733099765913 -20.360690902086127 0 -20.360690902086127 1.7202009785788448 0 0 0 0 24.918253481795546 -68.025237801291951 0 -68.025237801291951 -15.682417727774009 0 0 0 0 -11.755310085951351 -29.697178722475655 0 -29.697178722475655 -3.1289360710616165 0 0 0 0 -7.3939161959569901 -64.204396488370548 0 -64.204396488370548 -14.317950385557197 0 0 0 0 13.741418658196153 -42.140491896363145 0 -42.140491896363145 9.6039809141889059 0 0 0 0 -12.878999597276561 -20.859336121829983 0 -20.859336121829983 16.729678820687695 0 0 0 0 8.9235242272090218 -30.057003657045527 0 -30.057003657045527 -8.0338064937052422 0 0 0 0 7.5027808457940637 -39.643368047552798 0 -39.643368047552798 1.9381850914708423 0 0 0 0 23.030077569937003 -53.777537343919789 0 -53.777537343919789 -3.1884522227174301 0 0 0 0 -152.85631241230294 -45.661076708733162 0 -45.661076708733162 50.936681752631557 0 0 0 0 20.776734230894363 -68.236300203152496 0 -68.236300203152496 -14.084728287096368 0 0 0 0 34.050579819391714 -32.693928617733036 0 -32.693928617733036 32.211419473107526 0 0 0 0 -17.424985035311181 -5.6832613560238485 0 -5.6832613560238485 0.57385218866687637 0 0 0 0 -86.876742406981066 -103.53781216130301 0 -103.53781216130301 -9.2915594329424493 0 0 0 0 -49.325240869831759 -52.958049073422444 0 -52.958049073422444 70.245358268057316 0 0 0 0 -20.315639504522551 -41.683490642521065 0 -41.683490642521065 73.36907232149315 0 0 0 0 -35.748545872396789 -38.805429815663956 0 -38.805429815663956 62.581964866360067 0 0 0 0 -24.999608390498906 -80.73925860349118 0 -80.73925860349118 43.862927488036803 0 0 0 0 -44.645077746172319 -111.88936971067051 0 -111.88936971067051 -4.8445218186534476 0 0 0 0 -8.0034457617730368 -97.196261538321778 0 -97.196261538321778 -42.52560071033804 0 0 0 0 -79.036722572272993 -106.67408323879317 0 -106.67408323879317 113.55148593257036 0 0 0 0 42.587010470019038 -28.998852576276164 0 -28.998852576276164 6.064322251406324 0 0 0 0 6.7646529483608902 -29.507413714622089 0 -29.507413714622089 -56.55847678556529 0 0 0 0 -14.471807287685806 -220.6597302930877 0 -220.6597302930877 -118.25518302907676 0 0 0 0 195.28000729737687 -280.0835367755808 0 -280.0835367755808 -570.69363350279309 0 0 0 0 -310.53939243615605 -528.10506512673237 0 -528.10506512673237 36.351785626186029 0 0 0 0 -391.06459975003963 -269.60642766761157 0 -269.60642766761157 -785.10403225599293 0 0 0 0 -601.62281354723382 7.3470449873129837 0 7.3470449873129837 257.38287412778391 0 0 0 0 84.943596862780396 -549.57426684559323 0 -549.57426684559323 -507.6996530928227 0 0 0 0 -485.60172035974392 -521.13488142978167 0 -521.13488142978167 -403.48905872496107 0 0 0 0 -65.32015417375078 -301.5195591026677 0 -301.5195591026677 -316.29448511610826 0 0 0 0 -863.27513017875026 -136.93969416293112 0 -136.93969416293112 2.1319480321835726 0 0 0 0 -307.94799120025709 19.544110661536251 0 19.544110661536251 -68.109584387717405 0 0 0 0 -10.061228151038563 -5.7580923537061892 0 -5.7580923537061892 -3.3217981705005926 0 0 0 0 -129.56613696678323 1.0152899820977836 0 1.0152899820977836 117.64522509557719 0 0 0 0 -232.36362588038901 -43.51129171885259 0 -43.51129171885259 113.61814561972278 0 0 0 0 -3.7357381371548399 -157.77252989940826 0 -157.77252989940826 -8.5192139976716135 0 0 0 0 -0.31609707056350089 2.3403950561312001 0 2.3403950561312001 -1.0991014419393608 0 0 0 0 -99.855001384305069 -553.89112014671264 0 -553.89112014671264 -478.5388930602403 0 0 0 0 -89.007616780902026 -348.00906742496227 0 -348.00906742496227 -379.06969657963236 0 0 0 0 90.164640811985009 -93.870233163881494 0 -93.870233163881494 -226.29899873703107 0 0 0 0 -207.44902220995573 -381.37772603424492 0 -381.37772603424492 -88.37803831036581 0 0 0 0 -266.71243450665497 -174.91634144521231 0 -174.91634144521231 -15.3650985883869 0 0 0 0 22.523503791595459 -5.1105697784201141 0 -5.1105697784201141 -0.86359191523769141 0 0 0 0 102.65390327745143 -70.961111937871095 0 -70.961111937871095 1.0935814825664636 0 0 0 0 -47.407381617760876 -81.589941644332185 0 -81.589941644332185 -16.475244355503079 0 0 0 0 15.008123883919325 -182.66313107072347 0 -182.66313107072347 116.64608505742217 0 0 0 0 -16.712989842741763 -8.0762374912252426 0 -8.0762374912252426 2.461633934895076 0 0 0 0 484.204085160658 -231.38354557475031 0 -231.38354557475031 -262.85233000557855 0 0 0 0 -1.4338363756135166 -5.6602179398056194 0 -5.6602179398056194 -6.5058104774783487 0 0 0 0 -1584.0389748395537 -178.72296127595678 0 -178.72296127595678 280.57126555437571 0 0 0 0 513.63669164522435 -136.39783650178651 0 -136.39783650178651 39.33207194384886 0 0 0 0 -822.69486893742578 -712.54302849451051 0 -712.54302849451051 -432.20816373580965 0 0 0 0 309.06731726430007 78.564171656686085 0 78.564171656686085 -6.8271105195682367 0 0 0 0 463.50666442341753 41.659428871753335 0 41.659428871753335 -103.18287537528522 0 0 0 0 -1.6126926652587628 -10.940849350802694 0 -10.940849350802694 -21.148915923563465 0 0 0 0 -895.76195010668016 10.462575829769776 0 10.462575829769776 -121.95653875141215 0 0 0 0 383.25340727064759 -12.709179145105736 0 -12.709179145105736 49.055430625863664 0 0 0 0 248.98960027459543 -91.941702090311082 0 -91.941702090311082 31.309863470800337 0 0 0 0 -636.75778927677311 -191.77603087107491 0 -191.77603087107491 -21.373699531817692 0 0 0 0 -511.22383455272939 -257.26858318348059 0 -257.26858318348059 -106.6443292061158 0 0 0 0 -31.306532723825512 -181.84017585142215 0 -181.84017585142215 -1.8994429878184746 0 0 0 0 -38.55293802228698 -80.623797436979658 0 -80.623797436979658 91.807943396059272 0 0 0 0 29.359195374941919 117.56281199641307 0 117.56281199641307 18.749565520105534 0 0 0 0 -444.36784974506008 -334.14859880701351 0 -334.14859880701351 71.202602265613677 0 0 0 0 -7.0982977644889615 -220.93313978636161 0 -220.93313978636161 -569.73131788708633 0 0 0 0 12.524384411299252 -803.96482530658795 0 -803.96482530658795 -2185.0302885540659 0 0 0 0 -93.93470303362119 358.2252888462599 0 358.2252888462599 260.56314002468571 0 0 0 0 397.89738491480239 154.32041179322368 0 154.32041179322368 -34.239290851686746 0 0 0 0 -511.49750302250322 -261.7863876588799 0 -261.7863876588799 -67.456909509914112 0 0 0 0 -587.42928250576369 -264.84754450514447 0 -264.84754450514447 114.32966984856466 0 0 0 0 -626.39903715453693 -191.24832585939293 0 -191.24832585939293 -23.756042582099326 0 0 0 0 -440.7635610930738 158.64850217253479 0 158.64850217253479 169.02217337239927 0 0 0 0 -1650.305385624175 -1030.1040129572102 0 -1030.1040129572102 815.58269313457822 0 0 0 0 -542.44065590688842 -273.14460207146112 0 -273.14460207146112 533.93273295956169 0 0 0 0 304.5111650635663 -181.11732181751995 0 -181.11732181751995 -266.90315194858704 0 0 0 0 -1.8403649429340518 -12.941058596805505 0 -12.941058596805505 -22.834516973932118 0 0 0 0 -328.5106894003402 -772.63684544925673 0 -772.63684544925673 -1259.8848213586352 0 0 0 0 29.569867951620836 144.27652226986538 0 144.27652226986538 -162.28310049662832 0 0 0 0 -161.37821929551137 -269.56428310646879 0 -269.56428310646879 -217.3344250686132 0 0 0 0 -121.65997134562349 -389.96661077871067 0 -389.96661077871067 118.50998021653868 0 0 0 0 -328.18559215587447 -113.90473216733699 0 -113.90473216733699 -61.217655646195453 0 0 0 0 183.7389771680464 -152.78934721679252 0 -152.78934721679252 343.62562259742481 0 0 0 0 -561.29143480907078 -137.1461560749085 0 -137.1461560749085 959.91542253585067 0 0 0 0 -11.282683532868077 5.2904308469998469 0 5.2904308469998469 2.5904996956724062 0 0 0 0 1528.5822019823136 -1075.4071878921043 0 -1075.4071878921043 -975.51999333508684 0 0 0 0 3.2889324324358995 -4.6968793690547201 0 -4.6968793690547201 -2.855127013359958 0 0 0 0 1012.590727669507 149.61697856158025 0 149.61697856158025 -2474.277577524806 0 0 0 0 1550.6829762653506 -930.03616405602588 0 -930.03616405602588 -114.51971706692711 0 0 0 0 -1747.1859933771193 -339.22211849234463 0 -339.22211849234463 353.34991288756282 0 0 0 0 0.12268638035520585 -7.3354534037211749 0 -7.3354534037211749 -3.6149706650858633 0 0 0 0 -678.46334841873613 -880.70950023105434 0 -880.70950023105434 -238.33606660628357 0 0 0 0 -819.96059529500781 -222.95457461123806 0 -222.95457461123806 92.776656828969863 0 0 0 0 -942.45575356798508 125.44711086722646 0 125.44711086722646 -89.401000889796705 0 0 0 0 -626.35572832910111 -211.33305354976255 0 -211.33305354976255 -274.03371739598151 0 0 0 0 1711.4332719939121 -1465.8662126490913 0 -1465.8662126490913 1076.9885071390454 0 0 0 0 238.26575298236276 -521.60950551280348 0 -521.60950551280348 657.3352576164516 0 0 0 0 576.01405552096548 -554.51260958961939 0 -554.51260958961939 461.02247151511256 0 0 0 0 -741.55726506689098 -291.27622836498631 0 -291.27622836498631 -17.766432483185781 0 0 0 0 -701.45239197098999 -315.27169740655881 0 -315.27169740655881 -90.317407913407806 0 0 0 0 -0.4649245377242357 -12.547247565252036 0 -12.547247565252036 -16.499001869217786 0 0 0 0 6.9973248131260242 -16.333079196415326 0 -16.333079196415326 -33.342495796649459 0 0 0 0 -840.59736953907122 -199.85389618306544 0 -199.85389618306544 350.67797519856686 0 0 0 0 -434.12598078561859 180.58669132306204 0 180.58669132306204 -7.652280047237582 0 0 0 0 225.17642233257357 -102.36479558881638 0 -102.36479558881638 20.342192574866203 0 0 0 0 77.858952432411343 -110.31908759128382 0 -110.31908759128382 46.359789447005824 0 0 0 0 117.47087607772846 -685.4734874414612 0 -685.4734874414612 1532.7296687024173 0 0 0 0 20.619666618470887 -6.0182450576030817 0 -6.0182450576030817 3.433788571759262 0 0 0 0 1042.9270365702687 -83.85852137565962 0 -83.85852137565962 -251.42641682422436 0 0 0 0 937.45879755310307 -993.11296170714832 0 -993.11296170714832 308.15324424462415 0 0 0 0 27.199869777949061 -387.75357401328711 0 -387.75357401328711 662.9647181969176 0 0 0 0 395.57351766485954 -683.37020005645445 0 -683.37020005645445 692.34230714159696 0 0 0 0 1.326749538260799 -12.862563862778945 0 -12.862563862778945 -6.97273081959941 0 0 0 0 678.18953287824843 -491.29266273781923 0 -491.29266273781923 -288.30776531834454 0 0 0 0 53.895907828664349 -108.7699681950885 0 -108.7699681950885 -1239.8696807929282 0 0 0 0 -466.60281423365814 40.420955718645928 0 40.420955718645928 -647.11894573669178 0 0 0 0 1.9872755969772697 -5.1023458160561859 0 -5.1023458160561859 -419.68880672343494 0 0 0 0 -27.232849394655204 -100.78486110569384 0 -100.78486110569384 -562.13083254714229 0 0 0 0 -79.510765548155177 50.772187378486251 0 50.772187378486251 -666.73950755458918 0 0 0 0 171.38067513692658 168.03064666902355 0 168.03064666902355 -397.19523534014115 0 0 0 0 -19.378323688538615 -18.127837375440123 0 -18.127837375440123 -8.223557770344085 0 0 0 0 59.796631821751362 22.504780568957358 0 22.504780568957358 -727.78329224863728 0 0 0 0 -178.14603877929039 236.82234541467733 0 236.82234541467733 222.72254852037258 0 0 0 0 348.81801011227071 602.19075761205022 0 602.19075761205022 460.42727113173169 0 0 0 0 66.975715718406718 -870.51427449090079 0 -870.51427449090079 1139.8893773124555 0 0 0 0 4.2713548259719687 2.1475548067308523 0 2.1475548067308523 -3.444921190851872 0 0 0 0 4.136570551976547 -537.38137096393098 0 -537.38137096393098 -296.82617580418082 0 0 0 0 410.47832061711961 -599.85332115602068 0 -599.85332115602068 336.11919857967587 0 0 0 0 467.20765805266274 -560.09756075880159 0 -560.09756075880159 170.95776757440763 0 0 0 0 488.40340094121348 -667.01104717305134 0 -667.01104717305134 208.77350523659698 0 0 0 0 666.65782807055075 -554.86962575652251 0 -554.86962575652251 32.178012601543742 0 0 0 0 563.08794716454577 -721.12593508816462 0 -721.12593508816462 111.12904900264402 0 0 0 0 717.99325110147765 -482.53213718880943 0 -482.53213718880943 164.55065077305335 0 0 0 0 1145.7969109686674 -777.27970147722772 0 -777.27970147722772 -53.073666283191415 0 0 0 0 612.32317334902473 -638.94940309438516 0 -638.94940309438516 -66.938409859725652 0 0 0 0 116.64925848823623 24.935729510467354 0 24.935729510467354 -55.956376055724832 0 0 0 0 -108.63328672778152 -179.97292104890585 0 -179.97292104890585 72.160821120040055 0 0 0 0 4.6910204462474212 -72.848620901771937 0 -72.848620901771937 88.940835281259751 0 0 0 0 75.455931747168506 -122.46973815096635 0 -122.46973815096635 123.23470925458969 0 0 0 0 -23.579963723459514 -50.979718489634251 0 -50.979718489634251 193.60697845169125 0 0 0 0 477.95070544665214 -117.25906175282944 0 -117.25906175282944 -4.6056591352535179 0 0 0 0 235.57158012042055 -277.98565399915242 0 -277.98565399915242 210.88062379526127 0 0 0 0 85.144634843101812 -60.393827933662124 0 -60.393827933662124 174.42311118190264 0 0 0 0 252.64756567613222 -63.2354424685509 0 -63.2354424685509 145.65277588327444 0 0 0 0 121.3644745714555 45.642710529231408 0 45.642710529231408 -1338.2590942139614 0 0 0 0 -266.42225575435441 459.0981837591753 0 459.0981837591753 -962.38455197912117 0 0 0 0 0.39991834020702299 -0.48504688728163359 0 -0.48504688728163359 -0.51212837694881586 0 0 0 0 91.651047278865008 -99.890621171864041 0 -99.890621171864041 213.09954746309813 0 0 0 0 28.71444183436688 23.609519287338117 0 23.609519287338117 -1319.0436083057175 0 0 0 0 -12.393694555791683 -5.0017514762755475 0 -5.0017514762755475 -2.4985073873093562 0 0 0 0 159.32079964189325 -416.12297422476695 0 -416.12297422476695 -271.25162514626572 0 0 0 0 238.08786298491759 -367.11273344940128 0 -367.11273344940128 865.07151375612011 0 0 0 0 216.29215423706773 -556.76853543806465 0 -556.76853543806465 19.775475677408394 0 0 0 0 -12.514072405174375 -361.04370149019087 0 -361.04370149019087 868.05367294817552 0 0 0 0 -18.448606122503406 -246.3468634555602 0 -246.3468634555602 4.832977479803958 0 0 0 0 -64.966330321796704 -470.36914070066996 0 -470.36914070066996 98.872567966413044 0 0 0 0 4.8239084801157901 -2.0670223210135532 0 -2.0670223210135532 -1.7168280023818454 0 0 0 0 -223.94347233625012 -677.92778652432753 0 -677.92778652432753 -118.34645417388674 0 0 0 0 49.049880501217558 -388.39327307448912 0 -388.39327307448912 -365.61534662251506 0 0 0 0 -236.87734583730344 -113.49455695357028 0 -113.49455695357028 -696.69216716613664 0 0 0 0 -677.90977764665149 -439.95463601611118 0 -439.95463601611118 365.60748124878648 0 0 0 0 -432.1092849978013 112.68643208860885 0 112.68643208860885 542.36404602542279 0 0 0 0 2134.6302763642743 -50.768093761718774 0 -50.768093761718774 -1733.4782398700991 0 0 0 0 556.40255923967925 -747.14561396038698 0 -747.14561396038698 838.69330784322665 0 0 0 0 3.0755467744556881 2.0130696424719474 0 2.0130696424719474 0.16892793492071334 0 0 0 0 158.9922165813332 -380.71835325281427 0 -380.71835325281427 650.45190357839965 0 0 0 0 448.59817017402383 -713.3533073137005 0 -713.3533073137005 167.01326979912847 0 0 0 0 908.50813401161577 -758.16843499883907 0 -758.16843499883907 -64.108568583702436 0 0 0 0 489.54238257210818 -788.27223966664224 0 -788.27223966664224 56.698270820095786 0 0 0 0 195.48392252653139 129.75630894109781 0 129.75630894109781 -1699.3511654969734 0 0 0 0 -3.5110207948476955 0.38788677563038476 0 0.38788677563038476 -0.38210729232100249 0 0 0 0 337.89515716144524 -673.62021109734087 0 -673.62021109734087 804.81990944359859 0 0 0 0 234.23409607349822 -422.41456154004845 0 -422.41456154004845 -1377.299348208282 0 0 0 0 -166.03781155918841 -159.01747111485747 0 -159.01747111485747 14.39367074862821 0 0 0 0 919.26102617822289 -683.90973161401871 0 -683.90973161401871 446.27138062139784 0 0 0 0 -0.7669245986170381 4.3517627583843321 0 4.3517627583843321 1.926555337394138 0 0 0 0 583.00609288809937 -137.83301682660385 0 -137.83301682660385 -813.469675870836 0 0 0 0 1231.4221445704752 -712.41954553541291 0 -712.41954553541291 436.38490828372232 0 0 0 0 -7.8201616738526809 -51.044687190169356 0 -51.044687190169356 39.827947279656655 0 0 0 0 -5.4213029047823511 113.57785073986088 0 113.57785073986088 247.08180217324843 0 0 0 0 -93.724710790149402 -79.252853809626686 0 -79.252853809626686 65.065325789306371 0 0 0 0 57.026497420579858 -22.881293320713695 0 -22.881293320713695 -0.18092609047856456 0 0 0 0 -57.921920406144636 -139.42680282720721 0 -139.42680282720721 -57.553188468249573 0 0 0 0 -54.766176190285478 -68.766829079620948 0 -68.766829079620948 60.402572019789659 0 0 0 0 24.172248219692847 -36.108627718003845 0 -36.108627718003845 2.4316996004199609 0 0 0 0 29.442393912468106 -28.370686328562442 0 -28.370686328562442 -74.677297089569038 0 0 0 0 20.25912389298901 -119.76015207069941 0 -119.76015207069941 -46.734426293664001 0 0 0 0 10.9079145998694 -34.634186904382659 0 -34.634186904382659 -64.103694964345777 0 0 0 0 5.5974914071550756 -34.51308285139288 0 -34.51308285139288 -0.58434917854637547 0 0 0 0 21.187713063700357 -44.2122931257245 0 -44.2122931257245 -52.707313861974399 0 0 0 0 26.295262584987562 -32.573667104646375 0 -32.573667104646375 -20.256994417891946 0 0 0 0 8.7934897328902366 -24.932131421679838 0 -24.932131421679838 -12.399739461650952 0 0 0 0 42.651280222387868 -20.459305103173392 0 -20.459305103173392 -113.40807666471665 0 0 0 0 -4.6375193846761249 -40.00631099032762 0 -40.00631099032762 -9.6677546916471329 0 0 0 0 -7.207662614102361 -31.982137107444828 0 -31.982137107444828 -12.481454250389646 0 0 0 0 5.3200829681591131 -43.040078156536765 0 -43.040078156536765 -12.938042798268725 0 0 0 0 -18.640017680312695 -20.464207406875857 0 -20.464207406875857 2.3259136166460053 0 0 0 0 -7.9892037801781441 -28.49083580588524 0 -28.49083580588524 -20.188354903435368 0 0 0 0 44.162139918247703 -32.158104383102909 0 -32.158104383102909 -4.8008249251288362 0 0 0 0 13.96548456385915 -16.388534570111631 0 -16.388534570111631 -21.551676930024072 0 0 0 0 15.255366167606553 -76.811411459071678 0 -76.811411459071678 -203.83418728906872 0 0 0 0 -63.700572900183033 -154.38201654608929 0 -154.38201654608929 -149.60355019838971 0 0 0 0 -0.42218125479604396 -4.2155525814860368 0 -4.2155525814860368 -2.540337134406542 0 0 0 0 -57.883983291452751 -84.135563587380602 0 -84.135563587380602 -23.664007473416859 0 0 0 0 -42.942623278358951 -101.4516215906242 0 -101.4516215906242 -16.360125253726437 0 0 0 0 -65.245126061439805 -68.530314168692257 0 -68.530314168692257 5.5625472712054034 0 0 0 0 -20.485388215965941 -68.860075546556345 0 -68.860075546556345 -18.295638006573427 0 0 0 0 -7.1974371238029562 -103.38818019842438 0 -103.38818019842438 -20.219299920509002 0 0 0 0 -27.693458511486824 -40.027454024928375 0 -40.027454024928375 -31.845378853209695 0 0 0 0 -14.144949989579082 -43.812773461357892 0 -43.812773461357892 -16.879439767672707 0 0 0 0 -8.3180862885843823 -30.183522499992307 0 -30.183522499992307 -14.971036632048353 0 0 0 0 -19.508409433197812 -40.664033977588588 0 -40.664033977588588 -16.795292135826458 0 0 0 0 -23.516723629551763 -41.722401657687641 0 -41.722401657687641 -20.944664182706191 0 0 0 0 -53.945737185305916 -53.393091267251293 0 -53.393091267251293 12.729601534108042 0 0 0 0 -49.596816217017476 -69.314845089178561 0 -69.314845089178561 -7.4306032954300463 0 0 0 0 -4.4332133577953527 -12.148082925736418 0 -12.148082925736418 -8.0818129726672794 0 0 0 0 -115.92662867764921 -82.623780521919116 0 -82.623780521919116 -44.664982610778679 0 0 0 0 -58.448227872704592 56.808237957145366 0 56.808237957145366 129.70708853438555 0 0 0 0 -152.39923554398047 -48.990968152282676 0 -48.990968152282676 115.024395331493 0 0 0 0 -41.385679396495107 -46.965529295699525 0 -46.965529295699525 21.989132450173202 0 0 0 0 7.2994440966485286 0.41041750550164124 0 0.41041750550164124 -3.6947624098226299 0 0 0 0 172.97006626008078 -376.18683688425335 0 -376.18683688425335 126.52660204196945 0 0 0 0 173.76377956979559 -378.94743841660602 0 -378.94743841660602 -91.073605982630397 0 0 0 0 19.613555436299066 -111.5689789386779 0 -111.5689789386779 434.61029234982107 0 0 0 0 -23.247528666208382 55.853097134700874 0 55.853097134700874 7.8940163337611011 0 0 0 0 -128.87958281942701 -22.627582822053228 0 -22.627582822053228 -12.372543749792385 0 0 0 0 -72.177429790128372 -6.4519833096965158 0 -6.4519833096965158 -9.7420934513327211 0 0 0 0 -103.92144807401928 14.722269494348438 0 14.722269494348438 -138.99029126888672 0 0 0 0 -9.5018680619168663 -4.2880104018823033 0 -4.2880104018823033 -9.6639829682129772 0 0 0 0 -169.49186977866339 -194.93014675307313 0 -194.93014675307313 -170.93514474834956 0 0 0 0 -11.583561384500229 -16.594683370707486 0 -16.594683370707486 -6.7262584599290065 0 0 0 0 -70.307652056275401 -29.505108399222081 0 -29.505108399222081 -122.85414669062811 0 0 0 0 -48.018140611068986 -22.643085237213484 0 -22.643085237213484 -12.017343542119669 0 0 0 0 -246.04656583344331 90.822270556198418 0 90.822270556198418 -55.6872343276018 0 0 0 0 -375.26865094489767 1.1970966880635387 0 1.1970966880635387 355.62887915888314 0 0 0 0 -419.90853501978563 -130.79712156642563 0 -130.79712156642563 70.344903968220024 0 0 0 0 -21.193935696137487 -11.071858541198253 0 -11.071858541198253 -509.71330338901498 0 0 0 0 -50.092647114001011 -26.303172514303068 0 -26.303172514303068 -9.6545764925861768 0 0 0 0 67.317539147974458 -153.27361537979141 0 -153.27361537979141 -281.33644110825344 0 0 0 0 -109.67090302528231 -124.73131876720981 0 -124.73131876720981 -284.79116347958234 0 0 0 0 -20.313553168542882 -5.0026638971336013 0 -5.0026638971336013 9.6232000784786038 0 0 0 0 211.41631563517149 -437.70571554919343 0 -437.70571554919343 28.737537037453876 0 0 0 0 188.93139470735332 -555.02774938302719 0 -555.02774938302719 -82.651786333592099 0 0 0 0 223.0137826368591 -413.25082817914949 0 -413.25082817914949 -786.08291608257514 0 0 0 0 214.02163471847598 29.033881528967868 0 29.033881528967868 -809.44645373386356 0 0 0 0 110.51393285325321 137.84993896842434 0 137.84993896842434 -414.03637196968339 0 0 0 0 121.30756693708827 -92.956357893175664 0 -92.956357893175664 -526.56826823533936 0 0 0 0 153.17411232362792 -40.851943320395094 0 -40.851943320395094 -445.82544131449049 0 0 0 0 -1574.3059244405013 851.595695064756 0 851.595695064756 43.394271809288057 0 0 0 0 116.94867478197557 -831.90088950480504 0 -831.90088950480504 -960.62039522792327 0 0 0 0 -3.1253024294412626 -6.3233446406166536 0 -6.3233446406166536 -14.476941216943029 0 0 0 0 35.476987049347372 414.35134929474043 0 414.35134929474043 -1425.4044311575658 0 0 0 0 -359.26923466956941 -1007.8041194096804 0 -1007.8041194096804 -1197.1003510646854 0 0 0 0 -273.51801422782592 837.56424850953226 0 837.56424850953226 1.7064958384385136 0 0 0 0 261.08538289810531 -355.03475345462584 0 -355.03475345462584 -624.94152412191943 0 0 0 0 47.514127835180261 -252.59494991148858 0 -252.59494991148858 911.60890238513275 0 0 0 0 64.059388318593847 -825.23222693409161 0 -825.23222693409161 194.80619366099199 0 0 0 0 -146.35698526879423 -146.83616598334629 0 -146.83616598334629 -112.52933946563621 0 0 0 0 0.44561155626672644 -4.1979358648618046 0 -4.1979358648618046 -0.79621879868616041 0 0 0 0 -37.829851660470013 -55.370748069296496 0 -55.370748069296496 -8.7754988043425328 0 0 0 0 9.1733376177685386 -3.0249208219634056 0 -3.0249208219634056 -6.6712075746758774 0 0 0 0 -13.52871164213866 -237.79285237869772 0 -237.79285237869772 -50.389408797349688 0 0 0 0 95.337254343088716 -334.43154544011759 0 -334.43154544011759 -21.090385481569925 0 0 0 0 -232.33606087850058 -50.689725665845799 0 -50.689725665845799 -31.23915901599139 0 0 0 0 -77.712663659462123 -258.98316317709759 0 -258.98316317709759 -20.525741878544068 0 0 0 0 490.3249521022226 -250.58273517113503 0 -250.58273517113503 -238.43885910732206 0 0 0 0 -655.20965312607586 -191.42753786889079 0 -191.42753786889079 20.723538154301423 0 0 0 0 44.880551787035074 -1311.5362887942993 0 -1311.5362887942993 -510.1874508227047 0 0 0 0 -63.710729796017404 -218.15743448297781 0 -218.15743448297781 -0.91477331671558204 0 0 0 0 -278.39145922521129 -122.4154011190476 0 -122.4154011190476 -43.451999147789365 0 0 0 0 -291.90825870666595 -315.91290303187543 0 -315.91290303187543 -76.553151810974668 0 0 0 0 -3.8570522426643734 -5.3662625180096484 0 -5.3662625180096484 1.683196067713645 0 0 0 0 651.50190094305435 1610.9446935860933 0 1610.9446935860933 -225.18646131466085 0 0 0 0 -52.528180427761981 -99.565354160796687 0 -99.565354160796687 -106.42950196277752 0 0 0 0 -13.041057271842078 -8.4984907934664307 0 -8.4984907934664307 -2.2863537828000631 0 0 0 0 -166.34889869148901 -34.603878489200724 0 -34.603878489200724 -30.645425933749721 0 0 0 0 -25.838662913825829 -102.78465729846721 0 -102.78465729846721 -208.56496123512625 0 0 0 0 -10.950871384702623 -26.86167263329844 0 -26.86167263329844 -25.441826593370934 0 0 0 0 -16.186930649884744 25.720766034208282 0 25.720766034208282 -0.17880408960536442 0 0 0 0 -23.07303241907556 -23.87737084027701 0 -23.87737084027701 -1.8160989167020247 0 0 0 0 -29.951616635260393 -42.108856695786159 0 -42.108856695786159 -14.155636140858306 0 0 0 0 -24.717068980913609 -26.588379538248773 0 -26.588379538248773 14.666758954328543 0 0 0 0 -9.2001112277736183 -22.655667327814836 0 -22.655667327814836 0.89689630770646289 0 0 0 0 0.58052574966740167 -22.396864022678699 0 -22.396864022678699 -11.598497780022775 0 0 0 0 84.636888755019754 46.939169021396083 0 46.939169021396083 -64.808822819468332 0 0 0 0 -44.838062638256815 -56.493764532493969 0 -56.493764532493969 -35.264125953624898 0 0 0 0 -33.44087406113502 -47.260663205583768 0 -47.260663205583768 -36.476121785898314 0 0 0 0 3.820091046854202 -25.591072753987874 0 -25.591072753987874 -15.276561789234449 0 0 0 0 -74.683045639802003 -55.820820119758537 0 -55.820820119758537 -13.994448997292352 0 0 0 0 24.746265255020262 -21.834392616314744 0 -21.834392616314744 -16.29578955544639 0 0 0 0 -47.481852348500979 -35.566106389190963 0 -35.566106389190963 -7.3731231945239415 0 0 0 0 -33.313795691432404 -16.872815104469225 0 -16.872815104469225 12.970178108920088 0 0 0 0 121.01431210731971 -83.248121885410001 0 -83.248121885410001 -40.945072730017273 0 0 0 0 5.8216753917949973 -118.77000251713707 0 -118.77000251713707 -4.8864279515019007 0 0 0 0 -1.0230548772669863 -109.05173502392063 0 -109.05173502392063 -13.742800064388575 0 0 0 0 -17.128018072689883 -80.206552307055972 0 -80.206552307055972 -32.200062927191539 0 0 0 0 -92.460799585402128 81.752407942622995 0 81.752407942622995 -188.90266354742926 0 0 0 0 -30.531226704813889 -80.164291768591283 0 -80.164291768591283 -24.816082110362913 0 0 0 0 -6.9436895773687866 31.018464644030928 0 31.018464644030928 113.54784072250914 0 0 0 0 234.16771795772365 26.11674957996911 0 26.11674957996911 -6.3610213098481836 0 0 0 0 -1.321989130171346 -4.5566557971609427 0 -4.5566557971609427 -3.1605028335497209 0 0 0 0 272.48125873756362 -204.42100738787758 0 -204.42100738787758 7.9390220895365928 0 0 0 0 468.46426029471331 -217.27931758344766 0 -217.27931758344766 -220.93515239902172 0 0 0 0 -164.76192695254576 -92.506798897442422 0 -92.506798897442422 159.0996849312769 0 0 0 0 77.772477824706584 -110.26106694339251 0 -110.26106694339251 205.89566446915887 0 0 0 0 -32.592230403970461 32.543956510140106 0 32.543956510140106 39.93184972418203 0 0 0 0 -8.7200471076357644 64.419913568818174 0 64.419913568818174 -288.57211699555251 0 0 0 0 157.69493913494989 -7.2694250028460488 0 -7.2694250028460488 -337.57213235356721 0 0 0 0 4.8148028217226511 -1.2087689307745393 0 -1.2087689307745393 0.32630511514312843 0 0 0 0 62.135933715879219 17.722471936636566 0 17.722471936636566 -84.243686426453678 0 0 0 0 -40.775750251952559 -127.51223878340988 0 -127.51223878340988 -299.39227458825826 0 0 0 0 3.6534459083172806 -0.51778971716291267 0 -0.51778971716291267 -5.999820922927448 0 0 0 0 -81.632680290174903 -28.187719255709908 0 -28.187719255709908 37.799751679900965 0 0 0 0 31.199899558865582 3.8324757246894023 0 3.8324757246894023 -51.598624063168984 0 0 0 0 -59.764698578306707 -80.103053336648941 0 -80.103053336648941 -47.978449145795366 0 0 0 0 2.1641327312487135 -0.46060713409133314 0 -0.46060713409133314 -1.4512130826556073 0 0 0 0 8.7767062109196559 -45.340745465936379 0 -45.340745465936379 -75.938417306193514 0 0 0 0 8.2850141908178898 0.96470002984221992 0 0.96470002984221992 -7.7417425592538223 0 0 0 0 -13.384816072648391 -36.455889391990468 0 -36.455889391990468 -79.076264058371862 0 0 0 0 304.92035013424174 -226.09833133606767 0 -226.09833133606767 -317.21049960948648 0 0 0 0 0.0027419227990321815 -62.887176290741081 0 -62.887176290741081 -199.51675538961172 0 0 0 0 -6.5462278706254438 5.3095444395000868 0 5.3095444395000868 19.048736240870085 0 0 0 0 2.4414605277850683 3.3922546364194943 0 3.3922546364194943 -2.6717596008593594 0 0 0 0 5.3184631526916633 -2.7553158851474961 0 -2.7553158851474961 -2.9371527449619559 0 0 0 0 1.851972043536307 2.7865201890830775 0 2.7865201890830775 -2.2334981729080932 0 0 0 0 -6.5462278706545476 -9.1503064469723085 0 -9.1503064469723085 0.1980210886314353 0 0 0 0 -5.6037636093096808 -68.110070103106864 0 -68.110070103106864 -199.28366524005196 0 0 0 0 -20.328463216457749 -57.71690381002918 0 -57.71690381002918 -156.97420996020264 0 0 0 0 6.1583779783250066 -42.634914627325998 0 -42.634914627325998 -157.35979388002215 0 0 0 0 -0.025970165937906131 -72.260179393000726 0 -72.260179393000726 -91.077813663423512 0 0 0 0 -51.648901710344944 -31.866641763072948 0 -31.866641763072948 -68.306486400074846 0 0 0 0 -6.5781263452372514 -80.913216707369429 0 -80.913216707369429 -48.067202477878709 0 0 0 0 -16.958072154637193 -75.850145055185749 0 -75.850145055185749 -30.730547936087532 0 0 0 0 -30.96400658076891 -59.717880978751964 0 -59.717880978751964 -36.764567454369171 0 0 0 0 3.7853813242691103 -67.956308339693351 0 -67.956308339693351 -37.027898776357745 0 0 0 0 0.024994817096740007 -85.440270967743345 0 -85.440270967743345 -1.6081780620697828 0 0 0 0 12.959196926778532 -69.039488825013905 0 -69.039488825013905 10.806557680909464 0 0 0 0 20.243792373570614 -109.15617944756923 0 -109.15617944756923 37.113528316745942 0 0 0 0 1.5468227035407836 -100.10518441951803 0 -100.10518441951803 -14.784266385177034 0 0 0 0 3.2736359671980608 -93.105757591702059 0 -93.105757591702059 -3.700807711800735 0 0 0 0 12.112042237786227 -97.588477300210798 0 -97.588477300210798 -26.664064248841896 0 0 0 0 40.365840354119428 -103.04980124163012 0 -103.04980124163012 -25.815384839292165 0 0 0 0 -3.8331346262420993 -60.996151570820075 0 -60.996151570820075 -26.39805744558862 0 0 0 0 29.922822951164562 -70.297925118780768 0 -70.297925118780768 -30.032922903628787 0 0 0 0 14.214055779506452 -88.435277754520939 0 -88.435277754520939 -13.008688505877217 0 0 0 0 -22.149575369490776 -59.365411865812348 0 -59.365411865812348 22.234399077076887 0 0 0 0 13.166954957239795 -80.951578658810831 0 -80.951578658810831 -2.1211122146667094 0 0 0 0 9.1665047876304016 -90.067337838465392 0 -90.067337838465392 -10.599439368530511 0 0 0 0 -16.741869852885429 -38.617379694929923 0 -38.617379694929923 130.09101369019845 0 0 0 0 -16.387593889829077 -38.03147553770259 0 -38.03147553770259 -2.4950712398640462 0 0 0 0 -18.366659808525583 -40.893688711385039 0 -40.893688711385039 -5.3478135576078785 0 0 0 0 -15.551916825803346 -55.910239248425569 0 -55.910239248425569 -14.1924746383811 0 0 0 0 20.394475912122289 -36.046036462477787 0 -36.046036462477787 19.351135864242679 0 0 0 0 -26.294975685275858 -25.379800571641681 0 -25.379800571641681 -23.414442252393201 0 0 0 0 -14.605321128001208 -23.573444605458718 0 -23.573444605458718 -7.9029695117656757 0 0 0 0 -28.367413012543693 -45.93426287357579 0 -45.93426287357579 -5.3582594468025491 0 0 0 0 7.708235343452543 -32.831648872146616 0 -32.831648872146616 -112.21591205574805 0 0 0 0 -2.9627935616454693 -3.1593608449080364 0 -3.1593608449080364 3.4236672412551457 0 0 0 0 -24.823896048008464 -57.807108789078484 0 -57.807108789078484 -59.728529699146748 0 0 0 0 -0.8373261205288145 -26.208111299988289 0 -26.208111299988289 -11.051634773986063 0 0 0 0 -33.622976171985897 -39.20506992967367 0 -39.20506992967367 -7.7394237224904998 0 0 0 0 -22.185584438149817 -35.80784978090378 0 -35.80784978090378 -88.346243506472092 0 0 0 0 -6.8261505322880112 -81.71724269641345 0 -81.71724269641345 -68.513302960993315 0 0 0 0 0.15679149076856902 -4.3650928413860868 0 -4.3650928413860868 -14.257435650402194 0 0 0 0 17.650178340409184 -30.372881953604519 0 -30.372881953604519 -65.657930641784333 0 0 0 0 -21.014824036178254 -38.767320470171683 0 -38.767320470171683 -46.972207266752321 0 0 0 0 -40.125462715153844 -42.952106617337449 0 -42.952106617337449 -100.00353886470839 0 0 0 0 -35.242744976392714 -71.656844868935877 0 -71.656844868935877 -65.185724702809239 0 0 0 0 1.5910887938348424 -2.7069587054932667 0 -2.7069587054932667 -13.618978344156247 0 0 0 0 -1.87897563847946 -59.077633856861212 0 -59.077633856861212 -93.438519865223498 0 0 0 0 -5.9240489806907135 -38.91232931492732 0 -38.91232931492732 -52.959165591841156 0 0 0 0 -21.917543509392999 -56.737467335004112 0 -56.737467335004112 -71.773252456208866 0 0 0 0 -82.688450629706495 -70.87041549265814 0 -70.87041549265814 -27.111688654003956 0 0 0 0 4.5811145717161708 -97.456024266699387 0 -97.456024266699387 -19.141897180548767 0 0 0 0 -15.853978605402517 -87.826784160046373 0 -87.826784160046373 40.26441399253963 0 0 0 0 -0.17628449619499095 -87.856469647161717 0 -87.856469647161717 -4.8416028930150787 0 0 0 0 6.366975854994962 -89.789814270559873 0 -89.789814270559873 -165.89666996561209 0 0 0 0 3.1808922241802406 2.7340158967001287 0 2.7340158967001287 -2.4873421644619285 0 0 0 0 13.72427290250198 -124.75264023430282 0 -124.75264023430282 -35.688766866593141 0 0 0 0 1952.5544868966394 -919.60439964686225 0 -919.60439964686225 -1065.5260985332716 0 0 0 0 317.01988177771273 -1008.8323361235307 0 -1008.8323361235307 2835.4331096290189 0 0 0 0 588.22792532298627 -140.63999872948625 0 -140.63999872948625 -496.21140873726836 0 0 0 0 16.310574909450224 -5.4952704801201548 0 -5.4952704801201548 2.7261350473347079 0 0 0 0 2048.0288014723337 -2009.2223960421979 0 -2009.2223960421979 310.74133352420176 0 0 0 0 1533.9815919570392 -1357.9190567455589 0 -1357.9190567455589 -163.12956577097066 0 0 0 0 761.5023823550946 -1379.0512808406784 0 -1379.0512808406784 2013.3734716603649 0 0 0 0 1553.851166505774 -1551.3428575326398 0 -1551.3428575326398 468.01623449419276 0 0 0 0 2040.5851111643788 -2127.403548168586 0 -2127.403548168586 697.65430962026585 0 0 0 0 1718.3078544577802 -2061.1832077475774 0 -2061.1832077475774 2048.5521907595103 0 0 0 0 250.10433397559245 -500.93283157201222 0 -500.93283157201222 1512.5443856342035 0 0 0 0 1719.8370236556802 -835.21306071465369 0 -835.21306071465369 -647.01189649743901 0 0 0 0 3.9861081041682525 -2.6036844520207012 0 -2.6036844520207012 1.245000900986895 0 0 0 0 3442.7538975471689 12.631933737837244 0 12.631933737837244 2716.4860231652565 0 0 0 0 1754.1609791767769 -1402.9816203920345 0 -1402.9816203920345 1530.703314137063 0 0 0 0 1574.6932220291346 -1787.0145372671977 0 -1787.0145372671977 716.54208004428074 0 0 0 0 1018.6840532732967 -1782.7458465356976 0 -1782.7458465356976 1579.6058769401279 0 0 0 0 2557.867865407994 -1863.5859033058605 0 -1863.5859033058605 1494.5857453007484 0 0 0 0 768.88971918717289 -1336.9470641371881 0 -1336.9470641371881 886.96175184664025 0 0 0 0 199.42591558893764 -748.16608171910048 0 -748.16608171910048 1154.4398168465341 0 0 0 0 799.06621204039402 -1238.8978877471964 0 -1238.8978877471964 639.03973118816793 0 0 0 0 395.51204816084646 -380.05574858893669 0 -380.05574858893669 30.199276356419432 0 0 0 0 781.4451125261694 -659.53597494331188 0 -659.53597494331188 446.3600939246171 0 0 0 0 114.01503975059313 -236.75705684769491 0 -236.75705684769491 178.5622104035865 0 0 0 0 14.017660477788155 -3.0857967794553929 0 -3.0857967794553929 -7.4118213919699087 0 0 0 0 4.512254395110773 -40.876528952229535 0 -40.876528952229535 -23.917356045242457 0 0 0 0 -42.902203774385271 -38.554840654796863 0 -38.554840654796863 -27.613949446225888 0 0 0 0 72.388027967423113 -93.612567882379153 0 -93.612567882379153 -35.717891380016226 0 0 0 0 -42.903210743977752 -40.518415901278331 0 -40.518415901278331 231.00445955077885 0 0 0 0 73.25549594842596 -94.248692923618364 0 -94.248692923618364 -37.091216346125293 0 0 0 0 259.253825263615 -174.31200073088985 0 -174.31200073088985 37.741275785854668 0 0 0 0 34.312759581062849 -23.20975406997124 0 -23.20975406997124 1.9547321003179263 0 0 0 0 -114.14077052857101 -4.6033201076897967 0 -4.6033201076897967 573.30608578065585 0 0 0 0 -333.72739041518798 -412.74054751866788 0 -412.74054751866788 -290.48033544851569 0 0 0 0 -651.80242158974579 -239.66028052515321 0 -239.66028052515321 104.44646710091183 0 0 0 0 117.29505063124634 -44.175279513028727 0 -44.175279513028727 -36.067389318690402 0 0 0 0 9.6149647864194066 -14.614320567011625 0 -14.614320567011625 -13.391034183090056 0 0 0 0 88.352254322026326 -41.193466988035141 0 -41.193466988035141 6.0745412615003431 0 0 0 0 243.70760166801483 -90.18566666708648 0 -90.18566666708648 -34.827312355347203 0 0 0 0 110.64603409318079 -44.324732000801305 0 -44.324732000801305 -27.439579327590764 0 0 0 0 -406.75022752834775 -397.61731501385657 0 -397.61731501385657 127.1986717943073 0 0 0 0 386.60990744529408 -937.82393839494762 0 -937.82393839494762 663.7500998184405 0 0 0 0 -125.00766183688393 -175.3797460196547 0 -175.3797460196547 106.02510540511867 0 0 0 0 -327.6774438239172 -464.2698626022493 0 -464.2698626022493 145.61451131179638 0 0 0 0 1397.9943986803992 -1191.4850160634414 0 -1191.4850160634414 120.54280577837199 0 0 0 0 902.44928663445171 -804.22424130153013 0 -804.22424130153013 1.0291815560121904 0 0 0 0 1093.101453319985 -85.830798532777408 0 -85.830798532777408 730.90884750898113 0 0 0 0 1386.3110122942744 -1703.6251943107782 0 -1703.6251943107782 1613.5533052972241 0 0 0 0 296.02290808586622 -531.66370293840009 0 -531.66370293840009 252.3278701237723 0 0 0 0 18.302427605031681 3.0799699052785598 0 3.0799699052785598 0.70928479495668917 0 0 0 0 1173.7394648660702 -83.114842388982652 0 -83.114842388982652 -851.67309027649117 0 0 0 0 822.79637054458726 -1538.1422765258212 0 -1538.1422765258212 2093.412914188943 0 0 0 0 -83.871716091003691 -92.051894675010772 0 -92.051894675010772 -74.259023729100591 0 0 0 0 -180.79688495110531 -302.24773694976284 0 -302.24773694976284 118.90187556660385 0 0 0 0 910.65197937480116 -523.08585791708174 0 -523.08585791708174 23.719974910163728 0 0 0 0 848.32483220849826 -709.89767323535489 0 -709.89767323535489 -220.75884807021976 0 0 0 0 2334.8120556184585 -1166.9338431630713 0 -1166.9338431630713 -362.29606824630173 0 0 0 0 27.17900142104736 -83.855075142593705 0 -83.855075142593705 -12.743699126258434 0 0 0 0 -9.6949118818010014 -49.442556266986877 0 -49.442556266986877 5.1769776574476793 0 0 0 0 83.160506901267581 -202.24060824771914 0 -202.24060824771914 262.3576779653813 0 0 0 0 20.971360754260544 -12.024312295044783 0 -12.024312295044783 -6.6277597211877151 0 0 0 0 29.508853274727965 -131.67960749341 0 -131.67960749341 -6.5694888914952116 0 0 0 0 424.18283459253144 -426.59237736065552 0 -426.59237736065552 309.83081440923797 0 0 0 0 -28.184571686739218 -251.76275378619903 0 -251.76275378619903 -228.23706794237205 0 0 0 0 45.758810886488703 -25.095277855242159 0 -25.095277855242159 -1.9100574855624313 0 0 0 0 391.71791404714895 -150.42034490013248 0 -150.42034490013248 -65.24193570256466 0 0 0 0 -34.143624656862812 -235.81704544420063 0 -235.81704544420063 -154.33032039523096 0 0 0 0 24.246462726569646 -16.934907115044048 0 -16.934907115044048 -11.876408648259059 0 0 0 0 -165.50639175279503 -280.97382846311302 0 -280.97382846311302 -124.12378333418746 0 0 0 0 -42.783049444566132 -127.70302562737197 0 -127.70302562737197 67.270003238038043 0 0 0 0 -29.893382076198314 -75.016331781133289 0 -75.016331781133289 -8.5938980992559095 0 0 0 0 -102.63570002253709 -61.28848058742733 0 -61.28848058742733 30.740193258738145 0 0 0 0 145.81587671248417 30.955066687020008 0 30.955066687020008 99.467359644913813 0 0 0 0 -60.301147520451195 -111.01681844328414 0 -111.01681844328414 -24.861116015468724 0 0 0 0 -73.031073540583748 -24.676099862641422 0 -24.676099862641422 -159.41191106790211 0 0 0 0 -59.699602497086744 -82.831846934685018 0 -82.831846934685018 -14.116564570460469 0 0 0 0 -60.608008071205404 -115.43443801971443 0 -115.43443801971443 -5.6554683699796442 0 0 0 0 -18.494360089051042 -87.542749813677801 0 -87.542749813677801 58.132393817795673 0 0 0 0 -29.588470819369832 -43.682247812799687 0 -43.682247812799687 -35.341308884657337 0 0 0 0 -3.7278596884862054 -134.36835662645171 0 -134.36835662645171 -0.56245691324147629 0 0 0 0 192.13417760549055 -14.029838681228284 0 -14.029838681228284 197.3378120479174 0 0 0 0 -781.65335382316698 125.95688671081007 0 125.95688671081007 193.23260687626316 0 0 0 0 -6.9895272798990788 -5.5599038534762748 0 -5.5599038534762748 -0.61292060801622483 0 0 0 0 -264.22485507024976 -25.623976378454245 0 -25.623976378454245 33.963887085832539 0 0 0 0 -52.393066491345053 -89.694837615796132 0 -89.694837615796132 39.612247374083381 0 0 0 0 -25.233249959335424 -69.345925263536614 0 -69.345925263536614 2.6106805090994953 0 0 0 0 -429.91969095215609 123.36400680675797 0 123.36400680675797 118.20541331097775 0 0 0 0 110.81278894050774 -324.09333130672894 0 -324.09333130672894 -278.57661874242331 0 0 0 0 52.012420446503711 -87.82184947118003 0 -87.82184947118003 -2.5853442399238702 0 0 0 0 -5.3663951793096203 -62.533770199061109 0 -62.533770199061109 29.612366316054249 0 0 0 0 71.073883743545593 -158.25117415868226 0 -158.25117415868226 13.447612381572981 0 0 0 0 329.34880022917059 -666.50854866362533 0 -666.50854866362533 748.09202245237248 0 0 0 0 545.26413845468051 -657.28735707381566 0 -657.28735707381566 454.13784772269537 0 0 0 0 1535.3768443388526 -1317.8709119991545 0 -1317.8709119991545 294.15294042152527 0 0 0 0 -97.148491875996115 -446.48918458809203 0 -446.48918458809203 363.31536938430509 0 0 0 0 6.5943563722685212 -312.24905200039939 0 -312.24905200039939 122.49024768447271 0 0 0 0 -390.90657666849438 -150.37949938986276 0 -150.37949938986276 192.73844148653734 0 0 0 0 -682.14033451536125 -264.75291815107084 0 -264.75291815107084 239.53347880882211 0 0 0 0 87.997306818084326 -153.84603885892284 0 -153.84603885892284 168.0951418419063 0 0 0 0 -61.170768066935125 270.66766248435306 0 270.66766248435306 -61.111031360489733 0 0 0 0 -127.81392350471288 -419.01656439789076 0 -419.01656439789076 -43.807846748924931 0 0 0 0 107.84232293973764 127.93503355883149 0 127.93503355883149 -45.576147967673023 0 0 0 0 -30.943299672784633 381.7642199423135 0 381.7642199423135 628.42512753153096 0 0 0 0 -374.69683745014481 -684.36493298591813 0 -684.36493298591813 -336.88387443446118 0 0 0 0 3.443929514850339 -2.875171262805253 0 -2.875171262805253 1.7733835905763158 0 0 0 0 -17.230530054941482 117.62135723827669 0 117.62135723827669 -46.39576352390759 0 0 0 0 -72.419891244357132 21.240011712434352 0 21.240011712434352 145.76099007707671 0 0 0 0 -17.365031919773827 -1.9485335596565676 0 -1.9485335596565676 4.2262847319751984 0 0 0 0 -433.78200170111813 -401.08550524583552 0 -401.08550524583552 -124.32059313435457 0 0 0 0 -439.28170028992832 -175.64938335652113 0 -175.64938335652113 -59.044020850560628 0 0 0 0 42.505922149805883 -118.53578378337988 0 -118.53578378337988 20.323788842219074 0 0 0 0 -11.444019836500534 -70.636466255901738 0 -70.636466255901738 18.319387171743983 0 0 0 0 -91.715562647848856 -31.642001522726787 0 -31.642001522726787 92.425573645072291 0 0 0 0 26.968017728561335 -98.327142426926002 0 -98.327142426926002 21.921950666001067 0 0 0 0 -47.963486635061955 -66.819169377958644 0 -66.819169377958644 0.8003283658424607 0 0 0 0 317.2970705407497 -249.80218642848195 0 -249.80218642848195 190.93457934279286 0 0 0 0 424.22443920024307 -298.01668981278635 0 -298.01668981278635 130.19225613631716 0 0 0 0 449.90239189727799 -359.31025060958564 0 -359.31025060958564 166.92536184276105 0 0 0 0 420.44835053089628 -227.19448021583958 0 -227.19448021583958 -39.504896772457869 0 0 0 0 366.35079560508166 -324.5361113617837 0 -324.5361113617837 4.6417811299033929 0 0 0 0 -8.5300204482297026 -78.557735474898877 0 -78.557735474898877 3.037250695037983 0 0 0 0 -90.820437119920314 -113.08177665695382 0 -113.08177665695382 21.956088562223727 0 0 0 0 -136.02735630000825 -286.68145532588824 0 -286.68145532588824 -46.727608391833201 0 0 0 0 9.2312266229855595 -88.856971621105913 0 -88.856971621105913 24.798642347246641 0 0 0 0 32.628106439884618 -81.804312690289635 0 -81.804312690289635 17.856237230222888 0 0 0 0 99.219184335830505 -82.795579517347505 0 -82.795579517347505 -1.1665894747275161 0 0 0 0 10.693323138480899 -5.0644557130664438 0 -5.0644557130664438 0.79063559919535464 0 0 0 0 -273.35456831526608 -117.47608246752498 0 -117.47608246752498 53.17468532602652 0 0 0 0 543.65508635991137 -383.56989709450136 0 -383.56989709450136 -7.8029756602772977 0 0 0 0 291.68117040195284 -184.46171279261034 0 -184.46171279261034 -7.2141627728851745 0 0 0 0 284.70280295840348 -234.2041649467501 0 -234.2041649467501 139.39991383800225 0 0 0 0 161.77619682538534 -166.91062686085206 0 -166.91062686085206 85.594915249515907 0 0 0 0 -84.277918111554754 -265.30491034979059 0 -265.30491034979059 -61.075076052838995 0 0 0 0 -366.20814503600559 -150.53426103907987 0 -150.53426103907987 148.4330081250082 0 0 0 0 -358.80614781394252 -227.69869145298435 0 -227.69869145298435 -88.700460729749466 0 0 0 0 -514.47943456526082 -204.36164715268387 0 -204.36164715268387 -71.328080776773277 0 0 0 0 -394.97055680031553 -218.58767891595926 0 -218.58767891595926 75.973049636057112 0 0 0 0 -407.40160314343666 -99.843603256420465 0 -99.843603256420465 59.673044326300442 0 0 0 0 -421.91495689782278 -132.40419587033284 0 -132.40419587033284 149.08993843870121 0 0 0 0 -131.12583758486289 -201.08923222489102 0 -201.08923222489102 79.23385572443658 0 0 0 0 188.87937695384608 -284.91626190883835 0 -284.91626190883835 53.35597533838154 0 0 0 0 -134.41085439965536 -213.86294189406817 0 -213.86294189406817 199.77479408500949 0 0 0 0 379.36646694351293 -390.09349407040645 0 -390.09349407040645 224.22473860588798 0 0 0 0 290.43120273597742 -178.81870855393936 0 -178.81870855393936 112.1588122935791 0 0 0 0 490.04499551429035 -298.0700617245966 0 -298.0700617245966 119.16521180914424 0 0 0 0 267.70983233272273 -383.68312330177287 0 -383.68312330177287 213.52965875132941 0 0 0 0 -81.162271032255376 -295.46749797305529 0 -295.46749797305529 201.43868180578283 0 0 0 0 192.38916035936563 -198.87257496242091 0 -198.87257496242091 69.480359772525844 0 0 0 0 872.51292348183051 -656.06298196859279 0 -656.06298196859279 -18.353709477238226 0 0 0 0 393.63691113799723 -214.53063878935791 0 -214.53063878935791 -94.893443950655637 0 0 0 0 681.38495538456846 -646.62816792940794 0 -646.62816792940794 280.8375818044733 0 0 0 0 764.10874930970385 -758.73814099698211 0 -758.73814099698211 -38.268433132892824 0 0 0 0 945.36511505328599 -1079.8752124914936 0 -1079.8752124914936 454.42683166259667 0 0 0 0 1420.2017647297907 -1451.6562947644343 0 -1451.6562947644343 81.327077476278646 0 0 0 0 -88.332649623191173 -9.9027182762893062 0 -9.9027182762893062 -200.46363511042728 0 0 0 0 832.77196268295666 -704.10107129270909 0 -704.10107129270909 327.97314631001063 0 0 0 0 -70.54928133284011 -178.60720906099959 0 -178.60720906099959 105.82347144624509 0 0 0 0 -10.699779498179488 -7.6749069138098491 0 -7.6749069138098491 26.13734794938091 0 0 0 0 892.56007293681614 -1096.0028198865184 0 -1096.0028198865184 478.92678187324782 0 0 0 0 979.62638644858453 -712.92578397113903 0 -712.92578397113903 296.8823336380301 0 0 0 0 718.01309156931529 -581.09560267252527 0 -581.09560267252527 391.7620113730818 0 0 0 0 831.62874062862102 -870.13508036147687 0 -870.13508036147687 1251.0031976500904 0 0 0 0 1.5107711706672475 -0.1254847790286675 0 -0.1254847790286675 8.1499228283199159 0 0 0 0 2248.9022245106025 -1213.5224413756805 0 -1213.5224413756805 441.914805895889 0 0 0 0 745.99256006273208 -670.31823439716391 0 -670.31823439716391 348.71726713668613 0 0 0 0 1385.4528970978427 -565.57070981137076 0 -565.57070981137076 362.83603861668962 0 0 0 0 639.33429708243784 -596.49332312922343 0 -596.49332312922343 472.55435814518569 0 0 0 0 706.86785292217974 -317.32934981174185 0 -317.32934981174185 226.73365941989323 0 0 0 0 564.54359976822161 -544.89616625444614 0 -544.89616625444614 172.99433571958798 0 0 0 0 954.74764655105719 -619.75262101860426 0 -619.75262101860426 141.47951552513405 0 0 0 0 842.82172249546238 -820.2260758409866 0 -820.2260758409866 175.68817825295264 0 0 0 0 641.20019117146148 -822.20088266408857 0 -822.20088266408857 187.07774398378388 0 0 0 0 374.69325324442616 -707.98225708409154 0 -707.98225708409154 448.57083787243755 0 0 0 0 821.75902966042122 -1069.6061887821015 0 -1069.6061887821015 698.88516884573619 0 0 0 0 453.57845156251642 -652.77027619490764 0 -652.77027619490764 308.28776133448991 0 0 0 0 565.89415877523425 -481.0696423568952 0 -481.0696423568952 138.99567037584347 0 0 0 0 190.18983305154688 -33.355051400016237 0 -33.355051400016237 -289.43265209661695 0 0 0 0 -27.108770570936031 -158.04004908206116 0 -158.04004908206116 -59.397507156449137 0 0 0 0 -42.081900801944727 -51.497878607252446 0 -51.497878607252446 -54.403900632365065 0 0 0 0 4.783648620290478 -120.94791198148596 0 -120.94791198148596 23.652890010824194 0 0 0 0 -38.155987586899343 -46.904509591004327 0 -46.904509591004327 -55.651555519039846 0 0 0 0 310.66157897560333 -385.86096226973314 0 -385.86096226973314 127.35562272796687 0 0 0 0 57.246235994974995 -180.69765855512196 0 -180.69765855512196 4.574499902962998 0 0 0 0 30.081485490562045 -70.248284970752138 0 -70.248284970752138 -22.927306903482531 0 0 0 0 18.505520848942979 -64.498349172557937 0 -64.498349172557937 12.107271846252843 0 0 0 0 -14.601548181948601 -59.440751674177591 0 -59.440751674177591 13.438032104069862 0 0 0 0 64.579693473329826 -101.92680945329994 0 -101.92680945329994 1.6464552793440816 0 0 0 0 -8.5021779007511213 -88.042783290191437 0 -88.042783290191437 11.573469684175507 0 0 0 0 56.030674989277031 -103.97208693464927 0 -103.97208693464927 9.6163113085494842 0 0 0 0 -31.372706685406371 -44.861300001058375 0 -44.861300001058375 -49.894493034148866 0 0 0 0 6.9725269906120957 -465.63278188834374 0 -465.63278188834374 842.76494534457743 0 0 0 0 -332.13422014836397 26.653959336715161 0 26.653959336715161 129.22489554612548 0 0 0 0 58.798217747971648 -146.13728240273485 0 -146.13728240273485 30.282600669119347 0 0 0 0 107.18350117642876 -119.23957288943348 0 -119.23957288943348 309.78220856872213 0 0 0 0 -37.545286983430742 -44.352787197492802 0 -44.352787197492802 -51.739415398892703 0 0 0 0 -51.556447389215464 -114.89959984228335 0 -114.89959984228335 229.55991276537679 0 0 0 0 -4.2498189587446973 -29.644176608464704 0 -29.644176608464704 -4.7576837311396076 0 0 0 0 63.54241989707225 -326.71777031407692 0 -326.71777031407692 -356.75627970166533 0 0 0 0 -80.805119181371992 148.42905274871737 0 148.42905274871737 609.67240890281391 0 0 0 0 -83.220956040304372 -24.554819615154258 0 -24.554819615154258 130.86773118749261 0 0 0 0 -36.490546800283482 -44.58974648253934 0 -44.58974648253934 27.687806130707031 0 0 0 0 -46.440705388777133 -47.050403570436174 0 -47.050403570436174 105.78634569668793 0 0 0 0 -69.30367849675531 -89.567593819156173 0 -89.567593819156173 129.1881947276197 0 0 0 0 -54.55084883060772 -56.331028315435105 0 -56.331028315435105 175.54325948085898 0 0 0 0 -134.6654725226108 -114.98908325486991 0 -114.98908325486991 273.80289943743264 0 0 0 0 -165.09553558513289 -178.09431141883397 0 -178.09431141883397 162.29309645586909 0 0 0 0 -70.232920785058923 -98.694267800337229 0 -98.694267800337229 85.332912792226125 0 0 0 0 -54.342245246421953 -89.062029220716795 0 -89.062029220716795 90.281909717181406 0 0 0 0 -49.705965370492777 -63.074839382599748 0 -63.074839382599748 51.108838998858118 0 0 0 0 -65.801264335415908 -108.57224754858908 0 -108.57224754858908 58.321997103455942 0 0 0 0 -18.474885716117569 -174.94089790665748 0 -174.94089790665748 34.141627369433991 0 0 0 0 -49.059798087815579 -235.93815433476993 0 -235.93815433476993 -180.4632347996012 0 0 0 0 -38.018465995162842 27.162367901248217 0 27.162367901248217 -158.4442959818698 0 0 0 0 8.0656631778401788 -30.209639461296319 0 -30.209639461296319 -99.12828569294652 0 0 0 0 -73.743751138652442 -92.092926214783802 0 -92.092926214783802 59.599772202811437 0 0 0 0 13.121350479632383 -67.794436238982598 0 -67.794436238982598 63.808787979636691 0 0 0 0 79.377510878723115 -321.48815090284188 0 -321.48815090284188 133.20454504132795 0 0 0 0 189.85842991512618 -113.99309260072187 0 -113.99309260072187 7.0689120210154215 0 0 0 0 -210.29077434525243 26.580331211916928 0 26.580331211916928 -30.288524961535586 0 0 0 0 -228.84717779327775 -398.76949445204605 0 -398.76949445204605 -186.58425545899081 0 0 0 0 -4.9798142936090244 0.85228709407554959 0 0.85228709407554959 -0.57162364024691215 0 0 0 0 216.90480753756128 -68.333744361239951 0 -68.333744361239951 -829.59022277454278 0 0 0 0 -68.807828662513202 39.677486944070552 0 39.677486944070552 -157.30062797159189 0 0 0 0 135.51384825153468 -303.22052401997985 0 -303.22052401997985 -55.642005924630212 0 0 0 0 0.51606174584594555 -224.24728271395725 0 -224.24728271395725 -243.34205810570711 0 0 0 0 126.24920427129837 88.729253988320124 0 88.729253988320124 427.58404935640283 0 0 0 0 33.809449047494127 -563.75868825895304 0 -563.75868825895304 224.7676222587761 0 0 0 0 308.40953386336332 -158.71882655457375 0 -158.71882655457375 120.98723259140388 0 0 0 0 -1054.2901639155898 -352.80899135950312 0 -352.80899135950312 147.607915722896 0 0 0 0 0.17219522856569824 0.97427211251553558 0 0.97427211251553558 -3.4782320408875194 0 0 0 0 841.6060673618922 -447.4186419262769 0 -447.4186419262769 -45.199949734262191 0 0 0 0 -640.91788002838439 -4.6466309355746489 0 -4.6466309355746489 127.59663635320612 0 0 0 0 462.43395144480746 -1042.9299679003016 0 -1042.9299679003016 -395.40224526077509 0 0 0 0 0.3011757628542 -23.475111447476948 0 -23.475111447476948 -0.20128494940497532 0 0 0 0 -218.7738745883762 -235.25407590748 0 -235.25407590748 -127.95137394878839 0 0 0 0 -210.60096348274237 -143.75826837233944 0 -143.75826837233944 -83.570773578088847 0 0 0 0 -8.1049548787195818 -51.413578734053999 0 -51.413578734053999 -28.901166541033376 0 0 0 0 -38.0254980973736 -44.949019590677054 0 -44.949019590677054 -6.956621548272949 0 0 0 0 133.74982035759604 -91.335868647947791 0 -91.335868647947791 -138.44448872383509 0 0 0 0 29.728682959874277 -89.473874865594553 0 -89.473874865594553 15.061003881264696 0 0 0 0 64.478178974663024 -104.84518513761213 0 -104.84518513761213 -45.825295803399058 0 0 0 0 83.244576673110714 -186.72426481714501 0 -186.72426481714501 -199.60166597168791 0 0 0 0 -61.991873068443965 -169.70965401368449 0 -169.70965401368449 345.32819991282122 0 0 0 0 -130.71989164445768 -154.52004624829351 0 -154.52004624829351 38.533600364840822 0 0 0 0 7.6057134319923421 -53.534212556028308 0 -53.534212556028308 21.741491056552405 0 0 0 0 -4.4372430189105216 -338.89091036331229 0 -338.89091036331229 205.71563608667566 0 0 0 0 -214.50646601157496 -456.76189004517801 0 -456.76189004517801 208.85969569628651 0 0 0 0 -263.30922919197474 84.561732066358672 0 84.561732066358672 -435.80541742275818 0 0 0 0 -62.077128722997827 -92.159427924577727 0 -92.159427924577727 -22.770606938502794 0 0 0 0 -86.224691079966618 -72.748160350576512 0 -72.748160350576512 -20.650552664921662 0 0 0 0 -12.871140481147449 -78.856658178090584 0 -78.856658178090584 -25.779181474892539 0 0 0 0 -69.752435678640097 -52.596704045796457 0 -52.596704045796457 -18.155428409049122 0 0 0 0 18.337924054408916 -24.331511594691577 0 -24.331511594691577 -20.056332823820014 0 0 0 0 -466.09777232341003 -26.372277226895676 0 -26.372277226895676 38.843875423772261 0 0 0 0 -93.077862515950613 -59.118181417958738 0 -59.118181417958738 -0.7080964231957978 0 0 0 0 -470.27836465180735 33.458280181599548 0 33.458280181599548 74.525738224037923 0 0 0 0 -167.78557751543121 -130.8826281769434 0 -130.8826281769434 -30.708212548517622 0 0 0 0 1763.2709515029564 531.8693108423613 0 531.8693108423613 -787.77173936762847 0 0 0 0 -57.979568791353074 -80.142961969577897 0 -80.142961969577897 -16.781663042103702 0 0 0 0 -272.75851419242099 -143.56855747578084 0 -143.56855747578084 -27.836623472452629 0 0 0 0 -87.763865601475118 -75.573482749066898 0 -75.573482749066898 -18.259241138584912 0 0 0 0 62.049368938809494 -219.57997792859533 0 -219.57997792859533 -221.61618916039879 0 0 0 0 -2113.3013655160612 -368.22055681348138 0 -368.22055681348138 979.53078230796382 0 0 0 0 -344.04727526609349 -615.71743171240996 0 -615.71743171240996 -333.03432501829229 0 0 0 0 233.18680818397479 -225.40884471480877 0 -225.40884471480877 90.588953471611603 0 0 0 0 -13.480040363104976 -8.2403129340396077 0 -8.2403129340396077 -5.361887030898572 0 0 0 0 10006.80759192002 -1659.3344634957612 0 -1659.3344634957612 -2164.7394673508825 0 0 0 0 -19.338980173404849 -9.0294715450674516 0 -9.0294715450674516 0.98465505652123397 0 0 0 0 -477.01867195202794 40.324372535713337 0 40.324372535713337 157.85837773187086 0 0 0 0 -455.15231057394703 -4.1682776872476097 0 -4.1682776872476097 80.633759517339058 0 0 0 0 -425.63605087655014 8.3027346267190296 0 8.3027346267190296 74.064499230502406 0 0 0 0 -24.34991958281821 -54.069644095275919 0 -54.069644095275919 -63.874641486017026 0 0 0 0 -29.728280427894788 -83.833947885908856 0 -83.833947885908856 -60.180760473628652 0 0 0 0 -29.412570660151061 -68.256798052968009 0 -68.256798052968009 -60.537090819458001 0 0 0 0 -59.390178126186242 -64.601683192983671 0 -64.601683192983671 -36.476726530166715 0 0 0 0 -29.654431309565553 -65.459513318532117 0 -65.459513318532117 -64.653731001439155 0 0 0 0 8.7187873858827629 -9.6661699984872342 0 -9.6661699984872342 -15.333591802671492 0 0 0 0 72.854538030471304 -39.637122123102017 0 -39.637122123102017 -105.00195286368762 0 0 0 0 228.13062807558163 -138.65623345364111 0 -138.65623345364111 32.657918098586379 0 0 0 0 180.63377306895563 -250.31270280944591 0 -250.31270280944591 173.29286427093757 0 0 0 0 -8.5251551678265969 -49.68389067712269 0 -49.68389067712269 28.116542464005761 0 0 0 0 26.737439969670959 -130.04823941966606 0 -130.04823941966606 109.90799789280572 0 0 0 0 118.23998296748323 -206.33263690795138 0 -206.33263690795138 -25.379923866807076 0 0 0 0 58.779330303805182 -123.28274974656233 0 -123.28274974656233 67.948271481596748 0 0 0 0 89.31798725418048 -154.91381485036982 0 -154.91381485036982 -42.066880338825285 0 0 0 0 57.698991422156723 -109.70700973315752 0 -109.70700973315752 -52.7339986350853 0 0 0 0 110.89806115171814 -174.74672739995731 0 -174.74672739995731 -133.81505126667616 0 0 0 0 -6.6137595650216099 -278.51042772436631 0 -278.51042772436631 -4.321158111517434 0 0 0 0 259.62143253558315 -288.88292775419541 0 -288.88292775419541 -91.540126608742867 0 0 0 0 198.73981837296742 -425.64142420228745 0 -425.64142420228745 93.052912975646905 0 0 0 0 -105.81451597772138 -281.98758774850467 0 -281.98758774850467 84.924704005839885 0 0 0 0 3.6734448952596779 -5.1577935821890151 0 -5.1577935821890151 5.4780809332197862 0 0 0 0 -258.51622742180189 -44.029327664422453 0 -44.029327664422453 164.08048542197503 0 0 0 0 -1084.6859780042432 581.2742646971019 0 581.2742646971019 -296.47739707143046 0 0 0 0 -32.636345353574143 -72.631377263038303 0 -72.631377263038303 -187.55131698481273 0 0 0 0 -111.27886142177158 -53.750242780421104 0 -53.750242780421104 -94.844011009510723 0 0 0 0 -87.322598024213221 -87.100425573422399 0 -87.100425573422399 -49.351804388657911 0 0 0 0 77.621856574623962 -173.73756094773125 0 -173.73756094773125 -23.380503554915776 0 0 0 0 -19.782027491731803 -60.211372478411349 0 -60.211372478411349 -78.974333403507899 0 0 0 0 31.407505031078472 -97.834124432367389 0 -97.834124432367389 -88.009406304685399 0 0 0 0 8.8647550306923222 -72.397285568367806 0 -72.397285568367806 -113.15142311752425 0 0 0 0 -4.4902585831587203 -113.82741208274092 0 -113.82741208274092 -127.39905765475123 0 0 0 0 187.09646540235917 -137.14085684397833 0 -137.14085684397833 -70.449465543555561 0 0 0 0 8.4899671087841853 -101.57895918560098 0 -101.57895918560098 -75.047298316130764 0 0 0 0 170.15548417583341 98.826587877709244 0 98.826587877709244 -199.3899154287501 0 0 0 0 -34.889054428058444 -72.864895741784494 0 -72.864895741784494 -62.235028302151477 0 0 0 0 8.2386031462067422 -9.1025206829603462 0 -9.1025206829603462 -10.80497076631265 0 0 0 0 40.070932762613666 -94.493726312413855 0 -94.493726312413855 -76.041440897388384 0 0 0 0 -128.37680766455014 -108.79836605173477 0 -108.79836605173477 61.056634941647644 0 0 0 0 35.814456151420018 -73.760580158796074 0 -73.760580158796074 -66.099549538104839 0 0 0 0 -43.30725851911042 -64.197617208412623 0 -64.197617208412623 -55.86280421432653 0 0 0 0 -216.38068665523315 -154.29242326476015 0 -154.29242326476015 41.386398450482375 0 0 0 0 -108.97826450850698 -210.13946808995388 0 -210.13946808995388 24.997837515362335 0 0 0 0 -287.02348450911813 -274.66300196271186 0 -274.66300196271186 2.8235636059089302 0 0 0 0 68.687496252314304 -424.54872988212446 0 -424.54872988212446 -234.1004343132081 0 0 0 0 80.194064601615537 -672.97845655053243 0 -672.97845655053243 -261.92520148547192 0 0 0 0 -482.01567939719826 325.58992653858877 0 325.58992653858877 106.17436927086965 0 0 0 0 4.3543043880854384 -115.57021618286672 0 -115.57021618286672 -47.709024343552301 0 0 0 0 32.786275743259466 -157.52482236568176 0 -157.52482236568176 -81.704333590364968 0 0 0 0 80.247525013051927 -107.73498228055541 0 -107.73498228055541 -40.47307702866965 0 0 0 0 71.195141504940693 -85.169514460576465 0 -85.169514460576465 -64.460089208558202 0 0 0 0 65.061496221685957 -104.41457530565822 0 -104.41457530565822 -3.6056593287867145 0 0 0 0 63.20420011360693 -118.95933966757002 0 -118.95933966757002 -45.068979090254288 0 0 0 0 57.078613484627567 -129.72884422105562 0 -129.72884422105562 -13.460892605697154 0 0 0 0 24.001303562443354 -127.24200861065765 0 -127.24200861065765 -7.2552536188813974 0 0 0 0 32.586610573409416 -110.45571081295384 0 -110.45571081295384 -11.821378232300049 0 0 0 0 -29.923382558277808 -132.6398955800978 0 -132.6398955800978 -19.689548211244983 0 0 0 0 -56.393882167976699 -97.384097874914005 0 -97.384097874914005 14.543184221854062 0 0 0 0 -0.19316459668334574 -76.293552539980737 0 -76.293552539980737 10.503562162150047 0 0 0 0 -11.477328624765505 -110.94558582283207 0 -110.94558582283207 62.573604333625553 0 0 0 0 -22.146036002304754 -77.718972588649194 0 -77.718972588649194 -38.813944077934138 0 0 0 0 -84.428562782675726 -120.50473628444888 0 -120.50473628444888 -30.799156349803525 0 0 0 0 -18.091859956970438 -122.8090802718034 0 -122.8090802718034 -47.720360802355572 0 0 0 0 -44.141649647586746 -105.47278164952877 0 -105.47278164952877 -57.249831303604878 0 0 0 0 -25.39422384671343 -146.92911817970162 0 -146.92911817970162 -80.569723194639664 0 0 0 0 -48.025568586570444 -166.6678769801365 0 -166.6678769801365 -119.10804658770212 0 0 0 0 -18.00657037270139 -131.75618996567209 0 -131.75618996567209 -85.588733841737849 0 0 0 0 190.29310384207929 -9.4705975018914614 0 -9.4705975018914614 -128.33739853365114 0 0 0 0 -107.89975811280601 -124.14349846522964 0 -124.14349846522964 -62.296201318924432 0 0 0 0 10.146712244076639 -0.12808613227173282 0 -0.12808613227173282 -7.7877414465406218 0 0 0 0 3.1491332732548472 -131.35863396433706 0 -131.35863396433706 -140.06710543042573 0 0 0 0 -129.35716583381873 -76.649140105408151 0 -76.649140105408151 -141.98301801113121 0 0 0 0 51.506096994096879 -78.155761895963224 0 -78.155761895963224 -145.22256882800139 0 0 0 0 -52.615281157392019 -90.593539463017805 0 -90.593539463017805 -180.60392715784837 0 0 0 0 -62.355636609077919 -189.26405109073676 0 -189.26405109073676 -223.34565030753583 0 0 0 0 -849.93255649489583 -257.73294986804831 0 -257.73294986804831 -99.005875503651623 0 0 0 0 189.23977539033513 -70.22761599909245 0 -70.22761599909245 -322.11742118906113 0 0 0 0 870.20898774947273 -319.88622847748047 0 -319.88622847748047 -252.46356015195488 0 0 0 0 -10.012155968147795 -8.5251851756825374 0 -8.5251851756825374 10.171617364607116 0 0 0 0 58.277479472948471 473.29468825192453 0 473.29468825192453 -391.57291235742741 0 0 0 0 2368.5149015648349 -1570.0259052527617 0 -1570.0259052527617 -813.62931160748121 0 0 0 0 118.28091125456194 -158.85859622691851 0 -158.85859622691851 -45.485371925635263 0 0 0 0 10.433002784033306 -96.290140861303371 0 -96.290140861303371 13.50478448663489 0 0 0 0 54.899921684875991 -42.588111061698697 0 -42.588111061698697 27.816501622679766 0 0 0 0 111.01234904584453 -56.546972339337344 0 -56.546972339337344 -16.446405237933504 0 0 0 0 -227.1193251460063 -167.60664718181943 0 -167.60664718181943 47.151705475618655 0 0 0 0 11.784464883989529 -11.467816228431211 0 -11.467816228431211 1.4068891860220845 0 0 0 0 -97.623339998273877 -52.455128695670282 0 -52.455128695670282 44.294265168049606 0 0 0 0 19.790119163932104 -78.928230797137076 0 -78.928230797137076 25.34688223581179 0 0 0 0 54.101981093238322 -34.450123906739805 0 -34.450123906739805 18.320916127580659 0 0 0 0 72.911645528714871 -22.197221287780849 0 -22.197221287780849 -73.27062244577246 0 0 0 0 49.860471049360058 -40.250051702401834 0 -40.250051702401834 -19.708360206255747 0 0 0 0 70.544227165211851 -85.234213546853425 0 -85.234213546853425 26.122046430202317 0 0 0 0 44.873093645992498 -38.761111647883851 0 -38.761111647883851 -0.90979469353550257 0 0 0 0 38.173282310458376 -33.028348820211647 0 -33.028348820211647 18.24399247236164 0 0 0 0 -8.3855751366863842 -122.26680861028944 0 -122.26680861028944 -96.465459471262875 0 0 0 0 26.911247475506087 -7.1720046606787946 0 -7.1720046606787946 -9.5765571892841308 0 0 0 0 -24.389692886295961 -148.528467480166 0 -148.528467480166 -82.098275451520294 0 0 0 0 -0.81123514120554319 -138.60567688157971 0 -138.60567688157971 -106.27928064738808 0 0 0 0 117.58111737011495 -81.124470663078682 0 -81.124470663078682 -32.079730069304787 0 0 0 0 100.88687681147111 -43.312416499701783 0 -43.312416499701783 9.4132506402029605 0 0 0 0 204.87101272434666 -62.231679769505718 0 -62.231679769505718 -92.817285824916326 0 0 0 0 96.754775519182658 -112.24849558913866 0 -112.24849558913866 121.97869327846274 0 0 0 0 93.162162975423144 -92.274400975047683 0 -92.274400975047683 28.311280609414098 0 0 0 0 55.612098349231928 -54.141367010470731 0 -54.141367010470731 -426.46456825853966 0 0 0 0 50.114769480329414 -7.1324201193165209 0 -7.1324201193165209 -107.3999727018454 0 0 0 0 58.558935166771334 47.415759432671621 0 47.415759432671621 52.358519441520912 0 0 0 0 52.89806833925104 -183.55744198081084 0 -183.55744198081084 -42.987500324019493 0 0 0 0 9.3298327897500712 -55.284484082985728 0 -55.284484082985728 43.933755209771334 0 0 0 0 6.4104592679852459 -10.153547222139409 0 -10.153547222139409 -2.6302597043426488 0 0 0 0 25.853262704171357 -71.503726140290382 0 -71.503726140290382 26.452296910374571 0 0 0 0 28.941779362150143 -40.22375381268597 0 -40.22375381268597 4.624666497672024 0 0 0 0 27.86275409693917 -57.956280093560054 0 -57.956280093560054 14.92397013781374 0 0 0 0 41.608125859464053 -67.237632818258135 0 -67.237632818258135 -7.3202756791979482 0 0 0 0 58.199494080941804 -57.078864916489692 0 -57.078864916489692 -20.044594739592867 0 0 0 0 68.024091861560009 -63.330076938553248 0 -63.330076938553248 -7.3829674049338792 0 0 0 0 37.764497052674415 -84.203259546949994 0 -84.203259546949994 14.848782311190917 0 0 0 0 56.667795237975952 -49.962977322160441 0 -49.962977322160441 -11.098812512369477 0 0 0 0 56.252725042191742 -52.764766547588806 0 -52.764766547588806 -4.3728991495445371 0 0 0 0 47.641868993057869 -48.240960972481844 0 -48.240960972481844 -7.2956395128858276 0 0 0 0 67.338405083282851 -39.556321646239667 0 -39.556321646239667 -5.1756550653135491 0 0 0 0 208.23053151938802 96.900075569135879 0 96.900075569135879 -133.38800399700995 0 0 0 0 75.496190926751297 -41.400311420533399 0 -41.400311420533399 -7.3871402989534545 0 0 0 0 30.936381228475994 -43.045063231642089 0 -43.045063231642089 3.2601466319189001 0 0 0 0 -142.25301164023949 165.05409041791427 0 165.05409041791427 -16.286973490612581 0 0 0 0 33.509414630199899 -117.49210717820461 0 -117.49210717820461 -132.21646890172269 0 0 0 0 629.55618639761087 -213.25549162827701 0 -213.25549162827701 -1193.6103455396951 0 0 0 0 37.182134632266695 -4.4013666259464728 0 -4.4013666259464728 -44.363239330671348 0 0 0 0 73.048180023579334 -51.044445840219851 0 -51.044445840219851 -4.2715239831804865 0 0 0 0 589.06439503628644 237.13021940486942 0 237.13021940486942 -1456.3025889344426 0 0 0 0 -3.6276375807905339 -9.4582253274172317 0 -9.4582253274172317 -13.272327049247309 0 0 0 0 522.34250209437232 291.32098237898754 0 291.32098237898754 -971.54935362629476 0 0 0 0 -130.90467002877267 -305.44396777690417 0 -305.44396777690417 388.218436248746 0 0 0 0 -662.08442362336064 -697.61401064943857 0 -697.61401064943857 -485.40602972009219 0 0 0 0 -570.63422177103894 1444.7464588335097 0 1444.7464588335097 -150.76992809661169 0 0 0 0 -502.67024448217853 -254.00029212885784 0 -254.00029212885784 166.57135003109579 0 0 0 0 6.6407003517188059 -17.50046570091029 0 -17.50046570091029 -9.3239876756232718 0 0 0 0 -395.42895545379724 -1019.1943447941376 0 -1019.1943447941376 -1019.165176322058 0 0 0 0 398.45934400198166 -309.48657856633508 0 -309.48657856633508 -2022.4258680193379 0 0 0 0 -149.86684471035551 -635.47573345949058 0 -635.47573345949058 -737.00910925566131 0 0 0 0 344.46071459823725 -10.543001372847357 0 -10.543001372847357 -413.51647067785962 0 0 0 0 75.362498907234112 -434.15914072140004 0 -434.15914072140004 -700.72037818411627 0 0 0 0 197.48427906208963 -296.76748830029828 0 -296.76748830029828 -818.91395122796166 0 0 0 0 186.00869467321536 -331.16365005838088 0 -331.16365005838088 -568.86546337521577 0 0 0 0 126.25507206307884 -244.86880425156414 0 -244.86880425156414 -527.44664711519727 0 0 0 0 145.40868169970418 -201.26520264934152 0 -201.26520264934152 -430.26971459839842 0 0 0 0 5.9946799853787525 -254.09422100669326 0 -254.09422100669326 -353.57424160239316 0 0 0 0 18.632606584375026 -240.742613020524 0 -240.742613020524 -376.66595231983229 0 0 0 0 -125.17653136517765 -114.26662653775566 0 -114.26662653775566 -35.836016226268839 0 0 0 0 -372.46631908019481 -257.29584377886204 0 -257.29584377886204 22.522214337892365 0 0 0 0 13.110552897531306 -388.45513768428646 0 -388.45513768428646 -372.79981842743291 0 0 0 0 87.55594335871865 -204.88902865228374 0 -204.88902865228374 -185.36648823899668 0 0 0 0 -114.72050013368425 -228.96291373351505 0 -228.96291373351505 -42.559723744103394 0 0 0 0 -84.439260639803251 -186.07448300522992 0 -186.07448300522992 29.707861018141557 0 0 0 0 -145.3367194118764 -169.59780145140576 0 -169.59780145140576 25.664855659772002 0 0 0 0 62.32264924608171 -107.53076966259323 0 -107.53076966259323 14.164156624872703 0 0 0 0 145.71767405940045 -187.07299593922289 0 -187.07299593922289 -80.239118486009829 0 0 0 0 93.581742316301131 -26.086029052710053 0 -26.086029052710053 -86.535351206528929 0 0 0 0 185.18306104785552 -277.96590250834652 0 -277.96590250834652 -70.391026735858759 0 0 0 0 93.233720987744164 -136.23592511531024 0 -136.23592511531024 -66.421284270792967 0 0 0 0 121.25761114516945 -98.535110226033524 0 -98.535110226033524 3.0266884188609993 0 0 0 0 128.29126338740753 -10.997544354102502 0 -10.997544354102502 -75.50507893662143 0 0 0 0 65.425222656600468 -54.028431617596624 0 -54.028431617596624 -69.129534436691927 0 0 0 0 270.87811032141326 151.8260870060476 0 151.8260870060476 360.94171202265716 0 0 0 0 41.325219985369671 -77.882381480590141 0 -77.882381480590141 -19.130272801433591 0 0 0 0 19.545736254061921 -94.265329250327341 0 -94.265329250327341 -54.37904363925918 0 0 0 0 16.853451682643936 -88.564229802223053 0 -88.564229802223053 -56.574116188043263 0 0 0 0 17.430585806170711 -91.151794117795362 0 -91.151794117795362 -50.796054296255534 0 0 0 0 20.406408105074661 -96.366278185756528 0 -96.366278185756528 -51.827234704862349 0 0 0 0 -13.068278383951203 -54.624337836891158 0 -54.624337836891158 -24.299848650656429 0 0 0 0 0.91295352381362704 -73.485609694907566 0 -73.485609694907566 -46.930531521375983 0 0 0 0 8.0348463365153293 -75.323337021265615 0 -75.323337021265615 -36.50433449522825 0 0 0 0 288.36434793789522 -139.79583027485205 0 -139.79583027485205 -33.293277852935717 0 0 0 0 -4.39439791230879 -84.170380393045164 0 -84.170380393045164 -47.82907384293398 0 0 0 0 -6.7975418380687529 -66.588985215650851 0 -66.588985215650851 -57.344522546523137 0 0 0 0 -41.51580146564811 -132.18636245456582 0 -132.18636245456582 -91.925443229982193 0 0 0 0 -34.186028792042634 -151.75353950042336 0 -151.75353950042336 -161.25493338912565 0 0 0 0 25.802204336237509 -76.864299624621538 0 -76.864299624621538 -36.586986157350111 0 0 0 0 -85.734378127352102 -42.275434645285713 0 -42.275434645285713 -48.14897682469018 0 0 0 0 71.784140651318012 -284.67202055118105 0 -284.67202055118105 -150.51122884679353 0 0 0 0 198.07773368692142 -28.821537806477863 0 -28.821537806477863 -101.55029086908326 0 0 0 0 8.756119378933505 -30.492743234097418 0 -30.492743234097418 -8.4443078149250539 0 0 0 0 367.35279768908367 -288.62579972156163 0 -288.62579972156163 -223.71508892570273 0 0 0 0 48.528665692483443 -49.100793003935394 0 -49.100793003935394 11.286734446501811 0 0 0 0 38.532935785458903 -83.377924442083895 0 -83.377924442083895 -28.428222099799314 0 0 0 0 55.583198403712686 -62.548563729408897 0 -62.548563729408897 -34.780247559087002 0 0 0 0 -18.466905411114567 -503.36984409833531 0 -503.36984409833531 561.09006060005049 0 0 0 0 29.331297020710537 -34.710778288920679 0 -34.710778288920679 -48.860759685117685 0 0 0 0 -812.64399703076924 -473.70385600781447 0 -473.70385600781447 597.58175121502427 0 0 0 0 -438.0349662903609 213.24355477835343 0 213.24355477835343 378.16594212477503 0 0 0 0 672.58122569456464 -227.71109433901256 0 -227.71109433901256 -1669.2449920491927 0 0 0 0 -103.37608078712947 -378.05317448099959 0 -378.05317448099959 341.52995641423331 0 0 0 0 -116.09734509406553 -288.73728915114771 0 -288.73728915114771 261.22766682109614 0 0 0 0 -78.657002613792429 -369.27416044725942 0 -369.27416044725942 241.62204730288067 0 0 0 0 165.39683955015789 -214.89188903273862 0 -214.89188903273862 -156.88902878782756 0 0 0 0 173.98353508606669 -255.63197088087145 0 -255.63197088087145 -246.52420768284719 0 0 0 0 -24.764788696438004 -65.891659103953373 0 -65.891659103953373 -62.260460104642107 0 0 0 0 149.55841027662973 -164.61355625871693 0 -164.61355625871693 -120.99493662793247 0 0 0 0 538.45296009912272 -359.88483490547878 0 -359.88483490547878 -1295.0748741036296 0 0 0 0 159.30173691248638 -228.50488869229775 0 -228.50488869229775 89.693774568804656 0 0 0 0 267.98664869510685 -110.77290376660767 0 -110.77290376660767 -149.48519350212882 0 0 0 0 -12.101027168076115 -13.79000250158964 0 -13.79000250158964 -13.494103916422802 0 0 0 0 -44.531102869746974 -194.28817330192123 0 -194.28817330192123 -78.207058688010875 0 0 0 0 37.21168209266034 -70.863863007736654 0 -70.863863007736654 -26.027995722275591 0 0 0 0 63.826583458096138 -174.85345451364992 0 -174.85345451364992 -165.90920330737026 0 0 0 0 64.266868578488356 -180.74996696368999 0 -180.74996696368999 -93.494246582042251 0 0 0 0 -10.434269060948282 -193.58472840485047 0 -193.58472840485047 -92.929508671873919 0 0 0 0 -5.4567591555532999 -173.93461041868795 0 -173.93461041868795 -30.280247896895162 0 0 0 0 -190.15460990169959 -85.547535319068629 0 -85.547535319068629 -36.385298871080522 0 0 0 0 -210.97853601493989 -543.70700806235072 0 -543.70700806235072 -289.18074950909067 0 0 0 0 131.97397174523093 -69.70551452734864 0 -69.70551452734864 10.890951483227084 0 0 0 0 16.1153450731872 -290.2830599268209 0 -290.2830599268209 -149.91205265340614 0 0 0 0 -110.22519829060548 -230.47025058600502 0 -230.47025058600502 -52.764567578084097 0 0 0 0 72.453807214325934 -246.46095997173325 0 -246.46095997173325 -130.77730346101634 0 0 0 0 56.950117694068467 -246.62241140554124 0 -246.62241140554124 -129.91083877547135 0 0 0 0 80.057901886721083 -312.78419495673188 0 -312.78419495673188 -118.62688817625713 0 0 0 0 229.75265033012693 -322.00307864010574 0 -322.00307864010574 -167.76076314358215 0 0 0 0 -108.66071874773843 -289.91839760894254 0 -289.91839760894254 255.35978041222552 0 0 0 0 -37.987003731565459 -63.619079772335915 0 -63.619079772335915 -62.745441259917499 0 0 0 0 360.49792765881284 -470.82440407283138 0 -470.82440407283138 -49.317754998828605 0 0 0 0 -35.23023574408581 -62.603696839910128 0 -62.603696839910128 -63.809019692772026 0 0 0 0 976.5352853093209 -477.22775163993356 0 -477.22775163993356 -43.708971012812981 0 0 0 0 179.75765291184507 -174.73760524490717 0 -174.73760524490717 66.539252699338249 0 0 0 0 136.80248487002973 0.52845397786222748 0 0.52845397786222748 -401.27792342905013 0 0 0 0 1.7638444730111473 -72.007475677787639 0 -72.007475677787639 -25.730935362858023 0 0 0 0 -633.79147485256544 -215.35486580483848 0 -215.35486580483848 467.82779330507037 0 0 0 0 -47.84604218932509 -286.15700124887735 0 -286.15700124887735 66.345853156781232 0 0 0 0 -193.29745216663287 -172.67678539296139 0 -172.67678539296139 -117.24338427721341 0 0 0 0 -7.9588648973949603 -150.97477395662986 0 -150.97477395662986 -373.04625541958012 0 0 0 0 -25.457449418812757 -113.77415295832759 0 -113.77415295832759 199.26961852205221 0 0 0 0 -9.9072821193365712 -96.935005791864384 0 -96.935005791864384 -24.920226238715387 0 0 0 0 -104.59496953702183 -411.01889886528079 0 -411.01889886528079 524.00123928706307 0 0 0 0 -10.20584963364513 -44.133886834435273 0 -44.133886834435273 4.002173959304109 0 0 0 0 50.587299272185192 -383.11054280768985 0 -383.11054280768985 -520.18565023353221 0 0 0 0 -70.053287030436778 -95.606952541615641 0 -95.606952541615641 -25.347380424277802 0 0 0 0 140.36431784546585 -151.65405837682192 0 -151.65405837682192 -766.28961166679642 0 0 0 0 -835.92925670452769 -271.27389218763619 0 -271.27389218763619 896.97157685329148 0 0 0 0 -9.3643248398086314 -9.4071815595867392 0 -9.4071815595867392 -8.5656190931462959 0 0 0 0 828.9181188466755 -518.21860417538846 0 -518.21860417538846 -901.65569143185348 0 0 0 0 -941.78073266621959 -951.53171323763991 0 -951.53171323763991 419.3686334171507 0 0 0 0 182.78270988148142 -829.89215171748219 0 -829.89215171748219 218.08189854558805 0 0 0 0 274.17510472516005 -475.99894944894913 0 -475.99894944894913 -519.71964113552531 0 0 0 0 -176.73745501147641 -380.99781726193032 0 -380.99781726193032 -47.801114955105731 0 0 0 0 -299.67331783983536 -39.748954168089767 0 -39.748954168089767 -381.87540012052341 0 0 0 0 -317.9039440618435 563.96794085568763 0 563.96794085568763 929.65549375592673 0 0 0 0 494.57396253133629 1090.6718026912422 0 1090.6718026912422 -809.68240362939105 0 0 0 0 -14.425356546154205 -19.001659284610795 0 -19.001659284610795 -19.458455817034519 0 0 0 0 -254.60626933366439 -1939.4110083525302 0 -1939.4110083525302 -1056.356675706078 0 0 0 0 262.20272730827128 -358.41819383118491 0 -358.41819383118491 63.923825531695911 0 0 0 0 200.26145088051999 -81.06239569419995 0 -81.06239569419995 188.37340250244233 0 0 0 0 50.403110724189901 -360.8227740701368 0 -360.8227740701368 -271.88771187779639 0 0 0 0 148.19848067008934 -111.56522439886976 0 -111.56522439886976 -208.84359819496603 0 0 0 0 37.758875358660589 58.562609172466182 0 58.562609172466182 -268.9431191392776 0 0 0 0 193.143691326728 34.901715337514361 0 34.901715337514361 -299.46681922668358 0 0 0 0 94.832604255243496 -27.716233818195178 0 -27.716233818195178 31.335910102419803 0 0 0 0 136.84463544644677 -157.92049449662863 0 -157.92049449662863 -152.45296602019516 0 0 0 0 90.788480660317873 -298.70600799700333 0 -298.70600799700333 -457.04738094638378 0 0 0 0 -26.102497419647989 -185.81758048209304 0 -185.81758048209304 -156.98811134702919 0 0 0 0 -34.247779186702118 -59.944737751967608 0 -59.944737751967608 -65.813495724304119 0 0 0 0 998.98863122280136 -903.79815833303144 0 -903.79815833303144 55.703377665922744 0 0 0 0 11.943837972343061 -26.872173701454365 0 -26.872173701454365 -19.364902882967939 0 0 0 0 3040.014790211455 -363.30363506620051 0 -363.30363506620051 -358.4509538639395 0 0 0 0 -50.540376855271461 -1510.4358453885616 0 -1510.4358453885616 1461.9498244090209 0 0 0 0 3059.3941324518528 -1790.8424983797595 0 -1790.8424983797595 1308.5348809683055 0 0 0 0 -80.998798549364437 -263.81703585548348 0 -263.81703585548348 130.28862884166301 0 0 0 0 -122.44602718599708 -366.53664532017137 0 -366.53664532017137 -124.11493977759665 0 0 0 0 -274.24643225355248 -117.34855608688304 0 -117.34855608688304 330.0523617335657 0 0 0 0 -191.88970333319594 -682.12092345162091 0 -682.12092345162091 -761.47177217883552 0 0 0 0 -31.628367723093106 -350.78853686928414 0 -350.78853686928414 -122.82698483073182 0 0 0 0 -637.77789505815144 270.70844585273835 0 270.70844585273835 -50.504161282267887 0 0 0 0 -878.26967992532082 -625.77359770617113 0 -625.77359770617113 32.611870704902685 0 0 0 0 -306.25663765438367 -170.60013680304655 0 -170.60013680304655 445.76612997749908 0 0 0 0 -163.1300662487738 162.61752699780118 0 162.61752699780118 422.95010883312079 0 0 0 0 -4.4352781742783947 -1.8469824373351678 0 -1.8469824373351678 9.7396867597057621 0 0 0 0 375.94150788108163 -508.25012236379553 0 -508.25012236379553 556.40571586960868 0 0 0 0 283.08068485929834 -434.33175572315668 0 -434.33175572315668 514.05740176192194 0 0 0 0 274.51088299096591 -296.7574403705803 0 -296.7574403705803 691.38375323410582 0 0 0 0 320.98459631181322 -56.684407640677819 0 -56.684407640677819 91.964675575705769 0 0 0 0 282.10813448149565 -242.58257250626775 0 -242.58257250626775 121.55083792061851 0 0 0 0 281.93272038819623 -224.03762986405218 0 -224.03762986405218 133.65797566070978 0 0 0 0 384.2832486039988 -374.6764135799458 0 -374.6764135799458 323.96148295315288 0 0 0 0 564.75244389459112 -39.302896825738571 0 -39.302896825738571 209.23325492877484 0 0 0 0 9.563529038168781 -26.892315786597464 0 -26.892315786597464 261.38613340139273 0 0 0 0 21.832189254135301 0.39034155016997829 0 0.39034155016997829 280.41501221814906 0 0 0 0 -10.173052715650556 -32.247290073421027 0 -32.247290073421027 717.2362886027986 0 0 0 0 445.83405787202719 -345.75996337258766 0 -345.75996337258766 307.08628468336246 0 0 0 0 1.6516366936295253 -2.6087555355474308 0 -2.6087555355474308 3.1203776948143513 0 0 0 0 44.519286357535748 61.726790709617489 0 61.726790709617489 155.43289251497481 0 0 0 0 308.45976819220596 -358.63268919580514 0 -358.63268919580514 522.87132055185066 0 0 0 0 264.4175361949965 -268.21028625848703 0 -268.21028625848703 368.89477511358564 0 0 0 0 406.77959353666665 -254.23002720288787 0 -254.23002720288787 96.662657355162082 0 0 0 0 195.64176355728705 -214.99026597921329 0 -214.99026597921329 161.51052074068866 0 0 0 0 22.364540318859923 9.4097817761024132 0 9.4097817761024132 -9.3056215946964471 0 0 0 0 -0.12182784377601763 1.0545292247005165 0 1.0545292247005165 -2.9132744948246767 0 0 0 0 -13.813484963990049 -12.301214016588347 0 -12.301214016588347 -34.63037542020902 0 0 0 0 23.138509114904462 -6.0470135288331761 0 -6.0470135288331761 -24.778300108732594 0 0 0 0 21.070785583496061 -10.84818116993155 0 -10.84818116993155 -26.40899167036903 0 0 0 0 10.077823085225049 -7.481750518318762 0 -7.481750518318762 -26.604965008913013 0 0 0 0 112.50232020371914 -18.421408951653575 0 -18.421408951653575 -93.576575254068302 0 0 0 0 12.153945406425009 4.6910586088379205 0 4.6910586088379205 -52.013674608591828 0 0 0 0 -187.65314993396169 149.44251493058255 0 149.44251493058255 -170.90125281509245 0 0 0 0 -119.76663984758306 195.80285762775748 0 195.80285762775748 -470.79532637943339 0 0 0 0 -305.65953736760639 393.21934084532404 0 393.21934084532404 -169.76429661668226 0 0 0 0 -202.74196201711311 364.56487261708389 0 364.56487261708389 -471.65024769275624 0 0 0 0 -454.98547065666935 269.2442444932567 0 269.2442444932567 -209.70763396915572 0 0 0 0 5.1969954651464221 -4.6091704701044094 0 -4.6091704701044094 -48.533889629418468 0 0 0 0 65.421466848742057 3.7278914230637383 0 3.7278914230637383 -93.102472224345547 0 0 0 0 -299.21190118134109 404.92020984202099 0 404.92020984202099 -158.48577713011036 0 0 0 0 -417.79549525892071 118.40718015924358 0 118.40718015924358 -117.43106231754518 0 0 0 0 -295.23255406667613 371.60288942797024 0 371.60288942797024 -152.30632377039001 0 0 0 0 7.4002549627128928 2.2598521648213676 0 2.2598521648213676 2.2163152271280637 0 0 0 0 -82.890788350858202 -150.4854271480508 0 -150.4854271480508 -388.27081961890144 0 0 0 0 567.91895677504363 -768.96116337615967 0 -768.96116337615967 548.83674582037202 0 0 0 0 -514.33422783169226 -293.09702341839147 0 -293.09702341839147 -19.900838006041283 0 0 0 0 -11.10835013547694 20.270601504067599 0 20.270601504067599 -22.60511909093475 0 0 0 0 -101.64033433331178 -306.63244822073329 0 -306.63244822073329 -464.0955443840794 0 0 0 0 413.70711794118142 -407.56292357202256 0 -407.56292357202256 -304.4148496630005 0 0 0 0 -85.081828414447955 -465.99754744586971 0 -465.99754744586971 -497.09236223888729 0 0 0 0 52.176283492459334 -294.29574695783958 0 -294.29574695783958 -302.5051496915172 0 0 0 0 66.652582790480665 -289.0678483312513 0 -289.0678483312513 -622.9325610329106 0 0 0 0 -76.365233734140929 -430.87129148783424 0 -430.87129148783424 -751.28143290276057 0 0 0 0 195.31648937569116 -385.62074846014002 0 -385.62074846014002 -780.29466858826345 0 0 0 0 130.09281433024444 -327.54904578708374 0 -327.54904578708374 -739.91714785226941 0 0 0 0 208.94291896447248 -146.50703280175367 0 -146.50703280175367 -907.73690825274389 0 0 0 0 128.99356441055852 -307.77246481479415 0 -307.77246481479415 -1078.4744392540306 0 0 0 0 2.079936311187339 -194.67841527763812 0 -194.67841527763812 -973.76152600305795 0 0 0 0 154.75543456642481 -217.80099219747353 0 -217.80099219747353 -999.77562400244642 0 0 0 0 56.359129619740997 226.33101734179945 0 226.33101734179945 -744.81736493339122 0 0 0 0 -78.509778144281881 -31.701259090506937 0 -31.701259090506937 -1205.4320923408814 0 0 0 0 -600.87499654384737 -214.42695113943046 0 -214.42695113943046 -1160.3348476844112 0 0 0 0 -370.3561896452884 -517.83662919413473 0 -517.83662919413473 -1096.3997567716142 0 0 0 0 2.5522043344262784 -180.81072104584018 0 -180.81072104584018 -1358.5271835024469 0 0 0 0 -1789.7611727889162 508.84108578813903 0 508.84108578813903 -1440.8297908791828 0 0 0 0 -407.26310675606965 -97.363529163795647 0 -97.363529163795647 -1603.1050744178356 0 0 0 0 -350.08612863886628 -460.63522606873266 0 -460.63522606873266 -1182.444205470194 0 0 0 0 -75.436348773146165 -395.92941147366219 0 -395.92941147366219 -1053.4441095525181 0 0 0 0 -430.55471498554107 -513.97030965972226 0 -513.97030965972226 -535.23114974118653 0 0 0 0 -2.2541648615406871 -1.3339944670017729 0 -1.3339944670017729 -16.935176294219019 0 0 0 0 -476.54039230372291 -496.68859135335151 0 -496.68859135335151 -492.46768375198735 0 0 0 0 -1174.9755516834193 805.16372338096153 0 805.16372338096153 -873.60759129375219 0 0 0 0 -44.153851739209131 246.45227717787748 0 246.45227717787748 -1057.9328313174337 0 0 0 0 -914.05366070982564 303.29547239202657 0 303.29547239202657 -80.28645475092344 0 0 0 0 -98.767022462598106 -478.33757873943978 0 -478.33757873943978 -350.25503568800923 0 0 0 0 439.77910766307468 -438.88410367621327 0 -438.88410367621327 -609.09431278440752 0 0 0 0 -682.0654325360083 -543.72006994757976 0 -543.72006994757976 -1551.5748798518835 0 0 0 0 -253.76915525224831 -87.184129867193406 0 -87.184129867193406 -1134.6553386570595 0 0 0 0 -701.48917497905495 -713.30071837846481 0 -713.30071837846481 -480.7858088432622 0 0 0 0 -2385.6751779701226 -46.247133879413013 0 -46.247133879413013 -838.86651833311771 0 0 0 0 -860.492084280173 -148.0132961061172 0 -148.0132961061172 -889.4710758739875 0 0 0 0 -1053.9510168162305 -461.34979697761446 0 -461.34979697761446 -266.58911436262133 0 0 0 0 -394.35967685538344 -577.53741865745542 0 -577.53741865745542 -40.764071744022658 0 0 0 0 -464.14207053137216 -161.09508034178725 0 -161.09508034178725 -113.7613750694436 0 0 0 0 1035.6447101569865 -762.27611475935919 0 -762.27611475935919 -361.62378349689243 0 0 0 0 218.91249088903714 -762.67491325820265 0 -762.67491325820265 -243.92987225000979 0 0 0 0 33.507124071817088 -391.1708247987408 0 -391.1708247987408 -366.60851282760268 0 0 0 0 643.83547220975561 -708.00873020411927 0 -708.00873020411927 203.28770754011202 0 0 0 0 351.90723646948027 -303.76680844599832 0 -303.76680844599832 -8.3749618108122377 0 0 0 0 -89.011965283207246 -117.23408606608064 0 -117.23408606608064 460.6913229821721 0 0 0 0 -183.85041624192854 -335.92012170444468 0 -335.92012170444468 72.451850696787005 0 0 0 0 -902.64714041569823 -162.38532480579306 0 -162.38532480579306 226.91126701595203 0 0 0 0 -4.1189859677039742 -3.7541279429415226 0 -3.7541279429415226 -3.2383186617161073 0 0 0 0 -762.18789191917313 206.56663808989106 0 206.56663808989106 124.7269262074353 0 0 0 0 -1342.8440258173578 26.26983900952473 0 26.26983900952473 334.50158371385623 0 0 0 0 287.17436776092654 -252.1659228596327 0 -252.1659228596327 175.08515401594195 0 0 0 0 120.40936587251417 -34.041709452110808 0 -34.041709452110808 112.13146793590568 0 0 0 0 -23.16930910883093 -30.46201471205859 0 -30.46201471205859 -68.543394537919085 0 0 0 0 -7.3360840819408963 -2.7580451014273848 0 -2.7580451014273848 -1.4330145121565607 0 0 0 0 544.50061381432897 170.95634665697435 0 170.95634665697435 57.14452845879714 0 0 0 0 -4.2164714903169198 -1.5405287881533667 0 -1.5405287881533667 -1.0957902228483789 0 0 0 0 -1295.256799176801 53.702162835688796 0 53.702162835688796 146.54247256547387 0 0 0 0 -1244.0296308171528 -54.225755174527876 0 -54.225755174527876 107.43501428380841 0 0 0 0 -1184.0928967500186 -56.911078463435842 0 -56.911078463435842 -2.1592395711340941 0 0 0 0 -1189.176492160128 -11.467149406613316 0 -11.467149406613316 -38.673777888892801 0 0 0 0 -865.50923423139648 -111.10338740143561 0 -111.10338740143561 -34.29174791436526 0 0 0 0 583.06056354584871 -279.94521653889751 0 -279.94521653889751 -14.000561673688935 0 0 0 0 -15.185494089195611 -44.827089920166102 0 -44.827089920166102 -14.901851482554065 0 0 0 0 213.4190284633496 -62.735040218311042 0 -62.735040218311042 46.386878337394592 0 0 0 0 302.69385788410727 -143.81853590562605 0 -143.81853590562605 -1.8614982113067526 0 0 0 0 754.0957142782645 -306.82383581861359 0 -306.82383581861359 -62.964107603191223 0 0 0 0 829.83961941525649 -894.64214384961269 0 -894.64214384961269 445.0053836133593 0 0 0 0 909.62411526646611 -945.36812472755992 0 -945.36812472755992 77.354948704013395 0 0 0 0 2109.1092548314846 -1230.4407369377641 0 -1230.4407369377641 82.836607515324431 0 0 0 0 1301.1413558728891 -1013.6555374637028 0 -1013.6555374637028 -233.57589372822258 0 0 0 0 1306.6686416218072 -1090.9174370237524 0 -1090.9174370237524 -125.92676944253617 0 0 0 0 1486.832471057256 -958.07642286998453 0 -958.07642286998453 -186.82078015630032 0 0 0 0 1539.9474730444781 -1301.7869343373168 0 -1301.7869343373168 124.49379941564985 0 0 0 0 1080.9374402138201 -1029.542949273211 0 -1029.542949273211 -32.865277870267164 0 0 0 0 935.05543412022234 -737.98097049657736 0 -737.98097049657736 -243.01051517524752 0 0 0 0 107.48507771058576 -197.91461379575594 0 -197.91461379575594 153.09044974070275 0 0 0 0 743.76348704932025 -921.84106526724645 0 -921.84106526724645 -260.45928798492241 0 0 0 0 213.5468715611496 113.78519144879829 0 113.78519144879829 -261.01438605523072 0 0 0 0 633.57286688622844 -433.22510308953497 0 -433.22510308953497 451.14617192940204 0 0 0 0 315.71965287080457 -405.11469398733243 0 -405.11469398733243 1186.4617394691231 0 0 0 0 1129.3319148773844 -1385.9690480178542 0 -1385.9690480178542 2267.2087158652866 0 0 0 0 2877.5545022962397 -1616.7823273918075 0 -1616.7823273918075 285.41731044460903 0 0 0 0 1326.7585188442099 -839.14551348075474 0 -839.14551348075474 -181.07696425947506 0 0 0 0 1619.7454923144637 -791.44786312436463 0 -791.44786312436463 -214.62768632358348 0 0 0 0 1718.5597882542334 -200.13474877690351 0 -200.13474877690351 -246.89384709272417 0 0 0 0 -11.648637265601426 -55.043750946744993 0 -55.043750946744993 -33.999062377413566 0 0 0 0 308.75203854305801 -103.71196209693517 0 -103.71196209693517 148.99993936048122 0 0 0 0 1305.9091662308856 -2012.4615048334672 0 -2012.4615048334672 2471.8955250398431 0 0 0 0 2338.9216950621667 464.10785860977103 0 464.10785860977103 -138.30319633262843 0 0 0 0 22.432723594326802 -18.438501453934208 0 -18.438501453934208 -4.6146997669089131 0 0 0 0 1249.8815094350084 -1522.7929054243905 0 -1522.7929054243905 1295.1023866134419 0 0 0 0 507.19155636112555 -1064.1560926171223 0 -1064.1560926171223 1203.1235130767127 0 0 0 0 889.86136010986593 580.93309303477508 0 580.93309303477508 1717.2744611382868 0 0 0 0 2448.7910228414548 -908.53740748158634 0 -908.53740748158634 282.94361637940892 0 0 0 0 800.15113153461971 -91.167240590426445 0 -91.167240590426445 -1904.831376818729 0 0 0 0 351.80498095135408 298.80403313408169 0 298.80403313408169 -357.78458346354819 0 0 0 0 444.64924432482076 -1614.2959834772482 0 -1614.2959834772482 88.820340531659895 0 0 0 0 1037.0257980024762 -1461.8988596338822 0 -1461.8988596338822 -948.71652211147011 0 0 0 0 -399.97492605638581 231.79429211001025 0 231.79429211001025 270.37878698663553 0 0 0 0 -72.406454899988603 656.83965998084022 0 656.83965998084022 203.70866196914267 0 0 0 0 931.01441718221031 345.40237426203385 0 345.40237426203385 -131.08788654402451 0 0 0 0 -133.30373768034042 431.92888113011577 0 431.92888113011577 -255.29772998791304 0 0 0 0 4.1026613016438205 165.35530335422663 0 165.35530335422663 -40.700275769515429 0 0 0 0 -37.815728565678 620.04534672026057 0 620.04534672026057 -660.95382988287747 0 0 0 0 236.28192885110548 437.99385749082649 0 437.99385749082649 -316.17781190184178 0 0 0 0 -25.576314547382935 295.80272846089792 0 295.80272846089792 -392.45745930141129 0 0 0 0 -90.168603235506453 551.88567092673475 0 551.88567092673475 -202.6224472745962 0 0 0 0 -52.18411002177163 121.69336868381652 0 121.69336868381652 -121.17440276351044 0 0 0 0 -13.356584673059814 10.190567312342665 0 10.190567312342665 -14.455459435511351 0 0 0 0 40.204715027824989 -41.109409348772317 0 -41.109409348772317 -36.165558162780655 0 0 0 0 124.36843227072313 285.39583825661248 0 285.39583825661248 -1112.0875081007107 0 0 0 0 103.15115116897869 -110.24227310476817 0 -110.24227310476817 -198.95113460054563 0 0 0 0 -26.394094610310276 143.60742160829977 0 143.60742160829977 -321.7818930509311 0 0 0 0 -79.24708289114642 -283.72252036188729 0 -283.72252036188729 233.23349897824664 0 0 0 0 15.733678497690363 -51.961804699065269 0 -51.961804699065269 -43.60920931337391 0 0 0 0 72.839621341769089 -184.13179254358874 0 -184.13179254358874 212.89252939152357 0 0 0 0 22.995366413226293 -23.29700892616529 0 -23.29700892616529 221.32303520001733 0 0 0 0 16.534608561218192 -60.376522142752947 0 -60.376522142752947 253.57242969074287 0 0 0 0 150.47650289339799 64.466052584386489 0 64.466052584386489 110.83133614787766 0 0 0 0 3.6849282908837324 -6.1282556528338148 0 -6.1282556528338148 0.24166473163766966 0 0 0 0 52.779141674529455 -80.739571867707127 0 -80.739571867707127 -83.102020494770841 0 0 0 0 -137.66984360737843 54.056263270686031 0 54.056263270686031 90.213086167877918 0 0 0 0 2.7566672165634429 -0.81381155086512535 0 -0.81381155086512535 -0.23969386813138271 0 0 0 0 -4.1128857542862534 109.78150657221704 0 109.78150657221704 -86.523362914216705 0 0 0 0 -169.26796321849542 30.172975787230826 0 30.172975787230826 -111.5907953766764 0 0 0 0 -15.490528048805572 -49.139164390588121 0 -49.139164390588121 -371.79705213391571 0 0 0 0 67.325859803855565 160.69265079110482 0 160.69265079110482 -471.56317293813117 0 0 0 0 -70.508698760822881 52.99061260248709 0 52.99061260248709 -58.47704541623898 0 0 0 0 -7.3489689805974194 195.25061934271798 0 195.25061934271798 -283.85550933761988 0 0 0 0 -183.32751298448056 -322.57418352211243 0 -322.57418352211243 273.380365419398 0 0 0 0 -11.059952415960296 -64.333875181446842 0 -64.333875181446842 -52.873923643277621 0 0 0 0 546.21063126970694 100.05942203039012 0 100.05942203039012 76.440923835354624 0 0 0 0 -42.095182450186257 -383.92997580134033 0 -383.92997580134033 191.59027164127474 0 0 0 0 -188.72550213132126 -289.58939773155726 0 -289.58939773155726 241.5740083084529 0 0 0 0 -201.56250214752072 -406.34572274832317 0 -406.34572274832317 193.57956337219002 0 0 0 0 0.022870482657211255 -2.1975498418585033 0 -2.1975498418585033 6.3751851246094304 0 0 0 0 669.55404667928519 322.93219391884111 0 322.93219391884111 -33.967709689590265 0 0 0 0 -395.24238328708452 -335.02515236974068 0 -335.02515236974068 167.66518666548654 0 0 0 0 -229.91046942112735 52.396857340427232 0 52.396857340427232 298.50106178735223 0 0 0 0 684.41373321269236 -220.13942751294161 0 -220.13942751294161 -350.69577644137462 0 0 0 0 288.3104054239775 -562.88637207562351 0 -562.88637207562351 -443.89953281965427 0 0 0 0 60.856782724408042 -77.428974054244947 0 -77.428974054244947 62.854669174306807 0 0 0 0 -2.8987339397353935 -170.64455872180042 0 -170.64455872180042 194.52102127597755 0 0 0 0 -28.986512635839972 -74.910593460337623 0 -74.910593460337623 251.55498078618257 0 0 0 0 -72.094093304222042 -160.19965938218957 0 -160.19965938218957 311.15052912876854 0 0 0 0 -39.963598895050382 -197.81249231556649 0 -197.81249231556649 131.37871080252808 0 0 0 0 -152.26117336998868 -202.63213149422518 0 -202.63213149422518 217.66007409310259 0 0 0 0 -110.46635809399595 -284.36773980646831 0 -284.36773980646831 221.35087199888221 0 0 0 0 -305.99320799557609 -207.97725270228693 0 -207.97725270228693 191.52022480370943 0 0 0 0 -133.16718369676892 -251.09708268679606 0 -251.09708268679606 53.185909463150892 0 0 0 0 -312.76613509944764 -63.916337657368786 0 -63.916337657368786 -134.5173067238793 0 0 0 0 -53.849997723016713 -312.25489281058253 0 -312.25489281058253 -283.27379813526204 0 0 0 0 -151.18921445320302 -208.98857795660297 0 -208.98857795660297 145.75854665409497 0 0 0 0 -27.082190711356816 -223.90731338757541 0 -223.90731338757541 -74.480305435019545 0 0 0 0 14.359994569378614 -334.4673465104861 0 -334.4673465104861 -89.389194995614162 0 0 0 0 17.606216126776417 -360.1576460432334 0 -360.1576460432334 -1.9743527613172773 0 0 0 0 44.516338344212272 -311.42482613360335 0 -311.42482613360335 -215.13465560242184 0 0 0 0 85.890583330168738 -365.46305727725849 0 -365.46305727725849 -2.5594583399033581 0 0 0 0 -36.156616199841665 -262.19243846526115 0 -262.19243846526115 225.37687500752509 0 0 0 0 115.17980418416482 -290.16612045747024 0 -290.16612045747024 -210.7796580328577 0 0 0 0 11.665597125225759 -315.56485313372468 0 -315.56485313372468 -179.10673364868853 0 0 0 0 40.096379927126691 -266.53145893193869 0 -266.53145893193869 -166.49899130548874 0 0 0 0 -20.925464131694753 -275.83307575909566 0 -275.83307575909566 4.8330974845157471 0 0 0 0 55.214495758729754 -220.46507875589305 0 -220.46507875589305 -157.71476409887327 0 0 0 0 27.007575773562621 -16.795423659220873 0 -16.795423659220873 -7.524332823629976 0 0 0 0 -853.8577245919405 -192.07371118089577 0 -192.07371118089577 550.88696010938384 0 0 0 0 -165.81380618726689 -368.61669852937484 0 -368.61669852937484 -183.48607149040618 0 0 0 0 77.658913879025135 -90.846352492649217 0 -90.846352492649217 84.779922856471586 0 0 0 0 -156.00998470193736 -220.54138286376838 0 -220.54138286376838 -120.88147462379129 0 0 0 0 180.90019794291584 -281.19962312834105 0 -281.19962312834105 -242.45063179766294 0 0 0 0 -61.746337434262387 -256.09405275344761 0 -256.09405275344761 -169.65726948760857 0 0 0 0 -290.90005121089462 -951.24925509952845 0 -951.24925509952845 464.65692653872884 0 0 0 0 904.66711141472933 314.39801413447594 0 314.39801413447594 -177.75416290099656 0 0 0 0 43.151348033905379 -158.43902774033631 0 -158.43902774033631 128.22643357369088 0 0 0 0 71.496477374364844 -130.46923696807141 0 -130.46923696807141 135.41813286633334 0 0 0 0 -23.46655092931897 -16.209925007069131 0 -16.209925007069131 32.294204640165376 0 0 0 0 -12.304415956057312 -41.974717037035802 0 -41.974717037035802 48.690949645827303 0 0 0 0 -9.179942489034147 -169.74964630808972 0 -169.74964630808972 275.87232310912077 0 0 0 0 39.992606634819822 -196.67089791842227 0 -196.67089791842227 -79.687469724784023 0 0 0 0 68.884064463061804 -142.01364905411901 0 -142.01364905411901 -18.220479349469315 0 0 0 0 34.733854508951481 -204.62635566766767 0 -204.62635566766767 -78.01600218727981 0 0 0 0 109.25402081242282 -367.6610332416094 0 -367.6610332416094 -165.3084403144685 0 0 0 0 0.12197580004067277 -451.94554238327476 0 -451.94554238327476 -211.11772900355152 0 0 0 0 405.45058390037684 -329.77871478571251 0 -329.77871478571251 -308.18472879233923 0 0 0 0 -50.080370381270768 -160.94849354444909 0 -160.94849354444909 -350.96551079888468 0 0 0 0 291.48872577386646 -35.180116479059507 0 -35.180116479059507 -367.0694558984469 0 0 0 0 37.640953874254592 -450.20178490896217 0 -450.20178490896217 -500.18644634179827 0 0 0 0 -38.369643245576299 208.28275018670593 0 208.28275018670593 -821.48240493659728 0 0 0 0 -17.137085415626863 1.0836196568913081 0 1.0836196568913081 0.30420311687370294 0 0 0 0 -202.27636562883163 59.088425945566087 0 59.088425945566087 317.55500195790819 0 0 0 0 298.56844077520873 -619.66285021321323 0 -619.66285021321323 -189.51789227710105 0 0 0 0 487.29716685538187 -371.93604135264468 0 -371.93604135264468 -238.46561680676314 0 0 0 0 -18.718258439034685 -31.732410423135867 0 -31.732410423135867 21.662094743555489 0 0 0 0 -411.55599112348318 -1345.5601993772934 0 -1345.5601993772934 719.37487005012736 0 0 0 0 303.18639518585769 13.743562798935272 0 13.743562798935272 -413.7106908798205 0 0 0 0 345.03977975730982 1487.3348613405533 0 1487.3348613405533 -406.45924449184895 0 0 0 0 -98.993227066893724 -1557.6004944273491 0 -1557.6004944273491 415.0985637726626 0 0 0 0 371.70354752209096 -268.27164608288331 0 -268.27164608288331 -1731.7580433985167 0 0 0 0 -278.57799769865596 -369.01733367776433 0 -369.01733367776433 -21.203244671669381 0 0 0 0 -24.535806899300916 -5.3389400242518121 0 -5.3389400242518121 -6.8338887743298606 0 0 0 0 258.94919979316569 172.27659964610166 0 172.27659964610166 879.9005460048138 0 0 0 0 -13.369725047438806 -397.07323079894559 0 -397.07323079894559 1131.1890454782333 0 0 0 0 134.7065641436202 -31.249938557743008 0 -31.249938557743008 -1654.2778005442196 0 0 0 0 225.90193896929122 100.29016614508146 0 100.29016614508146 -1958.3943969275733 0 0 0 0 -2.7977770407913951 -0.28631710593252535 0 -0.28631710593252535 0.17819536245556833 0 0 0 0 -46.938736755813046 -54.576432034013365 0 -54.576432034013365 32.323948959224438 0 0 0 0 -109.49183545040523 -201.98858006895125 0 -201.98858006895125 473.06346019529155 0 0 0 0 28.044640024010732 -131.66064739118519 0 -131.66064739118519 406.99112758279443 0 0 0 0 -1.9917623680352463 -25.032744081467271 0 -25.032744081467271 41.14596124852433 0 0 0 0 21.777908475412005 -169.76439034818486 0 -169.76439034818486 270.01290694047202 0 0 0 0 242.28665376391291 -41.104004811688355 0 -41.104004811688355 -1040.6711344088271 0 0 0 0 38.881347962421415 -130.89014401612235 0 -130.89014401612235 164.22627089645113 0 0 0 0 30.719791556381097 -192.45629214400833 0 -192.45629214400833 280.66153355388087 0 0 0 0 312.64703614171094 -508.42803336126553 0 -508.42803336126553 -196.45635796861825 0 0 0 0 137.4041897917723 54.227315111849748 0 54.227315111849748 108.84889096016377 0 0 0 0 94.634267114597606 -59.037553629790636 0 -59.037553629790636 -380.36416183499023 0 0 0 0 -0.38208703505824815 -77.454926437949325 0 -77.454926437949325 -379.48985253791034 0 0 0 0 -179.896389175683 -621.9902055598759 0 -621.9902055598759 -369.98001052173277 0 0 0 0 141.242008514997 -485.52926714122805 0 -485.52926714122805 -1446.4056516134151 0 0 0 0 -213.45420513177305 142.83597224874939 0 142.83597224874939 -719.58496708991879 0 0 0 0 331.84269524206684 -548.58372276206501 0 -548.58372276206501 436.30405104691454 0 0 0 0 84.526569553468192 -203.55252210396679 0 -203.55252210396679 -27.076742988100932 0 0 0 0 -256.79189580810998 -479.93757139845547 0 -479.93757139845547 801.75503613543151 0 0 0 0 67.119730015974255 -313.5719954817323 0 -313.5719954817323 550.85052225147956 0 0 0 0 14.806180593288445 -212.69727014758973 0 -212.69727014758973 510.07464046507812 0 0 0 0 51.998613585958083 -293.59578950793366 0 -293.59578950793366 705.16144632780924 0 0 0 0 106.4203545417713 -276.46023931974196 0 -276.46023931974196 496.28919399568986 0 0 0 0 343.51992029185931 -202.27033504316933 0 -202.27033504316933 519.46513971491368 0 0 0 0 8.4283153353680973 -204.62007115276356 0 -204.62007115276356 1123.716257301654 0 0 0 0 343.64018010118383 -502.40721158536309 0 -502.40721158536309 517.25741867511533 0 0 0 0 88.878817271004664 -189.96746311004972 0 -189.96746311004972 483.61548962888628 0 0 0 0 33.069803280710403 -277.80620125120913 0 -277.80620125120913 640.5900340105436 0 0 0 0 27.684616514245658 -122.70245951637881 0 -122.70245951637881 2.6405725855837545 0 0 0 0 40.518538996568395 -141.34787683690593 0 -141.34787683690593 -73.698670959740411 0 0 0 0 -86.749781197906486 470.58103503079656 0 470.58103503079656 989.8827797236795 0 0 0 0 68.015066939360679 -112.78083856901378 0 -112.78083856901378 60.367721866774168 0 0 0 0 437.64022921250944 -176.24068068693305 0 -176.24068068693305 -124.57429274462447 0 0 0 0 48.600620036528987 -16.21088584913872 0 -16.21088584913872 -112.69587305611537 0 0 0 0 86.036084793621441 -202.3208145929454 0 -202.3208145929454 -40.259909149772 0 0 0 0 583.90571745444413 454.61421259413328 0 454.61421259413328 304.44912539969664 0 0 0 0 2.5940212104193572 3.8675584442769377 0 3.8675584442769377 7.0400466189358895 0 0 0 0 1045.5179347332573 -754.45575673286658 0 -754.45575673286658 496.5393480801431 0 0 0 0 1469.4252133131231 99.01949077664176 0 99.01949077664176 1077.584880618524 0 0 0 0 -646.72058628002901 677.1312335364928 0 677.1312335364928 1893.4453323076596 0 0 0 0 -552.84327830399798 -150.33872097520543 0 -150.33872097520543 449.90943411874468 0 0 0 0 -33.756548664836259 35.788470331317512 0 35.788470331317512 457.38416889441214 0 0 0 0 14.07338735614087 22.070747111429228 0 22.070747111429228 41.646523024355702 0 0 0 0 -1.2294494064499188 5.7691316412850426 0 5.7691316412850426 23.430098896660695 0 0 0 0 203.60179787573998 -208.76359915381181 0 -208.76359915381181 241.59809537570982 0 0 0 0 -10.164082966421574 -247.61640502078808 0 -247.61640502078808 289.06276680895826 0 0 0 0 -23.337592348143517 -256.15163822702016 0 -256.15163822702016 377.74669094549608 0 0 0 0 188.50720364552251 -472.79397424162016 0 -472.79397424162016 535.18256849842146 0 0 0 0 233.36181498678343 -246.21461091954552 0 -246.21461091954552 179.88467517655226 0 0 0 0 -21.364723860042886 -211.72358402829195 0 -211.72358402829195 593.93242515809834 0 0 0 0 -64.478512038599547 -329.28671386370843 0 -329.28671386370843 514.3135824760393 0 0 0 0 -118.68331905154355 -305.41113282927836 0 -305.41113282927836 736.59902147771209 0 0 0 0 81.790207158597426 -202.61323037294784 0 -202.61323037294784 -42.479506408333208 0 0 0 0 -87.927967181880376 -395.6938721156439 0 -395.6938721156439 633.51259537214582 0 0 0 0 231.6511944432732 -734.78762170682603 0 -734.78762170682603 1080.0531469213747 0 0 0 0 -139.82869317923996 -344.8069532506197 0 -344.8069532506197 711.79323027258215 0 0 0 0 202.05506888481705 -200.5389959160384 0 -200.5389959160384 -235.03933496249374 0 0 0 0 76.982423979963642 -59.632647089249076 0 -59.632647089249076 65.404836180765415 0 0 0 0 18.797024841078382 -66.375676829658914 0 -66.375676829658914 -395.32029878736648 0 0 0 0 152.07970283181203 -307.66342867688581 0 -307.66342867688581 -192.13662461814602 0 0 0 0 249.58216384014304 -145.63598669980638 0 -145.63598669980638 -441.81193593939679 0 0 0 0 66.134516677440843 -169.95949380352977 0 -169.95949380352977 158.13324189670311 0 0 0 0 58.765825309070351 -236.14820469546248 0 -236.14820469546248 -626.73461071096062 0 0 0 0 60.750159626880922 -119.53289334650778 0 -119.53289334650778 -22.419341631353412 0 0 0 0 189.46463362418581 -146.62062569827867 0 -146.62062569827867 -635.54056539046724 0 0 0 0 42.539797544277462 -187.73542153040307 0 -187.73542153040307 -449.5250791362414 0 0 0 0 78.023529716058803 -112.38272129112914 0 -112.38272129112914 -64.336932183828836 0 0 0 0 179.47006805432466 -116.59796422877116 0 -116.59796422877116 -482.44037126258991 0 0 0 0 76.569073815939191 36.759711695798615 0 36.759711695798615 -688.60363660832809 0 0 0 0 -21.860371332451905 -362.47420342487385 0 -362.47420342487385 -341.94416134748099 0 0 0 0 -18.770750970592509 -64.043128690654385 0 -64.043128690654385 58.52286851228267 0 0 0 0 32.929234206254478 -304.28136168769561 0 -304.28136168769561 -187.65064513017023 0 0 0 0 11.797831022478931 -76.748325059863419 0 -76.748325059863419 -265.70963781815135 0 0 0 0 -73.366398717194897 -171.75265713973022 0 -171.75265713973022 -173.99506182959885 0 0 0 0 73.879054481962157 -151.69575548465764 0 -151.69575548465764 -195.80465152797115 0 0 0 0 85.236722203022509 -161.91672658069001 0 -161.91672658069001 -196.11717343258351 0 0 0 0 62.630723849764763 -358.44279057583117 0 -358.44279057583117 201.71038169240956 0 0 0 0 153.56008679041042 -268.79699120617624 0 -268.79699120617624 -134.18775013687264 0 0 0 0 123.51258352248169 -373.72028173127774 0 -373.72028173127774 -57.73438150142465 0 0 0 0 6.4873893399053486 -275.65697992802598 0 -275.65697992802598 -95.484224780597287 0 0 0 0 131.16958696611982 -276.78704995376393 0 -276.78704995376393 -219.07706199829408 0 0 0 0 151.09529754544928 -363.22140710133135 0 -363.22140710133135 -180.54313580179587 0 0 0 0 19.514789387540077 -286.21441799495915 0 -286.21441799495915 -209.18109095023829 0 0 0 0 -208.03525343097863 29.444790626243048 0 29.444790626243048 -516.86460222958704 0 0 0 0 -8.7609752195743056 -31.888956768745786 0 -31.888956768745786 64.571200147667241 0 0 0 0 -41.876829333796195 -248.2729764268388 0 -248.2729764268388 -164.86014072094986 0 0 0 0 13.598234861445775 -41.999535928920899 0 -41.999535928920899 -23.867642117361548 0 0 0 0 158.99353195483491 -287.78217948919701 0 -287.78217948919701 102.66986968000856 0 0 0 0 70.103643397331624 -111.98083292427651 0 -111.98083292427651 -48.43552210390277 0 0 0 0 27.661451970518101 -154.24416231522991 0 -154.24416231522991 158.26351017450907 0 0 0 0 86.890195735726593 -128.04396089390139 0 -128.04396089390139 6.966240787463903 0 0 0 0 32.957254254033614 -69.080830424193664 0 -69.080830424193664 -206.09825618971081 0 0 0 0 -58.963701098109595 -70.659073335813446 0 -70.659073335813446 39.382552733968623 0 0 0 0 -35.701240748798227 -152.91842366828814 0 -152.91842366828814 137.48584607201337 0 0 0 0 199.1836623460913 -307.14514969754964 0 -307.14514969754964 250.25756851159531 0 0 0 0 0.16648452751542209 22.639823472833086 0 22.639823472833086 223.73158429433897 0 0 0 0 -33.237573927137419 -183.53759090800486 0 -183.53759090800486 403.94280987237289 0 0 0 0 38.598928212923056 -122.49756585289288 0 -122.49756585289288 157.29912186406727 0 0 0 0 -5.2652481571453862 -55.727431671560097 0 -55.727431671560097 -3.6427281150908186 0 0 0 0 308.2690966398568 -569.6418557670022 0 -569.6418557670022 465.16685675343615 0 0 0 0 -363.50143288400432 -98.367714825464645 0 -98.367714825464645 1148.5342056019581 0 0 0 0 1248.2230223311308 -469.91616209799213 0 -469.91616209799213 -1539.0210144360244 0 0 0 0 -15.245509439886106 -27.192940299486462 0 -27.192940299486462 -50.5859144279666 0 0 0 0 -8.7397403058503187 -159.33214681467007 0 -159.33214681467007 101.84607011938351 0 0 0 0 83.511988731370366 -633.02870214331051 0 -633.02870214331051 -602.332943529771 0 0 0 0 -10.494654704584192 -2.8607023588491529 0 -2.8607023588491529 -2.5810539213202048 0 0 0 0 192.58865696270368 24.575193090859102 0 24.575193090859102 -1025.5333348646818 0 0 0 0 32.190448778907012 -501.12904553516273 0 -501.12904553516273 -231.88436888228171 0 0 0 0 147.34764422899025 -282.00127477457499 0 -282.00127477457499 -420.97871816562838 0 0 0 0 49.258240626848419 -102.02248903443979 0 -102.02248903443979 -247.48805099192396 0 0 0 0 109.76625036391488 -309.68155835084326 0 -309.68155835084326 -20.683143398317043 0 0 0 0 51.211018223311839 -305.5759067527797 0 -305.5759067527797 -19.732105104616494 0 0 0 0 103.73799451442937 -266.15162783915275 0 -266.15162783915275 -78.523670912734815 0 0 0 0 209.16847543207223 -269.85931974409505 0 -269.85931974409505 -79.595893094068742 0 0 0 0 89.824364032247104 -401.03395643419572 0 -401.03395643419572 367.72971824527485 0 0 0 0 316.4062917320698 -483.09167436182179 0 -483.09167436182179 311.11301195903798 0 0 0 0 501.83902937734365 64.534922115559311 0 64.534922115559311 72.681843101017876 0 0 0 0 604.35046410028008 -220.75489320127963 0 -220.75489320127963 558.02749645095537 0 0 0 0 562.50554544172701 -131.72634120935254 0 -131.72634120935254 372.24192457206664 0 0 0 0 156.37244820668639 -181.04020103242874 0 -181.04020103242874 230.53628387484059 0 0 0 0 90.652171110683412 -163.11704856090364 0 -163.11704856090364 598.02544864580705 0 0 0 0 -20.717595862999588 -37.839639108900883 0 -37.839639108900883 409.24544506399252 0 0 0 0 31.81784270285425 -276.65065198243974 0 -276.65065198243974 430.42986698297773 0 0 0 0 139.49529951468867 -0.20714501100155758 0 -0.20714501100155758 -164.38046736889009 0 0 0 0 84.332551025552675 -210.32911958276964 0 -210.32911958276964 -664.23821194529228 0 0 0 0 -26.264517536590574 -247.02485432309913 0 -247.02485432309913 -495.01748605507601 0 0 0 0 125.56753631102038 22.33126055199682 0 22.33126055199682 -457.06823974650615 0 0 0 0 158.79233445315913 -16.196644346176981 0 -16.196644346176981 -545.25850889268622 0 0 0 0 -39.713573293833178 -213.33608101419668 0 -213.33608101419668 -278.75641601019015 0 0 0 0 -120.22386766001728 -89.574359936566907 0 -89.574359936566907 -208.80757364694091 0 0 0 0 -929.89451390205068 -158.73812655638903 0 -158.73812655638903 1375.8851535363938 0 0 0 0 -20.826381433764134 -39.065719874484351 0 -39.065719874484351 -52.076443744507486 0 0 0 0 341.75153145680815 172.93055743456534 0 172.93055743456534 65.934214550426987 0 0 0 0 438.52436558799309 -431.22822480985997 0 -431.22822480985997 446.07767168561259 0 0 0 0 342.31993787493775 -411.1991447949149 0 -411.1991447949149 512.91354292622418 0 0 0 0 6.169147034346409 -4.4474286923277617 0 -4.4474286923277617 -7.4292381406243067 0 0 0 0 -44.209514899043569 -47.204293940881819 0 -47.204293940881819 -18.908770822369959 0 0 0 0 203.38022570063185 64.029475212999387 0 64.029475212999387 -774.8718222362404 0 0 0 0 11.815806831032972 -5.3383347012709308 0 -5.3383347012709308 1.1108807390504865 0 0 0 0 -1159.7318775709136 -484.89831191084522 0 -484.89831191084522 2286.7151580900027 0 0 0 0 52.797506659951978 98.682785004559264 0 98.682785004559264 163.11899331496534 0 0 0 0 949.2220599734901 -1494.4392608007111 0 -1494.4392608007111 1344.9287070239006 0 0 0 0 1554.6616771686095 -247.18795782684538 0 -247.18795782684538 1736.7940039456334 0 0 0 0 95.144966644234955 215.68127221925533 0 215.68127221925533 -583.0150304648123 0 0 0 0 -73.840103247392108 214.5206674864603 0 214.5206674864603 -407.77750846043637 0 0 0 0 2.1609236898584641 9.5582208414962224 0 9.5582208414962224 -167.32574968342669 0 0 0 0 289.7716405248575 -178.58075151050434 0 -178.58075151050434 -239.70534860268617 0 0 0 0 175.67257449327735 -436.52741510091801 0 -436.52741510091801 67.04740425862974 0 0 0 0 -147.54224862867341 -34.979224998077825 0 -34.979224998077825 8.833999772577954 0 0 0 0 -11.584102550773764 -55.427827693617061 0 -55.427827693617061 -72.482643277080058 0 0 0 0 -649.45920226280577 -523.60006906394119 0 -523.60006906394119 1851.4410939172521 0 0 0 0 214.6530323850202 -113.02518308373146 0 -113.02518308373146 -314.21881612837751 0 0 0 0 -63.125664833492223 -46.054019428487933 0 -46.054019428487933 -11.732618153638363 0 0 0 0 37.412619125561747 -12.235226098200528 0 -12.235226098200528 -16.537782799166077 0 0 0 0 1193.3420128839207 -485.11232510471018 0 -485.11232510471018 1795.588516510612 0 0 0 0 -85.239610628801074 -49.16876957914473 0 -49.16876957914473 -11.347714708382163 0 0 0 0 113.23988648224622 -138.33018758284743 0 -138.33018758284743 1857.079507798946 0 0 0 0 -926.90519879374187 67.778386183344992 0 67.778386183344992 2079.8616660983098 0 0 0 0 -3.8124038442918504 -8.1956116932417586 0 -8.1956116932417586 18.008226329123573 0 0 0 0 62.486182717053453 -141.41835791312451 0 -141.41835791312451 -87.350337075809648 0 0 0 0 14.291801843408706 -77.772201192603987 0 -77.772201192603987 -36.666434390835541 0 0 0 0 806.59884575035539 -700.59943599884718 0 -700.59943599884718 1018.4677382228074 0 0 0 0 51.801934582836111 -160.02144722843423 0 -160.02144722843423 -32.291386663520825 0 0 0 0 4.2116423796978779 -88.040910419360443 0 -88.040910419360443 -45.830738457644657 0 0 0 0 91.669858491197374 -106.79226850032001 0 -106.79226850032001 15.680671071748293 0 0 0 0 37.765022664247226 -153.46696847527755 0 -153.46696847527755 68.874981387036314 0 0 0 0 66.208036147159874 -142.74423286722049 0 -142.74423286722049 -23.237346217606955 0 0 0 0 53.80421123750375 -96.277552828375804 0 -96.277552828375804 -42.87841845124597 0 0 0 0 39.812949444283731 -91.244938090576397 0 -91.244938090576397 405.30525216640308 0 0 0 0 100.78393313331617 -178.34596075133231 0 -178.34596075133231 206.5808849797977 0 0 0 0 46.692020741305896 -300.14351549113053 0 -300.14351549113053 492.28784707269369 0 0 0 0 68.975083771132347 -95.210336724705755 0 -95.210336724705755 -38.900202431664049 0 0 0 0 16.614623058383586 -145.09586219829362 0 -145.09586219829362 146.26362114043559 0 0 0 0 180.52601809648331 30.452658093945502 0 30.452658093945502 545.06211942903064 0 0 0 0 9.7919731803802534 -11.127054333179949 0 -11.127054333179949 3.1784343695501711 0 0 0 0 -200.54774131027671 -1530.6153905048627 0 -1530.6153905048627 1760.841373571915 0 0 0 0 125.36157187814388 449.83613805228379 0 449.83613805228379 -528.55822763524338 0 0 0 0 66.480053883256176 -89.560635958764522 0 -89.560635958764522 -51.941942468545655 0 0 0 0 -512.59956650779259 1039.9605076194912 0 1039.9605076194912 2362.1952775379032 0 0 0 0 30.136833086631668 -101.11176177568086 0 -101.11176177568086 158.69876654268955 0 0 0 0 117.68631479075339 -134.32682718910746 0 -134.32682718910746 5.1876421437500539 0 0 0 0 -6.2162211974666093 -32.480479067481809 0 -32.480479067481809 -75.209098589084192 0 0 0 0 10.261969300467172 -61.555033837598785 0 -61.555033837598785 24.569426242038389 0 0 0 0 53.767990254069446 61.37555115337409 0 61.37555115337409 -12.141410633576015 0 0 0 0 69.511451052501798 36.043566925106006 0 36.043566925106006 -107.45491358728486 0 0 0 0 75.936941748066602 -112.81350229344673 0 -112.81350229344673 29.209334287474121 0 0 0 0 97.179478770907735 -442.99798340773862 0 -442.99798340773862 -62.459322305572641 0 0 0 0 219.06268622321659 -309.51519978905026 0 -309.51519978905026 71.010120957810614 0 0 0 0 -83.24231269246782 -82.355784379421323 0 -82.355784379421323 56.055857726043186 0 0 0 0 149.06746366099105 -112.60963371043329 0 -112.60963371043329 88.05528313074069 0 0 0 0 -1.9527324466616847 -2.7263079377318036 0 -2.7263079377318036 26.38746096932644 0 0 0 0 245.66019540495472 -141.74657770038016 0 -141.74657770038016 -70.49085074220784 0 0 0 0 -85.024408665164543 -100.25890108307996 0 -100.25890108307996 1.0574324167683748 0 0 0 0 -211.76792562643823 -349.11632541855124 0 -349.11632541855124 -52.407185610651823 0 0 0 0 63.54342404853378 -180.34151429105896 0 -180.34151429105896 -82.497524344877093 0 0 0 0 -7.5322088508996945 -10.988352775086639 0 -10.988352775086639 -2.0153205330218427 0 0 0 0 132.61110558024666 -126.67752278316402 0 -126.67752278316402 -41.012663843488554 0 0 0 0 -241.76348869020148 -255.20082833882611 0 -255.20082833882611 25.527738630540625 0 0 0 0 31.857893333712127 -136.21850667018873 0 -136.21850667018873 74.545982746155005 0 0 0 0 -27.410850920903613 -168.60353817907026 0 -168.60353817907026 98.850520926752779 0 0 0 0 42.356518770684488 -141.84313727186327 0 -141.84313727186327 -23.817707229747612 0 0 0 0 80.552715037178132 -133.95394978225249 0 -133.95394978225249 -25.630228040230577 0 0 0 0 73.590758302758331 -129.80555708839574 0 -129.80555708839574 -0.56509894614464429 0 0 0 0 41.146259326264897 -108.91269316127836 0 -108.91269316127836 -24.947383371648201 0 0 0 0 29.361498304890119 -144.72866596231324 0 -144.72866596231324 242.53991846680583 0 0 0 0 47.491012423452048 -107.62834626452786 0 -107.62834626452786 176.18100719451286 0 0 0 0 95.755927568650804 -173.5224823695396 0 -173.5224823695396 26.655250308393988 0 0 0 0 22.618725408610771 -95.492608686126914 0 -95.492608686126914 183.33920759190369 0 0 0 0 12.165149368922812 -56.046184177870984 0 -56.046184177870984 34.650289022005126 0 0 0 0 -14.214226718037811 -88.309689102876632 0 -88.309689102876632 60.044389491979494 0 0 0 0 94.083163150498876 -167.62749362368777 0 -167.62749362368777 115.66845258528701 0 0 0 0 -313.86189430217928 -36.645206253391734 0 -36.645206253391734 86.425679705404036 0 0 0 0 51.575458514678758 -109.36291722278929 0 -109.36291722278929 26.903446588756196 0 0 0 0 -44.015496638879995 -160.15671211117547 0 -160.15671211117547 156.19591886869489 0 0 0 0 -16.166139779519227 -103.33742355288061 0 -103.33742355288061 33.615311713746529 0 0 0 0 -78.321029126231522 -86.485132982492559 0 -86.485132982492559 119.64579947617688 0 0 0 0 -17.771205656285417 -167.2238703634805 0 -167.2238703634805 36.777567378567227 0 0 0 0 9.9578907192470183 -32.260715823561888 0 -32.260715823561888 -3.4740554520421716 0 0 0 0 147.6379737983807 -347.85730544601279 0 -347.85730544601279 206.18488855077396 0 0 0 0 25.435059171839384 -289.70443797353954 0 -289.70443797353954 377.35942446546835 0 0 0 0 93.680837396648712 -211.70387774556775 0 -211.70387774556775 126.45412990441719 0 0 0 0 93.896794754859002 -212.89538672840573 0 -212.89538672840573 85.150357818319208 0 0 0 0 148.14129658322781 -242.13566750423956 0 -242.13566750423956 -22.750933067068061 0 0 0 0 113.64184468255553 -212.58907980536605 0 -212.58907980536605 74.273278179691715 0 0 0 0 155.23502479834133 -238.82772359657838 0 -238.82772359657838 -66.697238045593622 0 0 0 0 143.23773215207621 -181.08061693395234 0 -181.08061693395234 -336.61338011980388 0 0 0 0 -120.11062646922073 -388.10560442982342 0 -388.10560442982342 115.57247002047461 0 0 0 0 227.42736300471006 -287.53167869895242 0 -287.53167869895242 60.109072687347918 0 0 0 0 -10.927312706568046 -665.84520812264509 0 -665.84520812264509 1152.1300883549482 0 0 0 0 -7.637694468626421 1.0665085710526085 0 1.0665085710526085 1.4020654110741315 0 0 0 0 96.083474904757168 -93.805415699311069 0 -93.805415699311069 462.77047922801421 0 0 0 0 33.180429254396586 -40.804148763279954 0 -40.804148763279954 5.4666016656337888 0 0 0 0 163.7603338322333 -133.956041320439 0 -133.956041320439 -100.82551403849357 0 0 0 0 8.2096063975961897 -31.948968854401016 0 -31.948968854401016 -6.4211103992650891 0 0 0 0 131.04783196075005 -235.93403252393182 0 -235.93403252393182 113.32487563598261 0 0 0 0 44.605778534457215 -50.01910425659532 0 -50.01910425659532 -6.978290430916311 0 0 0 0 32.596329014962748 -41.007579053044196 0 -41.007579053044196 34.76727818531063 0 0 0 0 57.135658368557415 -43.367935264830805 0 -43.367935264830805 1.6074767410630231 0 0 0 0 109.85712152482301 -49.993215298941777 0 -49.993215298941777 -125.73468119019617 0 0 0 0 146.16454355695168 -31.014746037325494 0 -31.014746037325494 -276.6276669239719 0 0 0 0 59.062337235052837 -176.73532620169817 0 -176.73532620169817 -195.41778845711269 0 0 0 0 127.63360383693362 -86.28152013331146 0 -86.28152013331146 -197.38319069265299 0 0 0 0 62.679542005906114 -90.308147450046818 0 -90.308147450046818 -5.5136646204227873 0 0 0 0 102.26550448868801 -73.089982632172962 0 -73.089982632172962 13.086551485687014 0 0 0 0 124.26255109813064 -170.9007795646105 0 -170.9007795646105 -11.242092976634012 0 0 0 0 107.8256985496846 -156.46509824516397 0 -156.46509824516397 -21.042774779440549 0 0 0 0 62.749720694759162 -96.367756323117646 0 -96.367756323117646 1.3100313525792444 0 0 0 0 42.217785700286242 -69.109528446158635 0 -69.109528446158635 5.8129833199290797 0 0 0 0 71.71317567670485 -72.612386669658008 0 -72.612386669658008 -48.974037424581184 0 0 0 0 92.878836781397695 -43.076829815985548 0 -43.076829815985548 -34.100558428624936 0 0 0 0 35.234666365839075 -84.827591761320946 0 -84.827591761320946 0.40438750679095392 0 0 0 0 46.337886484223418 -109.81999878626084 0 -109.81999878626084 59.811029127485654 0 0 0 0 48.772351490136771 -40.848308404247746 0 -40.848308404247746 18.149514428194379 0 0 0 0 44.927841810844257 -103.87862082832362 0 -103.87862082832362 29.73746595846751 0 0 0 0 9.8961059556907109 -73.334763610339152 0 -73.334763610339152 33.219054380306545 0 0 0 0 17.267796331267164 -177.2738561311271 0 -177.2738561311271 -12.393685703249503 0 0 0 0 -68.860290222481126 -154.65507574024377 0 -154.65507574024377 36.277649393961838 0 0 0 0 58.897679605100279 -87.639726922920786 0 -87.639726922920786 -15.936469382980217 0 0 0 0 63.768987865318195 -123.89145706006639 0 -123.89145706006639 0.1459979104474769 0 0 0 0 86.879044078028528 -98.056523024773924 0 -98.056523024773924 -7.1055787464902096 0 0 0 0 61.465712848626026 -86.089293886240284 0 -86.089293886240284 32.294142293168989 0 0 0 0 71.783338252243723 -76.777685208667293 0 -76.777685208667293 -4.2598374472377856 0 0 0 0 59.98580047455107 -129.28984543872878 0 -129.28984543872878 17.470840058827889 0 0 0 0 53.073430845433904 -115.78396217980116 0 -115.78396217980116 15.28102345487423 0 0 0 0 26.590577082837456 -102.02151206005955 0 -102.02151206005955 41.195050022560949 0 0 0 0 51.741239372757263 -121.13586867920822 0 -121.13586867920822 43.235603068089404 0 0 0 0 38.907427839094453 -123.33050396384897 0 -123.33050396384897 158.38134627223553 0 0 0 0 -0.2226893529129228 -62.237205536839681 0 -62.237205536839681 3.283634839482545 0 0 0 0 60.57473031358677 -187.09258516699992 0 -187.09258516699992 -144.98069526193649 0 0 0 0 41.682093829720344 -34.719324747749106 0 -34.719324747749106 6.0760504899814052 0 0 0 0 65.596561888072756 -50.361821212969517 0 -50.361821212969517 -42.852095948361239 0 0 0 0 9.6020400955120806 -24.488918772894142 0 -24.488918772894142 -9.5496620253677715 0 0 0 0 -78.433797578312806 -127.31095939250918 0 -127.31095939250918 186.15090759532904 0 0 0 0 101.66429594482906 -71.061013590896437 0 -71.061013590896437 -447.86897388177022 0 0 0 0 22.432976660433511 -122.29818892012028 0 -122.29818892012028 -19.186987981235774 0 0 0 0 109.48828392720316 -317.40465220016631 0 -317.40465220016631 -343.1069085849449 0 0 0 0 -69.326188391336473 -85.915741602679191 0 -85.915741602679191 167.03884194390594 0 0 0 0 8.2238751787216984 -43.014932113994618 0 -43.014932113994618 7.1913662991255833 0 0 0 0 93.522227754179767 -163.76904728549562 0 -163.76904728549562 171.83329084873549 0 0 0 0 -11.908642250913545 -183.96451479811367 0 -183.96451479811367 187.44824623335444 0 0 0 0 -66.030650116078789 -59.624243894019429 0 -59.624243894019429 138.48127043994651 0 0 0 0 -106.35019658594683 -68.39405736799381 0 -68.39405736799381 341.11795743371476 0 0 0 0 180.77531454355631 66.808124197734287 0 66.808124197734287 -55.237188272905769 0 0 0 0 -1533.4201069700066 -139.68249793937866 0 -139.68249793937866 660.72491083669229 0 0 0 0 -11.328355517842738 -0.774984378075942 0 -0.774984378075942 5.2407798115374362 0 0 0 0 80.780619484998169 -25.824580665888789 0 -25.824580665888789 20.227622372243104 0 0 0 0 40.00964050442235 -8.606412588279909 0 -8.606412588279909 19.88502636931662 0 0 0 0 121.03602817075443 -58.584460822836263 0 -58.584460822836263 18.384300996967795 0 0 0 0 35.644551086059437 -56.130795604378363 0 -56.130795604378363 29.493763762904564 0 0 0 0 72.792290338897146 -81.65567755986558 0 -81.65567755986558 37.043324868056516 0 0 0 0 66.45913303346606 -118.31169092441633 0 -118.31169092441633 49.207885999625432 0 0 0 0 37.129945743014105 -87.826622147909802 0 -87.826622147909802 94.279954544064822 0 0 0 0 73.842964649011265 -82.789340699491731 0 -82.789340699491731 28.450287945917808 0 0 0 0 -10.262772245923605 -65.603431773280647 0 -65.603431773280647 52.32102981937004 0 0 0 0 51.984238605962389 -49.576101313441512 0 -49.576101313441512 -16.257106837373698 0 0 0 0 -98.358355184745051 -29.05133740924839 0 -29.05133740924839 82.806582544930279 0 0 0 0 1.7784463227541778 -28.903362384252688 0 -28.903362384252688 8.4803940694025641 0 0 0 0 -93.43842759848485 -157.81513586244091 0 -157.81513586244091 164.84890302526765 0 0 0 0 88.849164310544438 -105.41712860159168 0 -105.41712860159168 46.032625201754854 0 0 0 0 81.037382755515864 -119.84599252892076 0 -119.84599252892076 45.920481712550099 0 0 0 0 27.255280595592922 -102.68125311147014 0 -102.68125311147014 90.25133312437174 0 0 0 0 11.037235415211057 -46.596542226560899 0 -46.596542226560899 -21.923468711658018 0 0 0 0 -5.732662693306338 -44.058755017569638 0 -44.058755017569638 46.771728404590249 0 0 0 0 72.998795284300286 -109.20321825239444 0 -109.20321825239444 45.690852523461217 0 0 0 0 1.4288614912792923 -15.05728735771757 0 -15.05728735771757 1.2622842780782548 0 0 0 0 -4.3624758242222015 -35.693002658736077 0 -35.693002658736077 66.537455603123817 0 0 0 0 -6.5739632247423287 -19.785336159016879 0 -19.785336159016879 39.046100977888273 0 0 0 0 -9.2292761600401718 -50.282562365064223 0 -50.282562365064223 58.457328806329315 0 0 0 0 0.16683312822488006 -2.6645686632047898 0 -2.6645686632047898 -5.631583876683564 0 0 0 0 42.622106762253679 -76.547182911301206 0 -76.547182911301206 64.880591141569312 0 0 0 0 98.706637663046422 12.362671439504084 0 12.362671439504084 -115.88637037049921 0 0 0 0 258.66149395731918 -277.88219654836394 0 -277.88219654836394 -1127.6408091470653 0 0 0 0 64.591696502830018 106.42197229328303 0 106.42197229328303 -427.4884067369494 0 0 0 0 1.925747774164364 -6.6252558899251568 0 -6.6252558899251568 0.24278362994982983 0 0 0 0 80.671703660851335 -205.50614939496018 0 -205.50614939496018 -69.899987938441313 0 0 0 0 118.76824919098362 -339.01320406833383 0 -339.01320406833383 28.122979262683657 0 0 0 0 226.75510100635438 -316.9665525978362 0 -316.9665525978362 -71.758971704653959 0 0 0 0 409.02563969414587 -626.44104510838497 0 -626.44104510838497 207.10614347083902 0 0 0 0 479.64466526382603 -412.986115859032 0 -412.986115859032 -121.22745157398458 0 0 0 0 175.70052386698808 -297.24248499546229 0 -297.24248499546229 -63.08905817116829 0 0 0 0 85.733083644059661 -270.17690171308641 0 -270.17690171308641 -106.08667778471136 0 0 0 0 402.95369580639817 -567.72347695659846 0 -567.72347695659846 172.79847255544519 0 0 0 0 399.50220444611023 -664.86229044902814 0 -664.86229044902814 -442.94392887405411 0 0 0 0 634.33055520810012 -440.62152872472871 0 -440.62152872472871 -961.08387492451948 0 0 0 0 426.19397007832595 -162.21150891048455 0 -162.21150891048455 27.724601655776496 0 0 0 0 -115.90464337747107 -259.35094932562424 0 -259.35094932562424 1085.0201571633697 0 0 0 0 29.489831765044073 330.11130922575103 0 330.11130922575103 -3.0162884058190684 0 0 0 0 477.3448866194376 -184.94496716889034 0 -184.94496716889034 -848.33217119343317 0 0 0 0 30.417778707882093 -17.372787044795956 0 -17.372787044795956 4.667022714986615 0 0 0 0 -49.90983830402547 -181.11954309918656 0 -181.11954309918656 596.30967079153561 0 0 0 0 141.33511461727903 -307.92020441619206 0 -307.92020441619206 -532.97062687575817 0 0 0 0 -212.77322903618187 -412.04664917181253 0 -412.04664917181253 156.62028647655825 0 0 0 0 136.41171632282203 130.39330725105538 0 130.39330725105538 -102.24852200440728 0 0 0 0 -73.180646821172559 -240.94867188274839 0 -240.94867188274839 71.941514862632175 0 0 0 0 30.584446849650703 -167.20262498290685 0 -167.20262498290685 204.33969681315102 0 0 0 0 -186.30414278896933 -166.60747208153771 0 -166.60747208153771 -325.75500230912985 0 0 0 0 41.914583136855114 -122.22747376810332 0 -122.22747376810332 -24.182329987257937 0 0 0 0 -287.7885160852893 -103.32757425348609 0 -103.32757425348609 585.84128678821435 0 0 0 0 400.93582983359374 -204.76710198341607 0 -204.76710198341607 -967.86432318982725 0 0 0 0 -411.55182913266253 -253.29465782737134 0 -253.29465782737134 -35.405082497301919 0 0 0 0 5.8442363784304803 -10.672192469451517 0 -10.672192469451517 0.88758367594913379 0 0 0 0 2.2350150562544542 -131.42216226507747 0 -131.42216226507747 44.951264306600734 0 0 0 0 33.630165734739876 -141.90617588603618 0 -141.90617588603618 122.46863639872754 0 0 0 0 35.930792106883018 -137.52577498384926 0 -137.52577498384926 129.79232767431131 0 0 0 0 34.705913724380935 -151.24102330440655 0 -151.24102330440655 178.12900716881268 0 0 0 0 -0.5980088667711243 -187.18311013298808 0 -187.18311013298808 146.27742978102469 0 0 0 0 11.120215260605619 -132.27303261906491 0 -132.27303261906491 159.84188698751677 0 0 0 0 -70.799232534874136 -49.763688183115121 0 -49.763688183115121 113.26637490503407 0 0 0 0 -132.35007580602542 -143.99851642143039 0 -143.99851642143039 207.97446162637789 0 0 0 0 -842.75235838367371 -1752.6229935264128 0 -1752.6229935264128 88.624167596106417 0 0 0 0 55.918250453134533 -204.52712199735106 0 -204.52712199735106 151.59456626036263 0 0 0 0 98.273150627341238 -225.47115405029035 0 -225.47115405029035 151.35291910386877 0 0 0 0 -76.448388610268012 -217.40146397148783 0 -217.40146397148783 222.35202176473103 0 0 0 0 -13.756270990808844 -247.87442350899801 0 -247.87442350899801 230.54307599397725 0 0 0 0 77.026529279792157 -152.82890426689119 0 -152.82890426689119 125.1157745675664 0 0 0 0 76.782214761296927 -176.07589056255529 0 -176.07589056255529 94.860375020653009 0 0 0 0 297.5628698245564 -157.8284816367086 0 -157.8284816367086 86.795931733846373 0 0 0 0 -20.844290669915061 -31.086490872994219 0 -31.086490872994219 117.4735660598692 0 0 0 0 92.243176361364021 -62.723898788601218 0 -62.723898788601218 130.18851904869371 0 0 0 0 59.712474969186587 -69.837538081745151 0 -69.837538081745151 136.79434600381501 0 0 0 0 90.381744993797838 -72.532826072146236 0 -72.532826072146236 129.78479903226253 0 0 0 0 -25.105034454718037 -51.059569958456308 0 -51.059569958456308 159.26370493231553 0 0 0 0 -13.087029855403671 -94.969705384777626 0 -94.969705384777626 135.74840170862444 0 0 0 0 26.590859651464143 -92.611554849838285 0 -92.611554849838285 361.00977560857427 0 0 0 0 84.349586013373752 -201.8289217928446 0 -201.8289217928446 -43.265179959529007 0 0 0 0 -145.0357304498857 -294.71114130954084 0 -294.71114130954084 415.47825441080204 0 0 0 0 128.09988149050696 -191.68299482497969 0 -191.68299482497969 212.01821621922136 0 0 0 0 -28.449192719590428 -33.760899512788455 0 -33.760899512788455 155.84261837138911 0 0 0 0 -36.961569043325653 -48.688127460554824 0 -48.688127460554824 206.90554351306128 0 0 0 0 14.957392469216838 -27.813101598709721 0 -27.813101598709721 24.451458580312313 0 0 0 0 48.020854869847369 -99.143011552558164 0 -99.143011552558164 138.81308242122759 0 0 0 0 73.277105269920071 -100.87240713847132 0 -100.87240713847132 122.44813921372406 0 0 0 0 -42.996697900935871 -38.409031945038706 0 -38.409031945038706 115.73948676622837 0 0 0 0 91.070734154995819 -89.179817057451146 0 -89.179817057451146 113.49730819652905 0 0 0 0 149.21337100241362 -207.72971720156784 0 -207.72971720156784 223.20535434926569 0 0 0 0 86.540593244266347 -164.82097078666266 0 -164.82097078666266 362.34377118744305 0 0 0 0 41.036252736238112 -90.072694854694419 0 -90.072694854694419 164.76464513747487 0 0 0 0 42.0342614355759 -80.003914654022083 0 -80.003914654022083 169.12827044868027 0 0 0 0 65.891308229171955 -62.482072427490493 0 -62.482072427490493 148.19774551515002 0 0 0 0 37.028590467173927 -94.413395515119191 0 -94.413395515119191 143.76282780250767 0 0 0 0 45.641840678872541 -85.835528056835756 0 -85.835528056835756 151.35881565832096 0 0 0 0 61.956341360484089 -75.599876519030659 0 -75.599876519030659 131.10574810288381 0 0 0 0 -33.634046815903275 22.81277445210435 0 22.81277445210435 20.528175541694509 0 0 0 0 40.528284978747251 -62.666838107121293 0 -62.666838107121293 74.837562806795177 0 0 0 0 29.918310920096701 -67.568646388972411 0 -67.568646388972411 106.90740718023153 0 0 0 0 97.882426664524246 -156.43462476755667 0 -156.43462476755667 169.70021663830266 0 0 0 0 25.358363377774367 -89.96342140834895 0 -89.96342140834895 263.6350311820861 0 0 0 0 16.103784709368483 -113.04297845940164 0 -113.04297845940164 172.43272066971986 0 0 0 0 119.44029921658512 -209.99126033618813 0 -209.99126033618813 152.9213091079655 0 0 0 0 58.484492445080832 -115.50970415622578 0 -115.50970415622578 138.71285961385001 0 0 0 0 108.24535936824759 -113.63432636156904 0 -113.63432636156904 41.618590216647135 0 0 0 0 147.07408398601547 -161.52734347761725 0 -161.52734347761725 234.7595108661335 0 0 0 0 28.137447839675588 -213.42162224855565 0 -213.42162224855565 440.64444298157468 0 0 0 0 6.449005103890201 -17.150143052170705 0 -17.150143052170705 31.354395496604042 0 0 0 0 67.247767417451541 -185.98621949068183 0 -185.98621949068183 256.06363568047527 0 0 0 0 107.35160148379509 -135.04775789480482 0 -135.04775789480482 299.11905059064156 0 0 0 0 157.7642046929177 -25.245404450157366 0 -25.245404450157366 -94.055324394226773 0 0 0 0 134.16525784977421 -267.64229485986289 0 -267.64229485986289 252.59170221300155 0 0 0 0 -137.2197211880557 -128.68914009398577 0 -128.68914009398577 492.25877879698237 0 0 0 0 55.293840890905813 -218.39255257341847 0 -218.39255257341847 100.144684292085 0 0 0 0 2.0756374707852956 -68.865722750280838 0 -68.865722750280838 61.304840315147885 0 0 0 0 -19.011415772428016 -56.291462521183348 0 -56.291462521183348 40.827440529014098 0 0 0 0 -185.68745983332337 29.499547452476691 0 29.499547452476691 136.98284091476307 0 0 0 0 75.844370994796918 -83.497995914580315 0 -83.497995914580315 230.01385401852895 0 0 0 0 -0.81460539059480652 -66.309341149652028 0 -66.309341149652028 167.63515578182705 0 0 0 0 -34.016128950811343 -32.577753432914193 0 -32.577753432914193 51.80288194946877 0 0 0 0 -25.719538847834542 -22.923204617839843 0 -22.923204617839843 2.3125952748978591 0 0 0 0 0.94392710567615268 -4.7520395231987678 0 -4.7520395231987678 -4.0445853547362844 0 0 0 0 -2.8704331263143104 -52.080885459348792 0 -52.080885459348792 47.327124067262048 0 0 0 0 160.82757925475744 -74.777323473703291 0 -74.777323473703291 0.90872913674684241 0 0 0 0 42.086563002102366 -36.479367701666973 0 -36.479367701666973 -3.6240085468641041 0 0 0 0 -192.87960831468081 100.71896118834411 0 100.71896118834411 72.784383479418466 0 0 0 0 -58.848535071068909 -59.743169494948233 0 -59.743169494948233 88.395909277038299 0 0 0 0 -50.783802972298872 -56.955738510543597 0 -56.955738510543597 -19.795569845533464 0 0 0 0 -11.537332485779189 -27.105245115468279 0 -27.105245115468279 -72.832436823857279 0 0 0 0 -1.1952224873313639 -18.381255601356116 0 -18.381255601356116 8.1013771760351005 0 0 0 0 -77.49431287265179 121.43956422331394 0 121.43956422331394 -62.050910065529933 0 0 0 0 70.321285997342784 -91.421615097497124 0 -91.421615097497124 111.05430076702032 0 0 0 0 179.60975764172326 -12.932812759638182 0 -12.932812759638182 37.772392908082111 0 0 0 0 -11.706208222113034 -2.6032362011519012 0 -2.6032362011519012 13.980399576322327 0 0 0 0 32.358288139585056 -61.522809801033873 0 -61.522809801033873 44.93058420921443 0 0 0 0 -7.0332043003053002 -22.771460894372609 0 -22.771460894372609 48.028954544427506 0 0 0 0 18.682747635015403 -77.110813477571355 0 -77.110813477571355 168.91763621603604 0 0 0 0 -2408.1797535273945 1824.9055896114151 0 1824.9055896114151 -1162.5810213041259 0 0 0 0 -1863.9092330431158 -184.99564449919853 0 -184.99564449919853 2771.8610974459152 0 0 0 0 6.1883354373144215 -10.614615869434004 0 -10.614615869434004 1.0973044801763763 0 0 0 0 -57.636494562808366 -255.37350122377393 0 -255.37350122377393 -34.953750004293397 0 0 0 0 142.42894125663952 16.158527685634908 0 16.158527685634908 -859.56988020334393 0 0 0 0 44.353406100897701 -112.62914822890889 0 -112.62914822890889 -28.92317427159287 0 0 0 0 -5.1905711154940946 -63.838051715645634 0 -63.838051715645634 41.645229330199072 0 0 0 0 -12.357560921976983 -34.7195440159594 0 -34.7195440159594 17.729279456209042 0 0 0 0 12.500007900428329 -33.035628259146222 0 -33.035628259146222 41.781684906652401 0 0 0 0 3.7104638822311244 -62.902077246162662 0 -62.902077246162662 32.169159112090711 0 0 0 0 13.549647785403067 -48.71458249699208 0 -48.71458249699208 41.808411550373421 0 0 0 0 3941.3553836010396 -2826.9452912997222 0 -2826.9452912997222 2222.5906095304526 0 0 0 0 12.366364273955696 -40.872129711482557 0 -40.872129711482557 45.444738564186537 0 0 0 0 23.804757332960747 -39.602900010924145 0 -39.602900010924145 43.525279165489309 0 0 0 0 14.492503539891914 -36.339100990648149 0 -36.339100990648149 11.462047228589654 0 0 0 0 1.4353618680845983 -5.8845473423427777 0 -5.8845473423427777 33.930776965717882 0 0 0 0 -43.191196303392644 -58.161427611656109 0 -58.161427611656109 36.050255573216418 0 0 0 0 1844.33603191984 14.587355710425072 0 14.587355710425072 -73.31540906149894 0 0 0 0 208.19017708895262 991.85585496760905 0 991.85585496760905 -780.09822637784237 0 0 0 0 -2370.263086298175 2810.1083331897826 0 2810.1083331897826 -1499.6924146040401 0 0 0 0 1.3057925054711745 -30.565997409468324 0 -30.565997409468324 47.991773617741075 0 0 0 0 -321.14451213527354 -234.64537869895503 0 -234.64537869895503 -204.61807021766435 0 0 0 0 1679.2939206401425 -1047.6757488791773 0 -1047.6757488791773 -210.71747825300554 0 0 0 0 -941.70868854838955 689.7154314095751 0 689.7154314095751 -191.3330985775392 0 0 0 0 -1527.2487312410667 -670.30232680689369 0 -670.30232680689369 1367.4648989156703 0 0 0 0 554.73685622451012 -2032.097503320183 0 -2032.097503320183 -23.891580803872785 0 0 0 0 350.07193919119527 -608.26336317973255 0 -608.26336317973255 505.1060258904181 0 0 0 0 -208.11433807924914 -652.6963981253939 0 -652.6963981253939 575.08854930264351 0 0 0 0 -309.60311405982065 -101.46353446661669 0 -101.46353446661669 323.2309220750758 0 0 0 0 -17.349771505934768 39.536835674123722 0 39.536835674123722 -323.48966094309435 0 0 0 0 -50.864979268808383 -123.9662278022879 0 -123.9662278022879 -353.07947557664011 0 0 0 0 -232.7907250134449 -23.123833962265053 0 -23.123833962265053 389.8622532729496 0 0 0 0 -4.5492497327999075 -1.551836509693004 0 -1.551836509693004 -1.8135545539698796 0 0 0 0 -248.35852403123772 57.263134945986167 0 57.263134945986167 122.21957475165254 0 0 0 0 -381.90205085709749 -213.23668782031746 0 -213.23668782031746 179.90129671617524 0 0 0 0 28.719337554197409 -42.719124878349248 0 -42.719124878349248 183.02302632529563 0 0 0 0 -727.28299795879866 242.49654651083983 0 242.49654651083983 -184.284216203494 0 0 0 0 -41.115267284330912 45.154043374743196 0 45.154043374743196 -268.70758103078697 0 0 0 0 373.0172578907659 283.51424030291673 0 283.51424030291673 330.62749198515667 0 0 0 0 -39.231332820039825 -68.982309712519054 0 -68.982309712519054 462.60664356389316 0 0 0 0 162.37840286052233 -456.9611384269374 0 -456.9611384269374 -179.11148307460826 0 0 0 0 136.17684193431342 -573.39835560052597 0 -573.39835560052597 -651.83958028240886 0 0 0 0 -172.50858309138857 -135.47091144618753 0 -135.47091144618753 -163.01895139296539 0 0 0 0 32.743744691818364 -112.00246846638038 0 -112.00246846638038 124.73193205043208 0 0 0 0 -31.681895788264278 -46.538287324572849 0 -46.538287324572849 80.739087703799328 0 0 0 0 272.07113131287042 -19.58549705229234 0 -19.58549705229234 -128.8886432107538 0 0 0 0 433.116341423226 -300.37982007112532 0 -300.37982007112532 -303.23758701348561 0 0 0 0 269.89096589566907 -23.24199199245777 0 -23.24199199245777 -134.54848408361431 0 0 0 0 -15.966664034444289 9.7548042111864817 0 9.7548042111864817 18.966139282343704 0 0 0 0 62.884259623780963 12.957397414371371 0 12.957397414371371 -65.26836538297357 0 0 0 0 29.934575694891809 -114.38870889713871 0 -114.38870889713871 130.40771916706581 0 0 0 0 32.962739949097113 -107.44282457290683 0 -107.44282457290683 141.11683725914918 0 0 0 0 31.476453085960006 -108.81581185985124 0 -108.81581185985124 135.90537887840765 0 0 0 0 35.789978878704233 -101.00361814856296 0 -101.00361814856296 153.52313035249244 0 0 0 0 33.040365279476973 -110.37031252030283 0 -110.37031252030283 137.35912467166781 0 0 0 0 33.491173936653468 -101.55809080495965 0 -101.55809080495965 150.03060609229578 0 0 0 0 35.28976780670132 -101.09151575856959 0 -101.09151575856959 147.43482836923795 0 0 0 0 364.88015119962256 142.05154633945131 0 142.05154633945131 60.904700035578571 0 0 0 0 290.19187054625672 128.71588078371497 0 128.71588078371497 -7.2488008931395598 0 0 0 0 69.757652746178792 17.417848821758525 0 17.417848821758525 194.77742411330109 0 0 0 0 126.13812417371082 74.239299206092255 0 74.239299206092255 405.97500834923267 0 0 0 0 102.43513977603288 -9.5550958407402504 0 -9.5550958407402504 161.00948126940057 0 0 0 0 46.096683673637017 80.859067790523113 0 80.859067790523113 -152.74430088346708 0 0 0 0 -37.479137687958428 -55.564669112980482 0 -55.564669112980482 -29.53570477469475 0 0 0 0 60.185136138075904 36.981133344423142 0 36.981133344423142 160.33650168211898 0 0 0 0 96.67158829204709 4.6513788756565191 0 4.6513788756565191 137.10023155255476 0 0 0 0 64.652677928759658 21.321303905220702 0 21.321303905220702 25.626378074055538 0 0 0 0 -35.24795221372915 -54.453095750825014 0 -54.453095750825014 143.92682771786349 0 0 0 0 -19.671320239984198 32.002023158594966 0 32.002023158594966 30.688280052301707 0 0 0 0 -143.50408161288942 39.304824065344292 0 39.304824065344292 71.582218324954738 0 0 0 0 -4.1037957543303492 200.29611685601412 0 200.29611685601412 -102.56682972097769 0 0 0 0 137.47459656015053 78.572131706074288 0 78.572131706074288 -156.83283827436389 0 0 0 0 9.537265303917934 -47.501366415781234 0 -47.501366415781234 57.560378564260077 0 0 0 0 35.713766752950534 -45.687424718768199 0 -45.687424718768199 35.674944685587377 0 0 0 0 4.0690050891380452 -112.79232577847972 0 -112.79232577847972 90.962005705892807 0 0 0 0 3.6818124657866065 -101.98337173752748 0 -101.98337173752748 23.654880297515774 0 0 0 0 -8.8375964465085417 -49.336142694697628 0 -49.336142694697628 55.674432217034337 0 0 0 0 -13.504485755431233 -56.684894564597926 0 -56.684894564597926 49.309650144884472 0 0 0 0 27.411280707278991 -52.284355973889404 0 -52.284355973889404 42.13525534922934 0 0 0 0 12.161294914913015 -68.378583000281651 0 -68.378583000281651 32.111253203387605 0 0 0 0 24.6133838092953 -41.288373744036726 0 -41.288373744036726 47.490764193029861 0 0 0 0 9.7267391139757819 -91.404915305887698 0 -91.404915305887698 16.203370010887738 0 0 0 0 16.944578123569954 -57.417594391983585 0 -57.417594391983585 -8.7535866816178896 0 0 0 0 -29.812584703671746 -96.696844491227239 0 -96.696844491227239 -7.7917813153471798 0 0 0 0 101.32006640928739 217.79582803997619 0 217.79582803997619 -89.493107239446545 0 0 0 0 180.32273292788886 -41.68140311188472 0 -41.68140311188472 -1063.5165819533504 0 0 0 0 8.4374878151474721 -7.6759153207146369 0 -7.6759153207146369 -6.6275162844015654 0 0 0 0 -70.780094829562586 -56.449564101138094 0 -56.449564101138094 49.965079450863414 0 0 0 0 32.336395643054857 21.245413571996323 0 21.245413571996323 -277.70748715360969 0 0 0 0 -31.315138464284246 -56.126731315001962 0 -56.126731315001962 1.4680569644842763 0 0 0 0 4.2618096141086426 -76.504298908044802 0 -76.504298908044802 27.510951393807773 0 0 0 0 39.299415590212448 -83.451138168937177 0 -83.451138168937177 23.280793721387454 0 0 0 0 9.4122463570454311 -53.758345576980872 0 -53.758345576980872 27.897581255965036 0 0 0 0 126.86019452866458 -124.90068227044685 0 -124.90068227044685 55.993847837788053 0 0 0 0 -17.371424421893124 -66.823289743312969 0 -66.823289743312969 43.515197978334555 0 0 0 0 7.005786092749986 -65.071078790182128 0 -65.071078790182128 32.439453246624907 0 0 0 0 -6.9002443245903464 -50.458263841645838 0 -50.458263841645838 21.607380449406449 0 0 0 0 -18.576737633848097 -37.836945239992929 0 -37.836945239992929 33.230673989775823 0 0 0 0 17.799091872866569 -57.542591720654791 0 -57.542591720654791 40.496632179945792 0 0 0 0 -30.999013773564002 -83.56412803402236 0 -83.56412803402236 68.402215031645028 0 0 0 0 -33.923652026329393 -27.660519260731462 0 -27.660519260731462 14.372072436525258 0 0 0 0 23.593169246218167 -92.360569903365104 0 -92.360569903365104 51.578103280378855 0 0 0 0 3.2560684230120387 -77.37534470015089 0 -77.37534470015089 34.558508396839898 0 0 0 0 -30.749503851751797 -40.274785356705252 0 -40.274785356705252 51.192994081404322 0 0 0 0 -41.255644863813359 -58.238577174503007 0 -58.238577174503007 7.8784582982407301 0 0 0 0 -246.06219017438707 54.752957988566777 0 54.752957988566777 6.1156973704855773 0 0 0 0 -16.352816526043171 -16.821096088329796 0 -16.821096088329796 1.3682357901270734 0 0 0 0 26.244996443817911 -32.787844893843555 0 -32.787844893843555 35.038880122105581 0 0 0 0 -333.02615751286794 -147.47281282003678 0 -147.47281282003678 -2.6802984063397162 0 0 0 0 -420.74464714131318 -3.6705554530199151 0 -3.6705554530199151 223.11918366343161 0 0 0 0 -326.52221283235849 -202.45775850247082 0 -202.45775850247082 632.25159537840227 0 0 0 0 -427.91097114371951 -185.1800787973043 0 -185.1800787973043 343.30061843107978 0 0 0 0 -137.80567896091088 -11.244246262474917 0 -11.244246262474917 16.260899270389928 0 0 0 0 -256.13870471851737 230.47143096187551 0 230.47143096187551 -1.8521492466679774 0 0 0 0 0.18564249192128113 8.3584371128656301 0 8.3584371128656301 -2.6104864881172034 0 0 0 0 64.361290185028338 473.23701348808754 0 473.23701348808754 1282.1486736810912 0 0 0 0 59.215702590183355 301.71557125924301 0 301.71557125924301 9.9499293713306542 0 0 0 0 259.75991776435694 -714.62791649316205 0 -714.62791649316205 1242.3264053547809 0 0 0 0 119.16071206872584 -305.96329006045562 0 -305.96329006045562 171.20128374368505 0 0 0 0 1055.7375729254636 -2066.2244739579655 0 -2066.2244739579655 684.19824102846906 0 0 0 0 -504.65205074670666 325.49818948612665 0 325.49818948612665 -70.317316433021915 0 0 0 0 2053.5455454284966 37.24218788525468 0 37.24218788525468 -89.206407464604126 0 0 0 0 -222.76007097425463 152.1660204175987 0 152.1660204175987 -14.825385564792668 0 0 0 0 -443.50817429971357 -974.60500478440918 0 -974.60500478440918 403.56647617017734 0 0 0 0 94.631619264352253 -5.2586008711206489 0 -5.2586008711206489 -14.00914056904503 0 0 0 0 164.68461577697599 -123.85066424353136 0 -123.85066424353136 35.99363274978532 0 0 0 0 168.25046378460684 -137.50496457968256 0 -137.50496457968256 42.600725486088777 0 0 0 0 1011.5539933787531 -173.00898817605685 0 -173.00898817605685 69.452670478276559 0 0 0 0 848.7459278649585 -797.20114637676943 0 -797.20114637676943 172.88421472464688 0 0 0 0 13.182799459123828 -7.1928055052906927 0 -7.1928055052906927 33.239754943200865 0 0 0 0 628.08853954460938 -729.80907844004105 0 -729.80907844004105 172.38250827968295 0 0 0 0 650.66225627764652 -732.08619548249408 0 -732.08619548249408 -311.87319611477142 0 0 0 0 -65.160135402868036 -234.42505478860403 0 -234.42505478860403 151.90449613465171 0 0 0 0 658.77090075696469 -623.09545780868211 0 -623.09545780868211 20.092139817799762 0 0 0 0 138.77643784963584 -106.25345889959863 0 -106.25345889959863 -437.31063600904599 0 0 0 0 880.32088345928787 -484.61915912537006 0 -484.61915912537006 -399.322980093144 0 0 0 0 102.16603090205172 -252.52989140236605 0 -252.52989140236605 1582.0450800396393 0 0 0 0 5.5001963264112703 -12.015741305308815 0 -12.015741305308815 15.349925724420757 0 0 0 0 1695.8245898884634 1260.9197641393403 0 1260.9197641393403 -626.7928520594869 0 0 0 0 1200.5079211837437 -959.83070648852299 0 -959.83070648852299 -217.58626525510772 0 0 0 0 452.88976134301629 -1884.8389051624254 0 -1884.8389051624254 659.1234552677779 0 0 0 0 -993.06797192143858 -308.95300656206382 0 -308.95300656206382 1601.3753383887652 0 0 0 0 -9.1995773917643788 5.6574660817041575 0 5.6574660817041575 19.07250933666711 0 0 0 0 665.15273109603004 -669.20328905609495 0 -669.20328905609495 855.62362926793139 0 0 0 0 -22.942413425673294 189.61393255483563 0 189.61393255483563 22.196474306634627 0 0 0 0 -407.93637196469354 -372.17365705892735 0 -372.17365705892735 62.190343191250577 0 0 0 0 16.781375470628348 -31.704627663082029 0 -31.704627663082029 37.931985039511176 0 0 0 0 -550.89308190513111 -80.264814856316661 0 -80.264814856316661 95.753523826497258 0 0 0 0 -61.04683821873914 -240.23802796285963 0 -240.23802796285963 137.92185001485632 0 0 0 0 62.2561741037498 -46.185784321001847 0 -46.185784321001847 -123.45194466943212 0 0 0 0 3.563406194985987 -6.4950799860650505 0 -6.4950799860650505 24.9060159872692 0 0 0 0 -289.92343433624774 -394.94222129553964 0 -394.94222129553964 -183.08193747189944 0 0 0 0 -180.36073608217157 -53.313686989617054 0 -53.313686989617054 325.45869860221865 0 0 0 0 -579.01019531598286 -40.516156780679012 0 -40.516156780679012 743.17143599974224 0 0 0 0 -573.70221377977305 -355.64154052660251 0 -355.64154052660251 749.34906303827302 0 0 0 0 -508.9591926868161 85.461114326015377 0 85.461114326015377 2827.1875686640269 0 0 0 0 76.584961456799647 -89.974687801775872 0 -89.974687801775872 -285.52262646171584 0 0 0 0 -49.6533575497524 -94.515602130231855 0 -94.515602130231855 248.64437527759583 0 0 0 0 -313.9062450968122 -488.65605099842833 0 -488.65605099842833 1196.743308085126 0 0 0 0 543.26395879893971 -127.13919758073098 0 -127.13919758073098 -967.78369355311588 0 0 0 0 79.543284546087762 -163.36003988047469 0 -163.36003988047469 139.6990828695707 0 0 0 0 -0.39387395141906723 -10.799997475590445 0 -10.799997475590445 8.2148391735612734 0 0 0 0 9.1847730154925316 -64.553734088665578 0 -64.553734088665578 150.94424249606027 0 0 0 0 78.803391780970514 -146.537613810116 0 -146.537613810116 204.25868374522543 0 0 0 0 -7.4070462466925164 -109.0932960765349 0 -109.0932960765349 291.20610966725508 0 0 0 0 -13.378559889449434 -57.853701511584063 0 -57.853701511584063 72.848601899258881 0 0 0 0 7.8373353276765556 -2.3741475179767804 0 -2.3741475179767804 3.716395296738483 0 0 0 0 -7.4528218180930708 -60.086920918110991 0 -60.086920918110991 137.80544941939843 0 0 0 0 56.026705214993854 -28.915012915931584 0 -28.915012915931584 -75.674756605410948 0 0 0 0 13.768200692076782 -21.761337338762434 0 -21.761337338762434 -16.609269555587787 0 0 0 0 47.568081519064009 -102.47968741543752 0 -102.47968741543752 -22.617775022033584 0 0 0 0 8.7410306181409396 -183.60428402359685 0 -183.60428402359685 40.516487344066263 0 0 0 0 -62.896220855564025 -160.28515734009852 0 -160.28515734009852 183.10193590802373 0 0 0 0 48.147108236560598 51.34627042383363 0 51.34627042383363 -91.290907489266829 0 0 0 0 381.33356626332898 448.61508520585085 0 448.61508520585085 -811.46630311819899 0 0 0 0 23.827316441170041 -55.814715521969532 0 -55.814715521969532 -63.932328391880702 0 0 0 0 -479.49361088512524 -1009.4373306593407 0 -1009.4373306593407 1545.1811825388431 0 0 0 0 189.06761159289454 22.251472858926718 0 22.251472858926718 -113.79658629265032 0 0 0 0 57.049096416804787 -11.372909049350909 0 -11.372909049350909 -48.484157514138815 0 0 0 0 251.53810322478239 -111.76822272822756 0 -111.76822272822756 -123.53086316856388 0 0 0 0 419.00101601556526 -143.48547700265772 0 -143.48547700265772 13.025430195899389 0 0 0 0 5.6977420215516759 -100.2859965226653 0 -100.2859965226653 120.9032919111778 0 0 0 0 287.25484858581331 -143.84888858503837 0 -143.84888858503837 75.550692239849013 0 0 0 0 165.52248663577484 -458.30726426032925 0 -458.30726426032925 802.05798048030556 0 0 0 0 438.51754329484538 -448.67049888461042 0 -448.67049888461042 323.82102169677819 0 0 0 0 139.10994179100089 -173.70545381282864 0 -173.70545381282864 434.37056735303486 0 0 0 0 308.74613972987936 -312.19713688251977 0 -312.19713688251977 223.22625350570888 0 0 0 0 204.2775792231696 -197.42296078246363 0 -197.42296078246363 73.488082935509738 0 0 0 0 201.55791447892261 -170.21622471917362 0 -170.21622471917362 100.24345299971174 0 0 0 0 221.74467086209188 -162.04753068186619 0 -162.04753068186619 78.589233108534245 0 0 0 0 260.9013191362028 -117.71492944291094 0 -117.71492944291094 -32.511707098878105 0 0 0 0 100.82733199503855 -64.667111397211556 0 -64.667111397211556 14.583143425174057 0 0 0 0 170.52769075977267 -140.9438603369199 0 -140.9438603369199 35.933544597530272 0 0 0 0 48.328400195903669 -227.94163658813341 0 -227.94163658813341 292.80554561534518 0 0 0 0 47.390031814979011 -136.57339131192293 0 -136.57339131192293 205.88237675727578 0 0 0 0 46.050773082517935 -123.89987482218112 0 -123.89987482218112 264.75794549073908 0 0 0 0 184.29269682725135 -126.02937567565823 0 -126.02937567565823 287.64229919025092 0 0 0 0 105.72643793700263 -0.73262409746530466 0 -0.73262409746530466 285.35781365376897 0 0 0 0 258.23524495572201 -115.57546126021771 0 -115.57546126021771 300.65807525115088 0 0 0 0 90.705638272760552 -128.05837088447879 0 -128.05837088447879 358.44751264626393 0 0 0 0 92.396353590142098 -77.528984313830733 0 -77.528984313830733 308.95278855023207 0 0 0 0 71.467825563944643 -132.69170651727472 0 -132.69170651727472 314.21466878047795 0 0 0 0 114.01193934097682 -76.998333372408524 0 -76.998333372408524 317.60141289385501 0 0 0 0 392.86025329733093 -71.697619055048563 0 -71.697619055048563 277.37603376626794 0 0 0 0 15.940015903164749 -48.683829814370256 0 -48.683829814370256 256.23073909070808 0 0 0 0 12.879434123678948 24.318066535211983 0 24.318066535211983 315.29864915530197 0 0 0 0 25.226448784185777 -133.44589121973286 0 -133.44589121973286 310.02359134066501 0 0 0 0 -103.45725154057436 -199.02078509322018 0 -199.02078509322018 150.00026780248118 0 0 0 0 -242.33461546850594 -69.999239934972138 0 -69.999239934972138 296.98612373389187 0 0 0 0 -110.91696245535422 -225.66741714369709 0 -225.66741714369709 322.4067669979413 0 0 0 0 -58.96993618952547 -96.149373694075621 0 -96.149373694075621 356.92004230416205 0 0 0 0 -260.23739887074771 -192.25050623320567 0 -192.25050623320567 427.91686805439531 0 0 0 0 11.566707919082546 -307.52533723082888 0 -307.52533723082888 374.9414034349611 0 0 0 0 245.77275238969742 -487.00704241888161 0 -487.00704241888161 364.80380673310719 0 0 0 0 556.74109555180621 -303.45032813413127 0 -303.45032813413127 376.47421597584616 0 0 0 0 45.316533802259073 -305.92108340671984 0 -305.92108340671984 265.44070480935625 0 0 0 0 -5.5740330980261206 -322.65887046418356 0 -322.65887046418356 -180.16588391131882 0 0 0 0 570.26116790783635 -10.797290294020058 0 -10.797290294020058 324.98441797151463 0 0 0 0 168.10804815810116 -267.39501397036656 0 -267.39501397036656 174.7051848910196 0 0 0 0 9.3200317443479079 -27.922696415510057 0 -27.922696415510057 98.544484734677269 0 0 0 0 -37.792864969938819 -3.2660731083378778 0 -3.2660731083378778 267.08060845395084 0 0 0 0 281.17434397935722 86.716623669344699 0 86.716623669344699 -235.27498243842274 0 0 0 0 -1.2496313625566984 -1.5354689449886507 0 -1.5354689449886507 -1.4326597277918154 0 0 0 0 256.60475652721652 -131.40244840677769 0 -131.40244840677769 -27.295401548442896 0 0 0 0 124.84278335495765 -39.983506968914298 0 -39.983506968914298 38.955144781284616 0 0 0 0 69.805712191460771 -276.6578513616405 0 -276.6578513616405 260.87893813185474 0 0 0 0 256.9953650091677 -255.59874762896874 0 -255.59874762896874 115.88045919884462 0 0 0 0 110.5525785261998 -141.4734011086548 0 -141.4734011086548 114.81943268395742 0 0 0 0 81.362345283057948 -66.168399688242062 0 -66.168399688242062 85.638633388807648 0 0 0 0 114.93248422598117 -127.26277313809987 0 -127.26277313809987 63.450027844417491 0 0 0 0 -43.78653993352782 162.88355322427378 0 162.88355322427378 19.765790676960023 0 0 0 0 134.39992560037354 -97.364532380845048 0 -97.364532380845048 44.410895827808417 0 0 0 0 114.47983804471005 -8.5429537300879019 0 -8.5429537300879019 235.29882702211034 0 0 0 0 43.366228200211481 -135.69095158016717 0 -135.69095158016717 11.204552735899597 0 0 0 0 237.85534162135446 -171.39134526500129 0 -171.39134526500129 93.777509428487974 0 0 0 0 148.88083073747839 -250.24146504241799 0 -250.24146504241799 241.59721779389656 0 0 0 0 220.32590091055317 -143.65360230219085 0 -143.65360230219085 5.4709587254665166 0 0 0 0 160.1130538124853 -241.53263674417394 0 -241.53263674417394 185.32395873578935 0 0 0 0 27.475647086711433 -151.15538669209582 0 -151.15538669209582 124.79272870032582 0 0 0 0 299.35757901748002 -183.97745279495575 0 -183.97745279495575 25.848856714670546 0 0 0 0 4.6908732466841911 -10.510693609884044 0 -10.510693609884044 -9.5127346251375684 0 0 0 0 -87.224472604773837 -24.722736358631664 0 -24.722736358631664 129.47645029152045 0 0 0 0 63.052227236374165 -116.74722118554928 0 -116.74722118554928 68.528577182834852 0 0 0 0 31.846529031445243 -103.19689841837726 0 -103.19689841837726 63.196289540806902 0 0 0 0 -3.689952478161274 -3.5265116228013653 0 -3.5265116228013653 -8.2819441569925516 0 0 0 0 67.505483482782438 -70.295552981675428 0 -70.295552981675428 31.971782327765595 0 0 0 0 109.24159690990382 -93.502654705403984 0 -93.502654705403984 33.036976884977776 0 0 0 0 84.283549798507011 -123.51151816312631 0 -123.51151816312631 210.50335711095249 0 0 0 0 91.991737195494352 -111.11254636874219 0 -111.11254636874219 105.93796359066619 0 0 0 0 133.73342624425277 -69.587733997308533 0 -69.587733997308533 99.042831589846173 0 0 0 0 126.58369718146878 -97.79699198011258 0 -97.79699198011258 122.58047201947193 0 0 0 0 108.01467334408517 -49.675604510470293 0 -49.675604510470293 224.92615876508353 0 0 0 0 106.07560520638071 -66.030800221058598 0 -66.030800221058598 95.884615817622034 0 0 0 0 117.08091468085013 -117.17151401175033 0 -117.17151401175033 39.613131488993531 0 0 0 0 81.16958920885736 -98.848030122993805 0 -98.848030122993805 32.311152483860496 0 0 0 0 80.162531669877353 -125.65950794205855 0 -125.65950794205855 75.034227115487738 0 0 0 0 57.435661928244372 -165.10194316253182 0 -165.10194316253182 33.843727644001774 0 0 0 0 -36.2718584509458 -42.998831900326564 0 -42.998831900326564 98.1094639550995 0 0 0 0 -83.159132135917389 -136.17797034552495 0 -136.17797034552495 -44.472907235613093 0 0 0 0 39.92850519748572 -145.29930898526072 0 -145.29930898526072 88.964289964467753 0 0 0 0 -273.84175739297189 -92.380730634482461 0 -92.380730634482461 149.64535551777954 0 0 0 0 -55.602531574435943 27.658230760731385 0 27.658230760731385 64.141091698606033 0 0 0 0 -10.681530932903115 2.234106557953055 0 2.234106557953055 49.208491614990635 0 0 0 0 52.763089214393403 21.605896667315392 0 21.605896667315392 100.85512855532579 0 0 0 0 117.91537532647635 -134.54533882117539 0 -134.54533882117539 -33.054489604168339 0 0 0 0 70.628299735759356 -68.600464847400872 0 -68.600464847400872 416.86892029436422 0 0 0 0 -41.011828657208532 -37.200308694932886 0 -37.200308694932886 92.047643696395482 0 0 0 0 -459.75575608546205 -113.87881164510327 0 -113.87881164510327 945.33457381918561 0 0 0 0 83.418785359237518 -150.64621800758323 0 -150.64621800758323 488.1065066397714 0 0 0 0 226.06493314519957 -275.4896631201027 0 -275.4896631201027 435.42390060247271 0 0 0 0 -7.5766656992207118 -14.618714483876829 0 -14.618714483876829 61.452776491933037 0 0 0 0 -73.457110270273461 -25.898964464955498 0 -25.898964464955498 87.3513119550189 0 0 0 0 -15.828151560304946 -32.307037048845814 0 -32.307037048845814 87.742233718163334 0 0 0 0 -16.147355998562034 -19.062647273152834 0 -19.062647273152834 59.178279666462913 0 0 0 0 -22.653876230426249 -16.218522723254864 0 -16.218522723254864 102.38956099125789 0 0 0 0 -60.304254237949863 -30.613929769446258 0 -30.613929769446258 169.72366719327692 0 0 0 0 -34.325252975422586 -64.741709290636209 0 -64.741709290636209 147.11103124747751 0 0 0 0 -21.88713184128892 -125.62084374968254 0 -125.62084374968254 257.61251503812673 0 0 0 0 -7.3886206565107386 -65.286606469860999 0 -65.286606469860999 138.23765866291069 0 0 0 0 -41.085414971094906 -47.448860877077095 0 -47.448860877077095 168.86579109015292 0 0 0 0 -775.73382134080748 203.64023434225237 0 203.64023434225237 209.96238243218977 0 0 0 0 626.57010400793661 -122.48818626127468 0 -122.48818626127468 135.0294463346072 0 0 0 0 -60.229073728763886 -22.702466693134738 0 -22.702466693134738 130.27071712468751 0 0 0 0 -533.20495013143409 261.50573285417704 0 261.50573285417704 -527.08479355156305 0 0 0 0 -55.950689479367384 -67.529670208677999 0 -67.529670208677999 143.48016160694533 0 0 0 0 377.76777115573532 -274.44185720738869 0 -274.44185720738869 310.41387289902195 0 0 0 0 2.3407850145976639 -0.61819780904657762 0 -0.61819780904657762 5.5718535589383578 0 0 0 0 -41.535695427136297 -37.179660337690279 0 -37.179660337690279 86.111306165581766 0 0 0 0 -32.94345634626734 -60.686060149892 0 -60.686060149892 85.787787651584949 0 0 0 0 -482.01699592379737 -151.12390121906355 0 -151.12390121906355 152.54422306846391 0 0 0 0 -450.27870023532614 -264.52942403364432 0 -264.52942403364432 203.28865912082256 0 0 0 0 441.96341669261938 -419.50196084057097 0 -419.50196084057097 223.05277034128449 0 0 0 0 -248.96007478526826 -209.00893217173871 0 -209.00893217173871 356.68173807539279 0 0 0 0 -23.321152417890971 -101.86923396602651 0 -101.86923396602651 114.31103099492611 0 0 0 0 -126.59444225400966 24.944273951703508 0 24.944273951703508 88.225522882479709 0 0 0 0 -240.872683957969 -134.79698829987319 0 -134.79698829987319 111.93359263790808 0 0 0 0 -237.46309309241167 -214.51609218296107 0 -214.51609218296107 104.90064456002438 0 0 0 0 -469.95465044395314 -316.70819359024244 0 -316.70819359024244 88.808533552321023 0 0 0 0 -426.61740831160614 -266.06973924416525 0 -266.06973924416525 -155.419655390142 0 0 0 0 -609.72577753585938 -243.0540715481402 0 -243.0540715481402 63.531550037718262 0 0 0 0 -260.57280515450805 -101.91431299989199 0 -101.91431299989199 -56.968190234678332 0 0 0 0 -253.70048435620947 -101.09374741424108 0 -101.09374741424108 44.38516420245287 0 0 0 0 -508.78148965758419 -236.16638413426699 0 -236.16638413426699 52.075089967849635 0 0 0 0 -513.89032194610149 -328.82463442191511 0 -328.82463442191511 -246.03353849177074 0 0 0 0 -635.11822428102687 -290.9073028722778 0 -290.9073028722778 36.380867389038031 0 0 0 0 -312.27019350220803 174.24986192803772 0 174.24986192803772 242.16456303116865 0 0 0 0 -748.08552390970499 -413.11280680480559 0 -413.11280680480559 -84.090696933606523 0 0 0 0 -668.69548091665365 -358.91587826508476 0 -358.91587826508476 -407.34258399334794 0 0 0 0 -976.3343608386449 -661.26958940678014 0 -661.26958940678014 -183.08139555060552 0 0 0 0 -1.5780810451766918 -1.174866045997021 0 -1.174866045997021 0.89194804257152782 0 0 0 0 -126.38274184128977 -448.28425728786169 0 -448.28425728786169 -598.94650504560559 0 0 0 0 -518.16545604299336 -542.63075885145372 0 -542.63075885145372 -226.24632357695009 0 0 0 0 -217.79274145241016 -462.68853375179606 0 -462.68853375179606 -684.58453003814793 0 0 0 0 -347.3912061294468 -559.06028393784072 0 -559.06028393784072 -298.1604843526402 0 0 0 0 -242.606022220265 -472.15296779689379 0 -472.15296779689379 -284.5027325046558 0 0 0 0 -154.61213807888453 -570.17520465948473 0 -570.17520465948473 -88.404536903195549 0 0 0 0 -305.87034543327263 -476.38326913760102 0 -476.38326913760102 -139.5530062681064 0 0 0 0 -361.47735395512973 -503.01929401340749 0 -503.01929401340749 -131.75233416650735 0 0 0 0 -235.8709464070871 -432.83471011353686 0 -432.83471011353686 4.1516550168744288 0 0 0 0 -235.83483901207933 -394.54578022323949 0 -394.54578022323949 -39.898098485791706 0 0 0 0 -56.259485075717748 -490.02701176130358 0 -490.02701176130358 -33.544532274943776 0 0 0 0 -372.72513045545747 -352.60702631075401 0 -352.60702631075401 -18.1733585498514 0 0 0 0 -235.51268911492662 -271.06065609181678 0 -271.06065609181678 25.583230714859383 0 0 0 0 -420.18617298084882 -352.04098517304374 0 -352.04098517304374 -9.3850545748500735 0 0 0 0 -247.84916746725503 -283.11905120666233 0 -283.11905120666233 39.044752749876352 0 0 0 0 -323.90034602163064 -119.37734336537324 0 -119.37734336537324 -14.991001575428527 0 0 0 0 -133.85491458174511 -259.86241567804245 0 -259.86241567804245 27.349601277266629 0 0 0 0 -124.15059499074778 -324.05911404588551 0 -324.05911404588551 62.046648670955619 0 0 0 0 -21.654363481497057 -254.80874819139717 0 -254.80874819139717 108.58855644951109 0 0 0 0 -151.57886563891259 -160.22249833244769 0 -160.22249833244769 54.420523467881139 0 0 0 0 -259.87293286516979 -212.55186976700497 0 -212.55186976700497 54.256696477285004 0 0 0 0 -111.24354358060828 -456.45447294931364 0 -456.45447294931364 56.059645872825058 0 0 0 0 -48.616637093416102 -541.23805874642494 0 -541.23805874642494 20.282723009760957 0 0 0 0 -56.422069617276065 -403.74655429788982 0 -403.74655429788982 5.0945656351759681 0 0 0 0 -121.28833958444011 -402.15830581075534 0 -402.15830581075534 52.52793642427423 0 0 0 0 0.54815255360517767 -460.93191357239266 0 -460.93191357239266 115.96261499857064 0 0 0 0 -49.305471769333963 -372.2095364715351 0 -372.2095364715351 126.40035729156807 0 0 0 0 19.369255290901492 -396.35337455465924 0 -396.35337455465924 51.633753331163462 0 0 0 0 0.93599435331179848 -536.98599899037436 0 -536.98599899037436 95.597723381535616 0 0 0 0 33.132885228187661 -461.23830201140663 0 -461.23830201140663 52.276606534818711 0 0 0 0 137.15963803408795 -507.85603792965048 0 -507.85603792965048 92.182482419593725 0 0 0 0 78.322305588348172 -427.46382800328865 0 -427.46382800328865 254.22393921698676 0 0 0 0 30.061344114255917 -512.07371950453671 0 -512.07371950453671 113.16493721811275 0 0 0 0 111.83190267883219 -449.58111393940635 0 -449.58111393940635 116.23145290361572 0 0 0 0 65.306626842708738 -362.48597290851467 0 -362.48597290851467 221.37644456743146 0 0 0 0 133.61119102181874 -350.10147084278287 0 -350.10147084278287 368.96691205381649 0 0 0 0 190.08233381980062 -402.80028084869264 0 -402.80028084869264 231.54637936528889 0 0 0 0 139.20728368705022 -420.08604881729116 0 -420.08604881729116 506.68080480012941 0 0 0 0 143.60144624598968 -444.24964593112054 0 -444.24964593112054 258.53774749330478 0 0 0 0 89.020979426757549 -356.46216563653434 0 -356.46216563653434 470.36675300110255 0 0 0 0 -147.44974750804704 -163.80762720186613 0 -163.80762720186613 192.66364240122925 0 0 0 0 -14.149342267092834 -233.16491122416119 0 -233.16491122416119 82.797411970415851 0 0 0 0 37.520332541696916 -247.64093842850707 0 -247.64093842850707 203.6875877094426 0 0 0 0 -59.763827946115725 -334.50111266292151 0 -334.50111266292151 129.42782717800583 0 0 0 0 56.603319396075676 -413.6957183330087 0 -413.6957183330087 140.0993295051303 0 0 0 0 140.00043065708996 -287.63522728471435 0 -287.63522728471435 207.97315079855616 0 0 0 0 77.762741063515023 -330.57595832329389 0 -330.57595832329389 335.16558604888269 0 0 0 0 287.6035259779328 -323.44879337619932 0 -323.44879337619932 333.71151950169588 0 0 0 0 134.65450011191024 -290.99006640174775 0 -290.99006640174775 365.61800320318434 0 0 0 0 0.055746333580827923 -240.65773687617911 0 -240.65773687617911 191.82731455730391 0 0 0 0 -4.8013566800582339 -290.78331689615152 0 -290.78331689615152 366.20752318447921 0 0 0 0 1.7378063468448204 -185.52584207062318 0 -185.52584207062318 296.69660850462969 0 0 0 0 -11.371896927714261 -292.91250123371719 0 -292.91250123371719 394.6717012434965 0 0 0 0 -8.8916414376107298 -204.60513460491143 0 -204.60513460491143 316.67753458459629 0 0 0 0 -36.381297801284745 -175.90354399683565 0 -175.90354399683565 160.74376831913833 0 0 0 0 -102.69724199716984 -205.41847987296933 0 -205.41847987296933 324.51664796262048 0 0 0 0 -96.418314216457475 -96.747665894283273 0 -96.747665894283273 9.8118884330033325 0 0 0 0 -163.35696266481318 -99.420669915853068 0 -99.420669915853068 172.74378593533766 0 0 0 0 -133.72110115237047 -102.04158062631177 0 -102.04158062631177 135.72792213887442 0 0 0 0 -1.6122352547538532 -3.1635511950088713 0 -3.1635511950088713 7.7128049882930441 0 0 0 0 -118.05595186731261 -51.913606672824244 0 -51.913606672824244 3.467037821885242 0 0 0 0 -138.06721731856464 -8.2008698526933586 0 -8.2008698526933586 18.45841257768916 0 0 0 0 -102.81142543944907 -78.051951148052467 0 -78.051951148052467 149.34466620732564 0 0 0 0 31.64035469090777 -300.31340746027126 0 -300.31340746027126 206.99568382275174 0 0 0 0 122.71617323868077 -92.437727528893447 0 -92.437727528893447 100.17911249393364 0 0 0 0 16.492158179553371 -326.11737463748432 0 -326.11737463748432 300.7421044685907 0 0 0 0 0.29295026966050841 -3.1201268528885748 0 -3.1201268528885748 5.0482516466227239 0 0 0 0 -4.2201139110047627 -11.942631855272737 0 -11.942631855272737 -0.089325402658140263 0 0 0 0 -13.62928951911158 5.0947727072361886 0 5.0947727072361886 81.948026988873607 0 0 0 0 38.81244220601252 -42.072878760372987 0 -42.072878760372987 32.557321803848026 0 0 0 0 14.982206889632607 -81.79787248444336 0 -81.79787248444336 137.69214412145084 0 0 0 0 10.839637239915561 -45.078858091993425 0 -45.078858091993425 88.613798789854627 0 0 0 0 54.010159742851215 -68.971020326644066 0 -68.971020326644066 113.56762585253455 0 0 0 0 31.711350989544144 -87.932474854082102 0 -87.932474854082102 121.73353192483773 0 0 0 0 33.72526619601507 -91.775031760247657 0 -91.775031760247657 112.60649874390219 0 0 0 0 34.075832088049729 -94.812700137706997 0 -94.812700137706997 134.84532859537285 0 0 0 0 50.701709700144704 -90.647088821599027 0 -90.647088821599027 112.32586868357612 0 0 0 0 36.719676718104608 -92.364874053688254 0 -92.364874053688254 136.89298172355484 0 0 0 0 40.37217147234287 -65.927108386473265 0 -65.927108386473265 68.457696933211992 0 0 0 0 20.018924909391217 -31.029808964995027 0 -31.029808964995027 47.951532847073395 0 0 0 0 47.088543137676425 -102.34333532134769 0 -102.34333532134769 88.882765924758132 0 0 0 0 22.539428018921967 -70.221274817362428 0 -70.221274817362428 93.07976571956533 0 0 0 0 124.76689674271893 -88.35088916188397 0 -88.35088916188397 50.345834743166051 0 0 0 0 66.170771428019293 -130.38742862300205 0 -130.38742862300205 121.35111174278427 0 0 0 0 61.921857048235722 -118.23496489928948 0 -118.23496489928948 105.29838014097186 0 0 0 0 35.122689009784153 -118.77103149416507 0 -118.77103149416507 126.27703407140143 0 0 0 0 68.455463407471143 -115.58020312982262 0 -115.58020312982262 121.41368006016751 0 0 0 0 28.691714439928951 -113.07049504836323 0 -113.07049504836323 133.9213480433973 0 0 0 0 32.306607196880918 -107.45332351699471 0 -107.45332351699471 135.7447168555409 0 0 0 0 29.917832901096631 -107.32557086806628 0 -107.32557086806628 137.03423324902542 0 0 0 0 30.547925403002807 -109.26420368476101 0 -109.26420368476101 130.77988732769154 0 0 0 0 30.773160326330995 -113.78026783076348 0 -113.78026783076348 127.96607486985158 0 0 0 0 32.088920362699355 -109.3643562689831 0 -109.3643562689831 127.08287368167657 0 0 0 0 35.579083393199198 -112.12543791042117 0 -112.12543791042117 122.01999066839926 0 0 0 0 31.13535883405325 -118.3588076691376 0 -118.3588076691376 123.82304141845088 0 0 0 0 37.819279573636209 -126.16715890837077 0 -126.16715890837077 127.09749112420832 0 0 0 0 20.708364939084049 -112.01011628803099 0 -112.01011628803099 119.32305046924739 0 0 0 0 29.989800651707526 -118.9103625126736 0 -118.9103625126736 126.63375240936875 0 0 0 0 25.879460412790394 -114.90080830958323 0 -114.90080830958323 129.64319474674994 0 0 0 0 21.797208500051966 -118.90772735438077 0 -118.90772735438077 127.02879799461516 0 0 0 0 23.269920295024392 -111.77440389136609 0 -111.77440389136609 123.28401356679387 0 0 0 0 27.017641997842361 -114.46448528743349 0 -114.46448528743349 122.91672505595488 0 0 0 0 27.384250429065872 -115.36618934507715 0 -115.36618934507715 115.32583141973009 0 0 0 0 27.429361238283292 -116.11740758962696 0 -116.11740758962696 126.81380422445363 0 0 0 0 29.169414620573754 -111.7470595704508 0 -111.7470595704508 124.76344523931039 0 0 0 0 33.084611364942546 -113.25839010832715 0 -113.25839010832715 103.69435459247325 0 0 0 0 33.004855079319725 -112.08313375577563 0 -112.08313375577563 86.978396100457758 0 0 0 0 19.215652410659004 -106.54274052806431 0 -106.54274052806431 109.47283974735183 0 0 0 0 22.754503733781917 -115.64679146089475 0 -115.64679146089475 109.03111789678223 0 0 0 0 10.733125409710283 -93.348676727095153 0 -93.348676727095153 101.88164712642902 0 0 0 0 33.424585513485241 -97.383025304588955 0 -97.383025304588955 55.229777884553187 0 0 0 0 20.22687507036153 -108.67292670573806 0 -108.67292670573806 109.03359418816399 0 0 0 0 25.963165660577033 -123.62160795222735 0 -123.62160795222735 127.62483754329151 0 0 0 0 24.024574758901053 -102.9744549432362 0 -102.9744549432362 116.18129326158669 0 0 0 0 -15.404119890583729 -64.818662761521409 0 -64.818662761521409 113.86326216504676 0 0 0 0 15.390973780195687 -50.731626469554612 0 -50.731626469554612 54.818951749126427 0 0 0 0 121.43616516962493 -148.81040951023169 0 -148.81040951023169 127.25781788877794 0 0 0 0 57.17426268542863 -133.11623544793838 0 -133.11623544793838 129.0241375201731 0 0 0 0 27.078771535945179 -118.71656521371915 0 -118.71656521371915 145.65201446769061 0 0 0 0 10.268482789757172 -102.69761660495715 0 -102.69761660495715 160.22607863123994 0 0 0 0 37.288868539165378 -104.60556490437011 0 -104.60556490437011 131.39425210596528 0 0 0 0 149.87081338239659 -181.76902044849703 0 -181.76902044849703 172.91751303942874 0 0 0 0 38.496046873315237 -126.80524827221689 0 -126.80524827221689 162.20306013716618 0 0 0 0 -0.094930884792225001 0.15399304349323018 0 0.15399304349323018 1.4972721752591269 0 0 0 0 213.88419253987558 -105.83872489675559 0 -105.83872489675559 122.97996784455609 0 0 0 0 125.77497834645567 -111.45563339650471 0 -111.45563339650471 143.2729314401804 0 0 0 0 -296.71400104589702 -22.716366802706034 0 -22.716366802706034 -29.587420353193011 0 0 0 0 -726.92188149214758 84.835697097561933 0 84.835697097561933 64.302928377990611 0 0 0 0 -279.18750112441467 -95.353214209095313 0 -95.353214209095313 71.531858293776168 0 0 0 0 -383.1552678024309 79.956929053114436 0 79.956929053114436 22.844228856830341 0 0 0 0 162.81553919586531 -142.3769803875839 0 -142.3769803875839 99.05819470109418 0 0 0 0 -1.0853577269436032 -0.70284339568509324 0 -0.70284339568509324 4.8489488487123253 0 0 0 0 107.49357412195241 -875.58336972911093 0 -875.58336972911093 1663.0006596237668 0 0 0 0 188.14998511268641 -722.49594120735856 0 -722.49594120735856 617.23237414527284 0 0 0 0 -0.081678932328941301 -302.84167181751582 0 -302.84167181751582 1385.7836077163429 0 0 0 0 269.08379737194628 58.134275914431782 0 58.134275914431782 1556.9867316189734 0 0 0 0 382.71016464920831 -27.222869185756281 0 -27.222869185756281 -162.27809061745756 0 0 0 0 55.183036007540068 -653.11597513087327 0 -653.11597513087327 3215.863394600121 0 0 0 0 11.965642132600863 -2.1680536258171621 0 -2.1680536258171621 2.4162611839637052 0 0 0 0 -26.891111510951305 -381.98254011894824 0 -381.98254011894824 1212.0759245416775 0 0 0 0 -27.607554245463689 -81.396315871077036 0 -81.396315871077036 5.0542132724403928 0 0 0 0 -19.28499392773665 -3.7887414184679074 0 -3.7887414184679074 50.53080993832009 0 0 0 0 566.93336281312804 -215.89326783123488 0 -215.89326783123488 -121.40626801650433 0 0 0 0 -169.61923807981657 -102.31344595275641 0 -102.31344595275641 72.023968799569047 0 0 0 0 206.16281107826217 -173.95265674214806 0 -173.95265674214806 81.736617648144602 0 0 0 0 -293.5473813639469 251.34448693960849 0 251.34448693960849 -421.23192123430272 0 0 0 0 -282.46241934733916 504.59980905635933 0 504.59980905635933 -1186.2784797805671 0 0 0 0 -9.41770952818149 -4.1576663048252271 0 -4.1576663048252271 -4.976947596438869 0 0 0 0 51.381432938367652 -898.30336148828178 0 -898.30336148828178 -800.76611662465439 0 0 0 0 -1.6181560967525002 -184.55751924851847 0 -184.55751924851847 128.49180008045914 0 0 0 0 -357.11091167501581 -477.81669103354943 0 -477.81669103354943 -1028.5109240268807 0 0 0 0 4.197583846843628 -2.4224697173154084 0 -2.4224697173154084 -7.4953940478160845 0 0 0 0 0.057808919387753122 -19.309788080409362 0 -19.309788080409362 -27.022844083967357 0 0 0 0 -0.054196483382838778 -19.415345345815695 0 -19.415345345815695 -26.952692688002571 0 0 0 0 -780.19105883268639 -278.68007223367704 0 -278.68007223367704 -109.59146009130745 0 0 0 0 -444.32066362880869 -148.06459990241865 0 -148.06459990241865 -161.82455669272167 0 0 0 0 5.316001923651271 -2.6074976828176091 0 -2.6074976828176091 -9.1300397498495371 0 0 0 0 -27.214567829769294 -33.126158723220556 0 -33.126158723220556 4.6728875854041689 0 0 0 0 -30.225382970493229 -15.997226088500952 0 -15.997226088500952 18.53033526418767 0 0 0 0 -5.9236246497312095 11.903988219450184 0 11.903988219450184 20.186181062659244 0 0 0 0 4.516234449214835 -1.4015985538942175 0 -1.4015985538942175 -3.8018774387455601 0 0 0 0 16.999078286025906 -23.475593319790732 0 -23.475593319790732 -131.90326868409011 0 0 0 0 -6.1895206525999606 -163.32880469993631 0 -163.32880469993631 60.70336484585323 0 0 0 0 -0.039854605041909963 -14.155301880441129 0 -14.155301880441129 -7.9259067198681805 0 0 0 0 3.7299063284298768 1.3410667009489714 0 1.3410667009489714 -4.149578571255919 0 0 0 0 17.006320904882159 -9.2781332632648628 0 -9.2781332632648628 -47.285961749164926 0 0 0 0 -69.379979585581168 -83.190566631906933 0 -83.190566631906933 12.315381828629313 0 0 0 0 0.045458953114575706 -14.115346403278181 0 -14.115346403278181 -7.9606547613043404 0 0 0 0 -204.63717562751117 -338.03979234249641 0 -338.03979234249641 -341.80116497432027 0 0 0 0 1.7271776367009011 1.2326618891367218 0 1.2326618891367218 -4.6475739039383717 0 0 0 0 7.7060076204059271 -4.1018548627404812 0 -4.1018548627404812 -7.875696318589382 0 0 0 0 -25.02265225143492 -8.6027701670384857 0 -8.6027701670384857 7.135004745610189 0 0 0 0 -278.6113552172319 -354.99010374195177 0 -354.99010374195177 -128.18353346755794 0 0 0 0 -383.55994121925323 -320.70931119862598 0 -320.70931119862598 -131.70573869659302 0 0 0 0 -312.34043080382253 -241.54421971214811 0 -241.54421971214811 -8.2331442922404676 0 0 0 0 -305.85123573846067 -309.68703939207899 0 -309.68703939207899 -376.6127635012981 0 0 0 0 -212.00885497658601 -480.55993957152418 0 -480.55993957152418 -136.40799728700404 0 0 0 0 -590.97205864667194 -393.19903845442423 0 -393.19903845442423 -135.00303874833025 0 0 0 0 -464.39961027982645 -553.83257149054407 0 -553.83257149054407 -1192.8903068844445 0 0 0 0 -210.95683139488392 -313.35296862199334 0 -313.35296862199334 -396.82798538156021 0 0 0 0 -336.32243864421616 -112.25841595749534 0 -112.25841595749534 -258.5414560881909 0 0 0 0 104.14424211389269 0.64765807691765076 0 0.64765807691765076 274.04604959368407 0 0 0 0 56.64603393759171 -167.92408500848705 0 -167.92408500848705 -318.8001602933773 0 0 0 0 673.49345916020684 -315.89991805880663 0 -315.89991805880663 -201.62749451949639 0 0 0 0 499.88746984388126 -124.32696670237385 0 -124.32696670237385 -135.12665347615166 0 0 0 0 265.52497938796296 -508.46861137929864 0 -508.46861137929864 -74.005312401254287 0 0 0 0 -21.258185156606487 -292.96072752028931 0 -292.96072752028931 -72.028095124751417 0 0 0 0 -117.09076360418112 -472.27087214889877 0 -472.27087214889877 -136.27375801597526 0 0 0 0 128.66186922779889 -233.91336562324113 0 -233.91336562324113 -139.05528804472033 0 0 0 0 -6.3948623453347864 -15.751761196041912 0 -15.751761196041912 -41.749989021354907 0 0 0 0 74.155974382010754 -220.57009820746634 0 -220.57009820746634 -27.319316421218275 0 0 0 0 -832.28539039882889 -591.30205966676067 0 -591.30205966676067 -122.73688296772485 0 0 0 0 88.203876831743401 30.245937014366973 0 30.245937014366973 -384.58158375734456 0 0 0 0 80.671462020371109 -52.709609172619821 0 -52.709609172619821 -187.44944350349397 0 0 0 0 162.32905394525733 -72.586873012914111 0 -72.586873012914111 -209.00576384636452 0 0 0 0 45.705471163251786 -38.943905107385945 0 -38.943905107385945 -33.718901307325723 0 0 0 0 40.026669891842175 -112.29898869396038 0 -112.29898869396038 -224.80220594160255 0 0 0 0 16.588689976459136 -95.135605347712499 0 -95.135605347712499 12.610355468063062 0 0 0 0 218.98506154103961 65.268787435649756 0 65.268787435649756 -18.254947470548359 0 0 0 0 64.645445658112294 -120.83775557297395 0 -120.83775557297395 -33.212470213488999 0 0 0 0 -3.3008736780930974 -31.53822009846246 0 -31.53822009846246 -59.523499237238497 0 0 0 0 4.953354043689842 -5.9478782428231591 0 -5.9478782428231591 -11.083347780944527 0 0 0 0 318.29908452661766 -347.60826345283886 0 -347.60826345283886 270.82791290496243 0 0 0 0 18.830216471906169 -48.02966156360435 0 -48.02966156360435 -20.478875729249921 0 0 0 0 -15.040385696649139 -30.238679442890287 0 -30.238679442890287 -6.3065810431546225 0 0 0 0 22.979875333429334 -42.627117889305303 0 -42.627117889305303 -7.4646378630467503 0 0 0 0 -1.4192757316341158 -78.666320557057588 0 -78.666320557057588 1.0948909435424383 0 0 0 0 23.000170218074345 -69.229165181992357 0 -69.229165181992357 -33.13474372305518 0 0 0 0 -15.237911283678841 -61.109103627862169 0 -61.109103627862169 1.5533030663300451 0 0 0 0 -43.325719220563769 -46.95424234015627 0 -46.95424234015627 33.450607038964336 0 0 0 0 -19.043768789483636 -28.106936431917404 0 -28.106936431917404 -18.707704744464149 0 0 0 0 -34.51021318428684 -60.490939659384821 0 -60.490939659384821 54.030203398453523 0 0 0 0 -99.084350130207895 -297.74640663757782 0 -297.74640663757782 -1141.4658923690859 0 0 0 0 7.9987454929723754 -686.02552144892434 0 -686.02552144892434 -1240.4367735056294 0 0 0 0 443.16753809186048 -59.892431962871342 0 -59.892431962871342 -397.77089409676773 0 0 0 0 -7.0366250953513543 -4.6405228928819042 0 -4.6405228928819042 5.3162136699600779 0 0 0 0 -939.01806443903479 -66.445507182068468 0 -66.445507182068468 -361.39851396393715 0 0 0 0 -319.44809836021159 -156.10410095514544 0 -156.10410095514544 232.1743409069004 0 0 0 0 6.9790368969524366 -5.0913860218688427 0 -5.0913860218688427 -5.2084352792976052 0 0 0 0 670.95066037744982 -216.20646537037464 0 -216.20646537037464 -1125.7815426247471 0 0 0 0 658.17560630419757 -434.88640885025598 0 -434.88640885025598 -1059.0810500007537 0 0 0 0 141.18783465289744 -4.3632953414962685 0 -4.3632953414962685 -731.65884442539573 0 0 0 0 413.25552668218734 -90.65551840997432 0 -90.65551840997432 -1473.5771056362319 0 0 0 0 -28.470671740768012 278.10663671781003 0 278.10663671781003 -1189.3799159556329 0 0 0 0 887.81128545312095 -132.04150498433637 0 -132.04150498433637 -905.18530891863702 0 0 0 0 623.1984590049542 -533.13856248517004 0 -533.13856248517004 -470.44425748060621 0 0 0 0 476.55440964954323 -152.98538490884221 0 -152.98538490884221 -64.222788703868446 0 0 0 0 85.655792759047472 14.852480272846606 0 14.852480272846606 -11.799935464967348 0 0 0 0 481.60265429416359 -129.81339005546874 0 -129.81339005546874 -272.94672930596244 0 0 0 0 61.228022564464482 -26.136697593884492 0 -26.136697593884492 40.545064266732879 0 0 0 0 -5.3262016200169455 307.48390196066975 0 307.48390196066975 -513.70024540853478 0 0 0 0 208.97205430823669 120.42557325526923 0 120.42557325526923 -492.52003749524556 0 0 0 0 -33.683910519641358 264.39273695636075 0 264.39273695636075 -489.15411952027353 0 0 0 0 -113.49137017883186 224.98591299379677 0 224.98591299379677 -332.13629032810059 0 0 0 0 337.49613912700443 305.51257846057706 0 305.51257846057706 -391.85645618300623 0 0 0 0 -68.387275022745598 3.2997227564446803 0 3.2997227564446803 -607.73765062458915 0 0 0 0 -10.476545933197485 327.3729756084158 0 327.3729756084158 -508.63405002935906 0 0 0 0 196.06857080460759 -329.72390720067233 0 -329.72390720067233 -1007.2347980674967 0 0 0 0 282.41397758328822 -198.17116613748658 0 -198.17116613748658 -809.16656152886208 0 0 0 0 131.94872121181106 -505.37929340275514 0 -505.37929340275514 -1201.1600454864238 0 0 0 0 -383.45972830231767 -405.39425280156865 0 -405.39425280156865 -860.67093480766562 0 0 0 0 -176.22432271108846 49.813371030233611 0 49.813371030233611 -623.27132954390981 0 0 0 0 -684.61720428179251 -143.28846014601368 0 -143.28846014601368 -667.55247325000073 0 0 0 0 -187.22565922156355 101.18142767489326 0 101.18142767489326 -582.07133346184128 0 0 0 0 -99.295776789600495 517.63828690283481 0 517.63828690283481 -1260.9186947394919 0 0 0 0 18.260022122949067 -39.986097204371674 0 -39.986097204371674 -13.010561258899877 0 0 0 0 -17.065253321605269 -50.653688709702692 0 -50.653688709702692 82.46067283766024 0 0 0 0 -6.265051509893965 -27.75680170474152 0 -27.75680170474152 77.436586729927512 0 0 0 0 12.386925463514785 -44.585266368518305 0 -44.585266368518305 0.72784818274373819 0 0 0 0 -19.786763299194718 -66.163909499684905 0 -66.163909499684905 46.361620697578473 0 0 0 0 -15.940660954069074 -22.827862896260342 0 -22.827862896260342 -8.4779282628440029 0 0 0 0 29.467720712105574 -15.424758899008513 0 -15.424758899008513 1.8101350954131874 0 0 0 0 -98.894182402669685 268.7966055595225 0 268.7966055595225 -481.96656386965333 0 0 0 0 -117.62257248267997 141.19616591507474 0 141.19616591507474 -607.90208106462524 0 0 0 0 -159.1580779167125 147.48389062054412 0 147.48389062054412 -529.98546587058809 0 0 0 0 -120.29563392349519 124.31409398364849 0 124.31409398364849 -647.13842081084658 0 0 0 0 44.572064360545482 -212.42270619514966 0 -212.42270619514966 1281.9068352504128 0 0 0 0 -24.176461858005496 -396.7823464427056 0 -396.7823464427056 1171.1389066484298 0 0 0 0 45.793175182214327 -223.32409076661611 0 -223.32409076661611 873.45274057970528 0 0 0 0 124.12300333412713 -488.7596434407933 0 -488.7596434407933 957.83461260556487 0 0 0 0 248.7280649751774 -829.00991679674917 0 -829.00991679674917 1251.96866653912 0 0 0 0 1.8760003935693703 -5.863883472773125 0 -5.863883472773125 20.253879932052413 0 0 0 0 -0.51973843893449612 0.28267027790502652 0 0.28267027790502652 3.0424046747593962 0 0 0 0 -247.78097794891801 73.852237318860716 0 73.852237318860716 131.41964068144125 0 0 0 0 -57.654562764335424 -101.23095486532839 0 -101.23095486532839 111.95552097458039 0 0 0 0 -50.000803470145911 -146.30338181446859 0 -146.30338181446859 165.79701426387328 0 0 0 0 -57.757114533655113 -111.85119450813727 0 -111.85119450813727 67.018441200780217 0 0 0 0 -157.85669145587599 -129.97139799274009 0 -129.97139799274009 588.55923468973924 0 0 0 0 72.625194838037714 -274.58471585522784 0 -274.58471585522784 252.09975298924837 0 0 0 0 61.582462284888607 -103.88598056028422 0 -103.88598056028422 167.32724466633226 0 0 0 0 9.3789924567099661 -91.590402514091693 0 -91.590402514091693 93.521022870562774 0 0 0 0 127.14467694977066 -143.1057504203709 0 -143.1057504203709 96.377117791809724 0 0 0 0 -2.0641245470541207 -45.527977374167563 0 -45.527977374167563 11.841603397209564 0 0 0 0 58.915307371411473 -146.9678895418765 0 -146.9678895418765 44.528272704454139 0 0 0 0 -76.252249343117001 -73.225386993737629 0 -73.225386993737629 12.001908941529109 0 0 0 0 39.604916009906447 -8.2060522589017637 0 -8.2060522589017637 -122.66510724307955 0 0 0 0 97.659970851789694 -85.687224200264609 0 -85.687224200264609 -191.64694113893711 0 0 0 0 162.94353954307735 -199.75447976465694 0 -199.75447976465694 -347.26584910786551 0 0 0 0 106.72916136455024 -119.95336201432656 0 -119.95336201432656 -56.219939122573123 0 0 0 0 8.3770138091471154 1.6536063340332774 0 1.6536063340332774 -13.520842298643172 0 0 0 0 6.0508870581129486 -47.259292072647355 0 -47.259292072647355 19.812345213007447 0 0 0 0 -100.60363494011108 -33.134939070634573 0 -33.134939070634573 -369.00960735685658 0 0 0 0 -14.423224035359453 -123.35176257094281 0 -123.35176257094281 -3.1880215918936301 0 0 0 0 477.41407272033393 -382.78750139352633 0 -382.78750139352633 -1379.2407648286753 0 0 0 0 -43.995350778044667 -149.01156608247402 0 -149.01156608247402 60.090144961737678 0 0 0 0 -10.219542079459643 -16.889896145201419 0 -16.889896145201419 -110.19975146985962 0 0 0 0 -42.955439827695955 -16.256951794479392 0 -16.256951794479392 -8.0643553905756562 0 0 0 0 -41.488473435500055 -32.615125968599386 0 -32.615125968599386 -68.616358432933339 0 0 0 0 2.2155225569563299 -23.203742329389428 0 -23.203742329389428 9.1791884433441169 0 0 0 0 -11.348119464557385 14.634833077358053 0 14.634833077358053 -65.963225238403538 0 0 0 0 -12.452189107483719 -113.821528464734 0 -113.821528464734 -82.063222035394574 0 0 0 0 65.891669313881721 -39.509066555119716 0 -39.509066555119716 -28.771083832922159 0 0 0 0 31.09170270091272 -6.3802894223558724 0 -6.3802894223558724 -7.3732784857638762 0 0 0 0 171.39244690432679 -117.96684830539743 0 -117.96684830539743 6.5683288406326028 0 0 0 0 19.55541612097295 -30.455318643747887 0 -30.455318643747887 77.740184981928905 0 0 0 0 285.80451080782223 -100.6999863166202 0 -100.6999863166202 47.714224176865173 0 0 0 0 -74.438954245939385 -64.717842399950314 0 -64.717842399950314 99.45689988432423 0 0 0 0 -298.12689047174354 -237.55635484756567 0 -237.55635484756567 84.923605719370244 0 0 0 0 3.3828729128548503 -6.6275005311599955 0 -6.6275005311599955 16.510158238846032 0 0 0 0 -13.85826246754732 -18.299046863048716 0 -18.299046863048716 32.930631078364968 0 0 0 0 -23.573882686527213 -83.021361706560128 0 -83.021361706560128 -93.159472889026802 0 0 0 0 25.587562676373636 20.021184985089349 0 20.021184985089349 -39.607719617797557 0 0 0 0 16.5262466580607 -20.106500015510392 0 -20.106500015510392 0.80432213382300688 0 0 0 0 20.40901961925556 -20.024299753695232 0 -20.024299753695232 -1.4733999381278409 0 0 0 0 -38.306846898864023 -26.723202567620319 0 -26.723202567620319 16.64125626110399 0 0 0 0 1.7009577065610131 -16.451875754742929 0 -16.451875754742929 26.564118006788874 0 0 0 0 5.200492869861236 -39.975219273609071 0 -39.975219273609071 37.859775480266848 0 0 0 0 -5.4624965549737681 -70.584739597639782 0 -70.584739597639782 -7.3530483243630442 0 0 0 0 -22.605590444378322 -80.921303664435982 0 -80.921303664435982 -11.987217922454874 0 0 0 0 -78.836966293485602 -119.5144205667566 0 -119.5144205667566 -32.123559066294547 0 0 0 0 -56.002151208202122 -80.41838888618804 0 -80.41838888618804 5.4527982184081338 0 0 0 0 300.15757463604677 402.50833829251496 0 402.50833829251496 -1949.6588247137333 0 0 0 0 221.44844539416954 123.04540109250229 0 123.04540109250229 -1989.2024769458003 0 0 0 0 30.022877166746184 16.916695192136103 0 16.916695192136103 -2028.0803407909661 0 0 0 0 -338.89887066627853 -766.96152598338813 0 -766.96152598338813 -1494.6141444548703 0 0 0 0 388.95544050331227 443.40181634569308 0 443.40181634569308 -2152.2092867809479 0 0 0 0 544.64361647423357 375.69106379843652 0 375.69106379843652 -2370.2071161199274 0 0 0 0 2.0534978801019577 -24.851070704200993 0 -24.851070704200993 -22.628680295957899 0 0 0 0 -337.86279950523749 -338.79882233731769 0 -338.79882233731769 -2366.6316116232128 0 0 0 0 -477.96171378572035 692.15841343182092 0 692.15841343182092 -3788.6496071025103 0 0 0 0 -379.56754190771608 -279.984666276594 0 -279.984666276594 -1439.6413867785886 0 0 0 0 -11.458397447143341 -4.5082081165198087 0 -4.5082081165198087 -0.94563874379787416 0 0 0 0 -239.42289696121588 -202.61168614305461 0 -202.61168614305461 -898.66969998336344 0 0 0 0 425.77772254287265 -438.97361485704096 0 -438.97361485704096 -2163.0443454158731 0 0 0 0 -31.587696409522323 -71.492324571594509 0 -71.492324571594509 8.6187223004999396 0 0 0 0 -21.630447357739399 -62.543062285276591 0 -62.543062285276591 26.455518642598982 0 0 0 0 -684.61660647776444 -1474.2530435065255 0 -1474.2530435065255 -1847.9163397781904 0 0 0 0 871.19399790593889 -344.02834027716744 0 -344.02834027716744 -1883.4369637873988 0 0 0 0 1043.6975919439574 1030.3360802498482 0 1030.3360802498482 184.02438279585476 0 0 0 0 -573.46805380319711 -310.56277790948116 0 -310.56277790948116 997.53852742303866 0 0 0 0 -254.34506293238883 -745.99882634546191 0 -745.99882634546191 263.31161079719277 0 0 0 0 -324.04846327892301 -1161.7352521700736 0 -1161.7352521700736 -1215.1872375973289 0 0 0 0 -177.86918535409495 -50.026342433723812 0 -50.026342433723812 -287.10379901808483 0 0 0 0 -191.94161157781491 -118.28153957850645 0 -118.28153957850645 188.57075706827982 0 0 0 0 -133.1228160209721 -282.71348513524936 0 -282.71348513524936 -250.847660485917 0 0 0 0 -83.950570044311462 -366.56552264657853 0 -366.56552264657853 -292.1657557458766 0 0 0 0 187.83440266551406 -17.605735133944791 0 -17.605735133944791 3.5942529675558035 0 0 0 0 343.08826042283908 -955.34474456143334 0 -955.34474456143334 -86.73961874073359 0 0 0 0 -1.3049371959163807 1.2709743167763179 0 1.2709743167763179 -1.3266760093736636 0 0 0 0 -370.29132495517842 57.782985365775403 0 57.782985365775403 490.77123019705505 0 0 0 0 85.187232572177891 -25.516453370271847 0 -25.516453370271847 38.458573206689834 0 0 0 0 42.369398734852439 -68.293050927528384 0 -68.293050927528384 248.51026266109784 0 0 0 0 70.159401718701702 -102.94206035306797 0 -102.94206035306797 55.930437884837374 0 0 0 0 69.117732737271581 -12.859925042027498 0 -12.859925042027498 115.72312025229985 0 0 0 0 164.99429573703674 -116.45366558308342 0 -116.45366558308342 109.4058151379304 0 0 0 0 -25.857229972847335 -10.269179800113786 0 -10.269179800113786 -1.3077125677391039 0 0 0 0 -316.61869643145474 -567.07193699741401 0 -567.07193699741401 -982.37128471869073 0 0 0 0 2.125104962993646 -216.10818915537311 0 -216.10818915537311 -1577.5286765251603 0 0 0 0 -579.50291861174628 -14.039663533043495 0 -14.039663533043495 244.85198870904787 0 0 0 0 325.99330820917385 -123.26350378107963 0 -123.26350378107963 -733.05436998331061 0 0 0 0 -15.146215087582505 -45.928077991535275 0 -45.928077991535275 16.518263459313459 0 0 0 0 -338.31311758953234 -775.30312458049332 0 -775.30312458049332 -1428.642342772393 0 0 0 0 361.22792656236561 395.69465501259401 0 395.69465501259401 -1164.8893627094599 0 0 0 0 -33.374173473600536 -17.128373070776618 0 -17.128373070776618 -2.3001352301569939 0 0 0 0 -155.90882668830454 -148.06191299279453 0 -148.06191299279453 -1210.1565586129266 0 0 0 0 4.1071861084396346 -1.6530978285836113 0 -1.6530978285836113 0.60365422027191151 0 0 0 0 -209.94623892853269 22.531195028508591 0 22.531195028508591 -315.75184016347885 0 0 0 0 1.2880576285533607 -72.932891008420484 0 -72.932891008420484 58.269661655877869 0 0 0 0 57.752603861154057 -72.786482483797045 0 -72.786482483797045 38.876173738147372 0 0 0 0 32.720504701894242 -99.245197480401657 0 -99.245197480401657 16.028450906237595 0 0 0 0 9.9758803557779174 -65.543450126473545 0 -65.543450126473545 49.396643441247761 0 0 0 0 2.5104371862253174 -86.565938474957875 0 -86.565938474957875 36.941335645691197 0 0 0 0 -5.6378849665779853 -49.569806630135417 0 -49.569806630135417 -34.997900433363611 0 0 0 0 76.284025928835035 -57.839260519060645 0 -57.839260519060645 -154.15339312332526 0 0 0 0 34.62833679938467 -51.231535616280325 0 -51.231535616280325 1.4465342365328979 0 0 0 0 71.965952663696953 -107.42147180738584 0 -107.42147180738584 -88.115392270103257 0 0 0 0 33.316602346356376 -85.695618299933813 0 -85.695618299933813 -9.6449958843691093 0 0 0 0 60.335608273002435 -29.708896538787485 0 -29.708896538787485 -8.5990466634448239 0 0 0 0 18.857191874888485 -37.421667122442571 0 -37.421667122442571 3.7497139498027945 0 0 0 0 -68.186623371424503 -75.09698484663113 0 -75.09698484663113 142.14902763369707 0 0 0 0 47.690429460752057 -109.53333921046487 0 -109.53333921046487 -99.953778079893709 0 0 0 0 4.0879168955216301 -59.716074262412803 0 -59.716074262412803 -106.40889169159982 0 0 0 0 -140.94863374545821 -152.85481666154283 0 -152.85481666154283 -41.334535631083781 0 0 0 0 -29.825343623218942 -44.820882428753293 0 -44.820882428753293 -259.49882129706566 0 0 0 0 26.365465369948652 -160.9888968456562 0 -160.9888968456562 -370.12302386516058 0 0 0 0 108.33998908330977 -89.900334981833566 0 -89.900334981833566 -668.85368578112866 0 0 0 0 -278.15117100937641 -138.86014792981041 0 -138.86014792981041 -165.37120709958617 0 0 0 0 -31.233789151156088 -242.82030466261313 0 -242.82030466261313 -578.74854714805815 0 0 0 0 -7.4829014741699211 17.822709135391051 0 17.822709135391051 -143.52392939627862 0 0 0 0 -79.69311473282869 -37.339373497938141 0 -37.339373497938141 80.880669675099853 0 0 0 0 89.043742302877945 51.99893825836989 0 51.99893825836989 66.221170973381959 0 0 0 0 9.5478742230434648 -18.883502881420497 0 -18.883502881420497 9.6301292303518977 0 0 0 0 -94.752206995908637 -5.1888128507871443 0 -5.1888128507871443 187.41426700949887 0 0 0 0 14.681911546093829 -37.46497783314048 0 -37.46497783314048 4.4684036263914901 0 0 0 0 50.411697366145745 41.365547562837833 0 41.365547562837833 -21.711691225325922 0 0 0 0 39.117624783713836 -2.5408931346364625 0 -2.5408931346364625 -106.34247863021562 0 0 0 0 0.96614372248802738 -1.6670204223738097 0 -1.6670204223738097 -17.741829736866265 0 0 0 0 -100.28163689452049 -191.12583177613357 0 -191.12583177613357 -279.54241858061323 0 0 0 0 -93.711086076033098 -229.89681017356918 0 -229.89681017356918 -355.34540063830173 0 0 0 0 -70.874451717929333 -183.59510374476599 0 -183.59510374476599 -375.38975949966516 0 0 0 0 -36.902540875569684 -111.0632765970222 0 -111.0632765970222 -448.46959239594037 0 0 0 0 -50.839645420230227 -161.20940066177036 0 -161.20940066177036 -356.46999816865582 0 0 0 0 -31.7598636951152 -221.50409019767312 0 -221.50409019767312 -353.33699199740295 0 0 0 0 3.8597895237908233 -221.77851430060673 0 -221.77851430060673 -485.77600009288267 0 0 0 0 42.039153884907137 -148.49210969969005 0 -148.49210969969005 -828.93620404879198 0 0 0 0 -43.450486484536668 -276.63676974782084 0 -276.63676974782084 -608.57349155600423 0 0 0 0 318.84851236714167 -378.30864392727926 0 -378.30864392727926 235.5672698677181 0 0 0 0 -95.296300543530378 -466.81389932727211 0 -466.81389932727211 843.31441895143917 0 0 0 0 -5.2209269637860984 -6.9818249790257756 0 -6.9818249790257756 0.43469286760120995 0 0 0 0 -9.7020526437917738 -11.327488950539188 0 -11.327488950539188 1.9662387981691252 0 0 0 0 41.575225754640996 -84.5856836533153 0 -84.5856836533153 50.655689268104481 0 0 0 0 228.02119750942802 -11.127336777173241 0 -11.127336777173241 -46.060575253200113 0 0 0 0 153.35213218681747 147.05480575428601 0 147.05480575428601 114.64050361134741 0 0 0 0 922.78463899501367 -176.95022263893497 0 -176.95022263893497 -9.5770388630617163 0 0 0 0 3.6022333059561333 -4.0060838261145477 0 -4.0060838261145477 6.535938961717342 0 0 0 0 307.95690220946562 -504.38640872311498 0 -504.38640872311498 65.560140474441141 0 0 0 0 315.46315426713772 -568.05349562167839 0 -568.05349562167839 -182.55550194585521 0 0 0 0 229.40024383360287 -420.80483471890511 0 -420.80483471890511 388.80041884447201 0 0 0 0 204.76227134362853 -288.90394100438925 0 -288.90394100438925 -143.95118770306726 0 0 0 0 638.37578303554619 -638.66667254764434 0 -638.66667254764434 193.02911475703513 0 0 0 0 537.32818006479647 -453.4421256626847 0 -453.4421256626847 -19.657384402315984 0 0 0 0 354.45854243869326 -82.53842689010105 0 -82.53842689010105 713.46327574690804 0 0 0 0 356.06440964734065 -82.312022817981415 0 -82.312022817981415 30.277343837911758 0 0 0 0 163.97480840922799 -328.62352318204285 0 -328.62352318204285 -285.52957180021804 0 0 0 0 143.1051124966325 -490.39939651742498 0 -490.39939651742498 246.82683689395526 0 0 0 0 1223.3742196992098 -253.33201815193479 0 -253.33201815193479 -887.08523858400042 0 0 0 0 -351.62798476495664 -267.53459322980962 0 -267.53459322980962 -220.63443059764813 0 0 0 0 -498.3025770089007 -368.9963136795468 0 -368.9963136795468 275.34537557577369 0 0 0 0 57.99108484387034 -259.8153937368304 0 -259.8153937368304 -252.93684946759822 0 0 0 0 -377.58906130923424 27.048486464982489 0 27.048486464982489 90.122792786656646 0 0 0 0 -1874.8214114811562 -388.55573962707149 0 -388.55573962707149 128.90817535040787 0 0 0 0 -1.7210389379350346 -7.2130021702801912 0 -7.2130021702801912 -8.2562818931976381 0 0 0 0 629.89739580870082 -158.80491148875581 0 -158.80491148875581 -346.61306135546693 0 0 0 0 -68.861629307910334 -59.182253674226558 0 -59.182253674226558 207.8279047380056 0 0 0 0 84.974403668311425 131.21511376152193 0 131.21511376152193 227.28923334674164 0 0 0 0 225.92086626274977 -68.143130759623091 0 -68.143130759623091 105.86435782639091 0 0 0 0 297.29328192331013 130.87994715883815 0 130.87994715883815 110.14002441599405 0 0 0 0 -3.3821395074207317 -2.0445597528816108 0 -2.0445597528816108 0.11199111169700293 0 0 0 0 -1312.2626564549864 -584.70416321535595 0 -584.70416321535595 -1073.5965219557761 0 0 0 0 198.09263275295962 -445.18052458807324 0 -445.18052458807324 38.369575722866102 0 0 0 0 334.8617983593067 -671.7682612438316 0 -671.7682612438316 -1102.0604530080254 0 0 0 0 437.84321743252804 -434.54689804289956 0 -434.54689804289956 -1476.9521365655964 0 0 0 0 -634.20005649168161 -1042.2583918466626 0 -1042.2583918466626 -821.22551426133577 0 0 0 0 45.108042541774921 -254.43942226160493 0 -254.43942226160493 -613.47586474044147 0 0 0 0 195.2405413663073 236.22797112125045 0 236.22797112125045 -264.94411739739553 0 0 0 0 91.657553038588958 -84.20862065206029 0 -84.20862065206029 -1415.3288559029004 0 0 0 0 -71.901184204369201 -392.81132683724366 0 -392.81132683724366 2067.4300610410201 0 0 0 0 -1.5358270193405019 -1.1524448642416978 0 -1.1524448642416978 0.49929602752921554 0 0 0 0 -49.479960336553631 -202.50531138867973 0 -202.50531138867973 1761.8590092636637 0 0 0 0 -266.91608507065393 -780.92932897447031 0 -780.92932897447031 424.80172769338174 0 0 0 0 -93.932881945176632 -194.03015606464101 0 -194.03015606464101 -625.34919029701632 0 0 0 0 -152.22576739691431 -266.19601767186623 0 -266.19601767186623 -449.92720659415954 0 0 0 0 -140.22951443234342 -95.742780658247284 0 -95.742780658247284 -485.98525576340035 0 0 0 0 63.996747630822938 -451.04253424964008 0 -451.04253424964008 -1014.9827412029604 0 0 0 0 -118.23057730187429 -537.59045859548337 0 -537.59045859548337 -378.10403818037594 0 0 0 0 75.224385834037093 -129.50881103845131 0 -129.50881103845131 -559.70137225268695 0 0 0 0 -117.21336319902912 -87.878582694087527 0 -87.878582694087527 -69.325230310682855 0 0 0 0 -113.09296918730251 -94.841849274613196 0 -94.841849274613196 -150.7385433924137 0 0 0 0 26.402750225621276 -89.323850245365975 0 -89.323850245365975 -286.30066746510124 0 0 0 0 -96.960637355688959 -101.14058167511121 0 -101.14058167511121 -287.06870718458413 0 0 0 0 -82.842755104640673 -197.27271493408722 0 -197.27271493408722 -380.37532016213117 0 0 0 0 -26.829251344839577 -161.82806471957065 0 -161.82806471957065 -117.60918571314687 0 0 0 0 87.584353225829545 -154.2073215190876 0 -154.2073215190876 -219.45224388145652 0 0 0 0 50.38622754093376 -50.418362570530007 0 -50.418362570530007 26.82625844940776 0 0 0 0 19.570377768803155 -39.836446516259457 0 -39.836446516259457 25.035177750160074 0 0 0 0 37.070401522837813 -47.256527944191156 0 -47.256527944191156 -5.9971759236008388 0 0 0 0 -272.83440040925052 -169.59929185122019 0 -169.59929185122019 353.37429579056197 0 0 0 0 38.499731711422442 -52.683370017588175 0 -52.683370017588175 20.54763520084412 0 0 0 0 137.46746938978322 50.512086643888324 0 50.512086643888324 -183.98239480223128 0 0 0 0 59.690155516844243 -58.047196866886225 0 -58.047196866886225 17.000728108036128 0 0 0 0 58.436833835963625 13.014093799971306 0 13.014093799971306 184.93463819309977 0 0 0 0 26.556673885046621 -45.914110971537667 0 -45.914110971537667 2.0330454700436 0 0 0 0 -82.536330654664198 -43.337816316901808 0 -43.337816316901808 -142.32710091851459 0 0 0 0 35.1499306205842 -106.85430345534593 0 -106.85430345534593 -377.55938346321454 0 0 0 0 -75.355589643266285 -73.305100533814766 0 -73.305100533814766 -308.9868506551793 0 0 0 0 -30.644447018712526 -154.43831417766978 0 -154.43831417766978 -484.72069195054746 0 0 0 0 9.1418248667523585 -246.94435193575214 0 -246.94435193575214 -390.89918741164638 0 0 0 0 2.2333722534094704 -258.34507303681596 0 -258.34507303681596 -426.88876948074721 0 0 0 0 28.37040005432209 -303.41498013573892 0 -303.41498013573892 -392.07913909979015 0 0 0 0 -4.5219956015644129 -264.67782177309346 0 -264.67782177309346 -432.33575559122983 0 0 0 0 118.90748695391812 -194.46237351165473 0 -194.46237351165473 -460.91297854140043 0 0 0 0 211.32944935065461 -472.34400639357227 0 -472.34400639357227 -338.04504242588064 0 0 0 0 111.4764507059881 -249.19041128377103 0 -249.19041128377103 -763.80574656346653 0 0 0 0 13.932270850533939 -94.93944493200766 0 -94.93944493200766 23.232594092239772 0 0 0 0 15.976972486001614 -75.441698452636729 0 -75.441698452636729 -285.66373429473606 0 0 0 0 9.5948500091846682 -49.287842658356169 0 -49.287842658356169 -16.46927421134923 0 0 0 0 574.65707588310761 330.56589033263322 0 330.56589033263322 -43.630646016787068 0 0 0 0 24.496131368039642 -86.886585549036681 0 -86.886585549036681 100.81632743802038 0 0 0 0 27.360810601356206 -48.304019458220864 0 -48.304019458220864 130.75092947972917 0 0 0 0 53.773542689930764 -29.65293649159139 0 -29.65293649159139 65.107544326208881 0 0 0 0 22.603472618677188 -51.932030016105273 0 -51.932030016105273 163.74392719792422 0 0 0 0 -10.4797435371147 -166.12895911116993 0 -166.12895911116993 -270.27360864688671 0 0 0 0 17.673223148794023 -46.811354259824185 0 -46.811354259824185 27.199227904609966 0 0 0 0 3.6426906521664932 -31.702500819781562 0 -31.702500819781562 5.4888918874275987 0 0 0 0 17.70233775820418 -48.335072108756776 0 -48.335072108756776 -3.9530264280608129 0 0 0 0 61.81682510641258 -82.003833546803435 0 -82.003833546803435 34.278281712329772 0 0 0 0 58.153916036695591 -78.182293032739835 0 -78.182293032739835 65.545669640952838 0 0 0 0 -1.3674013315685443 -67.512800805787265 0 -67.512800805787265 81.96416208500159 0 0 0 0 -7.5544659987644991 -72.880113758914376 0 -72.880113758914376 116.82552748470334 0 0 0 0 35.311121100356104 -65.116553383624705 0 -65.116553383624705 101.28130813481278 0 0 0 0 30.157634520393913 -79.360804913623724 0 -79.360804913623724 63.682876203238266 0 0 0 0 -11.951684923755238 -80.536366656226164 0 -80.536366656226164 76.252335035598662 0 0 0 0 -31.606571724172682 -17.121784290975484 0 -17.121784290975484 25.60770317108836 0 0 0 0 -1.2824475615289543 1.223064985686932 0 1.223064985686932 -1.6182748764854011 0 0 0 0 41.534919507204904 -79.994760025794676 0 -79.994760025794676 69.147099335112216 0 0 0 0 -79.756133087430499 6.0314092922817508 0 6.0314092922817508 21.27209656850755 0 0 0 0 42.761754270701203 -75.900995487685577 0 -75.900995487685577 66.03206624825998 0 0 0 0 42.667019045009511 -82.256363855622112 0 -82.256363855622112 98.372149597205862 0 0 0 0 38.002949015673948 -92.215860065371089 0 -92.215860065371089 87.149019089945796 0 0 0 0 55.049083279358456 -105.11834592288142 0 -105.11834592288142 91.205078922803295 0 0 0 0 -124.6234758689825 -90.028917087569425 0 -90.028917087569425 105.62478938941058 0 0 0 0 67.265978671581252 -109.94743656003266 0 -109.94743656003266 86.079892474281223 0 0 0 0 70.245030576508725 -108.53716347152294 0 -108.53716347152294 14.064497749612201 0 0 0 0 -126.9983941213286 15.144037119149289 0 15.144037119149289 41.568851640825415 0 0 0 0 -126.76379478805059 -194.37203706209479 0 -194.37203706209479 -23.330934731886373 0 0 0 0 53.039625003060792 -95.303373790971818 0 -95.303373790971818 49.650768766041438 0 0 0 0 -33.602149236037803 -91.065264969209238 0 -91.065264969209238 114.70815827702609 0 0 0 0 -27.921654551533379 -28.872123251586913 0 -28.872123251586913 -8.7031550010916874 0 0 0 0 -10.892147506092442 -68.264406145066459 0 -68.264406145066459 3.7074890711392072 0 0 0 0 -10.426567048139987 -71.655826298090687 0 -71.655826298090687 25.989656076995743 0 0 0 0 50.558857013238594 -118.40084336248401 0 -118.40084336248401 0.93287532569411269 0 0 0 0 -2.1003810009106019 -38.44781058433874 0 -38.44781058433874 46.238235531310288 0 0 0 0 -16.301524446731491 -52.175120461912229 0 -52.175120461912229 90.165587078925455 0 0 0 0 1.051089671414104 -2.6935310092691651 0 -2.6935310092691651 -0.26622659215764699 0 0 0 0 26.854105212085415 -53.834392144570302 0 -53.834392144570302 -142.71924181151553 0 0 0 0 -9.5291847306798445 -25.721682671242888 0 -25.721682671242888 -1.5195343542000046 0 0 0 0 -7.6084842868513078 -139.96789042312412 0 -139.96789042312412 308.04847032406542 0 0 0 0 37.193615717729699 -93.278225549426679 0 -93.278225549426679 115.98982144590991 0 0 0 0 -30.494684503043175 -18.409699604655572 0 -18.409699604655572 -7.9132734677297663 0 0 0 0 13.261311422014842 -49.652744396094931 0 -49.652744396094931 -30.805601088293315 0 0 0 0 3.1687850031958078 -8.2501511605839966 0 -8.2501511605839966 -2.396543675041011 0 0 0 0 4.4202833857561927 -22.855330658861931 0 -22.855330658861931 -33.201767662438215 0 0 0 0 -34.089548742601039 -10.74481824421342 0 -10.74481824421342 4.7799172042857183 0 0 0 0 -39.80881324360962 -51.878338347032695 0 -51.878338347032695 41.731441671210632 0 0 0 0 6.4063493943140202 49.112587254404389 0 49.112587254404389 154.3613759768632 0 0 0 0 -79.3417463216756 -121.08989450585796 0 -121.08989450585796 311.61910923365576 0 0 0 0 -50.181943770498037 22.895502392959315 0 22.895502392959315 27.189295140706236 0 0 0 0 -9.9172561046434566 -123.07890985340782 0 -123.07890985340782 81.589683464788322 0 0 0 0 -79.874950691970298 -110.84578119936486 0 -110.84578119936486 176.47372537947376 0 0 0 0 19.08187879655452 -234.63170726363751 0 -234.63170726363751 232.42936706538603 0 0 0 0 -125.60612281778594 -323.39681210677372 0 -323.39681210677372 185.21972597096465 0 0 0 0 125.24168629356427 -234.50038596846571 0 -234.50038596846571 134.3870621763017 0 0 0 0 -7.2709434322750894 -173.1559492323322 0 -173.1559492323322 119.56162133981707 0 0 0 0 -231.3150344863825 -120.46995837023132 0 -120.46995837023132 369.01870070541918 0 0 0 0 -126.32943372745285 -321.39280230357053 0 -321.39280230357053 573.93450816326367 0 0 0 0 -802.70849842736789 -810.01254976311793 0 -810.01254976311793 513.45958221996261 0 0 0 0 -219.4548189426132 -498.19143765974513 0 -498.19143765974513 594.4533676605497 0 0 0 0 -247.83531225996558 -569.08196663066337 0 -569.08196663066337 419.13547889076654 0 0 0 0 -34.978125969850225 -658.54892878145256 0 -658.54892878145256 76.937441356625641 0 0 0 0 154.78551063331543 -247.37534496410808 0 -247.37534496410808 73.283124408975709 0 0 0 0 273.96586545096943 -268.54578337816929 0 -268.54578337816929 75.48218789492239 0 0 0 0 245.3826414863579 -438.26908718210325 0 -438.26908718210325 220.73713480515289 0 0 0 0 656.05569682389614 -757.80283976107603 0 -757.80283976107603 85.365265078522498 0 0 0 0 538.9850463932089 -246.85573190770083 0 -246.85573190770083 -73.738061272240884 0 0 0 0 353.84422035433818 -156.11988061416923 0 -156.11988061416923 -89.349244350021763 0 0 0 0 156.59710867521062 -128.83984921834417 0 -128.83984921834417 28.423573360094451 0 0 0 0 26.966241959279671 -52.274478485335095 0 -52.274478485335095 67.83839197745516 0 0 0 0 98.788451756699942 -110.32436326891911 0 -110.32436326891911 78.583322567079449 0 0 0 0 -1399.8179678013548 -284.82519851608595 0 -284.82519851608595 713.79415253769548 0 0 0 0 113.76122641074471 -164.6342202632004 0 -164.6342202632004 86.29051650612746 0 0 0 0 88.354838815546827 -145.8280261772743 0 -145.8280261772743 77.793583993887296 0 0 0 0 55.609911456616828 -154.00993268978345 0 -154.00993268978345 91.373600201914087 0 0 0 0 15.208043997525238 -66.235907665643026 0 -66.235907665643026 25.969790654518874 0 0 0 0 -12.543926502230477 -38.166282087234379 0 -38.166282087234379 47.44209361215259 0 0 0 0 -42.232985272275982 -63.195089419576107 0 -63.195089419576107 118.15759325169347 0 0 0 0 13.837108837979031 -78.426100382617733 0 -78.426100382617733 70.435476087644929 0 0 0 0 -15.39002485884879 -13.07003873241807 0 -13.07003873241807 11.727005173090191 0 0 0 0 54.843095097006881 -128.86851855906571 0 -128.86851855906571 70.046442949795164 0 0 0 0 -13.093082956940634 -37.130842707352713 0 -37.130842707352713 31.977723533957032 0 0 0 0 -26.06814317869248 -1849.5772573439026 0 -1849.5772573439026 -168.83953887307143 0 0 0 0 595.46663983870531 -1085.6383389586117 0 -1085.6383389586117 -794.5832287256053 0 0 0 0 8.0888486693425534 -41.779598696348899 0 -41.779598696348899 63.008308970898554 0 0 0 0 -284.40704457985703 -98.311812259737053 0 -98.311812259737053 2183.3898711747242 0 0 0 0 -357.2229792746075 315.37148262142728 0 315.37148262142728 -15.240653689601459 0 0 0 0 330.67291570195812 956.34037954303858 0 956.34037954303858 866.34290844624411 0 0 0 0 -934.86462230025791 206.91704118066991 0 206.91704118066991 1008.0259464945702 0 0 0 0 -662.55222035606857 686.90542697001365 0 686.90542697001365 -429.47368353946149 0 0 0 0 -1646.8195366105065 125.09228240598168 0 125.09228240598168 725.29134663555305 0 0 0 0 -1679.2250069269212 611.72948847565567 0 611.72948847565567 360.1943468565587 0 0 0 0 -879.12184088339563 288.53689564680099 0 288.53689564680099 488.58952440084249 0 0 0 0 -646.78058864802006 724.73296852935164 0 724.73296852935164 957.53504408027038 0 0 0 0 -1523.4076005476236 -11.001056450972101 0 -11.001056450972101 852.26813551891246 0 0 0 0 -584.64912173742778 116.48623456640053 0 116.48623456640053 703.55146365052497 0 0 0 0 490.78211990917043 279.8428837127758 0 279.8428837127758 398.38371554516925 0 0 0 0 -1037.8653467642434 3.1249828996587894 0 3.1249828996587894 952.96039407586795 0 0 0 0 -7.4871165327640483 -455.93849390970354 0 -455.93849390970354 619.5013766446209 0 0 0 0 -1317.9978659877961 329.5442166123612 0 329.5442166123612 -57.520734717974847 0 0 0 0 27.966256016965644 -27.783002871927295 0 -27.783002871927295 8.5696225836421149 0 0 0 0 234.14273526213947 226.97761033187999 0 226.97761033187999 218.60496457311092 0 0 0 0 -1038.6459143941174 -24.543902578916459 0 -24.543902578916459 438.85706541217223 0 0 0 0 -1030.6602606788801 -412.87347197126655 0 -412.87347197126655 1232.8779064620539 0 0 0 0 -454.27757136293803 -801.18693066239211 0 -801.18693066239211 563.79324327240465 0 0 0 0 -683.25898942589993 -730.00978989141004 0 -730.00978989141004 555.30017209016296 0 0 0 0 297.23865470851888 -813.20075179918058 0 -813.20075179918058 -235.88770019215735 0 0 0 0 149.50733655254589 -140.00637355272193 0 -140.00637355272193 63.014215484523447 0 0 0 0 78.76756971129673 -99.324218787374647 0 -99.324218787374647 120.07232734470301 0 0 0 0 -594.51106823177543 -505.40375910511648 0 -505.40375910511648 371.41000086997155 0 0 0 0 176.71766828872205 -168.09991784758222 0 -168.09991784758222 74.893036890687654 0 0 0 0 171.50702194643964 -245.67153343992686 0 -245.67153343992686 203.6196486363915 0 0 0 0 52.236215796598117 -142.00449793644657 0 -142.00449793644657 117.1788002026442 0 0 0 0 60.194282294805177 -137.9697321915865 0 -137.9697321915865 165.34379643862999 0 0 0 0 110.58135008666432 -275.73785657583176 0 -275.73785657583176 -329.80636210144212 0 0 0 0 11.940156325799762 -224.12629330149321 0 -224.12629330149321 215.80333965287718 0 0 0 0 43.500364381587133 -114.57095250679413 0 -114.57095250679413 107.08527916624735 0 0 0 0 223.17622382518311 -140.80739391264069 0 -140.80739391264069 110.55202919455041 0 0 0 0 81.680556640973805 -122.94261363617738 0 -122.94261363617738 76.523258171914733 0 0 0 0 53.195937483313486 -135.05444350691292 0 -135.05444350691292 19.925425534485214 0 0 0 0 174.08608909500902 -121.94156752544728 0 -121.94156752544728 8.0136172120372891 0 0 0 0 101.71039903859491 -118.05315753778268 0 -118.05315753778268 7.65653875854332 0 0 0 0 17.245493636519512 -16.365175089488872 0 -16.365175089488872 19.671475137992232 0 0 0 0 55.0693704824007 -209.8806939267306 0 -209.8806939267306 301.90443947531458 0 0 0 0 142.56133418306126 -169.42222643602872 0 -169.42222643602872 242.36622785564396 0 0 0 0 559.45988754314021 -493.31969634730649 0 -493.31969634730649 518.28208108783292 0 0 0 0 -8.110682046546458 8.3076896666053699 0 8.3076896666053699 6.322309986882054 0 0 0 0 685.66673920966423 -232.17179063511321 0 -232.17179063511321 117.48836744132859 0 0 0 0 802.75036407151492 -209.9363871722453 0 -209.9363871722453 121.69102547212242 0 0 0 0 99.742122780764475 -195.29117470349593 0 -195.29117470349593 332.58360200739844 0 0 0 0 103.33730402763467 -195.15187129330297 0 -195.15187129330297 88.371980478543264 0 0 0 0 188.74464616570913 -79.903070726648366 0 -79.903070726648366 42.662227858490951 0 0 0 0 13.405203060620238 -49.213498939192959 0 -49.213498939192959 25.912095995272423 0 0 0 0 -42.954452047764789 -308.46149761792913 0 -308.46149761792913 -107.37388828622352 0 0 0 0 138.34608113943614 -198.08635940317254 0 -198.08635940317254 -690.4854509939978 0 0 0 0 4.8571892698474244 -66.241445344896505 0 -66.241445344896505 -44.181004757689536 0 0 0 0 -43.062042709760135 -307.14468889279306 0 -307.14468889279306 14.033508575219457 0 0 0 0 394.10621770148282 -676.13794135010721 0 -676.13794135010721 138.94938319869107 0 0 0 0 656.3576758421259 -149.52953000986599 0 -149.52953000986599 -928.35514066556789 0 0 0 0 1041.4846262458595 407.16375875988524 0 407.16375875988524 346.37376622842567 0 0 0 0 729.13161971105728 -493.1574541860391 0 -493.1574541860391 -353.28753137440071 0 0 0 0 1142.3787039747695 36.625601269402978 0 36.625601269402978 -66.53669205631013 0 0 0 0 -10.514314860575496 -5.9942126062695138 0 -5.9942126062695138 -18.500709252491305 0 0 0 0 577.58202629764128 1607.2626247225169 0 1607.2626247225169 2990.289849970206 0 0 0 0 2042.251133026919 -270.02763361849065 0 -270.02763361849065 -259.1866522554119 0 0 0 0 1387.7389662430214 -622.38981793794301 0 -622.38981793794301 61.928803587876246 0 0 0 0 -430.50476096590864 1.5091025561378046 0 1.5091025561378046 1009.018974810926 0 0 0 0 -607.13383625664574 -465.25998058675805 0 -465.25998058675805 2914.6909681078832 0 0 0 0 309.36738902070374 -691.25681827413973 0 -691.25681827413973 -1046.0509585941254 0 0 0 0 71.338984254456591 -2714.840816316053 0 -2714.840816316053 845.81503557512406 0 0 0 0 1492.6019213156833 306.66651671680665 0 306.66651671680665 -98.476227437189664 0 0 0 0 372.98068993464949 1197.1464185437189 0 1197.1464185437189 2075.3178090212677 0 0 0 0 8.6253108229540203 -14.434775373812272 0 -14.434775373812272 27.389571605355172 0 0 0 0 1443.0956313861825 -1010.0700345761051 0 -1010.0700345761051 -716.5346056411654 0 0 0 0 -281.094260239086 -1295.695989530559 0 -1295.695989530559 -177.28521664554864 0 0 0 0 -296.71683166330331 -231.22611958363268 0 -231.22611958363268 -25.971424700845773 0 0 0 0 -380.64358901637024 -703.47569755775839 0 -703.47569755775839 353.03467976051979 0 0 0 0 -78.81619170466729 -1062.3332204273502 0 -1062.3332204273502 364.37276248518901 0 0 0 0 324.55436349124648 -856.2984759436149 0 -856.2984759436149 -40.939050224714151 0 0 0 0 98.805392692433088 -276.23665729576533 0 -276.23665729576533 499.33601712572272 0 0 0 0 202.44734065569355 -289.07580358378254 0 -289.07580358378254 471.06451940641819 0 0 0 0 -409.58084131230135 -672.32727081127814 0 -672.32727081127814 449.25400627216732 0 0 0 0 -767.75587853306206 -311.1877814759755 0 -311.1877814759755 124.177674963139 0 0 0 0 212.21748890823801 -475.85673593389947 0 -475.85673593389947 -11.561265765390999 0 0 0 0 -1115.2284518796951 -1280.9452739038534 0 -1280.9452739038534 343.52336868315888 0 0 0 0 4.4362943991180543 -9.9226846397543227 0 -9.9226846397543227 4.5816540005496051 0 0 0 0 2338.514522909165 467.75016582948228 0 467.75016582948228 -328.64773633352888 0 0 0 0 -2238.9469280193734 -858.3532585731009 0 -858.3532585731009 558.84498569526477 0 0 0 0 -400.46529888865189 -606.12355442005355 0 -606.12355442005355 -671.36382152630176 0 0 0 0 -1330.9285115615785 26.285238123067757 0 26.285238123067757 -309.80475692015898 0 0 0 0 -430.66593860959983 -668.6394895056219 0 -668.6394895056219 -21.902903250071176 0 0 0 0 293.33761087607127 -592.90371843797766 0 -592.90371843797766 -404.29185740851244 0 0 0 0 -370.87376447296992 -460.23927996217481 0 -460.23927996217481 36.770404321243404 0 0 0 0 -387.77473429904785 -508.05529365451366 0 -508.05529365451366 81.881118223624071 0 0 0 0 -214.24874527560314 -768.90622577663453 0 -768.90622577663453 -46.067831444688636 0 0 0 0 -764.95529485726729 -396.59276632312321 0 -396.59276632312321 756.40178733966604 0 0 0 0 -1068.6901740727917 -886.73654565338438 0 -886.73654565338438 189.90986161219189 0 0 0 0 10.571226574426078 -23.932263438930278 0 -23.932263438930278 13.806124973799797 0 0 0 0 1239.9872434732897 -32.23586984058602 0 -32.23586984058602 -90.542013901620521 0 0 0 0 1017.1108341683575 -368.32139707230817 0 -368.32139707230817 -132.06939757130385 0 0 0 0 153.32322048716014 -242.68607796518336 0 -242.68607796518336 701.92780571433832 0 0 0 0 527.03306772389624 -283.07977599027981 0 -283.07977599027981 167.32954142031667 0 0 0 0 -27.339497087348718 -316.5545005533495 0 -316.5545005533495 989.21774420547445 0 0 0 0 511.43710965302307 -350.89558179109736 0 -350.89558179109736 -30.684584382703179 0 0 0 0 315.13625677331584 -501.3456869943293 0 -501.3456869943293 -144.41997335781343 0 0 0 0 450.28214867826318 -46.083990646082384 0 -46.083990646082384 -337.14860694494564 0 0 0 0 83.844695977764786 -322.44373580249157 0 -322.44373580249157 -270.51520756585523 0 0 0 0 258.13603949808748 -579.84139079797751 0 -579.84139079797751 1354.3023874224818 0 0 0 0 9.3122633478900525 -1.8597930204987101 0 -1.8597930204987101 1.136905372892798 0 0 0 0 1005.6571882859971 4.6750259104135239 0 4.6750259104135239 -345.64754674417782 0 0 0 0 889.93087367877888 -700.26296189859931 0 -700.26296189859931 -92.595696487398527 0 0 0 0 242.51970273797633 -628.01279118865568 0 -628.01279118865568 698.81514007363876 0 0 0 0 192.30149217726284 -392.52273134950701 0 -392.52273134950701 586.38209170514892 0 0 0 0 823.98056887465646 65.715964740327763 0 65.715964740327763 772.72742272283676 0 0 0 0 533.50960515008774 -458.98046109674397 0 -458.98046109674397 557.23917233573229 0 0 0 0 1222.8113587922926 -762.06048425444624 0 -762.06048425444624 690.42438698576734 0 0 0 0 682.74561375963094 -471.85430303113208 0 -471.85430303113208 529.28870526503306 0 0 0 0 649.98876864779265 -275.44372533103541 0 -275.44372533103541 890.37438462275168 0 0 0 0 646.81654111057287 -494.06451038198065 0 -494.06451038198065 642.6282196603479 0 0 0 0 363.68653521775559 -517.2082119989991 0 -517.2082119989991 940.0368735331831 0 0 0 0 687.25443187552446 -432.63371823531816 0 -432.63371823531816 663.15058173886064 0 0 0 0 402.46875475437264 -144.48485200519281 0 -144.48485200519281 652.19901130040307 0 0 0 0 154.39864175379626 -262.09174124949641 0 -262.09174124949641 815.10709609500918 0 0 0 0 499.47859245707514 -327.50404431538482 0 -327.50404431538482 555.19109144729191 0 0 0 0 -126.747427415743 -549.26315610874371 0 -549.26315610874371 528.96313376756007 0 0 0 0 -274.82647693781473 -550.49743489802131 0 -550.49743489802131 942.57570086984924 0 0 0 0 -223.2686521432297 -44.685810740197667 0 -44.685810740197667 1053.9824803505835 0 0 0 0 157.47699312519399 -10.727400038374981 0 -10.727400038374981 1215.6348805031885 0 0 0 0 38.319935066625476 -225.151301992566 0 -225.151301992566 834.94922248254443 0 0 0 0 248.60368377233681 -519.42864699711572 0 -519.42864699711572 773.11976628651973 0 0 0 0 171.04291473401827 -66.687707012653846 0 -66.687707012653846 81.116478690983058 0 0 0 0 15.913038134705857 7.6679208288514928 0 7.6679208288514928 115.65543072832224 0 0 0 0 0.22322212145492415 -0.48004776545144523 0 -0.48004776545144523 6.8595799426470307 0 0 0 0 69.08738002408063 303.59068628225577 0 303.59068628225577 434.5599819185154 0 0 0 0 24.578966645722176 -57.772361446066498 0 -57.772361446066498 32.197661018144572 0 0 0 0 -2.9042120451818505 -3.7895739680196527 0 -3.7895739680196527 16.580672252128466 0 0 0 0 -87.927155055484036 -45.549118590945 0 -45.549118590945 42.594239106783789 0 0 0 0 -37.730335938220378 -41.080828674090299 0 -41.080828674090299 76.607275297923479 0 0 0 0 1.4923273379857278 -2.2490646218260508 0 -2.2490646218260508 3.240706468258427 0 0 0 0 128.50935884704813 34.343983486880461 0 34.343983486880461 39.333411779487506 0 0 0 0 64.551388768886682 -16.777614138743957 0 -16.777614138743957 0.63503841535657557 0 0 0 0 159.4651480713801 -157.37789094426989 0 -157.37789094426989 -106.12517573405421 0 0 0 0 59.838664907132625 68.514931816569515 0 68.514931816569515 80.104783622373361 0 0 0 0 959.03847241103358 -296.84136706574645 0 -296.84136706574645 6.3081447014169498 0 0 0 0 2.6807041077471752 -4.4360429585117629 0 -4.4360429585117629 5.73641796609013 0 0 0 0 658.78284127562074 -802.41949525804284 0 -802.41949525804284 649.97181753135374 0 0 0 0 -31.73915109958034 -439.55440582245137 0 -439.55440582245137 989.26886063813436 0 0 0 0 -299.82926871834206 121.76566919467041 0 121.76566919467041 451.78140544725466 0 0 0 0 149.95014512444322 -677.66557655306678 0 -677.66557655306678 776.45033765071639 0 0 0 0 234.19053157282178 -731.36658910981714 0 -731.36658910981714 1097.9813747072585 0 0 0 0 209.03228028365993 -634.84100687445243 0 -634.84100687445243 730.59425358663975 0 0 0 0 303.26354557988816 -389.74488311592359 0 -389.74488311592359 188.93557499487724 0 0 0 0 110.261020373262 -612.39270042930821 0 -612.39270042930821 743.76612782927259 0 0 0 0 216.70652655133745 -305.21614986663189 0 -305.21614986663189 303.62254558453787 0 0 0 0 88.893267244740855 -573.6439429831189 0 -573.6439429831189 677.1278740215057 0 0 0 0 95.287659132744011 -496.60278669361924 0 -496.60278669361924 1028.5178166187907 0 0 0 0 18.413752892520279 -697.51010302834402 0 -697.51010302834402 903.35169500585107 0 0 0 0 -147.84534216835164 -611.07721053934438 0 -611.07721053934438 1129.604629381578 0 0 0 0 53.525857291955617 -466.36712170225474 0 -466.36712170225474 1182.9873093775313 0 0 0 0 -109.2430861598441 -479.23264935341149 0 -479.23264935341149 1363.1363862107464 0 0 0 0 103.01206516652019 -638.16043715598062 0 -638.16043715598062 851.01138571010961 0 0 0 0 -75.022483479115181 -680.71469365186931 0 -680.71469365186931 846.02905057938096 0 0 0 0 103.0091651804978 -615.78013304146407 0 -615.78013304146407 582.830647153256 0 0 0 0 86.417891996563412 -751.53107760446073 0 -751.53107760446073 389.09599404695837 0 0 0 0 -68.183021921475301 -780.83700652373591 0 -780.83700652373591 665.43844686252123 0 0 0 0 -22.270470497809583 -599.05778521329285 0 -599.05778521329285 507.35762373778562 0 0 0 0 129.00824092072435 -375.7161604546036 0 -375.7161604546036 272.94437938365809 0 0 0 0 126.90874141635868 -304.14309657456761 0 -304.14309657456761 -531.51391491895629 0 0 0 0 91.630682217277354 -376.4340459513478 0 -376.4340459513478 304.08384699713315 0 0 0 0 133.93398867858923 -500.5856224603076 0 -500.5856224603076 543.75215832972026 0 0 0 0 149.46733289459371 -270.36733185084813 0 -270.36733185084813 363.7197849107888 0 0 0 0 93.123198573115587 -663.75127692032947 0 -663.75127692032947 805.29268577934272 0 0 0 0 199.42706616868963 -414.64293938451192 0 -414.64293938451192 648.69353906910692 0 0 0 0 405.46362290310208 -444.86389176498415 0 -444.86389176498415 774.94958250012132 0 0 0 0 347.69928526360309 -555.58521903621477 0 -555.58521903621477 582.57564874712989 0 0 0 0 113.18083832511911 -406.90398762220866 0 -406.90398762220866 686.39373692214576 0 0 0 0 481.73087205435877 -541.73011080561355 0 -541.73011080561355 642.80927548271575 0 0 0 0 -96.802005472796736 -52.6730650425161 0 -52.6730650425161 690.25478910078755 0 0 0 0 79.28104794502724 -301.63552029667699 0 -301.63552029667699 353.41615773656667 0 0 0 0 27.061678984762693 11.216468001374778 0 11.216468001374778 172.41064915961033 0 0 0 0 138.97476634609484 -167.49901844715168 0 -167.49901844715168 147.10244420722302 0 0 0 0 21.364407637525005 -11.754628894114148 0 -11.754628894114148 -3.5569331351611737 0 0 0 0 50.846654416658566 -64.498339532769023 0 -64.498339532769023 -16.41795961450407 0 0 0 0 4.0097986066774638 -6.8685364722710744 0 -6.8685364722710744 -2.3371410051160524 0 0 0 0 66.448557758732932 171.1807070398645 0 171.1807070398645 -290.84240514014527 0 0 0 0 -18.976638611697126 -12.442530066231484 0 -12.442530066231484 -181.25708625322295 0 0 0 0 132.91678702547506 -140.06371698256407 0 -140.06371698256407 -185.94607702325447 0 0 0 0 -6.6116434938182351 -17.275115558806021 0 -17.275115558806021 -8.5141112051718792 0 0 0 0 94.141613789077383 -82.916805079395999 0 -82.916805079395999 -758.18538522653762 0 0 0 0 -100.80592496575991 -141.76206924803409 0 -141.76206924803409 376.72479341439612 0 0 0 0 -75.762948551520822 -400.31336131046555 0 -400.31336131046555 -272.59222799564134 0 0 0 0 -1.7479745295568136 100.8438663179877 0 100.8438663179877 248.76767708545958 0 0 0 0 94.341275569851859 -42.817466068368958 0 -42.817466068368958 -172.5848682042415 0 0 0 0 -46.225069769949187 -242.3419742741753 0 -242.3419742741753 -184.56986709106422 0 0 0 0 31.110132370755309 -174.45205898660788 0 -174.45205898660788 92.22382042168465 0 0 0 0 -7.2216707834438694 -18.866948939438601 0 -18.866948939438601 -8.9344021034115286 0 0 0 0 -7.1494871849718038 34.083665769292566 0 34.083665769292566 -66.167285615461878 0 0 0 0 56.458848504105902 -0.36098662921990154 0 -0.36098662921990154 -10.107848228569239 0 0 0 0 100.75183002361155 -81.680188770878885 0 -81.680188770878885 -185.43431305951526 0 0 0 0 34.542521532392129 -70.907622273997276 0 -70.907622273997276 -92.852307762004784 0 0 0 0 -62.401588035172608 -50.048756546609184 0 -50.048756546609184 13.562633793204441 0 0 0 0 -57.262583535361046 -47.031574828053635 0 -47.031574828053635 -63.569908610072162 0 0 0 0 -25.400785193061324 -29.516283003018742 0 -29.516283003018742 -16.783372467581984 0 0 0 0 65.599623530317331 -134.01829587425163 0 -134.01829587425163 -122.55531378327578 0 0 0 0 11.192033677853033 -118.25124637169483 0 -118.25124637169483 131.63319288218918 0 0 0 0 -83.684168869072892 -171.60273928277911 0 -171.60273928277911 -51.02537630309962 0 0 0 0 -85.505123407841893 -169.73569544599377 0 -169.73569544599377 111.03541069401399 0 0 0 0 -24.279803075866198 -14.353407407300296 0 -14.353407407300296 -7.8542228490408519 0 0 0 0 -165.6550196109165 -208.21669401115287 0 -208.21669401115287 237.30277218740866 0 0 0 0 383.38755657002912 -993.28773282624388 0 -993.28773282624388 156.11887901761656 0 0 0 0 -179.22064518539992 -317.00843409127265 0 -317.00843409127265 -119.68134498086874 0 0 0 0 -6.7306349311838858 -237.96177464360881 0 -237.96177464360881 -139.56267928676061 0 0 0 0 5.5647519223130075 -210.66083348663597 0 -210.66083348663597 -349.44464293336205 0 0 0 0 -3.2875083345978169 -19.567982847635989 0 -19.567982847635989 -9.2039742063534078 0 0 0 0 35.217561891543767 11.077259110905182 0 11.077259110905182 -9.9977256676115829 0 0 0 0 8.7882599150930218 2.2625635726725477 0 2.2625635726725477 -5.7857379688066288 0 0 0 0 553.80493500735611 -1093.0129610984077 0 -1093.0129610984077 1162.6002255974236 0 0 0 0 456.75720176604955 82.014719652803251 0 82.014719652803251 -854.43523967762303 0 0 0 0 436.83479520880792 -415.33887155532648 0 -415.33887155532648 514.61668244181783 0 0 0 0 777.14755701360991 -431.71426316594807 0 -431.71426316594807 4.8639761077574803 0 0 0 0 395.31077789330448 -134.75330224349818 0 -134.75330224349818 35.2490580057638 0 0 0 0 29.114486903476063 -245.05814393625769 0 -245.05814393625769 354.24913412086244 0 0 0 0 -1222.3063517207629 -75.575897823775449 0 -75.575897823775449 384.95778876649274 0 0 0 0 3.5526834617589316 -5.8887226417318175 0 -5.8887226417318175 2.7215306364519165 0 0 0 0 -0.30488957138732076 -115.67777183665021 0 -115.67777183665021 -119.05293074688234 0 0 0 0 -1218.4311290305122 -166.36366009509925 0 -166.36366009509925 638.66415429393237 0 0 0 0 -659.5887509919703 -460.20217934291577 0 -460.20217934291577 228.9923553310291 0 0 0 0 501.66524054777983 -274.87119938544856 0 -274.87119938544856 58.591847297910135 0 0 0 0 -387.14486259716796 188.44669488503132 0 188.44669488503132 -176.63199050698313 0 0 0 0 354.84073300560704 -498.12126107933727 0 -498.12126107933727 -97.72897620547883 0 0 0 0 -341.55132084566867 -386.30053291861623 0 -386.30053291861623 998.09496645134641 0 0 0 0 -407.32697089751309 -1075.1686305249605 0 -1075.1686305249605 -183.19636463113795 0 0 0 0 1094.6525726003165 -1043.1622736830104 0 -1043.1622736830104 -251.70865715432592 0 0 0 0 -342.48895691144571 -328.36770281799909 0 -328.36770281799909 -224.41646770216539 0 0 0 0 7.1861255067306047 -10.854998083564226 0 -10.854998083564226 5.9825556557920834 0 0 0 0 -0.10686453315429389 -370.58136720042421 0 -370.58136720042421 -293.65878684322161 0 0 0 0 1199.1861028043786 -260.00508696059842 0 -260.00508696059842 -664.88060949353712 0 0 0 0 6.1186840532425322 -7.0264016160095082 0 -7.0264016160095082 0.71644709458809075 0 0 0 0 648.37700458843028 -104.66719908056984 0 -104.66719908056984 -701.41586327534606 0 0 0 0 -607.82181645683886 -481.06953602264548 0 -481.06953602264548 1.1257458097716153 0 0 0 0 217.6295433495834 -644.90201875003186 0 -644.90201875003186 24.376397862573867 0 0 0 0 -0.15072107629384845 -563.48344728868688 0 -563.48344728868688 106.61449796378656 0 0 0 0 232.97311322583118 -295.76866994259581 0 -295.76866994259581 404.40891186263616 0 0 0 0 114.7650916010025 -149.32554079794977 0 -149.32554079794977 505.2522344109675 0 0 0 0 284.4294205478509 -363.87946606666446 0 -363.87946606666446 -176.56839159068113 0 0 0 0 398.97074949539092 -586.30238716982967 0 -586.30238716982967 -9.0143441136860929 0 0 0 0 261.73950404414791 -281.19626437889747 0 -281.19626437889747 39.008750187824262 0 0 0 0 -160.54234199211351 -845.27088365116924 0 -845.27088365116924 -656.55518986589595 0 0 0 0 -951.35730443010107 7.4205827825098822 0 7.4205827825098822 202.55015829654167 0 0 0 0 -9.6141401757565177 -4.7904081164751346 0 -4.7904081164751346 -1.6290349600432847 0 0 0 0 -478.10410982678877 -1002.5460761821851 0 -1002.5460761821851 203.58440664826776 0 0 0 0 -650.18824391022281 136.25170614786771 0 136.25170614786771 -48.276782293411088 0 0 0 0 162.03331309072382 -486.80547181439397 0 -486.80547181439397 427.21660535184492 0 0 0 0 -168.3408819984179 -848.81168664715005 0 -848.81168664715005 936.94843794497501 0 0 0 0 -139.55322721226548 -272.89394845713286 0 -272.89394845713286 770.71661694129943 0 0 0 0 -17.104967469616895 -132.67778879488804 0 -132.67778879488804 1911.9906247307008 0 0 0 0 498.04479240515502 -756.22318494524734 0 -756.22318494524734 1130.9083241423177 0 0 0 0 267.55293877847362 -125.85730344259082 0 -125.85730344259082 1142.7384843171531 0 0 0 0 921.95725445289281 -515.64290308995623 0 -515.64290308995623 1321.4770405243253 0 0 0 0 61.388082052893878 -244.32253572493028 0 -244.32253572493028 1151.584718105787 0 0 0 0 0.35761825666752334 -386.30397336864132 0 -386.30397336864132 585.69382141037931 0 0 0 0 95.812011151516344 -56.437203137160395 0 -56.437203137160395 1119.3406278712846 0 0 0 0 230.14289877103874 -371.53372674576894 0 -371.53372674576894 673.98788494899054 0 0 0 0 585.04031544836471 -1573.6313998895494 0 -1573.6313998895494 50.088865027981228 0 0 0 0 176.67888901781407 -1034.3918170270044 0 -1034.3918170270044 -506.60716557823616 0 0 0 0 126.23016625683522 -957.33943746430305 0 -957.33943746430305 207.62187471318612 0 0 0 0 -586.60383672801618 -197.34670672792618 0 -197.34670672792618 -846.63097939940053 0 0 0 0 -0.77740025710954797 -1011.2909140942975 0 -1011.2909140942975 253.18492991644598 0 0 0 0 -748.85047623052378 -932.38990997209476 0 -932.38990997209476 769.94695557545492 0 0 0 0 14.288343963564614 -8.7268898706723945 0 -8.7268898706723945 2.2014826085905099 0 0 0 0 -199.03112058650004 -571.26649226643349 0 -571.26649226643349 2709.3449149339867 0 0 0 0 391.87002556613879 -888.30740014914772 0 -888.30740014914772 -2367.9465636793611 0 0 0 0 -92.096257990997401 -866.63910635093634 0 -866.63910635093634 -35.838789964043826 0 0 0 0 -146.59449421460158 -581.2178394769071 0 -581.2178394769071 536.77583555552701 0 0 0 0 38.914675374176397 -21.826651241698414 0 -21.826651241698414 4.0999083539664198 0 0 0 0 -57.033974646219576 -836.26139602695366 0 -836.26139602695366 -1518.5298345868941 0 0 0 0 -352.43974932989295 -446.95308555476913 0 -446.95308555476913 -648.99428261283902 0 0 0 0 56.028392188774887 -444.25577086157864 0 -444.25577086157864 -649.00584261509755 0 0 0 0 -62.273852089463617 -505.48875672425856 0 -505.48875672425856 -338.80206304296007 0 0 0 0 -400.07496668128442 -651.67960522059548 0 -651.67960522059548 89.753039025956241 0 0 0 0 482.34868231475411 -1177.1520514203112 0 -1177.1520514203112 54.614660805971653 0 0 0 0 -113.36291091094608 -574.43488588003311 0 -574.43488588003311 -401.08813298019231 0 0 0 0 1.8541170912895382 -0.30775255080563113 0 -0.30775255080563113 0.22434217057899275 0 0 0 0 -24.866925802743935 -363.1517027815753 0 -363.1517027815753 118.83586415821628 0 0 0 0 0.82760166584921535 -892.38990444018418 0 -892.38990444018418 178.80051969799388 0 0 0 0 0.62865385142504238 -767.12413191179076 0 -767.12413191179076 -236.33098150551814 0 0 0 0 -206.36890399054391 -549.75766145093803 0 -549.75766145093803 1028.3807649695082 0 0 0 0 2.1074083615060317 0.55456927888018015 0 0.55456927888018015 0.1831994693342196 0 0 0 0 -12.35461280833988 -256.56926668798405 0 -256.56926668798405 449.09277215762995 0 0 0 0 -0.58350686525227502 -777.1422157411107 0 -777.1422157411107 1056.0170525844078 0 0 0 0 -1.1076046595699154 -924.2046089618816 0 -924.2046089618816 1132.8745470931535 0 0 0 0 -239.75545040261932 -795.52786205929442 0 -795.52786205929442 1082.868634624916 0 0 0 0 87.961051269419841 -471.07207847330574 0 -471.07207847330574 1168.3446837375377 0 0 0 0 508.97195644470776 -727.14615920925644 0 -727.14615920925644 267.89769155372051 0 0 0 0 -7.4988211706054813 -4.0045987999746444 0 -4.0045987999746444 0.78924880376482065 0 0 0 0 -607.79866559320362 -480.72484002119745 0 -480.72484002119745 1177.8535948249437 0 0 0 0 -924.80872219732555 -1412.6125780544135 0 -1412.6125780544135 1143.2448920002207 0 0 0 0 22.759330397946997 -289.47521364880379 0 -289.47521364880379 89.599532788357465 0 0 0 0 641.84408228195389 -189.62017742732132 0 -189.62017742732132 -215.94675246030965 0 0 0 0 630.60806522429266 -252.67469269588764 0 -252.67469269588764 69.534603647458425 0 0 0 0 604.94888236784027 -531.48380664767319 0 -531.48380664767319 603.77910722723755 0 0 0 0 -14.781090006486181 -10.111725160231686 0 -10.111725160231686 -1.2974388525279892 0 0 0 0 862.5670760787325 -1242.7342081865718 0 -1242.7342081865718 706.5244648472426 0 0 0 0 348.53881814485794 -992.47310286522043 0 -992.47310286522043 1310.9529116546109 0 0 0 0 283.94260358087195 -1245.5183005150393 0 -1245.5183005150393 1448.4375659709185 0 0 0 0 895.68909116068971 -898.72690449613583 0 -898.72690449613583 -111.77904269941519 0 0 0 0 590.97128459996384 -1116.7827656207273 0 -1116.7827656207273 1329.7808119125257 0 0 0 0 -14.335100800547195 -9.799780749153939 0 -9.799780749153939 -0.33718916562142454 0 0 0 0 511.05315527642961 -1088.0184716555741 0 -1088.0184716555741 1429.3974460844765 0 0 0 0 -161.35657613619333 -628.17780907918768 0 -628.17780907918768 1202.6743674116733 0 0 0 0 407.12880858950666 -592.31584475938871 0 -592.31584475938871 1040.412264206454 0 0 0 0 284.00223819495295 -847.13759379940893 0 -847.13759379940893 997.92247454860626 0 0 0 0 306.88035328946717 -772.6716836413616 0 -772.6716836413616 1142.1818063647952 0 0 0 0 -6.5861803457414112 -4.0272011012962992 0 -4.0272011012962992 1.7649492208819311 0 0 0 0 748.64011587334971 -1209.7896711393187 0 -1209.7896711393187 574.41865336378032 0 0 0 0 194.1097362597402 -835.0829538391821 0 -835.0829538391821 1356.0891601354815 0 0 0 0 202.12343268004088 -1387.3558526208551 0 -1387.3558526208551 1284.6338294873276 0 0 0 0 541.1306642130603 -1316.1283897057601 0 -1316.1283897057601 1283.4848411318962 0 0 0 0 559.32495956247294 -860.12600943548114 0 -860.12600943548114 1589.715541763333 0 0 0 0 661.59792526517413 -765.69966837016545 0 -765.69966837016545 1351.3815476349901 0 0 0 0 -7.2366506879569101 -5.3072317810349716 0 -5.3072317810349716 -3.5466513782008633 0 0 0 0 229.17794528191735 17.789484110773628 0 17.789484110773628 -1270.4981191170664 0 0 0 0 379.05913224385222 -1013.6060790978345 0 -1013.6060790978345 1599.3221728813514 0 0 0 0 176.89118536300157 -63.542219459857733 0 -63.542219459857733 -705.5032631043141 0 0 0 0 57.349290213140193 5.7971615675123758 0 5.7971615675123758 -574.50933628906932 0 0 0 0 36.850366128583119 -591.59909097792638 0 -591.59909097792638 -600.6289029684558 0 0 0 0 49.888659424163052 -153.77966759790797 0 -153.77966759790797 -640.10336472635754 0 0 0 0 18.445158624381293 -134.49323107178861 0 -134.49323107178861 -539.30371495009604 0 0 0 0 64.426807266660035 -57.216253799957485 0 -57.216253799957485 -647.35909045493463 0 0 0 0 -155.78091795595537 -195.41195572031029 0 -195.41195572031029 -85.741654122546606 0 0 0 0 312.56450519809732 -37.800800019937014 0 -37.800800019937014 -507.58427564537305 0 0 0 0 5.2711531585561033 -9.4536381609535169 0 -9.4536381609535169 2.9612882851893119 0 0 0 0 22.150283711773227 -105.03582618129076 0 -105.03582618129076 55.231116766255582 0 0 0 0 192.39830282327603 -324.97159262224523 0 -324.97159262224523 129.92597047077288 0 0 0 0 -5.3757065512340887 -21.998374098410039 0 -21.998374098410039 -12.354271401148921 0 0 0 0 1418.9371812362369 -1087.4710938016942 0 -1087.4710938016942 312.96965851415007 0 0 0 0 1613.0278423234486 -1453.9440880314414 0 -1453.9440880314414 730.20787873025984 0 0 0 0 -22.48404155044247 -46.518164855150133 0 -46.518164855150133 22.118830971864838 0 0 0 0 61.528484045925097 -12.730537517322006 0 -12.730537517322006 -31.773255009090008 0 0 0 0 186.43079100742762 -100.55898417691787 0 -100.55898417691787 15.826717128649761 0 0 0 0 71.255772314616479 -47.209552668929973 0 -47.209552668929973 69.308717248932226 0 0 0 0 237.93411488266429 -125.50067232229412 0 -125.50067232229412 17.110637716075871 0 0 0 0 118.49951768486062 -112.30686588084791 0 -112.30686588084791 79.128263612597948 0 0 0 0 -21.063355943956083 -29.487798845305178 0 -29.487798845305178 24.836879330523288 0 0 0 0 2971.3750178753253 -1749.9127737875951 0 -1749.9127737875951 285.68790759949479 0 0 0 0 2101.6066133853456 -1748.8377953828895 0 -1748.8377953828895 332.51162066978577 0 0 0 0 1488.605746911795 -1846.1720343906854 0 -1846.1720343906854 1159.0290754816815 0 0 0 0 1371.1065736956953 -818.14021831464925 0 -818.14021831464925 598.85933850618312 0 0 0 0 1163.9198772894906 -1446.2418324832061 0 -1446.2418324832061 556.36652516098547 0 0 0 0 122.48811450021458 -1346.2807916078709 0 -1346.2807916078709 866.16320357619406 0 0 0 0 -31.752835376071744 -1086.9303735767971 0 -1086.9303735767971 581.7339214079293 0 0 0 0 -299.39315662984154 -736.40243074864702 0 -736.40243074864702 692.69702902740573 0 0 0 0 -77.059024780683103 -874.52623759037306 0 -874.52623759037306 196.98620341878996 0 0 0 0 50.977602714139721 -23.937873266644601 0 -23.937873266644601 3.2925413601686344 0 0 0 0 470.70674704102566 -578.80597691536968 0 -578.80597691536968 -1189.0180156598944 0 0 0 0 -98.998068243614398 -280.95061552324114 0 -280.95061552324114 -671.97813217499061 0 0 0 0 -525.5231330027018 -599.42032833879784 0 -599.42032833879784 634.70883548923302 0 0 0 0 -437.5021257547487 -942.65480562894663 0 -942.65480562894663 495.88529569699313 0 0 0 0 32.456369387975428 -468.33902350573044 0 -468.33902350573044 -816.9094510468276 0 0 0 0 126.00015619662008 -1685.20456015729 0 -1685.20456015729 -1988.8275418068588 0 0 0 0 1533.255586202984 -336.66258017029031 0 -336.66258017029031 -339.33283079979446 0 0 0 0 -1091.3525884459668 191.08555948126013 0 191.08555948126013 -443.23680497569512 0 0 0 0 4845.2911889714378 -2081.0036507031227 0 -2081.0036507031227 -609.84058768991963 0 0 0 0 4707.21712982998 -974.1494657304429 0 -974.1494657304429 -1938.5634130792241 0 0 0 0 1698.6344259082398 -639.1221482271576 0 -639.1221482271576 202.00537829386303 0 0 0 0 2859.164573335438 212.34467193487217 0 212.34467193487217 -1389.080750105044 0 0 0 0 3668.4282653279079 -712.34737254693755 0 -712.34737254693755 -83.983560690976446 0 0 0 0 3675.413568289172 -687.49749643680479 0 -687.49749643680479 -402.08292408543639 0 0 0 0 4889.5446946981174 -685.56454164728166 0 -685.56454164728166 2707.9493762944767 0 0 0 0 3260.13991099743 358.78294569333229 0 358.78294569333229 -3080.6886191333324 0 0 0 0 1332.5829872001777 -2252.5711532018904 0 -2252.5711532018904 3310.6107254670569 0 0 0 0 26.687792125339513 -9.8009642414678524 0 -9.8009642414678524 1.8550753656559138 0 0 0 0 4714.57998801755 -3439.5916307555312 0 -3439.5916307555312 1406.1013784826937 0 0 0 0 -806.64747276593698 -215.77580325605959 0 -215.77580325605959 1374.1147266575863 0 0 0 0 -18.391778096105554 -70.454956914665672 0 -70.454956914665672 -26.24013911014481 0 0 0 0 19.321221490207847 -17.886690212585862 0 -17.886690212585862 -28.732992073673017 0 0 0 0 221.30226036437671 -20.430184839089634 0 -20.430184839089634 -42.50923240656266 0 0 0 0 201.22591001895489 -81.984001969511155 0 -81.984001969511155 -54.900151184076094 0 0 0 0 264.11783669074066 -68.537942512775771 0 -68.537942512775771 -64.415213386724645 0 0 0 0 262.25460000289604 -90.565044886985561 0 -90.565044886985561 -145.13495683629299 0 0 0 0 149.02776575624011 -10.076030247873859 0 -10.076030247873859 -10.559135143092135 0 0 0 0 -4.6662343998905271 -18.889205505955033 0 -18.889205505955033 -10.069011399085866 0 0 0 0 195.65787230544083 -78.760093861499627 0 -78.760093861499627 -42.063367341586854 0 0 0 0 123.77830267691752 -80.443383776510018 0 -80.443383776510018 -29.266000225572498 0 0 0 0 93.267249058641028 -186.39161383506871 0 -186.39161383506871 7.3973960844014073 0 0 0 0 138.78319370074314 -120.18021285501891 0 -120.18021285501891 23.937454178201733 0 0 0 0 115.89269650736242 -158.37004333922232 0 -158.37004333922232 -30.490540589016746 0 0 0 0 -12.354906874397841 -19.0798491383959 0 -19.0798491383959 33.164253019814794 0 0 0 0 208.72142070039263 -135.71667423002145 0 -135.71667423002145 -67.101749712426681 0 0 0 0 116.30573239509249 -140.45242898326251 0 -140.45242898326251 74.797987766214646 0 0 0 0 200.01536526162818 -266.9745213044007 0 -266.9745213044007 -196.918386540754 0 0 0 0 282.30542302574031 -128.71064194312203 0 -128.71064194312203 -80.590605127392337 0 0 0 0 -6.1951035994634367 -9.5145832832498058 0 -9.5145832832498058 30.301470583503715 0 0 0 0 479.61171410416136 -90.867211905220756 0 -90.867211905220756 -232.07269471547625 0 0 0 0 237.1757330186374 195.08164439865504 0 195.08164439865504 548.69215936952969 0 0 0 0 479.25660694775524 81.39706902002365 0 81.39706902002365 -54.885914789047092 0 0 0 0 3530.1071963587056 -889.39447353649484 0 -889.39447353649484 -34.884533441625535 0 0 0 0 3662.4046725637454 -1215.9092005905259 0 -1215.9092005905259 -1241.8152316955675 0 0 0 0 529.64795531585696 21.610785052922438 0 21.610785052922438 5.6187467797426507 0 0 0 0 535.88566549497773 152.07817503767728 0 152.07817503767728 6.9217516198136764 0 0 0 0 329.71870261130971 1006.7514524065446 0 1006.7514524065446 875.19879495954956 0 0 0 0 -6.5651062991720721 -15.831194158460249 0 -15.831194158460249 -0.098475312158939232 0 0 0 0 -395.5229462638963 -392.90618911718775 0 -392.90618911718775 123.37825796318066 0 0 0 0 282.98318617383484 64.106620062026195 0 64.106620062026195 10.988051996742797 0 0 0 0 225.01073311672371 -0.041785421322856564 0 -0.041785421322856564 -58.516708098351955 0 0 0 0 432.92287992412457 4.4038808706391137 0 4.4038808706391137 -166.67386388569139 0 0 0 0 -49.733247785413653 -42.875214693964978 0 -42.875214693964978 -2.0186439566317649 0 0 0 0 -26.765365323721198 -114.16412737258361 0 -114.16412737258361 332.76616216546836 0 0 0 0 -21.236694237275515 -64.239987358392682 0 -64.239987358392682 -33.193507507303366 0 0 0 0 -94.002844609451131 -69.279179660434238 0 -69.279179660434238 73.34696889614861 0 0 0 0 82.088861640397226 -100.308319187694 0 -100.308319187694 -48.022663178126095 0 0 0 0 -67.123097881951253 -83.914193229167722 0 -83.914193229167722 -8.6824698548007291 0 0 0 0 -24.892872099793749 -94.649644378587254 0 -94.649644378587254 -8.9419090494338889 0 0 0 0 -57.178015495854197 -98.389636167717981 0 -98.389636167717981 3.7529282795003382 0 0 0 0 -52.825136677602131 -90.843577753064892 0 -90.843577753064892 5.448916859284509 0 0 0 0 8.7857123121793848 -105.27738456374209 0 -105.27738456374209 -17.31873006967362 0 0 0 0 -8.002869229123462 -59.19062338169897 0 -59.19062338169897 -17.220576697771321 0 0 0 0 90.618460767334909 -60.651736140280263 0 -60.651736140280263 -31.09603623268049 0 0 0 0 32.446139534029385 -37.02522938351315 0 -37.02522938351315 14.880032276499378 0 0 0 0 -18.215689066564664 -67.358006106253015 0 -67.358006106253015 5.8392839146545157 0 0 0 0 220.43738260871032 11.007667971483897 0 11.007667971483897 -11.053807450924069 0 0 0 0 -42.687327660896699 -43.772694497958582 0 -43.772694497958582 3.8233128309148015 0 0 0 0 -34.28866075410042 -120.81255946279271 0 -120.81255946279271 -5.4597656984115019 0 0 0 0 94.691663077729572 -7.227021315736863 0 -7.227021315736863 -7.7460508474509311 0 0 0 0 35.701484273362439 -121.03759833810182 0 -121.03759833810182 -17.960634893417591 0 0 0 0 -79.461877825387631 -50.857443492255811 0 -50.857443492255811 8.8523239960456692 0 0 0 0 110.17097691595779 -125.68853147749135 0 -125.68853147749135 24.092297450283581 0 0 0 0 -326.77680566504569 -318.09148549388556 0 -318.09148549388556 75.785004862293135 0 0 0 0 196.66535047861544 -79.274640025543704 0 -79.274640025543704 46.433305747792474 0 0 0 0 276.30365319313569 -115.2982279855496 0 -115.2982279855496 61.730323587689782 0 0 0 0 65.64729108283791 -37.874855650808968 0 -37.874855650808968 171.71499020906049 0 0 0 0 9.9431359911100401 -6.3716999966626702 0 -6.3716999966626702 -3.7763621297141867 0 0 0 0 17.050234765604671 -43.932825402557569 0 -43.932825402557569 59.301397182642859 0 0 0 0 10.49072744420846 -15.887358846408461 0 -15.887358846408461 1.6794524205470225 0 0 0 0 317.89448092225939 -31.855151557967474 0 -31.855151557967474 6.7113344402459916 0 0 0 0 23.993928293399563 -49.947895741852477 0 -49.947895741852477 48.985786485984278 0 0 0 0 38.815839297110529 -23.454134268429499 0 -23.454134268429499 -27.212191255597247 0 0 0 0 56.635913135309238 4.3901005143416114 0 4.3901005143416114 -22.84655962155739 0 0 0 0 46.359450040094089 -64.279780052347633 0 -64.279780052347633 204.75195390332374 0 0 0 0 7.2103214669363496 -9.4866247808065225 0 -9.4866247808065225 -5.048891709494626 0 0 0 0 70.853469403577037 -36.142181864808663 0 -36.142181864808663 -25.201657998919472 0 0 0 0 49.392347789078485 -42.439701287548814 0 -42.439701287548814 1.6750804548355518 0 0 0 0 45.661362712795381 -30.790247015960631 0 -30.790247015960631 21.713870474573923 0 0 0 0 85.590361941751326 -68.383487240702379 0 -68.383487240702379 20.304953717946773 0 0 0 0 70.965805380779784 -60.654875093547162 0 -60.654875093547162 16.936227565864101 0 0 0 0 93.604471874248702 -58.939003377876361 0 -58.939003377876361 -1.0057694757124409 0 0 0 0 103.87020894969464 -71.862012962978042 0 -71.862012962978042 8.4722332292294595 0 0 0 0 104.4680314786965 -68.933752099430421 0 -68.933752099430421 2.7987847033655271 0 0 0 0 57.693823586057988 -31.105376213072304 0 -31.105376213072304 7.0072024714900181 0 0 0 0 106.23969410655991 -36.513610698499178 0 -36.513610698499178 -15.604561805026606 0 0 0 0 124.79293663805583 -67.789088312070817 0 -67.789088312070817 107.58231663231709 0 0 0 0 103.03210104269965 -104.30057725220831 0 -104.30057725220831 46.331516688020201 0 0 0 0 89.454197109298548 -84.042301371067879 0 -84.042301371067879 19.611089704108963 0 0 0 0 161.24186659735278 -35.276569521534839 0 -35.276569521534839 61.606969754779129 0 0 0 0 154.57497123142821 -51.362442456142162 0 -51.362442456142162 31.844861406440032 0 0 0 0 101.30034689264721 -77.336495895746339 0 -77.336495895746339 23.37191160673683 0 0 0 0 20.624515407369472 -52.858131381712155 0 -52.858131381712155 28.876216198841576 0 0 0 0 136.12237468565581 -61.969817508637789 0 -61.969817508637789 -18.268636452441569 0 0 0 0 32.116513481625589 -258.25827949092491 0 -258.25827949092491 332.08039099052257 0 0 0 0 43.267989552362394 -11.9493601390366 0 -11.9493601390366 -33.901377888568589 0 0 0 0 104.59135496331146 -4.374370772857219 0 -4.374370772857219 -15.599189175249194 0 0 0 0 15.114415307441959 -30.067839034476492 0 -30.067839034476492 208.05187030476009 0 0 0 0 38.272060309769586 -48.595317350067489 0 -48.595317350067489 183.49345288120094 0 0 0 0 30.558143758738879 -44.748054422278074 0 -44.748054422278074 197.28490677379887 0 0 0 0 89.748031438757607 -74.120252212112973 0 -74.120252212112973 163.67294409123133 0 0 0 0 2.3383466937229969 -97.671758474483795 0 -97.671758474483795 175.60147560907353 0 0 0 0 -23.95972811239335 -5.5201809229401988 0 -5.5201809229401988 157.23984186272719 0 0 0 0 -291.2937319035409 -184.14095296953747 0 -184.14095296953747 -83.263580816448666 0 0 0 0 -44.885020445115515 51.689060684235301 0 51.689060684235301 37.056967901749886 0 0 0 0 25.155775052582612 -15.64130554109579 0 -15.64130554109579 101.09080542517768 0 0 0 0 -146.37987957082805 -48.106458282054518 0 -48.106458282054518 160.3818132970373 0 0 0 0 -4.3037721500440966 -190.1415645169709 0 -190.1415645169709 -96.679312674183166 0 0 0 0 -111.19062806101283 -67.476036138454219 0 -67.476036138454219 -139.1702062198965 0 0 0 0 97.67828821054718 -152.28342921268086 0 -152.28342921268086 -590.22024586910993 0 0 0 0 -20.705556027758576 -67.58047006369452 0 -67.58047006369452 -703.05331332636706 0 0 0 0 -203.15952354759793 1.492504296489642 0 1.492504296489642 -660.83094605471524 0 0 0 0 106.7479552415607 -36.337177686789801 0 -36.337177686789801 -1308.5710324465035 0 0 0 0 41.597551956733241 141.0593656789917 0 141.0593656789917 -743.93455843687116 0 0 0 0 -4.4300943906270618 -11.819401941087023 0 -11.819401941087023 -6.1124196918397615 0 0 0 0 640.29089571717486 -147.83725967402461 0 -147.83725967402461 32.042551167265628 0 0 0 0 520.3701204569079 53.240771020589818 0 53.240771020589818 126.72768062903197 0 0 0 0 806.56515603016942 119.89030804758096 0 119.89030804758096 103.74154993898992 0 0 0 0 -2.3767353160047264 -2.7958328847486769 0 -2.7958328847486769 -1.6358876215253133 0 0 0 0 255.91475843742955 -719.01626263017533 0 -719.01626263017533 265.48963440067018 0 0 0 0 239.90413014555816 143.67399422240123 0 143.67399422240123 -2275.2200046918879 0 0 0 0 -143.94949893627199 44.249053244013339 0 44.249053244013339 -1073.1179125327035 0 0 0 0 -370.04237673050375 -996.87762526114966 0 -996.87762526114966 1367.0569279002302 0 0 0 0 -136.54187367716804 233.68477428649203 0 233.68477428649203 97.099212169272505 0 0 0 0 -30.193862100568367 -869.16770526413165 0 -869.16770526413165 -707.73339186202065 0 0 0 0 521.98322338733124 -2.3451568248201511 0 -2.3451568248201511 -20.206107861013152 0 0 0 0 13.766575605149015 -30.738971417268232 0 -30.738971417268232 23.150121845985666 0 0 0 0 321.57798837739392 -26.597944377426757 0 -26.597944377426757 21.545092817235854 0 0 0 0 501.83493268581515 -6.0144111883710138 0 -6.0144111883710138 16.28146776540234 0 0 0 0 271.63872796390206 -42.135869589379581 0 -42.135869589379581 16.780820425890852 0 0 0 0 280.2615032842732 -32.382873479567934 0 -32.382873479567934 23.877629948030517 0 0 0 0 297.09552297572372 -48.922712241772388 0 -48.922712241772388 -14.16070792809478 0 0 0 0 310.18031552038155 -35.371381684606604 0 -35.371381684606604 -3.0330266307282727 0 0 0 0 251.3250414391805 159.71698619036397 0 159.71698619036397 -55.447463462201995 0 0 0 0 253.41995211195172 -111.60022512531395 0 -111.60022512531395 -1.9660303176788148 0 0 0 0 14.063858444019104 -32.97091199311285 0 -32.97091199311285 40.857713881457698 0 0 0 0 -86.223678635113174 -10.358290007938194 0 -10.358290007938194 209.99489830475068 0 0 0 0 22.661302034110122 -13.478647483940222 0 -13.478647483940222 139.15099226635357 0 0 0 0 424.00667009784956 -94.340239071127144 0 -94.340239071127144 -117.44659571285592 0 0 0 0 32.977175123065535 -5.3070407204686489 0 -5.3070407204686489 139.29765727836639 0 0 0 0 253.89034333624295 -14.982852670160355 0 -14.982852670160355 148.26668522430555 0 0 0 0 394.60480664380884 21.63496965896411 0 21.63496965896411 13.273111255810363 0 0 0 0 127.54016096716857 -138.86220641183394 0 -138.86220641183394 44.109060030076535 0 0 0 0 -202.76529082770503 -450.02652027550721 0 -450.02652027550721 -35.604662155950791 0 0 0 0 200.66327171644662 -98.449640427948907 0 -98.449640427948907 53.932556450592529 0 0 0 0 -167.59847677611106 -336.06026776057115 0 -336.06026776057115 15.049909609500901 0 0 0 0 35.551783888135105 -346.33414798443846 0 -346.33414798443846 -57.270137487634202 0 0 0 0 75.899739129291447 -296.81461921693426 0 -296.81461921693426 -102.2314658764808 0 0 0 0 81.882802626838384 -327.59817946273688 0 -327.59817946273688 -93.994875160433367 0 0 0 0 314.30395642003623 -71.323565797198626 0 -71.323565797198626 4.2763598298479337 0 0 0 0 372.20765663561178 -70.014440702019783 0 -70.014440702019783 -2.4510447373322677 0 0 0 0 174.5271462962628 -228.86439772025005 0 -228.86439772025005 8.5218916937810718 0 0 0 0 131.26575569188105 -149.42321708228536 0 -149.42321708228536 65.98956556759623 0 0 0 0 141.56024911453719 -159.87581447105674 0 -159.87581447105674 82.544037640621639 0 0 0 0 79.789387874378008 -122.80990272823146 0 -122.80990272823146 121.74881429858215 0 0 0 0 -47.626552627843921 -308.04702234660726 0 -308.04702234660726 213.46344581228914 0 0 0 0 430.112287064665 -165.90800449827657 0 -165.90800449827657 -35.215079030458583 0 0 0 0 534.16518631056533 -308.46168369243969 0 -308.46168369243969 182.34354430167878 0 0 0 0 540.73176798576606 -81.815089002644527 0 -81.815089002644527 99.011603766557528 0 0 0 0 360.30235848097072 -97.234542631038494 0 -97.234542631038494 54.112147535895929 0 0 0 0 165.64253513202129 -118.23913948373229 0 -118.23913948373229 10.083064505397488 0 0 0 0 -20.695916941789619 -16.327674733460299 0 -16.327674733460299 89.987213292348315 0 0 0 0 210.81515170167404 -190.23081477125379 0 -190.23081477125379 36.498472405335633 0 0 0 0 18.038399422100269 -26.728191516368327 0 -26.728191516368327 8.7975088049077499 0 0 0 0 247.35489256009168 -208.961200024758 0 -208.961200024758 41.577732293895679 0 0 0 0 205.49098497338855 -165.03750676920026 0 -165.03750676920026 52.318429208560701 0 0 0 0 108.97075399007372 -288.6736773917637 0 -288.6736773917637 -148.37009074937669 0 0 0 0 221.99072245365096 -145.85288149020926 0 -145.85288149020926 -15.750370134061086 0 0 0 0 267.83039029958672 -115.0336418527404 0 -115.0336418527404 -413.1156206104788 0 0 0 0 -101.21374791036214 -226.88095640106621 0 -226.88095640106621 38.84771583492693 0 0 0 0 -5.3635466478353351 -2.3190671107890068 0 -2.3190671107890068 -1.6730187175632523 0 0 0 0 106.17881429923 -318.5776904463637 0 -318.5776904463637 -9.1154093985533109 0 0 0 0 213.47840479266597 -441.18645564476901 0 -441.18645564476901 -361.56995154143078 0 0 0 0 289.54909610695177 -330.64700224108674 0 -330.64700224108674 -226.99129391064344 0 0 0 0 280.44768866097729 -360.36549152623775 0 -360.36549152623775 -130.5976249783489 0 0 0 0 98.621399499717882 -382.31364990242946 0 -382.31364990242946 -56.549027293294785 0 0 0 0 227.0812603598315 -372.10579466216586 0 -372.10579466216586 -65.539037285718223 0 0 0 0 459.55191758219007 -230.13682134187911 0 -230.13682134187911 -19.137631093952223 0 0 0 0 210.29864964072476 -380.74145724528353 0 -380.74145724528353 109.96441282238811 0 0 0 0 467.83730994358848 -321.05127436758994 0 -321.05127436758994 78.344826270491467 0 0 0 0 495.94152680565094 -390.74990575347692 0 -390.74990575347692 200.30972425421351 0 0 0 0 779.46319491652685 -144.16357173266442 0 -144.16357173266442 74.073821088648401 0 0 0 0 1018.9792846099153 -390.60287625077763 0 -390.60287625077763 192.2608758736169 0 0 0 0 398.15221028673113 -447.92223345419188 0 -447.92223345419188 525.62524097530695 0 0 0 0 388.69431743165478 -397.94741885212716 0 -397.94741885212716 335.40707142473548 0 0 0 0 107.8741405098117 -284.64608753312496 0 -284.64608753312496 328.79766901793482 0 0 0 0 91.23868753120405 -338.39668774952042 0 -338.39668774952042 273.91639215353644 0 0 0 0 37.892038069199771 -368.19219237690413 0 -368.19219237690413 121.51277131399547 0 0 0 0 164.91441128789666 -335.94830679917868 0 -335.94830679917868 84.704246079490986 0 0 0 0 205.66672923299484 -439.92251332373417 0 -439.92251332373417 285.68538263533628 0 0 0 0 -137.66859899592964 -295.78709111479111 0 -295.78709111479111 152.01619315746939 0 0 0 0 -150.03218627159367 -240.66142645559739 0 -240.66142645559739 -92.691668483415924 0 0 0 0 -191.71925788032968 -201.41358105796098 0 -201.41358105796098 156.0165069711511 0 0 0 0 -147.79481242490874 -214.56382708030287 0 -214.56382708030287 -10.939706236029451 0 0 0 0 -54.034038106008666 -263.22660176514182 0 -263.22660176514182 82.877358475147048 0 0 0 0 -52.37437785603106 -285.37806339896633 0 -285.37806339896633 274.96858487233112 0 0 0 0 -95.633782826218521 -129.60309422040882 0 -129.60309422040882 151.41670848667854 0 0 0 0 -165.63504649751121 -155.45734421622183 0 -155.45734421622183 218.8484832434915 0 0 0 0 -129.40217892364308 -165.49780114777968 0 -165.49780114777968 332.27268772143725 0 0 0 0 -106.13533553443267 -127.19751581414312 0 -127.19751581414312 219.09967853175476 0 0 0 0 -113.15976374324237 -64.80876977519074 0 -64.80876977519074 222.75183454535727 0 0 0 0 -124.04859122974449 -59.096782465901924 0 -59.096782465901924 277.84629027741903 0 0 0 0 -21.943928229572947 -0.92116227936125483 0 -0.92116227936125483 0.4434630306018903 0 0 0 0 -64.94383126743196 47.909769160221913 0 47.909769160221913 72.182795404398348 0 0 0 0 -274.98397332648165 -111.95945173953805 0 -111.95945173953805 223.89471950213192 0 0 0 0 -144.60712684680766 -108.94494646833846 0 -108.94494646833846 44.74621048552217 0 0 0 0 -55.295152066246374 -34.584072280413238 0 -34.584072280413238 71.453148244239856 0 0 0 0 -118.75103587358717 -92.148335395993854 0 -92.148335395993854 91.369717608846258 0 0 0 0 -88.333754590678325 -9.6347172777875301 0 -9.6347172777875301 21.208779672098217 0 0 0 0 -294.43799618362391 -123.55754545152013 0 -123.55754545152013 134.75669931976881 0 0 0 0 -81.367534641628026 -49.604765340119826 0 -49.604765340119826 5.8023811825272373 0 0 0 0 63.988452002493432 -56.262283582269447 0 -56.262283582269447 -35.205756274139276 0 0 0 0 6.7521699683829723 -59.725631546871284 0 -59.725631546871284 1.0011030701395498 0 0 0 0 -0.63974460544704925 -69.348899322809302 0 -69.348899322809302 3.3151740999019239 0 0 0 0 -29.284075133451552 -26.03206611409405 0 -26.03206611409405 -112.97496280295309 0 0 0 0 -0.061711215003739994 -25.250423372170857 0 -25.250423372170857 -29.77279622700047 0 0 0 0 -309.74348779331194 111.89079946745187 0 111.89079946745187 -72.399339307958144 0 0 0 0 -19.703709255918511 -29.149721829311602 0 -29.149721829311602 7.9330068891867995 0 0 0 0 -66.934358428637211 -18.951006555628652 0 -18.951006555628652 10.650229687520437 0 0 0 0 -25.213922664092877 -23.830902421446126 0 -23.830902421446126 5.3038594970695856 0 0 0 0 -18.773563599454064 -16.603273687782348 0 -16.603273687782348 15.480341534072068 0 0 0 0 -37.29399453777512 -13.621720176820503 0 -13.621720176820503 2.2716204464940404 0 0 0 0 -62.031852792421958 -30.705960773932972 0 -30.705960773932972 41.705838806280269 0 0 0 0 -23.323505416677961 -39.853990542061297 0 -39.853990542061297 1.671503010360297 0 0 0 0 -48.777536615838187 -32.541585008228367 0 -32.541585008228367 16.515407493322641 0 0 0 0 -52.747057513159234 -41.502249095159641 0 -41.502249095159641 11.286309624789283 0 0 0 0 -42.801123465149431 -39.755684000847396 0 -39.755684000847396 4.6369397923117504 0 0 0 0 -47.494588016590569 -35.457527521910379 0 -35.457527521910379 9.4664449808187783 0 0 0 0 -13.47755225970468 -68.823735975478485 0 -68.823735975478485 9.7762607893382665 0 0 0 0 -5.4927084516384639 -62.071074917606893 0 -62.071074917606893 -6.9908475427737358 0 0 0 0 -30.184855614948901 11.684402718572528 0 11.684402718572528 42.360567332885694 0 0 0 0 -53.129840810026508 -37.103111527554574 0 -37.103111527554574 -78.117064425139688 0 0 0 0 -6.256052858633268 -8.0464268255315687 0 -8.0464268255315687 -10.562073707522131 0 0 0 0 80.286327093432192 -203.14605921292969 0 -203.14605921292969 183.95510472846217 0 0 0 0 -14.534025496526738 8.7423389532377769 0 8.7423389532377769 -125.2887724165339 0 0 0 0 -21.559055445029543 -7.2332681066820612 0 -7.2332681066820612 -0.98451927858298838 0 0 0 0 -304.89954615698662 -110.13696310933301 0 -110.13696310933301 -51.790171373425437 0 0 0 0 364.06868229183601 95.662685525414417 0 95.662685525414417 -65.256877293085381 0 0 0 0 -275.69578433647257 -318.13632656416303 0 -318.13632656416303 668.73701902397443 0 0 0 0 -62.550423238440999 407.17203707181034 0 407.17203707181034 685.83450638648355 0 0 0 0 224.90723071922548 25.96472800646734 0 25.96472800646734 423.08042969793314 0 0 0 0 608.45239578940527 -415.63114902656525 0 -415.63114902656525 861.07853986386908 0 0 0 0 1016.552329119877 -288.89709628859418 0 -288.89709628859418 622.09807206669939 0 0 0 0 743.34252058171842 -363.76354346873632 0 -363.76354346873632 432.41359926018049 0 0 0 0 924.9676315485558 -683.37115880748024 0 -683.37115880748024 857.28412991866935 0 0 0 0 237.39653660925978 -380.91744678289979 0 -380.91744678289979 671.98077974862827 0 0 0 0 128.15172985874233 -174.23430301592452 0 -174.23430301592452 351.82569762965431 0 0 0 0 -16.16998151964799 -291.22261998991598 0 -291.22261998991598 517.03540700374288 0 0 0 0 -12.792641302352422 -211.75155350126442 0 -211.75155350126442 318.33118027329328 0 0 0 0 -272.84072876255959 -71.933072409592569 0 -71.933072409592569 312.48357166939331 0 0 0 0 -247.04571096118525 -92.160063212328168 0 -92.160063212328168 261.91591514457832 0 0 0 0 -15.751651915634284 -257.31591674547235 0 -257.31591674547235 315.22005458080093 0 0 0 0 85.593396979042154 -164.30260612959682 0 -164.30260612959682 137.65488673833897 0 0 0 0 -23.89992195564264 -121.36426784065407 0 -121.36426784065407 230.12049060790741 0 0 0 0 8.9476711327516227 -98.684567750426595 0 -98.684567750426595 -76.414959785100734 0 0 0 0 12.944576172769303 -104.04297929265886 0 -104.04297929265886 207.3270676224638 0 0 0 0 -37.071015095967596 -253.00912325882382 0 -253.00912325882382 359.02249242708785 0 0 0 0 29.672845855111518 81.791354734923516 0 81.791354734923516 -430.88073051757965 0 0 0 0 34.308178701542488 -92.133757259190531 0 -92.133757259190531 -63.596092419010901 0 0 0 0 -121.6418166483345 26.309671794726455 0 26.309671794726455 -71.022418558379286 0 0 0 0 -26.33967188897077 47.579257121680712 0 47.579257121680712 -201.96030843994231 0 0 0 0 8.4764674742473289 -20.675482645485317 0 -20.675482645485317 -170.90248684052494 0 0 0 0 -7.878781350904319 -76.083544072869699 0 -76.083544072869699 17.699274864600739 0 0 0 0 0.10839255144207982 -53.272442506615988 0 -53.272442506615988 17.671765941782553 0 0 0 0 -155.18090176155965 -75.139844792487565 0 -75.139844792487565 90.605067694559693 0 0 0 0 -10.679023988297558 -69.168018417309213 0 -69.168018417309213 42.637356395425741 0 0 0 0 12.778413715668933 -20.457975243324654 0 -20.457975243324654 4.5412439546814483 0 0 0 0 -202.86417432315648 5.5030775293998886 0 5.5030775293998886 -13.867245120847656 0 0 0 0 20.495197686246655 -46.150468894472908 0 -46.150468894472908 51.607015316004549 0 0 0 0 -6.7987466932099778 -71.363336050657381 0 -71.363336050657381 42.361458597879391 0 0 0 0 3.4605031161408988 -128.99808461610519 0 -128.99808461610519 123.00014116722741 0 0 0 0 9.0240823768466925 -59.288109255730078 0 -59.288109255730078 91.704053253743041 0 0 0 0 -67.296131117273035 -50.239353968696378 0 -50.239353968696378 59.576905907102628 0 0 0 0 -66.267680291850411 -34.546217676077504 0 -34.546217676077504 100.17705607794051 0 0 0 0 12.462486782117004 -39.263653239349523 0 -39.263653239349523 67.523519700860675 0 0 0 0 -2.5806068427918945 -18.766514947041287 0 -18.766514947041287 83.347817735135322 0 0 0 0 -40.794440088837291 -33.875536835003004 0 -33.875536835003004 109.06149757857202 0 0 0 0 -12.611634545792185 -112.20951512481133 0 -112.20951512481133 110.96253042190801 0 0 0 0 -7.9399763653054833 -32.04393231778522 0 -32.04393231778522 52.654178399745433 0 0 0 0 -35.81682877021376 -18.555238930013729 0 -18.555238930013729 155.13075543931336 0 0 0 0 109.26681169407675 -85.625579824118176 0 -85.625579824118176 12.108725235564634 0 0 0 0 130.7688222101242 -16.204661508465506 0 -16.204661508465506 16.94473451632075 0 0 0 0 -13.238582971895823 -3.4295937062899071 0 -3.4295937062899071 6.7640161986821568 0 0 0 0 -112.04198933942826 -62.856859086736222 0 -62.856859086736222 76.841879964144027 0 0 0 0 -95.614906656133826 -72.139051784011826 0 -72.139051784011826 15.751883033255581 0 0 0 0 -165.7155660024946 -95.17667750644614 0 -95.17667750644614 73.004798097565072 0 0 0 0 -32.071435695888795 -113.6943967557454 0 -113.6943967557454 68.808798992016818 0 0 0 0 -77.234101795438619 -115.59977558776882 0 -115.59977558776882 151.8917565580341 0 0 0 0 -77.969708405784331 -220.05500437207229 0 -220.05500437207229 140.41875936364522 0 0 0 0 1.9768559127405751 -161.82095121410384 0 -161.82095121410384 48.38534694883856 0 0 0 0 -110.92542686152046 -296.39219288075037 0 -296.39219288075037 -63.82009466283489 0 0 0 0 -108.45430514950567 -190.41107884183293 0 -190.41107884183293 -11.847120273450855 0 0 0 0 -145.96155002775777 -183.67975339390978 0 -183.67975339390978 49.869989122424158 0 0 0 0 -212.79919872917162 -300.25247182673047 0 -300.25247182673047 -48.615103430056479 0 0 0 0 -426.55418665265097 -358.09389855160407 0 -358.09389855160407 -24.200037256319774 0 0 0 0 -290.40835635004623 -210.28449618992454 0 -210.28449618992454 27.172952928071027 0 0 0 0 -329.22195162617572 -81.31403933871843 0 -81.31403933871843 76.830689307127614 0 0 0 0 -236.78942517343239 -219.22295407589263 0 -219.22295407589263 -20.422556136865751 0 0 0 0 -595.21472053457546 -264.52278854636097 0 -264.52278854636097 11.972025192854289 0 0 0 0 -308.81388999296178 -215.39544811063388 0 -215.39544811063388 13.194341849957709 0 0 0 0 -582.39433853753872 -373.27056666660064 0 -373.27056666660064 -27.126785564149031 0 0 0 0 -446.90670488678006 -369.8727985189762 0 -369.8727985189762 -32.84089658150333 0 0 0 0 -394.76439037099772 -55.094963734300109 0 -55.094963734300109 58.252956197946332 0 0 0 0 -431.63643909928214 -99.578275267333083 0 -99.578275267333083 28.14717359415954 0 0 0 0 1.1341545516233964 0.43484193826560613 0 0.43484193826560613 -4.923766596091923 0 0 0 0 -1194.2921052514685 40.322380025245366 0 40.322380025245366 92.809745331935119 0 0 0 0 -792.17444308109589 -476.083138234535 0 -476.083138234535 -0.20625025134359021 0 0 0 0 16.57865223727822 -16.53031108290088 0 -16.53031108290088 -1.9924385184713174 0 0 0 0 16.115436608874006 -14.712408996245358 0 -14.712408996245358 3.8272749669558834 0 0 0 0 27.086712990654632 -18.755213101030677 0 -18.755213101030677 0.0085739770888810067 0 0 0 0 -354.11868151645467 -102.19303703021069 0 -102.19303703021069 -18.442423562722979 0 0 0 0 3.2146345211272092 -4.9335532991075866 0 -4.9335532991075866 -5.5145620483216362 0 0 0 0 15.205097997997655 -21.966225110532832 0 -21.966225110532832 2.3661957700860512 0 0 0 0 47.211605587945087 -20.312617293588119 0 -20.312617293588119 -2.4951863225433044 0 0 0 0 21.39614959019201 -18.831451636526168 0 -18.831451636526168 8.2389494769439864 0 0 0 0 16.222162816982745 -23.158846503709356 0 -23.158846503709356 -5.557640624087071 0 0 0 0 98.262589387784828 -46.352131458421354 0 -46.352131458421354 31.7308913993038 0 0 0 0 111.53686752857175 -22.922954051726265 0 -22.922954051726265 -2.582288664765656 0 0 0 0 -4.200176897511966 -22.798933551582422 0 -22.798933551582422 9.5616390927610837 0 0 0 0 -21.632900201842858 -9.9596338680821646 0 -9.9596338680821646 26.280862980522215 0 0 0 0 -3.2321848636264932 2.6180701063641152 0 2.6180701063641152 1.1455735394172848 0 0 0 0 157.69872178886362 -27.400369954131747 0 -27.400369954131747 9.4086742611834779 0 0 0 0 -49.069103628513403 23.380787742033135 0 23.380787742033135 61.27520667295903 0 0 0 0 -7.9841022662793648 -4.537977070588795 0 -4.537977070588795 5.4070333782415219 0 0 0 0 -399.05696667078155 -148.77191469845638 0 -148.77191469845638 -40.613109663216164 0 0 0 0 0.72703781703603454 -41.620753152645193 0 -41.620753152645193 45.616810074163368 0 0 0 0 -106.56609525122622 26.235905517343781 0 26.235905517343781 61.860253885854036 0 0 0 0 -34.678481166694837 -28.374096693169122 0 -28.374096693169122 -5.0794686088047456 0 0 0 0 -83.58546277685673 -41.526244727734593 0 -41.526244727734593 46.059415988907858 0 0 0 0 107.91128796020348 -63.111563210906752 0 -63.111563210906752 3.8627175736401114 0 0 0 0 37.557881841494236 -68.653655951391556 0 -68.653655951391556 21.107621333372663 0 0 0 0 8.1314418327831817 -37.488000586600904 0 -37.488000586600904 36.781853348681466 0 0 0 0 50.226113580734818 -36.198157231567166 0 -36.198157231567166 12.17666056600865 0 0 0 0 22.781304369848556 -6.9991673079813097 0 -6.9991673079813097 -7.6585329340438761 0 0 0 0 81.935479565887363 -99.356697419992997 0 -99.356697419992997 4.5893406267277896 0 0 0 0 82.379920911364025 -186.84221666472149 0 -186.84221666472149 -80.906124170534895 0 0 0 0 110.31577604061749 -53.11252372218587 0 -53.11252372218587 -1.7269378212513402 0 0 0 0 29.927256656978102 -8.9254069995357384 0 -8.9254069995357384 -8.0328393544716619 0 0 0 0 477.1960157346839 145.93628669996178 0 145.93628669996178 44.872225097176852 0 0 0 0 82.929591016944215 -62.959443453939755 0 -62.959443453939755 23.970741257267321 0 0 0 0 600.57397422026406 -191.52941219308195 0 -191.52941219308195 8.6851120294304565 0 0 0 0 1545.4076312787656 50.676721243318752 0 50.676721243318752 -133.46663362254912 0 0 0 0 -119.10202139109606 -153.87925682914647 0 -153.87925682914647 -69.524311234999914 0 0 0 0 171.8665761318407 -87.120787209627451 0 -87.120787209627451 -200.11991467286134 0 0 0 0 146.08400222619821 -12.475438491906971 0 -12.475438491906971 -175.91243201785255 0 0 0 0 200.86314654586022 -7.2088339106121566 0 -7.2088339106121566 -106.70512220040837 0 0 0 0 172.44994851076626 -106.98350111868058 0 -106.98350111868058 -39.328261547751026 0 0 0 0 176.98219118230918 -41.388694789449801 0 -41.388694789449801 -155.53440404534922 0 0 0 0 117.72596096297639 34.825357606336183 0 34.825357606336183 -15.085946298611816 0 0 0 0 179.00798357405438 215.92154691361793 0 215.92154691361793 103.13202720953268 0 0 0 0 16.1650423452393 -8.434317876347734 0 -8.434317876347734 5.1427675981969116 0 0 0 0 423.79991753725335 48.564503176559811 0 48.564503176559811 109.76589541105295 0 0 0 0 22.86967376305256 44.437488394338288 0 44.437488394338288 8.2648048653209116 0 0 0 0 429.71289548974892 71.746257998689543 0 71.746257998689543 -168.89775829760583 0 0 0 0 17.345428911474301 -39.378601249256462 0 -39.378601249256462 -3.7351292923267465 0 0 0 0 1.9215951565738578 -1.9112763176986505 0 -1.9112763176986505 1.4713829650990533 0 0 0 0 268.98285808502987 -214.73732869593005 0 -214.73732869593005 -171.25858345624874 0 0 0 0 335.02263433487678 138.75611651386134 0 138.75611651386134 181.45336104439048 0 0 0 0 4.5066983156575589 -14.279345054419537 0 -14.279345054419537 -0.010836520610610023 0 0 0 0 364.80401922471356 1093.3542805977486 0 1093.3542805977486 167.18301963736303 0 0 0 0 3.7331609883553369 -3.2914841557412586 0 -3.2914841557412586 3.9466879419736927 0 0 0 0 12.099530775281892 -19.638445691958623 0 -19.638445691958623 -0.0051046758744632825 0 0 0 0 8.4666347608144861 -13.79491894034436 0 -13.79491894034436 -9.2633842720242683 0 0 0 0 -258.19076309166849 -145.50923607498407 0 -145.50923607498407 -31.646974543473334 0 0 0 0 28.185273098240856 -10.384907332878996 0 -10.384907332878996 1.7723673636768353 0 0 0 0 2425.8385145703796 -1682.790209642204 0 -1682.790209642204 -1159.059553115163 0 0 0 0 7044.2646102751314 4050.966976178519 0 4050.966976178519 1182.2485677290824 0 0 0 0 0.39170609445034188 -3.4576368508317898 0 -3.4576368508317898 2.3756835095154827 0 0 0 0 8472.3990398452443 2300.5334834946843 0 2300.5334834946843 -172.85020962660201 0 0 0 0 219.79273897776147 -727.71138368958782 0 -727.71138368958782 0.52340391223634775 0 0 0 0 63.525452891073655 47.565486167732161 0 47.565486167732161 -416.73090891606989 0 0 0 0 -50.292768900908413 -346.86346747691096 0 -346.86346747691096 -272.53292393006268 0 0 0 0 2382.2352650099201 1171.0319617438654 0 1171.0319617438654 1047.8816373863956 0 0 0 0 4587.3944661931891 3133.5458024139953 0 3133.5458024139953 2350.6491614343686 0 0 0 0 4830.5167868919616 982.11065227923245 0 982.11065227923245 54.806836770323571 0 0 0 0 4203.0420458675726 490.89501144456153 0 490.89501144456153 -820.57341267794254 0 0 0 0 3301.0882097294088 1491.0090845231025 0 1491.0090845231025 375.62148565620009 0 0 0 0 2633.430817896442 615.7789922082593 0 615.7789922082593 -403.89891791005311 0 0 0 0 2901.0714929067763 891.75531325995689 0 891.75531325995689 -413.0082862568961 0 0 0 0 2940.6742542647844 317.49391038497561 0 317.49391038497561 -668.25360513009946 0 0 0 0 68.850113748795906 -36.221377275610372 0 -36.221377275610372 7.4963721950159652 0 0 0 0 2142.5429255072522 808.02843554744322 0 808.02843554744322 617.72598370537162 0 0 0 0 1335.3363713397703 794.27296541749092 0 794.27296541749092 328.85671666808048 0 0 0 0 2118.1044479026459 917.00862644927111 0 917.00862644927111 307.34082863037474 0 0 0 0 1572.7955894659681 41.817376576247625 0 41.817376576247625 -633.16596001381549 0 0 0 0 2419.0000638758938 329.25763589233975 0 329.25763589233975 -546.1346355801943 0 0 0 0 2685.9248218384892 -227.10365329123306 0 -227.10365329123306 -1283.4932897642138 0 0 0 0 2950.7461043594813 202.08715974479856 0 202.08715974479856 -1201.0108447263192 0 0 0 0 3053.8938278920541 129.2781613939369 0 129.2781613939369 -1150.0151151825849 0 0 0 0 2488.5896427019325 -337.15431040559633 0 -337.15431040559633 -1227.8018224454136 0 0 0 0 2834.8320732733118 -847.09560371998668 0 -847.09560371998668 -959.42754371004412 0 0 0 0 2710.4868269432336 -532.52356493246771 0 -532.52356493246771 -1347.8229757628578 0 0 0 0 2692.107936837303 -2134.4545792275167 0 -2134.4545792275167 879.57172802045534 0 0 0 0 2986.4453814020526 -1434.6686745599036 0 -1434.6686745599036 -730.48402180874837 0 0 0 0 2145.096518724873 -781.92380245318418 0 -781.92380245318418 -395.8460030752758 0 0 0 0 2170.5329187314783 -878.28680883377092 0 -878.28680883377092 -30.808476485653955 0 0 0 0 338.64546006880119 -801.92480908669677 0 -801.92480908669677 974.89395099598914 0 0 0 0 1259.724765140505 -498.06989421178878 0 -498.06989421178878 -466.3792834814958 0 0 0 0 2450.6470336599814 -265.68263036207645 0 -265.68263036207645 -567.10769538994646 0 0 0 0 785.71131471978151 -275.83145355153829 0 -275.83145355153829 -132.10983120865421 0 0 0 0 1214.0037011823733 -248.22759861133818 0 -248.22759861133818 -164.79319165183188 0 0 0 0 6.0950481194846873 -42.826025878960422 0 -42.826025878960422 -29.955392812148943 0 0 0 0 76.259245981113054 109.27163879189175 0 109.27163879189175 79.007757664143355 0 0 0 0 525.84783674996288 -25.768782479033689 0 -25.768782479033689 -65.291982273804024 0 0 0 0 -51.144957787764724 -0.95736792538082227 0 -0.95736792538082227 -18.68613239726983 0 0 0 0 65.530467356592169 -76.944158006918315 0 -76.944158006918315 49.998312026376254 0 0 0 0 7.9866482237703167 -29.573545726889279 0 -29.573545726889279 -1.2029072812292725 0 0 0 0 20.402769814521065 -43.973947424772945 0 -43.973947424772945 16.114073512748007 0 0 0 0 53.270359736279914 -60.798281067890912 0 -60.798281067890912 5.6600261677518802 0 0 0 0 -256.18274468783056 -160.7864169938257 0 -160.7864169938257 36.460223310743459 0 0 0 0 22.996876061267287 -56.132074033072968 0 -56.132074033072968 71.314353431963696 0 0 0 0 7.0471816532954108 -180.30168252510339 0 -180.30168252510339 116.00220251007704 0 0 0 0 94.393564408819657 61.78740348899737 0 61.78740348899737 -18.75418611648638 0 0 0 0 228.3199404421357 -512.41755506580193 0 -512.41755506580193 323.14615174429491 0 0 0 0 -13.437106189885725 -15.785905174986794 0 -15.785905174986794 -21.599037596986648 0 0 0 0 168.40873831445788 -264.43574604698733 0 -264.43574604698733 122.0896277724969 0 0 0 0 -167.37633456342883 -138.5186294023697 0 -138.5186294023697 164.4897323861951 0 0 0 0 40.161757121386472 -65.29267273440928 0 -65.29267273440928 2.80610407050699 0 0 0 0 -229.92835207215103 -57.740848585322965 0 -57.740848585322965 107.07450612264802 0 0 0 0 -76.071761985236662 -236.21260298767083 0 -236.21260298767083 24.039856640680227 0 0 0 0 207.36260916013271 -98.194546990722301 0 -98.194546990722301 31.546421963750618 0 0 0 0 326.80150639440399 -292.20836393860009 0 -292.20836393860009 127.41603082159418 0 0 0 0 -4.0096709566271045 -5.470645815000637 0 -5.470645815000637 -6.8332840853487937 0 0 0 0 -1007.9562455521664 -62.853571479659877 0 -62.853571479659877 -67.476565652905265 0 0 0 0 -883.54547612261376 -928.33271283502108 0 -928.33271283502108 107.04493726728833 0 0 0 0 -49.404960414569359 -397.49145150036202 0 -397.49145150036202 -647.50202575817093 0 0 0 0 8.7019009357900359 -1434.513399127929 0 -1434.513399127929 270.12064654944697 0 0 0 0 1260.5658505953324 -720.25513700534066 0 -720.25513700534066 -569.07920246315189 0 0 0 0 233.76814775966341 139.05565326607029 0 139.05565326607029 1901.822252118669 0 0 0 0 3679.1503186044793 -756.78900325399445 0 -756.78900325399445 -46.977153923013248 0 0 0 0 3571.1697987473999 -372.37188593338396 0 -372.37188593338396 815.42479707309394 0 0 0 0 2607.0601580565271 -1338.0798868632846 0 -1338.0798868632846 1142.4794055714228 0 0 0 0 3113.0599178323755 -1772.3427266991566 0 -1772.3427266991566 1150.2807625343266 0 0 0 0 2862.7666203884291 -604.48899784712921 0 -604.48899784712921 3201.7616508598439 0 0 0 0 -1.8836780310028303 -4.7429006446624271 0 -4.7429006446624271 14.377528887404765 0 0 0 0 -297.72494994100998 86.057724505320948 0 86.057724505320948 -72.924163064817549 0 0 0 0 -194.5387430878618 -195.47035207880981 0 -195.47035207880981 -401.20897060068091 0 0 0 0 -474.48904228629544 461.13883147455635 0 461.13883147455635 349.55999181576772 0 0 0 0 0.54138753910933701 -1.7189839682292813 0 -1.7189839682292813 2.4182124558788871 0 0 0 0 102.95367167354561 -727.43646866641211 0 -727.43646866641211 2854.0285509050664 0 0 0 0 -805.17224453386734 -1187.0412138451356 0 -1187.0412138451356 2056.4417598548634 0 0 0 0 22.574366725173832 -18.886902212867888 0 -18.886902212867888 14.446353659551846 0 0 0 0 454.94106503133662 -823.09988436782442 0 -823.09988436782442 2510.9241726101609 0 0 0 0 597.45720503409393 -961.08523435058305 0 -961.08523435058305 2065.30476487956 0 0 0 0 541.4888365388033 -890.4444536207011 0 -890.4444536207011 2653.1977597517398 0 0 0 0 656.05842236537137 -749.76783484326006 0 -749.76783484326006 2540.8201811586041 0 0 0 0 543.23684243147727 -864.00265644697356 0 -864.00265644697356 2496.6174609491864 0 0 0 0 -24.178591768955812 -668.18781941776979 0 -668.18781941776979 2876.521819092246 0 0 0 0 170.06824293825775 -921.8892612894706 0 -921.8892612894706 2959.4175914126972 0 0 0 0 -461.65516057604691 515.88146510916704 0 515.88146510916704 245.73057466332102 0 0 0 0 2473.8707454901596 -1345.2067393244943 0 -1345.2067393244943 -1523.674718594295 0 0 0 0 2740.6978138626 -2638.5922232705998 0 -2638.5922232705998 1388.1349536906419 0 0 0 0 1506.1805369092617 -1515.7770506210509 0 -1515.7770506210509 3147.5332486964035 0 0 0 0 2945.0808421140537 -2285.7412938255293 0 -2285.7412938255293 2438.3119294940552 0 0 0 0 2176.7922459872498 -1437.9834068883356 0 -1437.9834068883356 1800.7978558907635 0 0 0 0 5011.5763682523102 -468.93462851893855 0 -468.93462851893855 844.34205067790754 0 0 0 0 3332.3756288607256 -864.75430182865239 0 -864.75430182865239 751.04272410432168 0 0 0 0 2872.8530425617018 -1082.7561452939817 0 -1082.7561452939817 361.90431054239161 0 0 0 0 2867.3252850596618 -292.97564925671031 0 -292.97564925671031 164.41824419860495 0 0 0 0 1238.9700787898364 -943.06102754661515 0 -943.06102754661515 1441.6360890460201 0 0 0 0 1228.5378460153297 -768.42607047104684 0 -768.42607047104684 1410.9320364769665 0 0 0 0 366.88446673605358 -740.91505343696554 0 -740.91505343696554 1833.6213906203047 0 0 0 0 482.45289269601926 -717.57871651725145 0 -717.57871651725145 2263.7963669774472 0 0 0 0 326.82302068691934 -687.75219445864786 0 -687.75219445864786 2258.0957993010816 0 0 0 0 -137.99199315067381 -679.23043677827809 0 -679.23043677827809 1849.2635880665621 0 0 0 0 -338.99227363316459 -304.48107284112484 0 -304.48107284112484 922.8217922100157 0 0 0 0 747.77673796980525 -445.57551208518271 0 -445.57551208518271 937.81366584214265 0 0 0 0 -312.39147419603751 -1202.0149776151582 0 -1202.0149776151582 971.54017294661026 0 0 0 0 44.606347301276401 -819.04386526845337 0 -819.04386526845337 919.18618223207523 0 0 0 0 -123.5577103839023 -716.46144314804405 0 -716.46144314804405 622.86531132736854 0 0 0 0 -352.03579560842991 -889.4565488360804 0 -889.4565488360804 1538.5696778747078 0 0 0 0 -68.028689428756479 -605.1398440109042 0 -605.1398440109042 1834.7059610547731 0 0 0 0 -289.81563640929744 -529.9723041767902 0 -529.9723041767902 1809.238837735611 0 0 0 0 -102.37210078589851 -366.31784692662768 0 -366.31784692662768 2475.9238235117227 0 0 0 0 -263.87192103097914 -661.8566379147087 0 -661.8566379147087 704.4488530063536 0 0 0 0 -337.52562041055353 -715.172426111807 0 -715.172426111807 1266.750630675815 0 0 0 0 -252.93990350079548 -794.39902663705288 0 -794.39902663705288 843.66713128576521 0 0 0 0 -77.767042284860509 -224.59908433102828 0 -224.59908433102828 941.47561950772797 0 0 0 0 -139.00819401185436 -438.43889411277814 0 -438.43889411277814 739.21565818897216 0 0 0 0 -173.09117285002139 -379.54305076497258 0 -379.54305076497258 1270.0814711358107 0 0 0 0 -160.32371716108173 -473.11383425841632 0 -473.11383425841632 1124.0587660539168 0 0 0 0 66.219891922606621 -133.9711867763981 0 -133.9711867763981 978.99020478472812 0 0 0 0 -0.99221145464701976 -4.1397219667293399 0 -4.1397219667293399 5.0813982531857391 0 0 0 0 -439.72958948739688 84.285254232978332 0 84.285254232978332 3584.2424780725341 0 0 0 0 227.643879895797 325.05475286001456 0 325.05475286001456 445.58128084352938 0 0 0 0 -289.03772660685354 -400.24220248330676 0 -400.24220248330676 2423.5265168554906 0 0 0 0 106.62464950286085 541.23433071548061 0 541.23433071548061 2386.624948362477 0 0 0 0 266.92820303348708 147.26848652005719 0 147.26848652005719 1371.2207948566429 0 0 0 0 -282.56516100160661 -414.93138704438024 0 -414.93138704438024 1767.9631577534019 0 0 0 0 -18.003110124031082 -311.02234766929178 0 -311.02234766929178 1515.9114066500133 0 0 0 0 90.772261456470005 328.51580516087415 0 328.51580516087415 -685.19254738968448 0 0 0 0 -342.67171871202299 262.8024689025624 0 262.8024689025624 377.305576747749 0 0 0 0 360.69424825978058 -444.809695593176 0 -444.809695593176 -634.28902817869675 0 0 0 0 353.928066605411 -140.40778753823543 0 -140.40778753823543 -137.19524327335239 0 0 0 0 1.0420450763246549 -9.7783817493343435 0 -9.7783817493343435 7.2652159174677706 0 0 0 0 7.2551293679146625 -3.2325463001579919 0 -3.2325463001579919 0.49937950065179848 0 0 0 0 371.61085597878628 -55.291667104498629 0 -55.291667104498629 1.4909675304224947 0 0 0 0 -161.96579094759363 -184.22990968576778 0 -184.22990968576778 -200.10856346569017 0 0 0 0 -114.94332454333198 -68.717199606231588 0 -68.717199606231588 106.56538051232201 0 0 0 0 84.172920865152264 -8.9380677924782503 0 -8.9380677924782503 -55.701614774327027 0 0 0 0 1.687401079561198 -0.90546862955653751 0 -0.90546862955653751 -0.46773906273482169 0 0 0 0 -4.3101764089660719 -26.621950758348248 0 -26.621950758348248 -139.773937277816 0 0 0 0 -481.5794871164544 -1452.4850904778577 0 -1452.4850904778577 -2800.7819704337817 0 0 0 0 39.784833555965861 -45.17168985412696 0 -45.17168985412696 41.194689079829516 0 0 0 0 -1176.2931151168304 -2599.8596932507207 0 -2599.8596932507207 -2287.1714671576556 0 0 0 0 539.4802963903785 -769.26083954129717 0 -769.26083954129717 -1722.2457233717403 0 0 0 0 -867.57672389585059 -1429.6946307626786 0 -1429.6946307626786 -1714.9242514072125 0 0 0 0 1220.4672768072633 -481.76060276343196 0 -481.76060276343196 -2007.7319168691756 0 0 0 0 -1289.4448344803823 -214.22781814380141 0 -214.22781814380141 -1519.5564516704762 0 0 0 0 -2329.1387992359814 -1431.4438975293888 0 -1431.4438975293888 -1069.4164957669709 0 0 0 0 864.43084868881851 -122.27828821032017 0 -122.27828821032017 -1879.4161669882742 0 0 0 0 -462.48522119247355 562.6529762178543 0 562.6529762178543 -4.3686410325171892 0 0 0 0 2847.5851636646839 -847.27062886441126 0 -847.27062886441126 -1970.6710416598071 0 0 0 0 2647.3974276534864 -1355.1249909815378 0 -1355.1249909815378 -661.58017996399576 0 0 0 0 2458.1028578894329 -683.66230663763417 0 -683.66230663763417 -1406.3324543100316 0 0 0 0 1161.3955240899468 -194.83278230271389 0 -194.83278230271389 -1771.0786980389094 0 0 0 0 2421.2136923172511 -442.63489785831189 0 -442.63489785831189 -2004.905838165243 0 0 0 0 1643.9338761471445 -70.86472523289558 0 -70.86472523289558 -1656.179248532324 0 0 0 0 2749.840241987753 -210.50610783627781 0 -210.50610783627781 -1694.7949088120586 0 0 0 0 1916.0805837520893 -420.33702134283521 0 -420.33702134283521 -1082.4111555778945 0 0 0 0 2338.6533062432136 -500.30974243568926 0 -500.30974243568926 -1650.4283930628735 0 0 0 0 2637.3324468199571 -97.74899097168236 0 -97.74899097168236 -1588.606167814527 0 0 0 0 1940.2532583129796 -1033.4554944093834 0 -1033.4554944093834 1.0403038331969583 0 0 0 0 2665.0643815094809 -214.82562377682916 0 -214.82562377682916 -1290.9365727473923 0 0 0 0 2001.8061589435965 -608.96576182561694 0 -608.96576182561694 -1682.7959927759439 0 0 0 0 967.66480565933978 -1389.0057582567972 0 -1389.0057582567972 -1398.1098338160955 0 0 0 0 719.97788028623472 -1023.3081887888184 0 -1023.3081887888184 -1412.6741608462471 0 0 0 0 966.38768695415638 -895.24806015215768 0 -895.24806015215768 -884.42826162543497 0 0 0 0 2023.6112212043081 -643.08359555825882 0 -643.08359555825882 -1094.463426230468 0 0 0 0 2400.2544204076694 -1084.2230449631897 0 -1084.2230449631897 -662.01609669224126 0 0 0 0 1249.5827819941042 -1336.6742377763003 0 -1336.6742377763003 -646.01923682342749 0 0 0 0 3299.0132055084687 206.33050472410105 0 206.33050472410105 -1226.6024334738177 0 0 0 0 2916.435019525321 -625.85387283193995 0 -625.85387283193995 -1234.6990910214954 0 0 0 0 2870.2845937470847 -126.49794827589358 0 -126.49794827589358 -850.45301469806873 0 0 0 0 3844.4997728453745 -523.65888344472842 0 -523.65888344472842 -825.26595559867565 0 0 0 0 3539.3371100796503 437.32343270682031 0 437.32343270682031 -197.19721885485342 0 0 0 0 5166.2949332564604 963.53596550269867 0 963.53596550269867 -313.78284328193331 0 0 0 0 4342.2833412771724 -362.34015602616273 0 -362.34015602616273 -392.94304268137785 0 0 0 0 5683.9264763538959 346.93125150827109 0 346.93125150827109 -175.46945829199103 0 0 0 0 5924.7679353099229 270.95394337766629 0 270.95394337766629 -471.74043920607073 0 0 0 0 6794.8042386483867 2329.0220752991736 0 2329.0220752991736 784.04317603629897 0 0 0 0 3571.8934854658437 -498.24996043276042 0 -498.24996043276042 -181.1019355964745 0 0 0 0 4118.2150839274691 -937.05730133001634 0 -937.05730133001634 -318.37602492218139 0 0 0 0 3703.9546565064229 -1.7149313906702446 0 -1.7149313906702446 -402.51846966042649 0 0 0 0 3230.0403604670282 -1011.8560959844399 0 -1011.8560959844399 -330.43904328200733 0 0 0 0 2447.2247745822533 -470.80697025867994 0 -470.80697025867994 -542.29545479635271 0 0 0 0 1926.4203607901582 -1274.6998933965515 0 -1274.6998933965515 -133.78389689751202 0 0 0 0 1417.6442472321069 -765.88912284153048 0 -765.88912284153048 -517.66722499052412 0 0 0 0 1911.4822701567318 -685.35043842905725 0 -685.35043842905725 -5.942722586562013 0 0 0 0 2282.3584564798948 -1182.3615190494966 0 -1182.3615190494966 319.94387040045694 0 0 0 0 4841.5502930116781 -825.1009945414844 0 -825.1009945414844 -118.19771604448033 0 0 0 0 6258.0131613225676 1649.965572991292 0 1649.965572991292 1550.0075669438811 0 0 0 0 8343.406323142859 1427.485904842737 0 1427.485904842737 21.044785195903387 0 0 0 0 6953.0626368846279 82.736807484077872 0 82.736807484077872 -137.4051670737681 0 0 0 0 -638.91533852592693 -1302.1313478970333 0 -1302.1313478970333 353.56286497612018 0 0 0 0 -1377.744857715239 -902.50861238741345 0 -902.50861238741345 204.69825253279487 0 0 0 0 1529.8532505073745 -1350.7862096884674 0 -1350.7862096884674 -202.80654214459355 0 0 0 0 696.23861019642209 -1637.9958187460288 0 -1637.9958187460288 -93.45163657188823 0 0 0 0 -320.09567532863002 -964.55072824383387 0 -964.55072824383387 -449.59692250599619 0 0 0 0 -544.22209685808048 -1643.7472177769669 0 -1643.7472177769669 6.9522513643605635 0 0 0 0 -1347.7291814515011 -896.23393193591437 0 -896.23393193591437 -688.38584810186876 0 0 0 0 -806.88094717879721 -1814.641483178988 0 -1814.641483178988 -950.95760163009982 0 0 0 0 -1120.2658382009831 -1395.2121342872124 0 -1395.2121342872124 -1460.6815294341941 0 0 0 0 113.91177670593606 -1662.7903442284733 0 -1662.7903442284733 -558.09238714167259 0 0 0 0 -508.66592807908455 -1132.2641459488113 0 -1132.2641459488113 -954.73149915388785 0 0 0 0 729.89693476966931 -886.23268237798038 0 -886.23268237798038 -830.25735621503554 0 0 0 0 157.61013517896936 -878.43891947816155 0 -878.43891947816155 -1469.7737427009852 0 0 0 0 -764.6304794876778 -1822.7001321384159 0 -1822.7001321384159 -1113.5087974208254 0 0 0 0 -489.79982251179172 -1740.0301282356886 0 -1740.0301282356886 -1638.103018721129 0 0 0 0 -1764.601421230127 -2181.9169882532951 0 -2181.9169882532951 -1479.7707467535074 0 0 0 0 -1671.3815772257512 -2164.1900307481992 0 -2164.1900307481992 -1395.1510937957391 0 0 0 0 -703.8832091641525 -1761.9043936788585 0 -1761.9043936788585 -1500.6156646343297 0 0 0 0 -2065.0100916111842 -1631.043057979703 0 -1631.043057979703 -1451.7135662687069 0 0 0 0 25.81950499665686 -53.69890766784156 0 -53.69890766784156 53.735375291996661 0 0 0 0 -1865.5692588086968 -1970.4158492848801 0 -1970.4158492848801 -1572.167022341484 0 0 0 0 17.886015794909326 -107.19228860031581 0 -107.19228860031581 -136.58528254774865 0 0 0 0 -22.170555064299492 -50.743902956619536 0 -50.743902956619536 -24.883194861740776 0 0 0 0 -21.990890279150335 -82.02223397907801 0 -82.02223397907801 23.894859984204231 0 0 0 0 53.487417425034437 -55.731133348076398 0 -55.731133348076398 26.009843931973649 0 0 0 0 -1579.2752273594524 -1912.1474758173281 0 -1912.1474758173281 -1129.174249857424 0 0 0 0 -194.30179219390266 -782.10105278485571 0 -782.10105278485571 -2041.1340315306152 0 0 0 0 -61.585448262470891 -134.61023117430159 0 -134.61023117430159 -2.2248391897010151 0 0 0 0 -2136.4349908334116 -944.87998489893653 0 -944.87998489893653 -915.94489389134105 0 0 0 0 -3610.8570285608876 -2277.497876289679 0 -2277.497876289679 -1622.3224913064187 0 0 0 0 -1314.9931697150314 -1977.6280184143397 0 -1977.6280184143397 -2215.2849682140222 0 0 0 0 5.157988654556334 -22.133064188810351 0 -22.133064188810351 14.855201471364012 0 0 0 0 -1590.2191693323766 -1596.2789735406532 0 -1596.2789735406532 -266.86404119836516 0 0 0 0 -1404.4887316478853 -1645.2392484624634 0 -1645.2392484624634 104.17748203189694 0 0 0 0 -1001.7648627216986 -926.16561358643958 0 -926.16561358643958 -19.35928190422419 0 0 0 0 -1072.1148238869937 -1094.8863293717586 0 -1094.8863293717586 -215.38515570483378 0 0 0 0 -635.96830061404034 -1521.6035725008624 0 -1521.6035725008624 4.4456076681567138 0 0 0 0 11.646260009418143 -10.502133701950342 0 -10.502133701950342 8.34217057696236 0 0 0 0 -40.924591909458925 -4837.0400107772275 0 -4837.0400107772275 7595.2588471333438 0 0 0 0 37.027309525986993 -29.512601883510186 0 -29.512601883510186 22.694531768419608 0 0 0 0 -0.12503807188477367 -141.16788410676963 0 -141.16788410676963 -150.69499437320337 0 0 0 0 -34.872968952651718 -87.084001338807866 0 -87.084001338807866 -55.083910823588667 0 0 0 0 0.092110357669298537 -167.24611789621122 0 -167.24611789621122 51.622990692987514 0 0 0 0 -41.51796247868333 -189.42519148527208 0 -189.42519148527208 -87.181903462318587 0 0 0 0 -49.539744955196511 -87.587627268279903 0 -87.587627268279903 45.770830923560425 0 0 0 0 -35.110708311622147 -83.909938908102049 0 -83.909938908102049 37.821499297962873 0 0 0 0 -51.523586896379129 -26.130700110712496 0 -26.130700110712496 313.33663984938175 0 0 0 0 -0.11009147690492682 -126.29855214882991 0 -126.29855214882991 -7.1684468380117323 0 0 0 0 40.896474623732502 -113.85847888949502 0 -113.85847888949502 -162.54816972702974 0 0 0 0 3.6605691376170171 3.1150541550765922 0 3.1150541550765922 -2.5634155200400528 0 0 0 0 2.3060935603094208 3.5503061205704114 0 3.5503061205704114 -2.4563093872994841 0 0 0 0 44.629520496673649 -87.237937915255316 0 -87.237937915255316 -178.53431118026492 0 0 0 0 -56.431548674270744 21.565594065366895 0 21.565594065366895 98.420651571897906 0 0 0 0 -3.2189447592827491 46.981586318914196 0 46.981586318914196 -32.464139608608093 0 0 0 0 -28.431978155436809 -182.86583741692448 0 -182.86583741692448 -232.02140831129509 0 0 0 0 -0.41907432342122775 -121.60438172743306 0 -121.60438172743306 -98.928779755195137 0 0 0 0 -162.93972673959797 34.284930163776153 0 34.284930163776153 -25.008664657885674 0 0 0 0 106.17198243347229 -44.524279214951093 0 -44.524279214951093 -87.452061803589459 0 0 0 0 0.59506179144426596 -1.5853932311938053 0 -1.5853932311938053 -9.6649926531708275 0 0 0 0 -30.469452988560079 -15.096561399725033 0 -15.096561399725033 -25.66082893271232 0 0 0 0 -46.884328953019576 -13.289284721380682 0 -13.289284721380682 -58.477929960601614 0 0 0 0 -82.212256269491263 147.38424166047844 0 147.38424166047844 -96.75001709946082 0 0 0 0 -9.3951838684018867 -20.518909903640747 0 -20.518909903640747 -29.103760318868638 0 0 0 0 1.0173352010755252 0.55482521157182418 0 0.55482521157182418 -6.7979466579916092 0 0 0 0 -45.060687295899697 -53.415333251137781 0 -53.415333251137781 4.1348943295888603 0 0 0 0 -1.3249499576049857 -49.225985907047288 0 -49.225985907047288 -70.139564790311852 0 0 0 0 -39.899347190512344 -59.327581681391166 0 -59.327581681391166 90.843421226280043 0 0 0 0 -2.2154114167555576 -6.4110114829273215 0 -6.4110114829273215 -10.178219695666598 0 0 0 0 15.941989929124247 -108.15527926944924 0 -108.15527926944924 -88.237464591366006 0 0 0 0 -4.6875116895535029 -51.464531246179831 0 -51.464531246179831 -43.550271787054953 0 0 0 0 -1.6461511021871047 -13.033546405389984 0 -13.033546405389984 1.0134948165750757 0 0 0 0 18.296013344097616 -9.5174068200804101 0 -9.5174068200804101 -5.562621547864012 0 0 0 0 -43.099017953165458 -34.388077186253213 0 -34.388077186253213 -19.480508718253986 0 0 0 0 118.52064492952195 -171.75061815651134 0 -171.75061815651134 -39.606949865745264 0 0 0 0 -4.7361867555591743 -20.820343533647247 0 -20.820343533647247 -24.878370537306182 0 0 0 0 4.3783609237585779 -14.245264496455007 0 -14.245264496455007 -1.3664150671462494 0 0 0 0 -1.9784007147328566 -20.927869808300557 0 -20.927869808300557 -19.501866023446894 0 0 0 0 -2.793069617182482 -14.367977902293205 0 -14.367977902293205 -9.6979116485454142 0 0 0 0 -10.371777268966298 -38.215078699244728 0 -38.215078699244728 -23.822869648327611 0 0 0 0 -69.638686765807506 -40.267355149637297 0 -40.267355149637297 -85.384511340496829 0 0 0 0 -62.078770661464659 -31.710863554326352 0 -31.710863554326352 -184.72839108821063 0 0 0 0 238.12997061964415 -334.22532747538207 0 -334.22532747538207 121.63844925207377 0 0 0 0 156.81156108496361 -201.7579640182812 0 -201.7579640182812 -65.377870822072509 0 0 0 0 -58.095865565934218 -217.61713502814382 0 -217.61713502814382 907.15431366481062 0 0 0 0 -18.682015163969481 -81.921917531399231 0 -81.921917531399231 61.927044259718969 0 0 0 0 71.368039238353958 -315.76764867970087 0 -315.76764867970087 369.21955684013665 0 0 0 0 344.38267400392215 -660.07801713862136 0 -660.07801713862136 343.17328171677309 0 0 0 0 -205.92469303321559 -719.62022034701658 0 -719.62022034701658 943.61182293768798 0 0 0 0 -11.599598595319549 -884.09055567015821 0 -884.09055567015821 833.80363018144271 0 0 0 0 -271.53582079464377 -870.5542080047851 0 -870.5542080047851 863.16587569020339 0 0 0 0 728.32205844810233 -1803.9839872711746 0 -1803.9839872711746 968.7244843604276 0 0 0 0 240.21678343179519 -456.93850721773561 0 -456.93850721773561 -36.179612824620563 0 0 0 0 1140.6464640308805 -972.36732677239161 0 -972.36732677239161 -1568.9327568928129 0 0 0 0 -0.085822983252000995 -338.0906935821622 0 -338.0906935821622 -815.99557592716883 0 0 0 0 -220.78999868812389 -815.51959394017467 0 -815.51959394017467 -1836.3018030550156 0 0 0 0 -568.88605769965943 -260.59845520372619 0 -260.59845520372619 -69.431313442066312 0 0 0 0 -395.71071704206406 -556.88553978582786 0 -556.88553978582786 -497.87978536753508 0 0 0 0 -360.68819410503784 -55.474382336468352 0 -55.474382336468352 68.955434719391633 0 0 0 0 -298.60435513837729 566.33664410719939 0 566.33664410719939 -730.74463143672619 0 0 0 0 -4.0018558848385055 -5.7479393738506133 0 -5.7479393738506133 -10.916107433540219 0 0 0 0 307.42408329553291 -6.3507324204965698 0 -6.3507324204965698 -365.64615355679416 0 0 0 0 26.419456323463237 48.882614021560585 0 48.882614021560585 -111.44577780598775 0 0 0 0 -389.22399391255749 -76.440917471005378 0 -76.440917471005378 143.75077457868611 0 0 0 0 -24.677392915471955 -101.96659405523678 0 -101.96659405523678 -712.63489127554931 0 0 0 0 -137.49963966058931 -360.88633922830923 0 -360.88633922830923 -808.69107299951065 0 0 0 0 -386.54856490503653 -222.93879445308994 0 -222.93879445308994 -884.392406793806 0 0 0 0 -342.17284372750112 -1098.2689714585699 0 -1098.2689714585699 -1264.4007685746619 0 0 0 0 438.02559518734597 -476.40350544730609 0 -476.40350544730609 -1773.0857939842062 0 0 0 0 -1116.307588509002 -1525.0090533735201 0 -1525.0090533735201 -1499.4797269143746 0 0 0 0 -2313.8693030660188 -767.72040012796788 0 -767.72040012796788 -807.51893002598081 0 0 0 0 -1289.3006304201181 -1745.9371670119108 0 -1745.9371670119108 -614.49542852101149 0 0 0 0 -16.018867857997769 -15.184685454035133 0 -15.184685454035133 -14.254443969419526 0 0 0 0 -2157.6198282226533 -324.95862834452055 0 -324.95862834452055 577.90304674863 0 0 0 0 -416.44919877846587 -262.83873753454463 0 -262.83873753454463 365.83488710003439 0 0 0 0 -1007.2392955692467 -554.84317856850248 0 -554.84317856850248 486.97650499235897 0 0 0 0 -100.65690139069466 -487.22215674905965 0 -487.22215674905965 244.93787646252895 0 0 0 0 -121.96016404818693 -539.33686481002951 0 -539.33686481002951 279.36167551972176 0 0 0 0 -44.893469746426526 -37.100614264568577 0 -37.100614264568577 -29.134588955234562 0 0 0 0 -6.233887451714736 -628.63436628854106 0 -628.63436628854106 225.02118223546677 0 0 0 0 -538.17422514055397 -622.20793889380002 0 -622.20793889380002 239.56451161367295 0 0 0 0 -55.792286521810531 -51.471296349741351 0 -51.471296349741351 -40.977454121486289 0 0 0 0 -234.91154467240176 -350.67408819322009 0 -350.67408819322009 356.19936513247376 0 0 0 0 -200.84290691087335 -292.92658510143519 0 -292.92658510143519 -19.627885447669541 0 0 0 0 -157.75230343747489 -398.51029562434633 0 -398.51029562434633 22.267568392126122 0 0 0 0 -172.04667848058125 -397.75302242576436 0 -397.75302242576436 104.40724786723149 0 0 0 0 -227.88081180456538 -268.6151625199418 0 -268.6151625199418 -199.67328892693331 0 0 0 0 -286.20012451932598 -117.93746357828786 0 -117.93746357828786 -242.22225613392948 0 0 0 0 -348.87120427700393 -176.7242211085395 0 -176.7242211085395 -113.91982980757894 0 0 0 0 -112.67166415030806 -263.31959663908492 0 -263.31959663908492 -132.78797006449895 0 0 0 0 -46.213606569539195 -188.26926539420083 0 -188.26926539420083 36.997957796178525 0 0 0 0 -196.78265694543006 -171.63995501691534 0 -171.63995501691534 -30.464317876670975 0 0 0 0 -104.63976496772921 -310.54948804371816 0 -310.54948804371816 -138.9918613739469 0 0 0 0 0.84101719113095896 -24.373341192709631 0 -24.373341192709631 0.41250360140111297 0 0 0 0 3.1380744477467317 -7.2829925535127558 0 -7.2829925535127558 7.8257383354085732 0 0 0 0 -545.32637957986844 -126.96328581272974 0 -126.96328581272974 11.213783235223673 0 0 0 0 -400.18607634064392 -162.12530093273381 0 -162.12530093273381 -63.434309930367817 0 0 0 0 -40.158856385316994 -202.46513032378789 0 -202.46513032378789 -67.237037089129444 0 0 0 0 -475.75897592808724 -70.73232403529255 0 -70.73232403529255 7.2158370444813045 0 0 0 0 -347.60438609311313 -230.76538055387937 0 -230.76538055387937 -264.04689426545519 0 0 0 0 -416.19187855858763 -141.52251603094919 0 -141.52251603094919 -187.65785417741426 0 0 0 0 -468.64802398435677 -234.94528839255509 0 -234.94528839255509 -140.27400904390379 0 0 0 0 -591.27166267774373 -81.48773048824296 0 -81.48773048824296 -15.852796452367329 0 0 0 0 -519.40879178247815 -288.39702757168561 0 -288.39702757168561 -392.40079003604478 0 0 0 0 -799.30453205442245 -188.87907216641179 0 -188.87907216641179 -64.771193054199102 0 0 0 0 -55.689957479698933 74.477279058774002 0 74.477279058774002 -106.56473361683311 0 0 0 0 3.170551566847049 -0.4465437196223192 0 -0.4465437196223192 -5.0190364052451173 0 0 0 0 -381.88878873750855 -494.12035071953142 0 -494.12035071953142 -213.17577889130916 0 0 0 0 -566.55587533546895 -110.21285492458264 0 -110.21285492458264 -310.92617899217294 0 0 0 0 38.326850602727063 -124.86431357028778 0 -124.86431357028778 -499.90296693072014 0 0 0 0 -273.12418768004318 -137.29874965747877 0 -137.29874965747877 -345.05326992896153 0 0 0 0 -395.67557639793677 -168.76777796158603 0 -168.76777796158603 -351.82396386322216 0 0 0 0 -402.59433042780256 -96.804186099994695 0 -96.804186099994695 -426.76722325796436 0 0 0 0 -372.32894971048336 -210.22049077352131 0 -210.22049077352131 -574.7842035292706 0 0 0 0 -393.09380213945769 -144.04350110719679 0 -144.04350110719679 -378.44918208752642 0 0 0 0 -199.92796889582496 -301.10381785501158 0 -301.10381785501158 -402.24253802216845 0 0 0 0 -324.57289367391422 -351.72412679178524 0 -351.72412679178524 -224.77622231237183 0 0 0 0 -169.62643368409408 -98.424636511907011 0 -98.424636511907011 -390.51617237378377 0 0 0 0 -224.67980323381562 -193.08630153130798 0 -193.08630153130798 -144.24138742702053 0 0 0 0 -315.41544128580881 -312.09957611188293 0 -312.09957611188293 -576.25012105630594 0 0 0 0 -110.55264614449152 -209.96225183053321 0 -209.96225183053321 -821.84408546947816 0 0 0 0 -508.31227256602233 -764.00854487845208 0 -764.00854487845208 -1046.4494635552401 0 0 0 0 -0.41133657279835134 -2.2540626341394443 0 -2.2540626341394443 1.3433646414817986 0 0 0 0 -199.11903906016232 -568.29886254276062 0 -568.29886254276062 -926.30694571576896 0 0 0 0 -80.576512034157076 -117.34883916794934 0 -117.34883916794934 -427.86430944294261 0 0 0 0 31.368051218981179 -594.74560489502437 0 -594.74560489502437 -1289.4834427840542 0 0 0 0 -339.62250486871562 -406.30730638813475 0 -406.30730638813475 -292.4875981859077 0 0 0 0 -393.83547199645363 -525.4599267632002 0 -525.4599267632002 -490.17419366169452 0 0 0 0 -434.34870235379231 -402.83409954622493 0 -402.83409954622493 -737.47832711605588 0 0 0 0 4.4349864495646045 -4.5898696258522023 0 -4.5898696258522023 0.51596205795050309 0 0 0 0 -373.74050472852105 -796.88485718445008 0 -796.88485718445008 -797.53680937844729 0 0 0 0 -430.48410545942761 -477.01920394703575 0 -477.01920394703575 -687.29666954062122 0 0 0 0 106.07266310260093 -669.80307616338541 0 -669.80307616338541 -645.76401811590767 0 0 0 0 5.6667515342183776 -5.2889456559275629 0 -5.2889456559275629 1.1079082856699642 0 0 0 0 55.774230927921963 -476.14989423250518 0 -476.14989423250518 -752.21902254897577 0 0 0 0 -247.70525327169162 -494.41213178831094 0 -494.41213178831094 -777.63070960920595 0 0 0 0 -196.07842078855538 -454.6224218034331 0 -454.6224218034331 -757.68945866532158 0 0 0 0 -393.8051863994101 -720.06103824303682 0 -720.06103824303682 -797.24302426887152 0 0 0 0 -486.51001886917663 -785.65536985813287 0 -785.65536985813287 -901.73943374385999 0 0 0 0 -479.8408837023967 -605.25873536957806 0 -605.25873536957806 -696.42541929436265 0 0 0 0 -348.79490877834223 -490.90040135066374 0 -490.90040135066374 -597.92906934070925 0 0 0 0 -1.769502143235635 -1.4311307972019449 0 -1.4311307972019449 -2.0710762615005933 0 0 0 0 -659.81944654438439 -687.29493310701946 0 -687.29493310701946 -594.676646888307 0 0 0 0 -1082.4563162802501 -941.05729282047832 0 -941.05729282047832 -302.22059502291086 0 0 0 0 -991.93275891775704 -600.71548215470102 0 -600.71548215470102 -92.759659352217568 0 0 0 0 -1118.7635631083895 -327.10408345126416 0 -327.10408345126416 -18.555518657143693 0 0 0 0 -917.68225208350668 -545.87592143948132 0 -545.87592143948132 -70.52587885648245 0 0 0 0 -9.36862703035119 -26.154117070784338 0 -26.154117070784338 22.514052409021758 0 0 0 0 11.684253010343417 -31.959777764860192 0 -31.959777764860192 -16.477635303884767 0 0 0 0 -3435.3629263797675 -908.33082672863384 0 -908.33082672863384 124.5591094558331 0 0 0 0 -937.26331028081768 -725.50409570046759 0 -725.50409570046759 14.446888796810526 0 0 0 0 675.9931854712604 74.09878467375529 0 74.09878467375529 -1070.5633861113165 0 0 0 0 0.27311951198807582 -1.927995962399109 0 -1.927995962399109 -13.050115339579577 0 0 0 0 -865.7109112385856 -647.20444963157206 0 -647.20444963157206 -707.19810447876807 0 0 0 0 -1034.81662766661 -1422.377898608639 0 -1422.377898608639 -1429.6425245962455 0 0 0 0 -1743.7482034690656 101.3605628706573 0 101.3605628706573 -1990.2391063089017 0 0 0 0 -4.2377843924014993 -0.53044503731746317 0 -0.53044503731746317 -0.78230907576823938 0 0 0 0 -599.84517121846829 -1771.3434987750697 0 -1771.3434987750697 -1653.7747860049712 0 0 0 0 -1514.3749464843149 -1166.4826767054983 0 -1166.4826767054983 -1212.2869116790826 0 0 0 0 -324.53427986356087 -670.37731767367222 0 -670.37731767367222 -1588.479240795532 0 0 0 0 -511.95522997966577 -793.09722394117853 0 -793.09722394117853 -1007.5104254612088 0 0 0 0 -789.65168493085184 -488.39994595496682 0 -488.39994595496682 -933.33670015769894 0 0 0 0 -724.42778347356216 -570.53968673442432 0 -570.53968673442432 -844.50444671268633 0 0 0 0 -1197.0429265833004 -863.77055475300949 0 -863.77055475300949 -940.53470869894954 0 0 0 0 -1010.0753242950996 -1458.5887808352709 0 -1458.5887808352709 -1141.7700771900709 0 0 0 0 -663.47009580853592 -735.34108716586707 0 -735.34108716586707 -914.38363437764929 0 0 0 0 -92.050826676935685 -716.82576512689411 0 -716.82576512689411 -1094.6481047039561 0 0 0 0 -349.95409470894811 -1413.1731939165038 0 -1413.1731939165038 -1177.9218734005626 0 0 0 0 95.564892294290985 -936.80647310563654 0 -936.80647310563654 -2018.2076259399983 0 0 0 0 -353.79151816886178 -352.01340106232419 0 -352.01340106232419 -32.264089387928834 0 0 0 0 -406.17421044930188 -566.29142492082065 0 -566.29142492082065 -185.52025026472984 0 0 0 0 3.7826956651821817 2.0379460916969094 0 2.0379460916969094 -8.4275787183523221 0 0 0 0 -42.229531312801555 53.561492274702687 0 53.561492274702687 133.6391060705937 0 0 0 0 -94.526410610498715 -243.17311202407291 0 -243.17311202407291 -344.37599049750861 0 0 0 0 -198.67987003618691 -37.561192808367196 0 -37.561192808367196 50.464181205796194 0 0 0 0 15.852807158231371 -184.36042980712955 0 -184.36042980712955 -430.40121886826819 0 0 0 0 -21.888739266360062 -183.98456677656213 0 -183.98456677656213 -428.43988750340213 0 0 0 0 -273.43600897103897 -123.31434396492841 0 -123.31434396492841 213.2514853955654 0 0 0 0 78.397930875921375 -83.263972393351452 0 -83.263972393351452 24.289693055338731 0 0 0 0 46.55735438920965 -118.9068539335276 0 -118.9068539335276 120.4408814533017 0 0 0 0 -103.39167617206022 -79.359405101393349 0 -79.359405101393349 242.45470897189807 0 0 0 0 281.23396554007104 -315.62028482758615 0 -315.62028482758615 149.48487807924903 0 0 0 0 95.865420103658835 -137.84693937218981 0 -137.84693937218981 82.011046793100832 0 0 0 0 64.409597354404042 -73.933587762227859 0 -73.933587762227859 20.21243870791649 0 0 0 0 96.89180602837223 -110.34500389884488 0 -110.34500389884488 2.6788531863276148 0 0 0 0 62.176025421785425 42.732948060073795 0 42.732948060073795 164.44124266380095 0 0 0 0 252.07862186057719 -35.165494321336155 0 -35.165494321336155 65.941395408808603 0 0 0 0 16.383195893720469 -17.862249247826583 0 -17.862249247826583 12.812746366639203 0 0 0 0 64.012004608397547 -109.71624631334271 0 -109.71624631334271 161.2775498322153 0 0 0 0 77.169926041258805 -84.159236833394971 0 -84.159236833394971 82.526672759428038 0 0 0 0 57.065707529205611 -57.331341198078007 0 -57.331341198078007 46.851478410026175 0 0 0 0 -46.951899897016119 151.4916085992736 0 151.4916085992736 -402.46949500970368 0 0 0 0 3.5814957413121391 -1.499145652101447 0 -1.499145652101447 -3.9213189185022088 0 0 0 0 62.794441293030246 -62.214029050365838 0 -62.214029050365838 2.0208439912125158 0 0 0 0 5.5171867232020588 -26.670243723877377 0 -26.670243723877377 6.2231651704481692 0 0 0 0 46.976673542463686 -103.70044643116853 0 -103.70044643116853 66.152922167559154 0 0 0 0 62.602267924296029 -102.30217487853952 0 -102.30217487853952 64.84647225507797 0 0 0 0 102.40624421782559 -128.58924379714881 0 -128.58924379714881 50.373734856722876 0 0 0 0 67.358460073388414 -105.42648080470099 0 -105.42648080470099 49.136132824409287 0 0 0 0 3.4830591767768908 8.4719825149892074 0 8.4719825149892074 -14.428580619120041 0 0 0 0 -27.652194475194847 -248.02763607308589 0 -248.02763607308589 -94.464478459616657 0 0 0 0 133.3723239977262 -115.41433372834581 0 -115.41433372834581 12.150994292635005 0 0 0 0 95.096509606475593 -92.173985797679052 0 -92.173985797679052 15.65799818051164 0 0 0 0 102.53058546921238 -103.73910221821279 0 -103.73910221821279 7.5341560198921798 0 0 0 0 41.424787740979411 -49.223704170466135 0 -49.223704170466135 -50.454137154152079 0 0 0 0 39.215689986184771 -170.30677590402775 0 -170.30677590402775 -263.02143548883032 0 0 0 0 46.458829121576855 -111.57832313467225 0 -111.57832313467225 -74.324918677797541 0 0 0 0 241.36311916049453 30.128601085321861 0 30.128601085321861 -121.95350793894613 0 0 0 0 67.331726386706578 -67.590105055365711 0 -67.590105055365711 1.4390351538895629 0 0 0 0 183.83764049324236 -77.90792794781737 0 -77.90792794781737 -324.07986915489892 0 0 0 0 144.96876407566015 -66.054662456474034 0 -66.054662456474034 -318.76069696183549 0 0 0 0 142.79909385108112 -54.489294293958665 0 -54.489294293958665 -370.0935965749668 0 0 0 0 9.9486760802679015 -10.474922515844867 0 -10.474922515844867 6.7679203307887974 0 0 0 0 48.108047369933047 45.328183185774833 0 45.328183185774833 -255.28073786656023 0 0 0 0 309.49668569825917 -55.211472474788025 0 -55.211472474788025 -287.61912169883726 0 0 0 0 31.192776915275317 -82.305823127855547 0 -82.305823127855547 -9.3626472944743 0 0 0 0 137.20358241639042 34.547586600761861 0 34.547586600761861 -333.17393107856333 0 0 0 0 105.85469672503677 -7.551308111200342 0 -7.551308111200342 -272.44461217632488 0 0 0 0 226.42418088843078 37.188442107079027 0 37.188442107079027 -624.50270377605921 0 0 0 0 278.81047376363131 -76.187172965452191 0 -76.187172965452191 -424.84759716576082 0 0 0 0 258.60110960455586 -115.41102658621094 0 -115.41102658621094 -312.5206658890238 0 0 0 0 95.426306684399606 -360.63426015908772 0 -360.63426015908772 -506.28372444942943 0 0 0 0 488.90667542455321 -420.57732408244919 0 -420.57732408244919 -668.42013316249358 0 0 0 0 605.02844712463411 -379.30001430516131 0 -379.30001430516131 -689.27688095744088 0 0 0 0 633.03069398803564 -29.895795090829779 0 -29.895795090829779 -712.27667348960676 0 0 0 0 240.48022067619149 26.747785001269222 0 26.747785001269222 -456.98283197802084 0 0 0 0 198.21359863077669 -113.43538116642594 0 -113.43538116642594 -920.68915627810202 0 0 0 0 -8.2259503670065897 197.19640424544923 0 197.19640424544923 -648.06601646897616 0 0 0 0 -486.85056670578342 190.94300892394676 0 190.94300892394676 -832.87990617878677 0 0 0 0 31.006941011120944 124.26724442266277 0 124.26724442266277 -1222.7225054015871 0 0 0 0 1.1300000476912828 -45.014976980106439 0 -45.014976980106439 -816.93021663915715 0 0 0 0 60.319792032321857 223.15102425179793 0 223.15102425179793 -759.61291145064752 0 0 0 0 -131.13144362300227 -7.70834410272073 0 -7.70834410272073 -800.09654246558785 0 0 0 0 -53.440182671513412 286.10602893674331 0 286.10602893674331 -327.45740843063686 0 0 0 0 -9.8229589885668247 257.11938968926552 0 257.11938968926552 -525.35528130218154 0 0 0 0 -27.542997463046049 221.76318091349094 0 221.76318091349094 -514.53135744840256 0 0 0 0 214.90805445885417 50.359199977996468 0 50.359199977996468 -529.68997593273525 0 0 0 0 113.48096697791516 214.84096332038462 0 214.84096332038462 -681.15173353429418 0 0 0 0 468.0640852523502 -94.778673362336121 0 -94.778673362336121 -468.81824192583736 0 0 0 0 -2.9310524050233653 -421.18035830140434 0 -421.18035830140434 -286.93396717649011 0 0 0 0 420.93828004004172 -222.67388420845964 0 -222.67388420845964 -219.60215229171445 0 0 0 0 0.46078128111426508 5.1866411081913668 0 5.1866411081913668 1.6026705586458121 0 0 0 0 21.018022267395281 -74.50931446182949 0 -74.50931446182949 -253.14371035751537 0 0 0 0 76.724917101935716 -85.267060567792214 0 -85.267060567792214 169.76967164863163 0 0 0 0 402.56185163998452 -305.22678116058705 0 -305.22678116058705 26.969244655483635 0 0 0 0 19.943067258355953 -40.125615938449577 0 -40.125615938449577 45.339076390837533 0 0 0 0 459.95310570206493 -163.13067307196616 0 -163.13067307196616 -150.33728785292624 0 0 0 0 -206.62970989584574 -206.02496454200445 0 -206.02496454200445 312.76526631384331 0 0 0 0 21.926245932941193 -61.89817330828636 0 -61.89817330828636 33.266689291639693 0 0 0 0 -68.241019234294072 -326.85005568379711 0 -326.85005568379711 -209.1882499698695 0 0 0 0 31.80754886486276 -72.942245388082966 0 -72.942245388082966 106.42110454391502 0 0 0 0 77.071530255125253 -40.741084486930049 0 -40.741084486930049 -89.065593941799307 0 0 0 0 25.390941355974064 -201.15760075040453 0 -201.15760075040453 129.95568621748498 0 0 0 0 104.53429983073875 -185.30448072256695 0 -185.30448072256695 -510.87000191709376 0 0 0 0 49.02983911899355 41.035989832220366 0 41.035989832220366 -345.44016925885808 0 0 0 0 39.851849692044198 7.7635207560233539 0 7.7635207560233539 -148.46078170524561 0 0 0 0 96.167014008421347 -324.68303093965415 0 -324.68303093965415 44.246338062745053 0 0 0 0 -583.21637900386122 -880.74210360229335 0 -880.74210360229335 -392.46472507764702 0 0 0 0 -517.29470697567945 -1550.56340668949 0 -1550.56340668949 -802.58794875803869 0 0 0 0 703.56596223864472 -872.10303778972593 0 -872.10303778972593 -872.12627921921376 0 0 0 0 -4.0802938682133174 -1.9046984003851435 0 -1.9046984003851435 10.133983708168898 0 0 0 0 -38.823573276175011 349.41004538073321 0 349.41004538073321 -430.00106576456164 0 0 0 0 -589.62340782524734 -513.3781079042601 0 -513.3781079042601 984.08185026085994 0 0 0 0 -65.793016018418712 75.068816909901216 0 75.068816909901216 -90.385750268033007 0 0 0 0 -85.187812072307679 -265.76762134895444 0 -265.76762134895444 279.35182013158919 0 0 0 0 28.639802401713695 -46.088809200862002 0 -46.088809200862002 78.81188229655794 0 0 0 0 19.756936889292128 -40.750121304774936 0 -40.750121304774936 42.265452489321035 0 0 0 0 456.03759441827424 -15.873404741832928 0 -15.873404741832928 54.79046873927291 0 0 0 0 777.6608278261192 164.90621145126352 0 164.90621145126352 -98.822790051148331 0 0 0 0 495.14286683013779 -54.779447833025188 0 -54.779447833025188 -2.9235359985905234 0 0 0 0 -139.27229895642813 38.724074709221895 0 38.724074709221895 -77.763934359929408 0 0 0 0 692.19355922775867 162.04608279194508 0 162.04608279194508 96.796423721723841 0 0 0 0 534.02216114415205 -281.41266345115582 0 -281.41266345115582 3.3943661973898998 0 0 0 0 505.2556973792498 30.783127291421351 0 30.783127291421351 102.1818714911351 0 0 0 0 51.257225822395412 -408.61385626784613 0 -408.61385626784613 -120.07368984613277 0 0 0 0 212.98255673370295 107.00482776140416 0 107.00482776140416 -76.361762984968664 0 0 0 0 2180.9831616546144 512.88617495878134 0 512.88617495878134 228.56138250872027 0 0 0 0 1385.0599618662091 -270.86626203209744 0 -270.86626203209744 353.61534689138352 0 0 0 0 1698.3510987982881 -393.72513582049578 0 -393.72513582049578 215.60925472363306 0 0 0 0 1314.5757110921841 287.41742503856949 0 287.41742503856949 236.86247862498567 0 0 0 0 1182.4488897507108 179.38439403513621 0 179.38439403513621 150.26469720526075 0 0 0 0 1058.0870417299793 224.44787780318438 0 224.44787780318438 137.87378973030718 0 0 0 0 1151.3577315041184 -173.25341605387803 0 -173.25341605387803 104.38811326150608 0 0 0 0 959.19157599318714 -156.92194795844262 0 -156.92194795844262 179.43800943187671 0 0 0 0 725.00443874421035 -82.206979228489217 0 -82.206979228489217 107.28722860052949 0 0 0 0 948.38028126490826 11.825990821576852 0 11.825990821576852 58.816061232049833 0 0 0 0 -22.714576651225997 -0.67237845472389779 0 -0.67237845472389779 28.963479414433493 0 0 0 0 23.483647779915657 -39.085142123038452 0 -39.085142123038452 40.419179316288364 0 0 0 0 793.97616020219721 153.67656250656728 0 153.67656250656728 51.077585447084857 0 0 0 0 -1767.1424364655904 -1382.9144093441646 0 -1382.9144093441646 8.1186240228489623 0 0 0 0 -210.49437736938125 -273.00814170224476 0 -273.00814170224476 374.43492999236332 0 0 0 0 2.9251503873667986 -23.58753372016519 0 -23.58753372016519 43.782631754067836 0 0 0 0 778.04392298296443 152.03977801944711 0 152.03977801944711 119.46862584908376 0 0 0 0 -178.76673306163866 -61.998381308549142 0 -61.998381308549142 -94.52039709885139 0 0 0 0 -1205.9800895936642 -477.46451845834963 0 -477.46451845834963 -553.21567368695105 0 0 0 0 677.16103940090397 1022.4117845945293 0 1022.4117845945293 721.26670369203202 0 0 0 0 28.800167759053451 -50.288136892256432 0 -50.288136892256432 49.029307920914221 0 0 0 0 -24.20893302801845 6.1241260912704405 0 6.1241260912704405 11.621626241305762 0 0 0 0 -1789.8241307921999 -304.90011386980768 0 -304.90011386980768 -427.12124508866691 0 0 0 0 -1298.8088182578649 -516.38317632347753 0 -516.38317632347753 -374.66147745371563 0 0 0 0 -1121.8071686687908 -309.63891190641152 0 -309.63891190641152 1070.1390671986155 0 0 0 0 -1088.9763990120919 -597.9175064937881 0 -597.9175064937881 -430.5476984209381 0 0 0 0 -426.54700542068167 -730.0549791266094 0 -730.0549791266094 -7.1734615040477365 0 0 0 0 -1673.555840625741 -581.35201293255432 0 -581.35201293255432 189.98823876475217 0 0 0 0 -58.92745921358437 -828.13559561986767 0 -828.13559561986767 -1249.5419367263676 0 0 0 0 -73.813857378606372 -794.84266490941991 0 -794.84266490941991 -358.41885344812181 0 0 0 0 1146.8644601651758 -1506.1738440472982 0 -1506.1738440472982 -27.625371425849153 0 0 0 0 -419.62811380611652 -844.85342332620667 0 -844.85342332620667 1884.9336459608021 0 0 0 0 -35.563557356425008 37.090383063670743 0 37.090383063670743 57.860913626282127 0 0 0 0 263.1602556502703 747.74285046300429 0 747.74285046300429 1305.6874422452092 0 0 0 0 3.6672759721310371 -10.669434758810908 0 -10.669434758810908 27.709429819017942 0 0 0 0 12.681875939729622 -31.138074666566041 0 -31.138074666566041 79.117313851127903 0 0 0 0 -424.95744446297977 112.03424769317644 0 112.03424769317644 340.926643265655 0 0 0 0 -760.9863552216375 -85.98825822757135 0 -85.98825822757135 374.66987971763592 0 0 0 0 -452.52286109147099 -71.51981504104333 0 -71.51981504104333 369.83808624133053 0 0 0 0 -645.38387313475687 110.63968115398166 0 110.63968115398166 355.95409134809597 0 0 0 0 3.0382294338971505 -20.208449060460307 0 -20.208449060460307 43.895317433462992 0 0 0 0 -880.12842263601488 105.68177542700141 0 105.68177542700141 76.238580998950056 0 0 0 0 -2105.2209537421768 -646.55283158223756 0 -646.55283158223756 -69.852671516913688 0 0 0 0 -1453.8010762438789 -87.370392300566891 0 -87.370392300566891 364.30971886702901 0 0 0 0 -1317.5122912265142 -595.53574031322205 0 -595.53574031322205 101.24741000981885 0 0 0 0 -1944.2243821284719 -723.05752555553045 0 -723.05752555553045 -116.990526806665 0 0 0 0 -1261.4719470804594 -514.21694958617809 0 -514.21694958617809 -499.70418844628148 0 0 0 0 -1368.3106477707988 23.082100992578489 0 23.082100992578489 -153.08943070756504 0 0 0 0 -1258.8509694150052 -284.55430129635351 0 -284.55430129635351 516.62063186484738 0 0 0 0 -468.58677547369734 -651.1324797731213 0 -651.1324797731213 1006.665495257228 0 0 0 0 -946.45440703480563 -1372.3581662320412 0 -1372.3581662320412 1336.3015901535982 0 0 0 0 -1040.6797229104559 -121.56257937211194 0 -121.56257937211194 601.20757154846797 0 0 0 0 1.0426081171778705 -4.4157371363811535 0 -4.4157371363811535 19.355268506332493 0 0 0 0 -2108.3329123961739 -639.61222261132207 0 -639.61222261132207 878.43304901046213 0 0 0 0 3872.134479854547 -899.38625253222563 0 -899.38625253222563 -184.80364770276356 0 0 0 0 2993.0977448053018 389.05073758523213 0 389.05073758523213 181.32034119707532 0 0 0 0 1288.4629895460967 -1804.6405722629861 0 -1804.6405722629861 1024.9055833611055 0 0 0 0 398.34158082856447 536.60634297366778 0 536.60634297366778 1448.2403504827234 0 0 0 0 1336.2062999653572 -2382.4886746064731 0 -2382.4886746064731 75.035380753935897 0 0 0 0 3913.3296339759327 -710.49783696922532 0 -710.49783696922532 27.316412446962204 0 0 0 0 -167.16229349888454 124.84087050999369 0 124.84087050999369 219.0167120268452 0 0 0 0 -11.525641249568693 -3.9223739824672634 0 -3.9223739824672634 18.774711673330842 0 0 0 0 1125.282483550327 -723.42776647141727 0 -723.42776647141727 1236.5974398523977 0 0 0 0 2629.9790281865862 165.64893838413991 0 165.64893838413991 179.1826406750406 0 0 0 0 2284.2961905485136 -885.39076759314776 0 -885.39076759314776 519.36703616753221 0 0 0 0 -75.202784798148059 -1408.8432089375128 0 -1408.8432089375128 -298.55400933974306 0 0 0 0 -95.325743595338281 -233.6021698299046 0 -233.6021698299046 -11.807899313032976 0 0 0 0 -492.17734275735893 -222.80561177336494 0 -222.80561177336494 -2171.9349774673028 0 0 0 0 -346.54950741813627 -675.44108710084765 0 -675.44108710084765 -787.84447672686656 0 0 0 0 413.26702169984128 -365.67875187713798 0 -365.67875187713798 -618.37862892210978 0 0 0 0 1849.2673825250677 -384.22801420503674 0 -384.22801420503674 -682.46540197075319 0 0 0 0 827.11388272097065 390.85618246557715 0 390.85618246557715 727.75338138343068 0 0 0 0 246.79011604564585 -1090.1483616621117 0 -1090.1483616621117 -170.89270448542084 0 0 0 0 384.10829580415702 -1507.5692222087964 0 -1507.5692222087964 1065.8061840021574 0 0 0 0 1294.6258504510388 -887.33382863283259 0 -887.33382863283259 -389.67690988814866 0 0 0 0 -291.53355686389114 -553.17428755520086 0 -553.17428755520086 -372.01162868790607 0 0 0 0 -96.035467592828354 -1198.0297331648835 0 -1198.0297331648835 -24.194459233243833 0 0 0 0 -102.21553745773753 -1050.190517018779 0 -1050.190517018779 83.205380201921798 0 0 0 0 -613.05884920695826 -1286.4444280259486 0 -1286.4444280259486 48.816206949544721 0 0 0 0 -621.14473375641501 -1026.7996776996515 0 -1026.7996776996515 151.13943070647656 0 0 0 0 -497.30718893933954 -979.46835801887937 0 -979.46835801887937 179.65516709267104 0 0 0 0 -572.46947712614929 -1084.2784914054937 0 -1084.2784914054937 200.69064613937371 0 0 0 0 -496.294932772631 -623.63119752529019 0 -623.63119752529019 430.1812375516165 0 0 0 0 -315.08706737083412 -605.56559393376665 0 -605.56559393376665 431.66889048127632 0 0 0 0 244.75701329989897 -717.81518982214766 0 -717.81518982214766 97.485668416666158 0 0 0 0 -70.081001497305806 -932.26021525608303 0 -932.26021525608303 19.724544438839075 0 0 0 0 -9.652050395601691 -814.25465698659536 0 -814.25465698659536 235.59971262908221 0 0 0 0 293.7366193553753 -1077.2937325380481 0 -1077.2937325380481 -31.741521344498324 0 0 0 0 343.56956121144049 -942.29322929198679 0 -942.29322929198679 -418.66925488371635 0 0 0 0 12.255229263653746 -595.9768132199606 0 -595.9768132199606 -140.33948503093416 0 0 0 0 -260.82357437941573 -925.3348836014593 0 -925.3348836014593 -74.401252464624122 0 0 0 0 57.496550227488115 -771.1954039846969 0 -771.1954039846969 372.15671518232557 0 0 0 0 399.41301294518144 -376.53826465480961 0 -376.53826465480961 506.26789258501958 0 0 0 0 -72.712488188104544 -894.0303146586557 0 -894.0303146586557 695.1821658245608 0 0 0 0 -457.09372792233989 8.0300399194602505 0 8.0300399194602505 315.53050304422504 0 0 0 0 -68.975795460523599 -42.177958585080319 0 -42.177958585080319 -22.997418440642747 0 0 0 0 -203.48855430164986 -281.40761030033173 0 -281.40761030033173 396.38972948247829 0 0 0 0 -54.848603063800681 -35.292478430982527 0 -35.292478430982527 -15.748610604386442 0 0 0 0 560.19865055225273 -426.88053818667686 0 -426.88053818667686 670.14021310961107 0 0 0 0 127.68336866610116 -857.89745257576578 0 -857.89745257576578 1470.216623125787 0 0 0 0 65.927395725764654 -4.818721224226465 0 -4.818721224226465 1269.8163587808085 0 0 0 0 -723.90353582073294 -385.35614685645851 0 -385.35614685645851 1109.7865794981917 0 0 0 0 146.19410192517171 -596.75808025995502 0 -596.75808025995502 636.61807373659394 0 0 0 0 -125.91060362886492 -404.66701065110828 0 -404.66701065110828 643.42409974936163 0 0 0 0 21.195555627666181 61.389279975359386 0 61.389279975359386 -471.39888502538088 0 0 0 0 121.02785566802777 -119.81823043279292 0 -119.81823043279292 -281.41072896734113 0 0 0 0 606.4542851728329 212.91841923180618 0 212.91841923180618 -164.02777297733701 0 0 0 0 6.1166889104524103 -5.9743600656121885 0 -5.9743600656121885 -10.293519018257712 0 0 0 0 1018.6997383217386 146.47045431548031 0 146.47045431548031 -191.05442291157669 0 0 0 0 705.48968454421265 -57.806786335815559 0 -57.806786335815559 104.25785047982936 0 0 0 0 1004.4937914948241 -138.22112498234492 0 -138.22112498234492 -8.14645778312115 0 0 0 0 -62.954042534533073 -317.32146972566261 0 -317.32146972566261 -8.1626979841967113 0 0 0 0 -216.14169412323827 -551.98038130704117 0 -551.98038130704117 149.83044114850054 0 0 0 0 -229.02284675550618 -585.13834845380916 0 -585.13834845380916 87.451060465537012 0 0 0 0 282.11337122355326 -977.14778536115045 0 -977.14778536115045 388.09755170985591 0 0 0 0 -385.8374272002111 -695.39067324453208 0 -695.39067324453208 579.7509434131789 0 0 0 0 -11.153717200128511 -113.94783887897771 0 -113.94783887897771 -65.32280494070271 0 0 0 0 -54.781796692972421 -212.67739154066658 0 -212.67739154066658 -266.53546441806247 0 0 0 0 -48.329259759979323 -253.63547955118702 0 -253.63547955118702 -384.41202210193296 0 0 0 0 114.97638077178817 -714.27696067571196 0 -714.27696067571196 -255.09309459823999 0 0 0 0 -148.96446086711512 -271.58932920105872 0 -271.58932920105872 -293.64757148074568 0 0 0 0 -1471.3755803137374 -954.83316087616913 0 -954.83316087616913 35.172441512826481 0 0 0 0 6.7952541743973143 -68.853098686232215 0 -68.853098686232215 103.42311620998402 0 0 0 0 -192.21437152390718 -402.79110555044463 0 -402.79110555044463 -12.607222478261974 0 0 0 0 -674.35985292702935 -224.63404451149836 0 -224.63404451149836 353.8252862039808 0 0 0 0 -678.44293956567617 -1037.733691233585 0 -1037.733691233585 -314.95369936423958 0 0 0 0 -643.35604328043337 -507.12669974369055 0 -507.12669974369055 -426.38556738860279 0 0 0 0 -658.08836705196518 -440.46923710893316 0 -440.46923710893316 387.69878666085424 0 0 0 0 -651.68429423719863 -298.51237865432995 0 -298.51237865432995 -39.524353372253245 0 0 0 0 -730.16724768409767 -247.81354042861494 0 -247.81354042861494 -39.246527679119026 0 0 0 0 -958.13244567900983 -468.2954286294771 0 -468.2954286294771 25.98915173500427 0 0 0 0 -625.20997878209164 -426.28797767750802 0 -426.28797767750802 -2.5987092193536228 0 0 0 0 -72.119014442769895 -54.739690143945523 0 -54.739690143945523 -8.2577938981559385 0 0 0 0 -768.08451701832701 -821.17885039531939 0 -821.17885039531939 -143.20002237494919 0 0 0 0 -1057.1268378312234 -329.00989212353306 0 -329.00989212353306 -12.15432078284357 0 0 0 0 -17.205636183076422 -380.77530525176553 0 -380.77530525176553 126.37375682266429 0 0 0 0 -0.71039312980268221 -30.178004940394402 0 -30.178004940394402 -33.344994521990827 0 0 0 0 367.15389304716518 -212.64903780984605 0 -212.64903780984605 12.363341396849137 0 0 0 0 -605.36415976183252 -543.1589286976432 0 -543.1589286976432 -41.568943045160268 0 0 0 0 -201.55956059075834 -593.09122748217487 0 -593.09122748217487 -188.1606120862125 0 0 0 0 -1728.0001668065888 -951.88298605017189 0 -951.88298605017189 -219.10106946993619 0 0 0 0 -599.83745533780893 -500.32084200475947 0 -500.32084200475947 -39.34888042655075 0 0 0 0 -652.71672529596981 -465.46945041178697 0 -465.46945041178697 -6.5114887406234629 0 0 0 0 -394.86590805649757 -565.17181707243435 0 -565.17181707243435 -82.606461299437797 0 0 0 0 -141.24623788107419 -421.37236945386394 0 -421.37236945386394 -128.18733818581677 0 0 0 0 -356.65425720543681 -427.2949284297938 0 -427.2949284297938 -52.796596258296631 0 0 0 0 -291.56773585558403 -446.3239609470329 0 -446.3239609470329 -95.664712718455121 0 0 0 0 -297.50571558467345 -331.80747736564081 0 -331.80747736564081 -25.449082772989641 0 0 0 0 -157.71589861784014 -280.22942292697553 0 -280.22942292697553 6.3361173944140319 0 0 0 0 30.858842917252332 -234.19812611257657 0 -234.19812611257657 -7.7959925774557632 0 0 0 0 -112.99004737782525 -310.8413392866205 0 -310.8413392866205 -19.325004179874668 0 0 0 0 142.08887881486589 -276.91824927914422 0 -276.91824927914422 46.708305999811273 0 0 0 0 -118.96816369231965 -344.00995119909931 0 -344.00995119909931 37.508020070323255 0 0 0 0 -498.00369478702487 -420.21704392401443 0 -420.21704392401443 -51.896949467222726 0 0 0 0 -473.88758723945284 -442.5508673629447 0 -442.5508673629447 -54.178481608687434 0 0 0 0 -465.18385648028925 -424.43513072662608 0 -424.43513072662608 -39.705475361144636 0 0 0 0 -381.96104965994891 -379.6351858323178 0 -379.6351858323178 -51.539639329854936 0 0 0 0 -446.81505304712846 -463.17345601784473 0 -463.17345601784473 -70.582511528016767 0 0 0 0 -502.94389635390326 -474.53270593540219 0 -474.53270593540219 -36.419086914043874 0 0 0 0 -518.1320223999719 -439.9033319186492 0 -439.9033319186492 -60.667539844245766 0 0 0 0 -494.79023364438035 -472.07310920409509 0 -472.07310920409509 -79.166770741365326 0 0 0 0 -526.80555834002007 -464.97543800608764 0 -464.97543800608764 -129.85799489240162 0 0 0 0 -583.88719231357391 -497.23063126394118 0 -497.23063126394118 -73.735421737139404 0 0 0 0 -675.55343836380052 -403.62802590814681 0 -403.62802590814681 -12.797794866928598 0 0 0 0 -602.89164990228528 -391.54483667120803 0 -391.54483667120803 -85.942146731526009 0 0 0 0 -678.00359544964999 -310.17641668915996 0 -310.17641668915996 -44.553267546740244 0 0 0 0 -242.00928404446313 -165.55053204863361 0 -165.55053204863361 -179.05507781606138 0 0 0 0 -519.11386631244386 -587.86255940731098 0 -587.86255940731098 -671.09285464737331 0 0 0 0 -274.23940807849067 -268.77847724249295 0 -268.77847724249295 314.2941081426543 0 0 0 0 -3.994407471459823 -4.4635811444553894 0 -4.4635811444553894 2.8882602540323035 0 0 0 0 -451.41552929509635 -522.67123284087575 0 -522.67123284087575 0.0877745871737588 0 0 0 0 -560.7061982394298 -468.68820986027276 0 -468.68820986027276 -47.015841349493712 0 0 0 0 -518.08234009737498 -465.49792637553765 0 -465.49792637553765 -51.119105738500366 0 0 0 0 -471.74501242810948 -478.91409199676127 0 -478.91409199676127 -47.296142929495545 0 0 0 0 -534.43013894032265 -497.21009895234238 0 -497.21009895234238 -0.052132526048808359 0 0 0 0 -578.21793008811801 -469.92204153531929 0 -469.92204153531929 -13.349344468791969 0 0 0 0 -519.47682695322874 -469.45117902493621 0 -469.45117902493621 -42.011523507593665 0 0 0 0 -3.868744835007945 -5.2791180222805849 0 -5.2791180222805849 2.2223147956837863 0 0 0 0 -647.26425199363075 -956.0877127503918 0 -956.0877127503918 -1214.4535607963044 0 0 0 0 -1096.5228153028147 -2243.4020228438094 0 -2243.4020228438094 -971.25542132732517 0 0 0 0 -1722.5778278465368 -1732.8084042193805 0 -1732.8084042193805 -1065.5562124569551 0 0 0 0 -1190.3499790847854 -1756.9237398839323 0 -1756.9237398839323 -1776.6986442951602 0 0 0 0 -596.61837239660235 -755.28929201286519 0 -755.28929201286519 -1995.2212222316157 0 0 0 0 -410.9878360492221 -896.63395006714563 0 -896.63395006714563 -1504.6223111715226 0 0 0 0 -21.912012647083841 -15.322413162554312 0 -15.322413162554312 -7.6365380347732525 0 0 0 0 -1201.1647071283842 -649.45734016202914 0 -649.45734016202914 1917.2566665438353 0 0 0 0 -447.2680829057681 -1422.409140148935 0 -1422.409140148935 -2600.1397391385399 0 0 0 0 61.441453915431339 -312.08170380264346 0 -312.08170380264346 -639.65804363126517 0 0 0 0 169.20659339478152 319.03209132800475 0 319.03209132800475 -225.55628000677098 0 0 0 0 91.058763698147231 -175.20128485310488 0 -175.20128485310488 -175.70874823060876 0 0 0 0 -129.03249616243556 8.7262410254043061 0 8.7262410254043061 -202.14659694354668 0 0 0 0 -5.125409204603244 -6.2481406637709824 0 -6.2481406637709824 3.5665232104263112 0 0 0 0 -207.52071344907017 -211.93472272362851 0 -211.93472272362851 -479.19576859383233 0 0 0 0 -412.36978179181824 -548.25252762742093 0 -548.25252762742093 -342.45585022470914 0 0 0 0 -419.93443467401266 -540.46360939927035 0 -540.46360939927035 -326.88660733937286 0 0 0 0 -248.07102651400419 -465.67773440896417 0 -465.67773440896417 -303.94524161401205 0 0 0 0 -534.56173115887213 -491.98979875679652 0 -491.98979875679652 -0.32950560183962807 0 0 0 0 -738.9339855698272 -771.44269673068629 0 -771.44269673068629 -321.21998497760796 0 0 0 0 -938.48920676136549 -657.14629955079727 0 -657.14629955079727 0.43327973104896955 0 0 0 0 -1046.6670869060963 -808.29580701269151 0 -808.29580701269151 71.081848447589437 0 0 0 0 -741.93575949577644 -1110.1725848564238 0 -1110.1725848564238 -1300.4938133589167 0 0 0 0 -776.51960625586707 72.114466255919069 0 72.114466255919069 467.65702927477832 0 0 0 0 -1595.3504899715902 -615.41101302438119 0 -615.41101302438119 720.16008023939503 0 0 0 0 -914.12448437596322 -644.43598770706012 0 -644.43598770706012 1.5358917124685831 0 0 0 0 163.91876377437438 -476.7996976606446 0 -476.7996976606446 0.012072617786806008 0 0 0 0 187.72273731113819 -354.96310679147791 0 -354.96310679147791 418.77701402305684 0 0 0 0 -199.96611931695224 -300.27679843857186 0 -300.27679843857186 703.356695661103 0 0 0 0 -10.429101230187428 -9.6260136695663618 0 -9.6260136695663618 -6.1685373374579342 0 0 0 0 -611.75069052507479 -317.7878160585351 0 -317.7878160585351 441.70247498220124 0 0 0 0 223.86635540133102 -242.49558440454712 0 -242.49558440454712 0.3606963364436524 0 0 0 0 -316.53987606263399 236.39449208916631 0 236.39449208916631 196.68785930988088 0 0 0 0 -2.2341728932084024 -4.1140826503745984 0 -4.1140826503745984 -3.9639576544425097 0 0 0 0 -97.016141817337484 4.0402867185985087 0 4.0402867185985087 329.68703210935928 0 0 0 0 42.705205450643007 50.442340895344387 0 50.442340895344387 321.51040808382095 0 0 0 0 547.03452645593279 -382.35414024598867 0 -382.35414024598867 346.72397245376487 0 0 0 0 355.07989954747063 -504.0825741859735 0 -504.0825741859735 453.22241219721036 0 0 0 0 -76.17975125843077 -164.91495192334696 0 -164.91495192334696 563.47207512514433 0 0 0 0 628.55333406292266 -808.27251867718587 0 -808.27251867718587 861.30499856595998 0 0 0 0 818.48591987598411 -487.79638604575302 0 -487.79638604575302 239.23898597239895 0 0 0 0 -96.490248924055777 -80.065096702841402 0 -80.065096702841402 442.99952919800853 0 0 0 0 -536.71541112409614 -1238.2929089598838 0 -1238.2929089598838 851.60162609283361 0 0 0 0 495.69117516068127 45.741142881503038 0 45.741142881503038 -108.12399031949462 0 0 0 0 -0.917720307283723 -5.4714924213132292 0 -5.4714924213132292 -3.8180327216580281 0 0 0 0 -5.0386147956362919 -7.0731404477278659 0 -7.0731404477278659 -5.1892037922926022 0 0 0 0 -849.4066714970777 -2182.5371374614624 0 -2182.5371374614624 -1503.6830907631957 0 0 0 0 -719.15410826102561 247.40318020238919 0 247.40318020238919 369.01516901416471 0 0 0 0 -104.01782676444532 25.901742673266199 0 25.901742673266199 -973.62416962692805 0 0 0 0 -1142.34320945933 -2246.0899806803209 0 -2246.0899806803209 -1190.6996308483285 0 0 0 0 -1894.0156539670552 -1479.4444871793603 0 -1479.4444871793603 1092.2252323465364 0 0 0 0 -741.47367258271697 -530.21836811944377 0 -530.21836811944377 937.37962116260314 0 0 0 0 -464.18428231130383 -437.3148619976273 0 -437.3148619976273 625.67357875839298 0 0 0 0 -1046.9575327227667 -759.87801499674242 0 -759.87801499674242 782.77956371101027 0 0 0 0 -883.49833918224522 -1180.4282907665638 0 -1180.4282907665638 60.190499182877829 0 0 0 0 -658.13576546079821 -875.81465344804019 0 -875.81465344804019 463.39976023015333 0 0 0 0 -524.18801373937094 -1335.2594425677307 0 -1335.2594425677307 126.34979318060505 0 0 0 0 619.65638608495101 -1121.5139037005356 0 -1121.5139037005356 -301.70156370062614 0 0 0 0 -1.8728441218796803 -4.2039156844309673 0 -4.2039156844309673 -2.2653636448249017 0 0 0 0 664.94929317396418 -733.20906700525666 0 -733.20906700525666 579.3948400185327 0 0 0 0 678.3070336932974 -554.39782580754945 0 -554.39782580754945 119.15139522761456 0 0 0 0 511.328736855241 -880.87560042178666 0 -880.87560042178666 -118.41237577004358 0 0 0 0 114.65286511745217 -841.37579457151878 0 -841.37579457151878 -17.778247948197532 0 0 0 0 -474.30660693160826 -1237.2878961246897 0 -1237.2878961246897 114.65203548215504 0 0 0 0 -152.29470554900763 -788.93990758147265 0 -788.93990758147265 107.39234410462086 0 0 0 0 132.37953331011886 -897.49234526786313 0 -897.49234526786313 148.35708781832363 0 0 0 0 -228.72094210095293 -632.71219911671506 0 -632.71219911671506 319.01700809539761 0 0 0 0 350.03522351185893 -700.37873549465439 0 -700.37873549465439 -54.170118677371647 0 0 0 0 99.000744951636079 -617.86252193103428 0 -617.86252193103428 -67.311564700299641 0 0 0 0 57.776083879351972 -513.56236463566438 0 -513.56236463566438 103.92450320314674 0 0 0 0 69.749256764451275 -629.72374331546962 0 -629.72374331546962 50.812857703262125 0 0 0 0 -459.5379905713562 -506.70358264898823 0 -506.70358264898823 257.81376224825362 0 0 0 0 -515.89494126722457 -546.71958737606474 0 -546.71958737606474 469.76406860363204 0 0 0 0 -459.66822929329282 -592.44825305463746 0 -592.44825305463746 451.43618818414689 0 0 0 0 -678.49135920011213 -604.92275826059631 0 -604.92275826059631 511.82536526366312 0 0 0 0 -558.0070759379123 -781.25979004925466 0 -781.25979004925466 366.237019540451 0 0 0 0 33.7730942355347 49.571091260717367 0 49.571091260717367 24.370051562495064 0 0 0 0 -4.2019690289711225 -0.28544885818028831 0 -0.28544885818028831 1.0444824754435444 0 0 0 0 -221.14418190794822 -714.86463204176107 0 -714.86463204176107 -212.32959354821651 0 0 0 0 -22.491053910243863 -20.579792165412073 0 -20.579792165412073 -5.0024023908772506 0 0 0 0 66.02040250403661 -9.4213747762551066 0 -9.4213747762551066 17.629612226272002 0 0 0 0 4.368060337237992 -23.561546513060875 0 -23.561546513060875 15.010695460198576 0 0 0 0 -9.4949345221418611 -1.9576758501691813 0 -1.9576758501691813 7.6749195319364958 0 0 0 0 -1717.3939655842933 -259.56625785897631 0 -259.56625785897631 -263.32398949511116 0 0 0 0 0.19949977107144434 -1.3940588740856157 0 -1.3940588740856157 0.54329522119365947 0 0 0 0 194.11984096269225 -719.51896085645421 0 -719.51896085645421 -864.86643505958818 0 0 0 0 -214.96859166415379 -47.78919683850836 0 -47.78919683850836 -803.74517931399168 0 0 0 0 -36.169077339385694 -2.5912567014020169 0 -2.5912567014020169 -44.289620449242648 0 0 0 0 11.87393428543146 -34.014969646559621 0 -34.014969646559621 22.345518268222804 0 0 0 0 0.0249721935542766 -42.388278684935358 0 -42.388278684935358 18.320015948862419 0 0 0 0 6.4231957151805545 -5.4451235427950451 0 -5.4451235427950451 -9.265215069433907 0 0 0 0 -29.053242321828293 -34.081209089024924 0 -34.081209089024924 16.350260006583994 0 0 0 0 2.8053615176695246 -14.484254911917787 0 -14.484254911917787 16.388866869189172 0 0 0 0 11.165353405954612 -14.863326500965115 0 -14.863326500965115 11.091731072347955 0 0 0 0 -513.6261511890807 -431.96625193303043 0 -431.96625193303043 -34.441803588109906 0 0 0 0 3.7669127812231054 -9.7002922665048033 0 -9.7002922665048033 9.1508405700581079 0 0 0 0 -1151.6629350248895 -497.44887596758781 0 -497.44887596758781 234.71347371631418 0 0 0 0 -711.27991363527599 -549.62473056722956 0 -549.62473056722956 -395.57903948097373 0 0 0 0 -799.74259230238567 304.58572143867787 0 304.58572143867787 -65.987136527372058 0 0 0 0 -524.48649670093801 -91.190501262099133 0 -91.190501262099133 493.88636213593418 0 0 0 0 756.47102779591478 -550.46117594192037 0 -550.46117594192037 187.77240299191908 0 0 0 0 234.76568650550689 241.00649365919526 0 241.00649365919526 98.891272285283776 0 0 0 0 -16.583312762596371 -10.511597707641828 0 -10.511597707641828 2.9563582903608676 0 0 0 0 917.93265319202328 -419.68052779712889 0 -419.68052779712889 -59.045996181223018 0 0 0 0 25.837883555916161 -4.1656970961086586 0 -4.1656970961086586 -23.371846393469156 0 0 0 0 846.1291638968105 327.69141475623474 0 327.69141475623474 51.395027944701724 0 0 0 0 174.0468613654084 -688.69530356861651 0 -688.69530356861651 241.20590005714621 0 0 0 0 213.01936894119353 -539.48935283601168 0 -539.48935283601168 -58.766782103155492 0 0 0 0 71.415683130529715 -467.55978958915694 0 -467.55978958915694 -66.215774249416427 0 0 0 0 417.88446537653726 -308.89956316609459 0 -308.89956316609459 -79.992591869187891 0 0 0 0 315.31790343874673 -654.52256476084585 0 -654.52256476084585 -114.7011247362243 0 0 0 0 -26.867950241279686 -421.71589163119643 0 -421.71589163119643 -32.191548081027577 0 0 0 0 387.22651028239852 -127.46372138278821 0 -127.46372138278821 -192.89952400707989 0 0 0 0 -17.755154213540902 -55.071627807303315 0 -55.071627807303315 -68.798739334761024 0 0 0 0 163.67323871798362 -627.74370201511192 0 -627.74370201511192 -426.46298829744774 0 0 0 0 1040.1833866145098 -686.71154683956411 0 -686.71154683956411 -442.74454829026945 0 0 0 0 580.03646806772304 -385.9960447365811 0 -385.9960447365811 -465.72090397839202 0 0 0 0 -139.70253740769476 70.683124063230935 0 70.683124063230935 -101.14701635140227 0 0 0 0 738.54531746056637 -283.35446907713776 0 -283.35446907713776 -85.107529902423266 0 0 0 0 -432.83764124976187 -407.60712170258921 0 -407.60712170258921 169.61188822182885 0 0 0 0 -9.998765442180428 -52.050565816636706 0 -52.050565816636706 -67.124510206038849 0 0 0 0 720.51116864578944 -551.42821130347147 0 -551.42821130347147 -94.496515949958848 0 0 0 0 776.7031280578085 -313.69154725734552 0 -313.69154725734552 -106.59623141735938 0 0 0 0 600.44788102496568 -444.09415720451943 0 -444.09415720451943 -52.082385141315171 0 0 0 0 855.53905118297916 -478.1024602521793 0 -478.1024602521793 64.107131382115767 0 0 0 0 935.42332324684321 -530.58970116627461 0 -530.58970116627461 -29.972191462598857 0 0 0 0 996.37208490806734 -679.10402240972326 0 -679.10402240972326 329.99247544430546 0 0 0 0 -120.04103231438739 -180.82822062662399 0 -180.82822062662399 78.334399097482674 0 0 0 0 855.84474948614343 -236.3118778045573 0 -236.3118778045573 -108.02547108315048 0 0 0 0 1389.3340651256731 -416.3275051980745 0 -416.3275051980745 -91.764482328555459 0 0 0 0 -50.247417242141182 -70.904493770940462 0 -70.904493770940462 52.832189440261573 0 0 0 0 -24.948615381226773 -75.97079436898639 0 -75.97079436898639 -71.20880497842154 0 0 0 0 -54.965718475425092 -62.049566993206099 0 -62.049566993206099 49.187519118015189 0 0 0 0 -36.494439722373045 -8.2923019105664935 0 -8.2923019105664935 91.219548407243565 0 0 0 0 -99.092516330560102 -41.70641920248454 0 -41.70641920248454 257.13476219396398 0 0 0 0 -29.558484663559284 46.674985251680482 0 46.674985251680482 162.1756784611207 0 0 0 0 -27.000115879112556 -16.673645461224964 0 -16.673645461224964 8.4451700601674133 0 0 0 0 3.7734528121172843 -73.723279480836936 0 -73.723279480836936 -14.882328594467253 0 0 0 0 -55.791852896004457 -45.735646801564144 0 -45.735646801564144 2.737467102077062 0 0 0 0 -6.8665898151425608 -62.689111523042811 0 -62.689111523042811 -76.924427047168138 0 0 0 0 -54.362839215722971 -52.554478223938446 0 -52.554478223938446 -15.783640518704132 0 0 0 0 -41.680636520450662 -47.358221757691354 0 -47.358221757691354 -97.050737713652779 0 0 0 0 198.32254133532115 -196.19667747775384 0 -196.19667747775384 92.5491537884227 0 0 0 0 -413.70759876586817 81.535970744545921 0 81.535970744545921 1317.786070022441 0 0 0 0 -186.24932125316536 -304.19947380023223 0 -304.19947380023223 913.90681037536706 0 0 0 0 67.58629626908953 -118.31069788836248 0 -118.31069788836248 22.254717522970168 0 0 0 0 -29.554678098930935 -41.11650513880906 0 -41.11650513880906 -12.140128152404799 0 0 0 0 861.46233748564919 -998.41239625158778 0 -998.41239625158778 709.99310608754604 0 0 0 0 516.84029529250984 -749.71357218956109 0 -749.71357218956109 873.70913530872349 0 0 0 0 986.16280038102286 -762.94627199376555 0 -762.94627199376555 289.50314668667852 0 0 0 0 2067.2849436034594 -652.88176868528535 0 -652.88176868528535 911.56172976121161 0 0 0 0 -95.644881836139575 -50.47207437887846 0 -50.47207437887846 -27.945743847529229 0 0 0 0 1099.463749048411 -201.59258286290424 0 -201.59258286290424 128.62200912038679 0 0 0 0 -13.384622101445078 -53.633164975712688 0 -53.633164975712688 -63.745795664030709 0 0 0 0 1745.7495220341334 -1302.4034090822097 0 -1302.4034090822097 651.78192927030614 0 0 0 0 2162.2445725384077 376.34051502275543 0 376.34051502275543 -394.05909801082453 0 0 0 0 2708.267369372581 -1684.1221341789933 0 -1684.1221341789933 995.75204091704654 0 0 0 0 10.796084960197724 -19.4942258292036 0 -19.4942258292036 -14.942106752899065 0 0 0 0 1146.1838225145966 -908.68121811845049 0 -908.68121811845049 1997.8337601661478 0 0 0 0 2818.7750692990403 -1758.0180226021403 0 -1758.0180226021403 999.7706869810936 0 0 0 0 -14.913327815967772 -12.314115883947906 0 -12.314115883947906 12.325581852466541 0 0 0 0 2630.890669878152 -1766.7023394780845 0 -1766.7023394780845 1062.0702559654019 0 0 0 0 2734.4852031004557 -1790.8276697181573 0 -1790.8276697181573 1054.5136814277212 0 0 0 0 1567.0310946271111 -349.39104493687046 0 -349.39104493687046 914.68620064831339 0 0 0 0 3.0213581445578086 -1.956552818855215 0 -1.956552818855215 -2.2639154537353079 0 0 0 0 1059.898770085143 -1436.6801524455004 0 -1436.6801524455004 774.36695783704636 0 0 0 0 667.22968004651602 -812.92779497011725 0 -812.92779497011725 419.17230935952102 0 0 0 0 1056.0217906988146 -929.81035604168574 0 -929.81035604168574 231.65158344403608 0 0 0 0 1707.1484062984091 -994.03783852597917 0 -994.03783852597917 203.89686838207126 0 0 0 0 1117.517693188116 -751.99015166030586 0 -751.99015166030586 -0.20060246846696828 0 0 0 0 1266.9744458146242 -816.08920467211647 0 -816.08920467211647 15.167886845607427 0 0 0 0 947.36639878060123 -392.27617035781441 0 -392.27617035781441 250.94557096224526 0 0 0 0 370.79321330684979 -889.29582593283703 0 -889.29582593283703 -0.1248825667280471 0 0 0 0 232.26644569398877 -627.40644877553859 0 -627.40644877553859 445.06481434489251 0 0 0 0 299.99390887754265 -459.77978073629856 0 -459.77978073629856 190.49021126807202 0 0 0 0 443.85772358727627 -696.54594665719196 0 -696.54594665719196 450.15809878331493 0 0 0 0 496.74829182975645 -1407.3627721044759 0 -1407.3627721044759 1366.9038338541864 0 0 0 0 848.24597579569718 -808.79494245535807 0 -808.79494245535807 206.96823590109125 0 0 0 0 849.85746391518569 -795.02331557482103 0 -795.02331557482103 166.61941201525042 0 0 0 0 510.07705440335224 -543.45380601134821 0 -543.45380601134821 0.45286019961349666 0 0 0 0 487.45160510126539 -454.40435865813924 0 -454.40435865813924 289.82289914625289 0 0 0 0 470.67471220212929 -360.48691784980838 0 -360.48691784980838 0.25689802554552443 0 0 0 0 232.40706681280096 -462.84137655000086 0 -462.84137655000086 293.29597727970759 0 0 0 0 -15.984600776985872 -57.897962392147747 0 -57.897962392147747 18.517379667959176 0 0 0 0 335.6980621111752 -397.54719312991438 0 -397.54719312991438 156.56672612464172 0 0 0 0 188.98158797894826 -69.040101336471707 0 -69.040101336471707 -206.29341977240983 0 0 0 0 -57.099449312290744 -81.424835932979477 0 -81.424835932979477 28.409334279698669 0 0 0 0 -18.63323137430416 -146.15607964310038 0 -146.15607964310038 399.44384420210554 0 0 0 0 -0.018152625381182119 -3.6043855389758335 0 -3.6043855389758335 1.7608960561203304 0 0 0 0 24.375765107535699 -41.276855595991947 0 -41.276855595991947 0.17503999410074392 0 0 0 0 47.474022276224787 -75.875148909140989 0 -75.875148909140989 50.854636937001487 0 0 0 0 1.5910776231416541 -0.1802530055939684 0 -0.1802530055939684 -1.7683642583280061 0 0 0 0 -134.04998456539624 -6.241257423072966 0 -6.241257423072966 38.525948366572266 0 0 0 0 0.74556242113284554 -2.7951685113927738 0 -2.7951685113927738 -1.9673379223166307 0 0 0 0 -33.99371088051862 -40.132017667282895 0 -40.132017667282895 -4.5320021168913058 0 0 0 0 -25.270644136122428 38.432941678998759 0 38.432941678998759 39.409587569673022 0 0 0 0 125.44219373198575 72.07511410934967 0 72.07511410934967 -93.227658629795769 0 0 0 0 0.033024284670975845 -9.585845095231349 0 -9.585845095231349 -2.6280921379170934 0 0 0 0 -20.471082346153068 -37.985900905873592 0 -37.985900905873592 -38.42835283383954 0 0 0 0 -60.079018815502423 -57.48211141491629 0 -57.48211141491629 -51.626030350122164 0 0 0 0 -22.014450373825952 -201.196558509662 0 -201.196558509662 -121.98084588331403 0 0 0 0 -36.494786728491491 -36.702397700058668 0 -36.702397700058668 -16.816361183747347 0 0 0 0 -10.861312407024343 -45.840804712468525 0 -45.840804712468525 -17.156348162665381 0 0 0 0 -224.17816439269518 -155.72743444153457 0 -155.72743444153457 -63.12283439874227 0 0 0 0 -27.839349664875044 -73.079704721161761 0 -73.079704721161761 60.459963126515504 0 0 0 0 96.380511721690709 -117.70630473953497 0 -117.70630473953497 -11.814075967544341 0 0 0 0 -78.066622609272599 -48.02172210488061 0 -48.02172210488061 40.943234653526815 0 0 0 0 -67.850962423723104 -100.11513572317199 0 -100.11513572317199 35.924179805855601 0 0 0 0 -47.431479561539057 -41.274205635510029 0 -41.274205635510029 -15.438911339782067 0 0 0 0 -2.9803484033473069 -27.035262967678136 0 -27.035262967678136 18.176771640800325 0 0 0 0 34.3795456006618 -102.20153310299247 0 -102.20153310299247 -11.283164935113746 0 0 0 0 69.351441374143405 -314.87420407179161 0 -314.87420407179161 340.57111612399603 0 0 0 0 56.024440388094263 -32.456660767551512 0 -32.456660767551512 -133.60380449211516 0 0 0 0 -2.7544983320522007 -46.991497475441946 0 -46.991497475441946 -28.081757502511735 0 0 0 0 -87.009364342004119 88.025064968329389 0 88.025064968329389 -44.147725624003215 0 0 0 0 -79.368496484872594 -189.16045147286786 0 -189.16045147286786 -40.450094176977586 0 0 0 0 -29.690760468946067 -31.376278295190701 0 -31.376278295190701 59.454989280462371 0 0 0 0 -2067.0843073314063 274.6618984237939 0 274.6618984237939 14.676083548998577 0 0 0 0 -24.575590454613121 -24.7288932033116 0 -24.7288932033116 0.021971725538605824 0 0 0 0 -9.6146695800177469 -5.1976018490889544 0 -5.1976018490889544 6.138676926776327 0 0 0 0 9.5946208130390005 -82.095998901240819 0 -82.095998901240819 -9.7299400277843233 0 0 0 0 -45.052083896093521 -62.430155648176594 0 -62.430155648176594 -29.217093165358847 0 0 0 0 -14.814369568025114 -12.818780968906822 0 -12.818780968906822 -10.579156675333934 0 0 0 0 -151.24775847696947 -306.1863065218372 0 -306.1863065218372 -26.227959230469423 0 0 0 0 97.681570656932308 22.368983671512979 0 22.368983671512979 -362.05269719260104 0 0 0 0 14.497972891520476 -90.463922672031913 0 -90.463922672031913 195.37048048185534 0 0 0 0 -2.1319356262040401 -4.918681493108636 0 -4.918681493108636 -7.6615628978587935 0 0 0 0 -1.9900530152357305 -5.0128141856789341 0 -5.0128141856789341 -6.2975834610889336 0 0 0 0 -24.040726449264184 -98.806685693118197 0 -98.806685693118197 -0.043035134804085828 0 0 0 0 -35.513680139400094 -90.234801724436693 0 -90.234801724436693 22.597743200152763 0 0 0 0 -78.396507696863409 -118.73442343506758 0 -118.73442343506758 26.685864809231134 0 0 0 0 -53.133500556166837 -110.94024869894201 0 -110.94024869894201 -0.021851976809557527 0 0 0 0 -43.600143781149029 -62.7378297451246 0 -62.7378297451246 -38.51337318802635 0 0 0 0 5.4042941891870129 4.6657866071640228 0 4.6657866071640228 -25.517474797752627 0 0 0 0 -67.658861987169075 -104.50488884579681 0 -104.50488884579681 41.305685725805233 0 0 0 0 -29.956119576192577 -117.17635714641074 0 -117.17635714641074 -102.24554621936113 0 0 0 0 -63.476957688726543 -25.024831685797835 0 -25.024831685797835 -98.923722802574048 0 0 0 0 -13.482619924696337 -93.520013824061607 0 -93.520013824061607 139.25658537910203 0 0 0 0 31.63568332621071 -93.49667229087936 0 -93.49667229087936 42.288629495942587 0 0 0 0 -22.314164436671518 -28.129991932037655 0 -28.129991932037655 -11.168117938021986 0 0 0 0 66.361533058487112 -193.87502540591231 0 -193.87502540591231 114.42697976647469 0 0 0 0 52.756765177582565 -167.28334796686977 0 -167.28334796686977 75.568551428383216 0 0 0 0 -12.393324848861084 -292.39096244786197 0 -292.39096244786197 325.88839995893068 0 0 0 0 25.282384975260356 -200.23836732454947 0 -200.23836732454947 199.859923617405 0 0 0 0 -0.14595254054438556 -250.64612971070892 0 -250.64612971070892 153.69582993659424 0 0 0 0 -40.365785639969545 -110.00775439662902 0 -110.00775439662902 197.81949830747908 0 0 0 0 -22.046539663124349 -154.75651990364713 0 -154.75651990364713 158.16330206606654 0 0 0 0 -3.588671381916356 -141.23994149451937 0 -141.23994149451937 226.04271164152306 0 0 0 0 25.815429042340838 -125.66203188193322 0 -125.66203188193322 170.61258485927829 0 0 0 0 -0.44674374121677829 -82.742712656439835 0 -82.742712656439835 211.47722505638376 0 0 0 0 -124.24830908527656 -182.16222435271266 0 -182.16222435271266 274.42967440049688 0 0 0 0 -139.9550911753322 -66.746565053064842 0 -66.746565053064842 229.04259933490539 0 0 0 0 -258.10623203249634 -172.17257723302464 0 -172.17257723302464 277.75583149977319 0 0 0 0 -136.35515851280798 -167.68384318068274 0 -167.68384318068274 271.62171218969161 0 0 0 0 -174.19622565880127 -166.6200589695145 0 -166.6200589695145 303.88199607639399 0 0 0 0 -96.738397763714602 -213.44738614567905 0 -213.44738614567905 255.72760090138763 0 0 0 0 -149.62192918671644 -221.05823498524842 0 -221.05823498524842 415.96835846968827 0 0 0 0 -283.72990327225125 -301.80898887598596 0 -301.80898887598596 546.19528123648388 0 0 0 0 -185.15932173467445 -133.0244086145467 0 -133.0244086145467 552.58386621138061 0 0 0 0 -621.83203634443635 -826.14407976587245 0 -826.14407976587245 511.06803347260575 0 0 0 0 -223.99254605783062 -686.74161648835434 0 -686.74161648835434 342.45886487908865 0 0 0 0 -225.00676037930202 -700.37608039282395 0 -700.37608039282395 403.22782936117437 0 0 0 0 -339.0636438047718 -541.81877665667162 0 -541.81877665667162 796.68933414295316 0 0 0 0 -380.43868160861894 -271.43074692323717 0 -271.43074692323717 738.98009277177334 0 0 0 0 -333.778310449336 -576.11698113984858 0 -576.11698113984858 470.37476653515478 0 0 0 0 -133.53881585707859 -346.63636196712469 0 -346.63636196712469 414.88978987338805 0 0 0 0 -206.45194482480656 -389.43878026062157 0 -389.43878026062157 566.42082168493653 0 0 0 0 -109.19272778929007 -368.05058785966321 0 -368.05058785966321 268.35152842715615 0 0 0 0 -82.528347390660201 -617.74499886991543 0 -617.74499886991543 375.98321235610638 0 0 0 0 -76.292547962593289 -551.29004392352226 0 -551.29004392352226 291.10809551461716 0 0 0 0 239.38887180578604 -490.92597563615709 0 -490.92597563615709 203.62937693197455 0 0 0 0 184.72726681729546 -473.62843988472741 0 -473.62843988472741 232.80555516279128 0 0 0 0 158.87834151524294 -607.37726923146693 0 -607.37726923146693 262.3682838157838 0 0 0 0 55.443513681192826 -390.26099424859694 0 -390.26099424859694 150.73962270247284 0 0 0 0 50.245920528876013 -474.6501767962618 0 -474.6501767962618 336.61148270645936 0 0 0 0 103.65751793122763 -324.48178444596851 0 -324.48178444596851 206.10577155039937 0 0 0 0 134.82547227082341 -230.57396363383486 0 -230.57396363383486 66.812955191591755 0 0 0 0 127.99666656057889 -226.98788021476503 0 -226.98788021476503 66.91151340714714 0 0 0 0 305.00483773301949 -299.13966892818826 0 -299.13966892818826 8.1465479960897937 0 0 0 0 626.05252607501916 -504.07945525182004 0 -504.07945525182004 310.61591886746464 0 0 0 0 362.00345993893961 -362.8395217225916 0 -362.8395217225916 291.1970737845113 0 0 0 0 417.70086376704512 -636.12569531255849 0 -636.12569531255849 344.92181567818625 0 0 0 0 408.02028674242865 -851.51649491611533 0 -851.51649491611533 930.46315222149133 0 0 0 0 50.595770779236773 -122.57988857921009 0 -122.57988857921009 472.94439047692867 0 0 0 0 44.916576995456126 -71.311898649852083 0 -71.311898649852083 1279.4592089612597 0 0 0 0 143.97955462205664 -580.94188037593995 0 -580.94188037593995 469.67129731498426 0 0 0 0 157.58537611905922 -505.31602382517303 0 -505.31602382517303 528.06681312594446 0 0 0 0 33.328472720599621 -596.90398484810976 0 -596.90398484810976 108.09599694161443 0 0 0 0 42.218538597313454 -509.75627032627381 0 -509.75627032627381 420.03704204648966 0 0 0 0 -10.478706438915651 -313.30578197910836 0 -313.30578197910836 298.82037623865472 0 0 0 0 -10.760120464663487 -286.80245134896541 0 -286.80245134896541 734.20200104716787 0 0 0 0 23.68043347546336 -384.35655383257108 0 -384.35655383257108 389.75792586365424 0 0 0 0 39.090519765198906 -549.04947156921025 0 -549.04947156921025 -191.79251916772046 0 0 0 0 0.0050536149761839511 0.39238467219655604 0 0.39238467219655604 -4.4617594170430266 0 0 0 0 -341.69153922638361 -21.911070699370612 0 -21.911070699370612 131.08690898076748 0 0 0 0 66.580933290155372 -55.048075400009111 0 -55.048075400009111 -31.534251832319569 0 0 0 0 12.763498653874194 -39.63447944841846 0 -39.63447944841846 13.525007310818182 0 0 0 0 42.898180619848063 -20.936359636449197 0 -20.936359636449197 16.836754120595288 0 0 0 0 4.5254673385747779 -119.4575826561005 0 -119.4575826561005 25.424346574785886 0 0 0 0 -35.56485818210534 -26.573804171979788 0 -26.573804171979788 -9.0495003904252371 0 0 0 0 30.407996413872752 -73.516236942035903 0 -73.516236942035903 4.8418303678336088 0 0 0 0 33.503961395354509 -101.02115357136427 0 -101.02115357136427 -52.308229093338014 0 0 0 0 -122.17486334887144 -101.24580075413542 0 -101.24580075413542 36.681862951074436 0 0 0 0 66.841330988991103 -3.8370730236856616 0 -3.8370730236856616 -100.41426317271544 0 0 0 0 -132.06927343111238 -46.574105029998464 0 -46.574105029998464 41.203443776983477 0 0 0 0 183.01913481892188 -185.494298398924 0 -185.494298398924 25.563079786887101 0 0 0 0 364.63512140841704 -439.67362555128784 0 -439.67362555128784 181.27643079352129 0 0 0 0 455.36640669459666 -179.53383518834744 0 -179.53383518834744 -136.30700829468697 0 0 0 0 205.84380047844024 -206.40454930173291 0 -206.40454930173291 -49.433192501059239 0 0 0 0 113.45329812965338 75.829782903074374 0 75.829782903074374 92.932226299119066 0 0 0 0 139.96956039946235 -306.50067786606814 0 -306.50067786606814 136.5798785960651 0 0 0 0 923.70369733363987 -1095.0302775583987 0 -1095.0302775583987 1068.5729721904936 0 0 0 0 564.29718867790507 -126.45211238747288 0 -126.45211238747288 183.56758122915926 0 0 0 0 -150.14890035680401 74.408300659968518 0 74.408300659968518 139.13172999034578 0 0 0 0 6.8413148698227815 -26.541330653750265 0 -26.541330653750265 19.234390309851733 0 0 0 0 2.7072867403557908 -6.9788764529382874 0 -6.9788764529382874 -8.8015649537999252 0 0 0 0 34.13957974119694 -38.383065256079135 0 -38.383065256079135 -1.7339772132472717 0 0 0 0 27.680090022198783 -47.382695553831581 0 -47.382695553831581 -68.78421399074432 0 0 0 0 15.658366084761496 -17.89246924018758 0 -17.89246924018758 11.291652493698734 0 0 0 0 11.876038962537759 -5.7888737370864476 0 -5.7888737370864476 -13.067202502580756 0 0 0 0 119.99013448226196 -59.480809030370438 0 -59.480809030370438 -90.566341037425445 0 0 0 0 68.191577852896444 -183.49861130220233 0 -183.49861130220233 -59.864548364304937 0 0 0 0 -37.906826708825065 -206.4897411915681 0 -206.4897411915681 337.33688177335716 0 0 0 0 5.2707917214698341 -5.7951828871718476 0 -5.7951828871718476 7.2095336269977679 0 0 0 0 56.672517661514576 17.527562206640141 0 17.527562206640141 -69.915282879047027 0 0 0 0 94.315666405098455 28.382768576717353 0 28.382768576717353 -66.830808619590243 0 0 0 0 -0.29831322797857496 -0.6466278670552299 0 -0.6466278670552299 -0.31151139376032688 0 0 0 0 -50.26817484320236 -213.73455215871945 0 -213.73455215871945 -175.07464515444008 0 0 0 0 281.19331625278937 -401.74807145177328 0 -401.74807145177328 -176.24779022680013 0 0 0 0 24.894595889962147 -22.793250717050796 0 -22.793250717050796 26.89145528463996 0 0 0 0 308.13142109780165 -312.96178405071259 0 -312.96178405071259 -58.887485258514062 0 0 0 0 1018.7972331593191 -826.4489510479616 0 -826.4489510479616 234.89343602849112 0 0 0 0 633.74931832140646 -635.87142886141373 0 -635.87142886141373 -79.942282675086062 0 0 0 0 -44.310479324180051 -535.0279705468638 0 -535.0279705468638 -163.06229623991862 0 0 0 0 220.02592680668749 -263.68675239869845 0 -263.68675239869845 -112.49014036670269 0 0 0 0 5.7471852930210403 -1.7877019717103053 0 -1.7877019717103053 -12.700142388918891 0 0 0 0 749.07545354572085 -439.22020099168913 0 -439.22020099168913 -156.95021815547079 0 0 0 0 913.64586790026442 -164.91490965499543 0 -164.91490965499543 -197.34651577003751 0 0 0 0 978.16481998794552 -291.99728723096268 0 -291.99728723096268 51.710877848861855 0 0 0 0 1435.1197207358882 -67.300585821392815 0 -67.300585821392815 -179.74876201036386 0 0 0 0 401.38509156545115 -406.10996075532603 0 -406.10996075532603 589.88680813583778 0 0 0 0 166.00298607658897 281.10502716242445 0 281.10502716242445 -764.04922513452766 0 0 0 0 1527.3462150334926 -814.44730598174647 0 -814.44730598174647 -504.70374721896951 0 0 0 0 1640.9016792076873 -8.9085485177783994 0 -8.9085485177783994 -151.51435405194934 0 0 0 0 754.99997836426883 -621.97645609642859 0 -621.97645609642859 301.44343951930932 0 0 0 0 757.56596724348947 -1030.8340905973746 0 -1030.8340905973746 -892.26960632033297 0 0 0 0 772.71619409332925 -922.38168137930916 0 -922.38168137930916 -154.31331671876978 0 0 0 0 165.6222512390159 -400.64640162250726 0 -400.64640162250726 -1558.9648450158784 0 0 0 0 -83.608330813436623 -356.53456398877461 0 -356.53456398877461 2144.1696016963397 0 0 0 0 6.0532939592698938 -8.6075881864687744 0 -8.6075881864687744 4.2852377055108377 0 0 0 0 -65.137824717410695 -657.85085977636481 0 -657.85085977636481 -903.08995594597945 0 0 0 0 145.85174608700618 -466.68605009531893 0 -466.68605009531893 -609.72624769648246 0 0 0 0 -308.34445380314355 -442.18700265762163 0 -442.18700265762163 -607.84571740945103 0 0 0 0 -107.04516347822937 -673.3625283779038 0 -673.3625283779038 -236.03759377762617 0 0 0 0 48.023932727584906 -77.505780814717582 0 -77.505780814717582 58.041493927492411 0 0 0 0 26.059506476594834 -88.123916048054525 0 -88.123916048054525 52.976636453502579 0 0 0 0 51.405550045426935 -102.70437204986956 0 -102.70437204986956 25.443802359048277 0 0 0 0 15.83945282206696 -135.56314719597867 0 -135.56314719597867 468.92941274145414 0 0 0 0 -22.420881367026595 -76.63666530980845 0 -76.63666530980845 378.37930952724128 0 0 0 0 17.574857650064985 -18.456961828322562 0 -18.456961828322562 8.5546164051516769 0 0 0 0 -148.95736306098843 -436.46380053226312 0 -436.46380053226312 -716.08570337349374 0 0 0 0 -272.89696467392514 -380.44122758450794 0 -380.44122758450794 -231.41436006533331 0 0 0 0 7.2242607079679146 -294.76654927068739 0 -294.76654927068739 -203.90149916071096 0 0 0 0 23.090851014430555 -26.766737921213917 0 -26.766737921213917 9.7527764714698151 0 0 0 0 -307.51771236671993 -292.87191603244537 0 -292.87191603244537 -87.787359683803516 0 0 0 0 -379.60737128304754 -403.62327372666914 0 -403.62327372666914 -151.64943474710162 0 0 0 0 -273.72082812112421 -296.35560319579599 0 -296.35560319579599 -121.51879945634573 0 0 0 0 -646.92329438595698 -336.85240605797662 0 -336.85240605797662 -118.16637945041293 0 0 0 0 -329.75323761286563 -482.72314790038217 0 -482.72314790038217 -282.65173115883954 0 0 0 0 -266.89917466606494 -548.17642376701406 0 -548.17642376701406 -227.02868737180688 0 0 0 0 -387.27210750129598 -448.03183920343872 0 -448.03183920343872 -261.13023913275174 0 0 0 0 -427.16297922228114 -588.48057234517182 0 -588.48057234517182 -214.25052264826081 0 0 0 0 3.0228020052702647 -0.51637783186882302 0 -0.51637783186882302 -5.7747671124563453 0 0 0 0 43.404274737749802 -366.31093317130581 0 -366.31093317130581 329.45990308495675 0 0 0 0 426.55889714866498 -904.36602176579618 0 -904.36602176579618 9.870491351277451 0 0 0 0 -275.50580567944462 -482.34257955342355 0 -482.34257955342355 -77.912486783432541 0 0 0 0 -40.310162002704601 -303.72381975636381 0 -303.72381975636381 -149.25004038431507 0 0 0 0 10.869295657215844 -517.46081125710043 0 -517.46081125710043 -240.4350201003399 0 0 0 0 500.27439243950357 -80.00359197139187 0 -80.00359197139187 -109.21645426174655 0 0 0 0 220.1620917748478 -381.525335255963 0 -381.525335255963 -428.29883253612206 0 0 0 0 166.88514790033514 -353.50006416755059 0 -353.50006416755059 -657.20833891206712 0 0 0 0 390.29157904770909 -114.03325993162434 0 -114.03325993162434 -464.78816505711075 0 0 0 0 521.55310057020597 -195.9521586518058 0 -195.9521586518058 -774.96937879272446 0 0 0 0 -517.24451654168661 -383.23907881665218 0 -383.23907881665218 -620.81746394026459 0 0 0 0 -354.67394786342265 -546.21112628436822 0 -546.21112628436822 -575.32464176029316 0 0 0 0 -664.96130677940164 -766.60549120602445 0 -766.60549120602445 -606.07340610018582 0 0 0 0 -142.73953614325364 -525.01211089274511 0 -525.01211089274511 -522.29850822206936 0 0 0 0 -199.97426562992041 -341.30076721894147 0 -341.30076721894147 -426.92898989151581 0 0 0 0 -71.896528559740545 -412.16020178175313 0 -412.16020178175313 -699.76932313630823 0 0 0 0 65.805133540467068 -237.04287946459954 0 -237.04287946459954 -599.94604173759581 0 0 0 0 -261.03364476978459 -329.77443762822077 0 -329.77443762822077 -601.62234541198995 0 0 0 0 -454.84571250529189 -575.26087762005409 0 -575.26087762005409 -539.87494982726639 0 0 0 0 -197.34014589986691 -483.48024233136675 0 -483.48024233136675 -536.18798155878903 0 0 0 0 146.04908272764806 -488.88661855001556 0 -488.88661855001556 -645.63105824055674 0 0 0 0 435.19037281694182 -413.84508227066544 0 -413.84508227066544 -619.64262026713914 0 0 0 0 -167.12665856374588 -509.48055547655531 0 -509.48055547655531 -545.53400718310877 0 0 0 0 424.84161466069679 -273.60534361214491 0 -273.60534361214491 -578.80081973658525 0 0 0 0 525.34805704525206 -296.77939187775337 0 -296.77939187775337 -750.08826193680579 0 0 0 0 245.61036602935474 -232.92969528291724 0 -232.92969528291724 -619.02756244469492 0 0 0 0 427.1431867087631 -333.09937136415829 0 -333.09937136415829 -602.06448302477656 0 0 0 0 487.51637906233736 -309.3739997294324 0 -309.3739997294324 -601.25325010021561 0 0 0 0 488.35504486416903 -249.64036772595864 0 -249.64036772595864 -578.11703266990503 0 0 0 0 430.27079553548538 -399.97221263166284 0 -399.97221263166284 -623.44821523098381 0 0 0 0 547.85238669666796 -349.93267801954789 0 -349.93267801954789 -625.10240315971714 0 0 0 0 585.97582301474904 -496.60651986100856 0 -496.60651986100856 -1110.5728794025927 0 0 0 0 254.68129401929036 -260.85722894454375 0 -260.85722894454375 -613.23873668761735 0 0 0 0 853.94637710904863 -189.93131489179359 0 -189.93131489179359 -604.89073414620907 0 0 0 0 1.171915066986621 -2.8275204606674436 0 -2.8275204606674436 1.7437269549814118 0 0 0 0 52.117806793492491 -450.09146665834123 0 -450.09146665834123 -776.82806071454252 0 0 0 0 167.4855168322938 -400.08012303752184 0 -400.08012303752184 -769.3606769058415 0 0 0 0 725.11733779338829 -846.62154294492211 0 -846.62154294492211 -430.3284564318019 0 0 0 0 737.94677026675527 -971.43974601166428 0 -971.43974601166428 192.18557633859746 0 0 0 0 486.29398063033295 -28.956996085435094 0 -28.956996085435094 -262.95196994132311 0 0 0 0 4.2657416641023786 -0.84760057374234066 0 -0.84760057374234066 -8.2294443471822092 0 0 0 0 464.87033136383252 172.59973970355713 0 172.59973970355713 -1166.5516055564949 0 0 0 0 -818.54378469153016 -421.72628298960626 0 -421.72628298960626 62.856397457711864 0 0 0 0 -776.83470259146998 -540.62220501298725 0 -540.62220501298725 157.8230185155553 0 0 0 0 -772.26994354656199 -480.92071646118711 0 -480.92071646118711 28.364133091010444 0 0 0 0 -592.0147575034498 -360.21550861497235 0 -360.21550861497235 -37.005931349507591 0 0 0 0 -719.81931890005944 -361.04747564496938 0 -361.04747564496938 -26.042340649823018 0 0 0 0 -724.53247524283506 -284.37280534183083 0 -284.37280534183083 -142.89277718678932 0 0 0 0 -716.75717326992526 -369.6640659374898 0 -369.6640659374898 -1.797954898327589 0 0 0 0 -610.07175863325392 -294.14487855020707 0 -294.14487855020707 -45.091975850751624 0 0 0 0 -715.25665830391517 -315.13255672059313 0 -315.13255672059313 -40.927842762141154 0 0 0 0 -835.74729456530622 -384.48276366532809 0 -384.48276366532809 -35.911033811920788 0 0 0 0 -862.27182254640502 -335.00440557663387 0 -335.00440557663387 0.63646639744092681 0 0 0 0 -803.88361854470713 -447.08354716309259 0 -447.08354716309259 90.224501932680141 0 0 0 0 -903.2283579925861 -355.00919811181666 0 -355.00919811181666 52.045843979460187 0 0 0 0 -787.09022412510967 -472.29441061575926 0 -472.29441061575926 25.796922985216952 0 0 0 0 -922.64743389030627 -453.15236958154128 0 -453.15236958154128 161.11746926052729 0 0 0 0 -601.9812167316195 -567.31130776130158 0 -567.31130776130158 91.319511052424787 0 0 0 0 -760.13553351370501 -403.23420434906438 0 -403.23420434906438 183.75644845605711 0 0 0 0 -780.90740937030932 -595.08483752548636 0 -595.08483752548636 339.0249599584713 0 0 0 0 -670.89421219589713 -504.97918942968681 0 -504.97918942968681 364.23180607217364 0 0 0 0 -813.20572127192645 -521.84953680883336 0 -521.84953680883336 194.98374056597822 0 0 0 0 -846.8519108499022 -460.91665849150741 0 -460.91665849150741 112.18166808836395 0 0 0 0 -809.29307666160457 -532.4739957912243 0 -532.4739957912243 154.68380139540568 0 0 0 0 -777.32365508871681 -602.26137626644049 0 -602.26137626644049 68.547078042291105 0 0 0 0 -786.92876408039592 -655.21759137048502 0 -655.21759137048502 305.13882939427276 0 0 0 0 -803.65487836392276 -708.24201773574896 0 -708.24201773574896 407.77131460573582 0 0 0 0 -806.92417968463269 -814.52868628571741 0 -814.52868628571741 111.97441719427297 0 0 0 0 -697.9751412330661 -748.94424741883995 0 -748.94424741883995 362.85456088554929 0 0 0 0 -731.53309359416744 -897.81587767381279 0 -897.81587767381279 3.1013588155910838 0 0 0 0 -855.08417615218787 -925.97075178443629 0 -925.97075178443629 135.60239871083468 0 0 0 0 -626.30183331436274 -794.56596385144803 0 -794.56596385144803 18.182648877133033 0 0 0 0 -798.11216031797812 -1045.8563973294949 0 -1045.8563973294949 -160.5495268218001 0 0 0 0 -472.56872735515208 -627.45215677920351 0 -627.45215677920351 -405.96900218930386 0 0 0 0 -532.81702212333039 -693.69408383328118 0 -693.69408383328118 -83.115470271237427 0 0 0 0 -640.6872023611686 -574.42907246523464 0 -574.42907246523464 -111.61829256766941 0 0 0 0 -637.4063754424933 -482.70263130791136 0 -482.70263130791136 -18.715313043372589 0 0 0 0 -683.65307354008837 -606.36906704035937 0 -606.36906704035937 19.351833070701105 0 0 0 0 -589.10387298575733 -394.06745824102109 0 -394.06745824102109 -73.842666317912517 0 0 0 0 -362.5060229384253 -391.86470497009577 0 -391.86470497009577 -227.95424826973976 0 0 0 0 -422.72520522957348 -498.88826754896581 0 -498.88826754896581 -214.10562670310173 0 0 0 0 -848.00561425799424 -703.95187374877423 0 -703.95187374877423 -599.11343932637828 0 0 0 0 4.1695751631376368 -7.4467952449008408 0 -7.4467952449008408 6.7134152074069675 0 0 0 0 -815.87648424849795 -728.45726411365831 0 -728.45726411365831 -586.03300348715857 0 0 0 0 -770.78686241890682 -712.92724743796862 0 -712.92724743796862 -584.2790539880807 0 0 0 0 -844.03707758098608 -689.9836478033103 0 -689.9836478033103 -550.17147689215199 0 0 0 0 7.8755357540973137 -11.823178836204676 0 -11.823178836204676 9.2978922216327078 0 0 0 0 -875.83354005804085 -756.99736814671087 0 -756.99736814671087 -563.67601143039064 0 0 0 0 -794.57414585759398 -678.12076335091842 0 -678.12076335091842 -543.85914371110266 0 0 0 0 -822.41535077907611 -725.04962948261527 0 -725.04962948261527 -550.29188269784208 0 0 0 0 -864.90608947783767 -692.84291604094324 0 -692.84291604094324 -560.16274632676505 0 0 0 0 -825.67872829352518 -691.85814842688433 0 -691.85814842688433 -564.80715244007297 0 0 0 0 -825.32882815643097 -699.4555537472479 0 -699.4555537472479 -620.35969799471786 0 0 0 0 -980.27625880553387 -783.75294787349412 0 -783.75294787349412 -647.37467880340409 0 0 0 0 -231.01168208848685 -181.06203041865956 0 -181.06203041865956 -185.42701528297039 0 0 0 0 -397.71266904637741 -264.09246737495414 0 -264.09246737495414 -127.37433570042049 0 0 0 0 -393.27744862508553 -274.36826687381836 0 -274.36826687381836 -129.48719403934228 0 0 0 0 -471.203158753553 -359.45877905234374 0 -359.45877905234374 -204.70009715600463 0 0 0 0 -412.20339395604242 -730.03333088525687 0 -730.03333088525687 -469.94382370606763 0 0 0 0 -574.34978622076596 -668.54208137166279 0 -668.54208137166279 -388.17452013926231 0 0 0 0 -603.91393955507738 -600.59634403463861 0 -600.59634403463861 -488.74680849901051 0 0 0 0 -684.16604410258878 -654.70682577572734 0 -654.70682577572734 -517.45867961585463 0 0 0 0 -690.06768889018713 -640.56321348594793 0 -640.56321348594793 -550.40240786855793 0 0 0 0 -770.3830864814081 -705.09475353239395 0 -705.09475353239395 -525.34758436220727 0 0 0 0 -687.04235273940139 -694.60622014189721 0 -694.60622014189721 -558.23586938699009 0 0 0 0 -760.60430233652551 -708.52368760249374 0 -708.52368760249374 -528.64623693993781 0 0 0 0 -764.88604985916754 -688.41799145615369 0 -688.41799145615369 -578.11568375286879 0 0 0 0 -677.90371582763328 -715.8248057662131 0 -715.8248057662131 -581.05428499488335 0 0 0 0 -736.18856472196057 -726.38848384385346 0 -726.38848384385346 -622.64444331586128 0 0 0 0 -670.78774816246005 -748.30316898289311 0 -748.30316898289311 -514.35814901485173 0 0 0 0 -679.81849548301034 -672.29224817402428 0 -672.29224817402428 -521.50958901803824 0 0 0 0 -643.63761648532818 -711.2460902294406 0 -711.2460902294406 -484.38841847817866 0 0 0 0 -676.59315335083375 -754.94615922170487 0 -754.94615922170487 -521.83508113914286 0 0 0 0 -718.87571774976095 -684.48483829552424 0 -684.48483829552424 -474.80452342407051 0 0 0 0 -543.15496606964371 -609.41243478507386 0 -609.41243478507386 -474.36882698457339 0 0 0 0 -495.27995340937923 -525.48410875480477 0 -525.48410875480477 -557.88955845398596 0 0 0 0 -980.3807339564446 -402.87780935970659 0 -402.87780935970659 -585.55855535208684 0 0 0 0 -933.05789199421997 -888.02899709760095 0 -888.02899709760095 -491.16728126924136 0 0 0 0 -335.19609421442146 -180.76454930627369 0 -180.76454930627369 -46.706506619404536 0 0 0 0 13.703118585595035 -14.569087354237411 0 -14.569087354237411 13.344336476464719 0 0 0 0 -688.33125833993108 -702.90510543781784 0 -702.90510543781784 -350.80306729962467 0 0 0 0 -642.49301723678218 -765.57734169020841 0 -765.57734169020841 -519.09608537872555 0 0 0 0 -735.69432633597171 -719.24174751140526 0 -719.24174751140526 -531.48309523885837 0 0 0 0 -736.98483069305075 -810.314912311238 0 -810.314912311238 -520.2178396520867 0 0 0 0 -112.77000773727923 -344.36015819305612 0 -344.36015819305612 -555.43206391855347 0 0 0 0 -332.53974355078753 -715.49280050788366 0 -715.49280050788366 -861.21975983274751 0 0 0 0 -1895.9793392693682 -864.17712502213544 0 -864.17712502213544 -353.77040408457106 0 0 0 0 -0.82972931221393598 1.5651865452845044 0 1.5651865452845044 -5.9970277679413471 0 0 0 0 173.6257655803638 2.9544290131671005 0 2.9544290131671005 -243.41898861200752 0 0 0 0 -682.45487176412644 -728.5836809755674 0 -728.5836809755674 -1040.0480781554361 0 0 0 0 -584.15178220105008 -317.98250106981141 0 -317.98250106981141 -54.43330474488539 0 0 0 0 -560.42083221891517 -293.83281648417324 0 -293.83281648417324 -48.389674617297715 0 0 0 0 -436.56297719712893 -301.66705391243158 0 -301.66705391243158 -137.23082498072836 0 0 0 0 -431.77197905979483 -240.28623524192153 0 -240.28623524192153 -69.091507509700023 0 0 0 0 -251.69994642521488 -113.3628091513674 0 -113.3628091513674 -76.193261358275777 0 0 0 0 -380.42302167942398 -273.13842835708056 0 -273.13842835708056 -86.385464859049534 0 0 0 0 -268.1232910190156 -266.67752985963307 0 -266.67752985963307 -121.65948718739673 0 0 0 0 -306.29090333405475 -281.47124947696284 0 -281.47124947696284 -98.004169182298938 0 0 0 0 -379.38807480304968 -226.74181980045978 0 -226.74181980045978 -97.756109823938459 0 0 0 0 -739.80613114736479 -783.4306638798198 0 -783.4306638798198 -604.9013338299701 0 0 0 0 -9.112586239018384 -0.60248006803652743 0 -0.60248006803652743 6.1958274617638835 0 0 0 0 -800.64871209050762 -694.42409530290752 0 -694.42409530290752 -625.43921205506194 0 0 0 0 4.3533474181429028 -14.687838865715406 0 -14.687838865715406 13.179345003256628 0 0 0 0 -458.40255677285313 -240.29904293461004 0 -240.29904293461004 -58.062650685853441 0 0 0 0 -308.51792837082758 -233.67109963134862 0 -233.67109963134862 -103.48164155652194 0 0 0 0 -345.24845006880059 -169.25098757883825 0 -169.25098757883825 -64.974862134462455 0 0 0 0 -374.77900389370916 -131.51113577623619 0 -131.51113577623619 30.814220371394185 0 0 0 0 -425.0188288611098 -247.64292894146638 0 -247.64292894146638 -25.206334848749975 0 0 0 0 -418.18091255189211 -198.25550738919992 0 -198.25550738919992 56.626590018538991 0 0 0 0 -471.99552468024194 -202.11596910182561 0 -202.11596910182561 -59.465405102033401 0 0 0 0 -580.89814284152817 -300.28614765605016 0 -300.28614765605016 -53.620861567166685 0 0 0 0 -470.69593418886507 -224.99905685559861 0 -224.99905685559861 -55.794719163386617 0 0 0 0 -601.3722663265653 -261.49757867220615 0 -261.49757867220615 -127.10606890538475 0 0 0 0 -556.95196049512742 -296.83549423469231 0 -296.83549423469231 -233.10615264042281 0 0 0 0 -642.43924984391197 -337.31400271448365 0 -337.31400271448365 -132.71991652471479 0 0 0 0 -566.32611278381955 -337.63834338926245 0 -337.63834338926245 -74.287282730776496 0 0 0 0 -430.9194356057269 -172.15399212591001 0 -172.15399212591001 -39.573280473821796 0 0 0 0 -720.09555808567529 -437.97825634554465 0 -437.97825634554465 -98.505496413039509 0 0 0 0 -548.1395545989435 -440.44373701096993 0 -440.44373701096993 -359.81306796282297 0 0 0 0 -551.59557986932487 -421.18138810458186 0 -421.18138810458186 -370.93763523139933 0 0 0 0 -580.57004416537893 -460.84138128161794 0 -460.84138128161794 -248.50252716694376 0 0 0 0 -663.45146881484106 -354.89034501365677 0 -354.89034501365677 -136.86704760526482 0 0 0 0 -35.283951554258238 -119.34459687277558 0 -119.34459687277558 -15.118891375721432 0 0 0 0 5.4617423663129232 -4.4752198466023287 0 -4.4752198466023287 -17.030471490822549 0 0 0 0 -972.0857447847884 -334.39299506116731 0 -334.39299506116731 -126.16203529850463 0 0 0 0 -271.69289782529813 -264.2261021723898 0 -264.2261021723898 -63.539109970297432 0 0 0 0 -192.14688693744756 8.3562037902356678 0 8.3562037902356678 -56.222954110999126 0 0 0 0 10.474184479922741 -23.264203110179011 0 -23.264203110179011 24.094044066183187 0 0 0 0 -261.77418557804776 -203.09434835915454 0 -203.09434835915454 68.561659769009566 0 0 0 0 -626.76793401277973 52.631909375770192 0 52.631909375770192 146.82698996955878 0 0 0 0 75.038817972876132 -26.069149715942331 0 -26.069149715942331 -79.942364656046266 0 0 0 0 6.9159708858370585 -27.669097863380486 0 -27.669097863380486 11.983175423810337 0 0 0 0 -9.0075350499428026 -2.1001576586125736 0 -2.1001576586125736 2.799884319680416 0 0 0 0 -74.021320403720893 17.838914034997288 0 17.838914034997288 -68.072974610491656 0 0 0 0 -852.08478014616412 -558.88509035751485 0 -558.88509035751485 -344.52107495458768 0 0 0 0 -7.5548716183267857 -6.6275368742523426 0 -6.6275368742523426 1.1752954357559418 0 0 0 0 -145.816429943392 62.69915261479764 0 62.69915261479764 76.230111068638507 0 0 0 0 -968.11191053597213 -653.04208893820669 0 -653.04208893820669 -217.56285665227915 0 0 0 0 -1042.5829584638268 -411.57089589792304 0 -411.57089589792304 -44.530264401546447 0 0 0 0 -605.08030036263517 -383.59108694728639 0 -383.59108694728639 -220.48041767589893 0 0 0 0 3.5578065370690295 -6.224676588850798 0 -6.224676588850798 -16.062875406838259 0 0 0 0 77.239140631325427 -86.418785200505226 0 -86.418785200505226 35.581078789939056 0 0 0 0 -550.78024283177183 -491.47662011729881 0 -491.47662011729881 -445.81424123140459 0 0 0 0 -574.32641716844228 -439.66546746333188 0 -439.66546746333188 -359.07215990022814 0 0 0 0 -883.67058191902106 -466.91153196978121 0 -466.91153196978121 -271.14367141488765 0 0 0 0 -650.1671075776685 -558.89668577773409 0 -558.89668577773409 -236.83287489543727 0 0 0 0 -645.54573596690898 -573.92506455860712 0 -573.92506455860712 -277.01558575172385 0 0 0 0 -456.84871682873927 -576.88623738883325 0 -576.88623738883325 -400.77017855941085 0 0 0 0 -499.60624643407937 -442.69691103356308 0 -442.69691103356308 -319.9233905947076 0 0 0 0 -1532.8924747129786 -1219.0943258092084 0 -1219.0943258092084 -419.4356559766311 0 0 0 0 -540.74189625065628 -512.80232853968482 0 -512.80232853968482 -633.34359248692635 0 0 0 0 -895.10411626710993 -23.635411512434075 0 -23.635411512434075 -1163.939734083353 0 0 0 0 -600.25276883884362 -240.87173620553222 0 -240.87173620553222 -878.27658575817622 0 0 0 0 -627.60776543260727 -321.47956762320246 0 -321.47956762320246 -491.53866314663173 0 0 0 0 -574.70940896114917 -592.48943549228716 0 -592.48943549228716 -525.93921511006192 0 0 0 0 -543.13068684112295 -405.703306276886 0 -405.703306276886 -440.67823593053618 0 0 0 0 -1183.7071101134643 -208.5207232370376 0 -208.5207232370376 -326.58225139626302 0 0 0 0 -1028.2550899943235 -294.30611714591214 0 -294.30611714591214 -75.930663931882009 0 0 0 0 -809.98943095958384 -283.83732509160473 0 -283.83732509160473 -313.06282205130265 0 0 0 0 -805.71753369606085 -324.20272547139029 0 -324.20272547139029 -151.49111419099791 0 0 0 0 -693.81052446570538 -236.68944861665659 0 -236.68944861665659 -328.56537887528248 0 0 0 0 -722.21040536115288 -475.98643364492818 0 -475.98643364492818 -221.75967943845899 0 0 0 0 -764.07314887642133 -642.50405819169464 0 -642.50405819169464 -271.63337598516955 0 0 0 0 -418.43412151833763 -368.32767644370324 0 -368.32767644370324 -57.801603240470286 0 0 0 0 -916.90203418992314 -450.86471896186049 0 -450.86471896186049 -216.44204172189347 0 0 0 0 -992.46438109790324 -441.75591719686054 0 -441.75591719686054 25.313779892466528 0 0 0 0 -1102.9864183551763 -329.5291586444946 0 -329.5291586444946 -291.9525829999402 0 0 0 0 -1050.0889303670683 -464.81835378638789 0 -464.81835378638789 -525.75463903017226 0 0 0 0 -589.26121995998983 -886.12555714133123 0 -886.12555714133123 -978.54780140145158 0 0 0 0 -1217.7238931499596 -669.26448906442238 0 -669.26448906442238 -295.20497248842003 0 0 0 0 -859.86260685274101 -1359.4138547130824 0 -1359.4138547130824 -2344.7603183125757 0 0 0 0 -194.62770349877246 -397.38205881221074 0 -397.38205881221074 -1017.3219891885692 0 0 0 0 -2133.5762188553053 -435.72800436670514 0 -435.72800436670514 -438.60901625233237 0 0 0 0 -1767.7116629663287 -571.96373438581941 0 -571.96373438581941 144.85557087077177 0 0 0 0 -1198.8613743531168 261.26519486734469 0 261.26519486734469 1365.3320283564099 0 0 0 0 202.48931166471448 119.72525012094411 0 119.72525012094411 -391.45900923111913 0 0 0 0 -16.96323618428022 -6.7563480335939232 0 -6.7563480335939232 -0.86891778425245647 0 0 0 0 -738.47288164869678 -700.06898751873814 0 -700.06898751873814 -922.6571962320013 0 0 0 0 -727.48355976807215 -678.97323115901963 0 -678.97323115901963 -884.25003507966176 0 0 0 0 -443.5856088714354 -660.92706212757912 0 -660.92706212757912 -1039.7484219616017 0 0 0 0 -698.1846813690172 -883.97021017539191 0 -883.97021017539191 -1235.0980863994628 0 0 0 0 -740.59562557456047 -703.80568679694625 0 -703.80568679694625 -919.83475731621729 0 0 0 0 -979.2422787000105 -848.489520080082 0 -848.489520080082 -1007.551881269872 0 0 0 0 -832.7524599757744 -950.82825585393584 0 -950.82825585393584 -950.57840816059615 0 0 0 0 -788.97820424883685 -1023.0390732346859 0 -1023.0390732346859 -1165.9731877415907 0 0 0 0 -843.46635568473721 -1018.9581269210903 0 -1018.9581269210903 -1130.2030779146589 0 0 0 0 -1132.1614149415691 -837.81651434079686 0 -837.81651434079686 -764.95113467863121 0 0 0 0 -1020.2050378934946 -920.711212974511 0 -920.711212974511 -827.94459856886533 0 0 0 0 -1953.8350234793761 -1089.3964564917915 0 -1089.3964564917915 -590.0997048166173 0 0 0 0 -1264.3745879600829 -276.18924276752659 0 -276.18924276752659 142.70620815647999 0 0 0 0 -1551.1820974661168 -1664.3047302476261 0 -1664.3047302476261 -1234.1717029941356 0 0 0 0 -6.0871972035461965 -3.3512899882757381 0 -3.3512899882757381 4.0235252711117653 0 0 0 0 -678.47905929076296 160.12833296187819 0 160.12833296187819 1105.5980717609782 0 0 0 0 -157.18315386262839 -479.77662815774238 0 -479.77662815774238 -326.26043291250244 0 0 0 0 -1104.9186134414049 -1195.3377099170175 0 -1195.3377099170175 -1062.7940993774901 0 0 0 0 -1382.3484208363079 -1001.6033077339234 0 -1001.6033077339234 -570.69633803254692 0 0 0 0 -1167.9899091815169 -1246.4375365322485 0 -1246.4375365322485 -433.13848318040982 0 0 0 0 -1289.4339819787165 -1379.4768695011999 0 -1379.4768695011999 -571.07530472247163 0 0 0 0 -970.23448051242076 -545.6508494797049 0 -545.6508494797049 339.54910707499948 0 0 0 0 -941.56637227251485 -902.79289997725573 0 -902.79289997725573 -548.02612521726405 0 0 0 0 -1432.1465566681436 -1484.8358310540789 0 -1484.8358310540789 -17.767511921971163 0 0 0 0 -1633.5788039947802 -1197.662256542113 0 -1197.662256542113 -66.929529529181309 0 0 0 0 -1413.9919726009757 -1419.3186336799845 0 -1419.3186336799845 154.4971154810919 0 0 0 0 -1189.1502230677797 -1717.5065177929646 0 -1717.5065177929646 -436.40022126631811 0 0 0 0 -1397.8314137118723 -2064.7854256335122 0 -2064.7854256335122 -186.5347000638576 0 0 0 0 -1175.5444491687376 -1733.8132532008967 0 -1733.8132532008967 -1025.3495833384659 0 0 0 0 -1303.0302127160321 -1467.640676991643 0 -1467.640676991643 -373.49882731965045 0 0 0 0 -1069.0926479928748 -1494.775141248334 0 -1494.775141248334 -544.62486592619825 0 0 0 0 -1155.434868643395 -1599.9651589345303 0 -1599.9651589345303 -590.75713766632543 0 0 0 0 -1012.7880371158972 -1408.209195637377 0 -1408.209195637377 -777.17384673185006 0 0 0 0 -825.68956197354419 -1482.9507201437809 0 -1482.9507201437809 -780.63787779324048 0 0 0 0 -563.83727546401497 -1187.0045776471961 0 -1187.0045776471961 -978.66039755223392 0 0 0 0 -971.41189836787817 -1094.539670632832 0 -1094.539670632832 -954.86940531530854 0 0 0 0 -1172.8688199423113 -717.79933473901838 0 -717.79933473901838 -1340.0848714730528 0 0 0 0 -1078.6712507328921 -1145.2819262720732 0 -1145.2819262720732 -901.0058274185285 0 0 0 0 -990.65209185201093 -1176.9218014459184 0 -1176.9218014459184 -909.42359001556179 0 0 0 0 -912.77056159031054 -1125.7379692104878 0 -1125.7379692104878 -1035.1307913998608 0 0 0 0 -856.32551280421467 -1098.5978789629371 0 -1098.5978789629371 -1022.1715076927212 0 0 0 0 -889.60998990209919 -1199.6650671048628 0 -1199.6650671048628 -1225.2338530810084 0 0 0 0 -930.93446796262651 -1067.2688723185493 0 -1067.2688723185493 -976.27124814284616 0 0 0 0 -973.53983043737389 -1078.2352754958265 0 -1078.2352754958265 -904.10498602828011 0 0 0 0 -989.5135164528474 -1080.6121584545908 0 -1080.6121584545908 -793.76549206339769 0 0 0 0 -1181.0249513412 -1176.3605982226836 0 -1176.3605982226836 -771.10272740482469 0 0 0 0 -952.41461252278532 -1304.0162830290647 0 -1304.0162830290647 -700.62606445592246 0 0 0 0 -873.49596249267051 -1169.5439905323146 0 -1169.5439905323146 -922.59605422700406 0 0 0 0 -776.91678234076971 -444.15394358135381 0 -444.15394358135381 -52.715463056971203 0 0 0 0 -647.57416653500695 -1026.155242769004 0 -1026.155242769004 153.83314326034451 0 0 0 0 -1.2061652920762231 0.39162083919330826 0 0.39162083919330826 -5.4501201628630156 0 0 0 0 417.93803430299158 -232.83985943922744 0 -232.83985943922744 68.611604124533187 0 0 0 0 -1886.0552818575597 -638.16294487683376 0 -638.16294487683376 -75.742690509854583 0 0 0 0 -1134.0632284290332 -832.83742197773972 0 -832.83742197773972 -413.68765402963618 0 0 0 0 -714.00705529164406 -624.14224333068705 0 -624.14224333068705 -438.96711926145508 0 0 0 0 -885.43524247689493 -565.76728345625452 0 -565.76728345625452 -327.5612890868797 0 0 0 0 -840.8905380427168 -473.84551979693606 0 -473.84551979693606 -291.25773626765294 0 0 0 0 -413.6681825725318 -487.44956255918078 0 -487.44956255918078 -598.16229629667941 0 0 0 0 -655.75116273689491 -632.23299958249845 0 -632.23299958249845 -272.26434077262547 0 0 0 0 -823.82360014327787 -510.17986092175124 0 -510.17986092175124 -289.68585361338046 0 0 0 0 -375.57665234545129 -665.04601356878266 0 -665.04601356878266 -121.84591422349331 0 0 0 0 -590.00513156292072 -468.06252088598558 0 -468.06252088598558 -142.52670368537656 0 0 0 0 -422.29919176446856 -573.44286423148878 0 -573.44286423148878 -293.43426444221404 0 0 0 0 -528.11622574906505 -580.33206100945245 0 -580.33206100945245 48.357319894099419 0 0 0 0 -415.77717934692191 -197.87955874083127 0 -197.87955874083127 57.370738645272695 0 0 0 0 -9.3334929563730782 -7.9291053483875942 0 -7.9291053483875942 11.392103322895395 0 0 0 0 -733.53710481045709 -578.74628535453667 0 -578.74628535453667 -217.01306030963315 0 0 0 0 -114.42710267218354 81.171424305517576 0 81.171424305517576 212.56147934407636 0 0 0 0 -1482.2054594459205 -362.38013569567374 0 -362.38013569567374 2311.7922116919362 0 0 0 0 -1378.9946244922248 -2028.9026468175143 0 -2028.9026468175143 -1122.8237908552983 0 0 0 0 -2538.2635950658587 -2580.1598286845692 0 -2580.1598286845692 831.26221208760398 0 0 0 0 196.55929648377787 1396.2736607979605 0 1396.2736607979605 3914.8600223607573 0 0 0 0 -2666.6451375027427 -3453.1158067620854 0 -3453.1158067620854 -1710.3654520483251 0 0 0 0 -5.7825140074173476 -8.6354659449472706 0 -8.6354659449472706 19.48054554004392 0 0 0 0 -272.316336216747 247.60436218565155 0 247.60436218565155 4198.1949273627724 0 0 0 0 157.20937822088672 231.1535841517034 0 231.1535841517034 3017.2281413863966 0 0 0 0 -738.43192245600221 -1020.1272005743594 0 -1020.1272005743594 -842.97388009947099 0 0 0 0 -4.9324639336161056 -5.5101690871803157 0 -5.5101690871803157 8.9673319647448011 0 0 0 0 -918.27368934345577 -1068.6826837514382 0 -1068.6826837514382 -237.17122493180068 0 0 0 0 -931.20201404861064 -1139.7777740965457 0 -1139.7777740965457 622.31258853533654 0 0 0 0 378.07524582675978 1175.1348481392342 0 1175.1348481392342 3123.917382228954 0 0 0 0 -174.02082458858422 49.277259045018582 0 49.277259045018582 1006.1094883709447 0 0 0 0 -193.14176749678154 56.565426265602582 0 56.565426265602582 1097.9841957002063 0 0 0 0 -440.57549230853328 -172.59133843749805 0 -172.59133843749805 893.86877705200459 0 0 0 0 -775.53635556645895 -457.33127818524372 0 -457.33127818524372 1545.9253492652133 0 0 0 0 -23.174370119845491 -20.977580884746715 0 -20.977580884746715 63.162653279924257 0 0 0 0 -41.054138271390912 -75.986033010794927 0 -75.986033010794927 265.68092757526028 0 0 0 0 -41.230992932680238 163.75824127304804 0 163.75824127304804 660.58024353712972 0 0 0 0 -136.08440746202541 -88.745820603704487 0 -88.745820603704487 267.71277914692473 0 0 0 0 -2667.6632758517298 -2423.8497809005203 0 -2423.8497809005203 -1590.1860651460183 0 0 0 0 -41.588313853199367 295.4390984801334 0 295.4390984801334 1047.9418424848409 0 0 0 0 -15.375049628390457 -19.653907155138967 0 -19.653907155138967 47.696684416330868 0 0 0 0 -1994.7761211429533 -2094.3710619431076 0 -2094.3710619431076 -1612.4095781842179 0 0 0 0 -1544.6667770263521 -1883.4984102321687 0 -1883.4984102321687 -1582.0713542118901 0 0 0 0 -2082.0293296360251 -1698.5526538684717 0 -1698.5526538684717 -999.26781419084 0 0 0 0 -1706.9471709376376 -2122.5979130116757 0 -2122.5979130116757 -2413.6693389513821 0 0 0 0 -2377.1753090935017 -1569.6933532996663 0 -1569.6933532996663 -1665.4519609625859 0 0 0 0 -1165.6976378505642 -1695.4284024726439 0 -1695.4284024726439 -1597.893211231567 0 0 0 0 -1775.3155955315488 -1925.0725804871417 0 -1925.0725804871417 -990.13836157650803 0 0 0 0 -789.60507189529017 -1696.6041533099487 0 -1696.6041533099487 -1314.8048180781916 0 0 0 0 -1529.2268135116528 -1503.159004017718 0 -1503.159004017718 -1226.9323978869652 0 0 0 0 -1399.5867473200287 -1766.0825564321358 0 -1766.0825564321358 -1018.3104896503501 0 0 0 0 -1350.5315264369092 -2428.7311582875791 0 -2428.7311582875791 -1.83967194664001 0 0 0 0 -35.561635248966923 -2294.4157747041681 0 -2294.4157747041681 -814.67236156379658 0 0 0 0 -2114.8156418970175 -2198.7619667696199 0 -2198.7619667696199 0.29499984870199114 0 0 0 0 -1512.4580105759087 -2058.715120567198 0 -2058.715120567198 -401.67432377376826 0 0 0 0 -2086.6434556918539 -1949.5586836274888 0 -1949.5586836274888 -420.48241130716633 0 0 0 0 -1369.3222270330916 -1966.6826177721559 0 -1966.6826177721559 -898.96262975173886 0 0 0 0 -2078.9429979488214 -2143.4803292362435 0 -2143.4803292362435 -440.97203368201735 0 0 0 0 -2273.9274740167821 -1753.11411886321 0 -1753.11411886321 -828.35605086050055 0 0 0 0 -2372.9537963211624 -1942.6253605117672 0 -1942.6253605117672 -247.93914741666231 0 0 0 0 -2634.8954326089079 -1798.9385352280879 0 -1798.9385352280879 -329.42802942569688 0 0 0 0 -2458.1914432261901 -2044.9512321370621 0 -2044.9512321370621 -0.11081526892667171 0 0 0 0 -2289.2874221488091 -1819.0301509583951 0 -1819.0301509583951 -398.47169796952221 0 0 0 0 7.3731203943540606 -8.1116181540637058 0 -8.1116181540637058 3.1540552316897674 0 0 0 0 -1188.4430236645421 -1482.6824380739927 0 -1482.6824380739927 42.409802507507266 0 0 0 0 646.12679221998405 -1133.7582496637697 0 -1133.7582496637697 -1033.6879439987388 0 0 0 0 839.84903269793904 -568.36335359332406 0 -568.36335359332406 88.926817443672917 0 0 0 0 -1438.7841531892773 -158.75107011888031 0 -158.75107011888031 20.869543008186156 0 0 0 0 -226.61043965313365 -2197.372228045213 0 -2197.372228045213 -316.71625644573942 0 0 0 0 597.6664526934328 -1476.7600112311411 0 -1476.7600112311411 -1522.1916310153028 0 0 0 0 -1261.7934757152652 -1198.6630498653412 0 -1198.6630498653412 -490.65465301412041 0 0 0 0 -853.87762691875105 -1617.1066650138964 0 -1617.1066650138964 -850.79708134713292 0 0 0 0 -967.60646301031375 -1728.9093946814573 0 -1728.9093946814573 -562.04457574943081 0 0 0 0 -1154.7606658836994 -1618.8210941961697 0 -1618.8210941961697 -742.76955478554009 0 0 0 0 -1086.378047381324 -1395.3307875190803 0 -1395.3307875190803 -680.67238161892965 0 0 0 0 -1074.3529555037312 -1486.9176742818308 0 -1486.9176742818308 -1218.8621200052439 0 0 0 0 -1146.3607667852266 -1565.4625913967393 0 -1565.4625913967393 -920.82876593129913 0 0 0 0 -947.39961091370787 -1278.972435736534 0 -1278.972435736534 -1246.0007107039892 0 0 0 0 -826.67172521381326 -1214.0243399833989 0 -1214.0243399833989 -1252.9033908804704 0 0 0 0 -981.10481629762944 -1252.7284641593578 0 -1252.7284641593578 -1190.5615640174074 0 0 0 0 -1111.7184517488313 -1205.0005352271328 0 -1205.0005352271328 -1104.9706439301663 0 0 0 0 -1044.0337897133504 -1259.9074383560219 0 -1259.9074383560219 -1188.0818904024345 0 0 0 0 11.275480997780846 -15.190054125387576 0 -15.190054125387576 9.37337390368873 0 0 0 0 -954.59835398608993 -1189.5836549252417 0 -1189.5836549252417 -1210.7412852898124 0 0 0 0 261.72001613495377 -1099.6392295924088 0 -1099.6392295924088 -1242.6731075816751 0 0 0 0 3.0734245705576342 -7.8998498864201281 0 -7.8998498864201281 5.4340503037439021 0 0 0 0 -1465.5459698986015 -1126.8674775796535 0 -1126.8674775796535 -2.3299039895937312 0 0 0 0 -962.54835152947999 -403.81400382223728 0 -403.81400382223728 -662.11843622583547 0 0 0 0 362.60775663544337 -1490.1556189808325 0 -1490.1556189808325 3.0110520954185631 0 0 0 0 -532.49874807849847 -2093.850063826183 0 -2093.850063826183 -945.25188640330452 0 0 0 0 -329.67543629971556 332.28790348235179 0 332.28790348235179 40.012704370848951 0 0 0 0 -2001.9700326433958 -480.99695912861353 0 -480.99695912861353 -718.81909594108583 0 0 0 0 -3.859505301168582 -0.15229472412033829 0 -0.15229472412033829 6.842664288525782 0 0 0 0 -1299.9628619808245 -1163.9495993537093 0 -1163.9495993537093 -1.6835145708319033 0 0 0 0 3234.8408138415325 498.50508703770174 0 498.50508703770174 -1075.6557650831819 0 0 0 0 -1998.4887688659364 -806.44232314068358 0 -806.44232314068358 991.08874857914634 0 0 0 0 8.3139913223815967 -7.7204179930650128 0 -7.7204179930650128 5.1286894855132914 0 0 0 0 -757.48016591199848 -548.97551834210753 0 -548.97551834210753 565.37245952246303 0 0 0 0 -711.70009167789249 -459.15760603334638 0 -459.15760603334638 225.70333912664501 0 0 0 0 -837.98471765567228 -772.98008189337634 0 -772.98008189337634 112.22502178081777 0 0 0 0 -827.52664900870877 -724.93599296508182 0 -724.93599296508182 0.47898917411573916 0 0 0 0 -831.29237727185682 -643.74050060629816 0 -643.74050060629816 -60.190134773321915 0 0 0 0 -911.23766529843851 -775.73401912502595 0 -775.73401912502595 -23.694626836513635 0 0 0 0 -948.61149496160215 -762.24279039783869 0 -762.24279039783869 -164.57860631353105 0 0 0 0 -709.23518748762581 -675.10854220699912 0 -675.10854220699912 -470.62817091988109 0 0 0 0 -811.43816955893999 -648.92427773275995 0 -648.92427773275995 -127.50147605640814 0 0 0 0 -616.0221159969733 -478.5791315138631 0 -478.5791315138631 -91.143317457550438 0 0 0 0 -478.40386181313079 -133.00983852804347 0 -133.00983852804347 390.35787994916609 0 0 0 0 -471.86314284469699 -362.26562784374983 0 -362.26562784374983 -110.90611183282454 0 0 0 0 -545.59383577918197 -492.07742123421485 0 -492.07742123421485 -287.84090821936843 0 0 0 0 10.532190445864401 -32.554478864125116 0 -32.554478864125116 17.415615718443007 0 0 0 0 -983.58696305105696 -579.07567735054181 0 -579.07567735054181 -417.07993521474418 0 0 0 0 -830.75114197810035 -1105.0845914223028 0 -1105.0845914223028 -531.62471683425247 0 0 0 0 -541.9651792239456 -404.88347118721867 0 -404.88347118721867 -328.35492882269318 0 0 0 0 -19.839600128095753 -17.607001958922382 0 -17.607001958922382 2.2008440425059348 0 0 0 0 -996.26960243492795 -350.13833462256298 0 -350.13833462256298 -373.50609427095515 0 0 0 0 -536.27078097819367 -462.72060049676975 0 -462.72060049676975 -474.94679668165918 0 0 0 0 -48.214098859978264 -51.467432570805883 0 -51.467432570805883 -54.000205600621825 0 0 0 0 -667.27231232321355 -449.57404498144751 0 -449.57404498144751 -440.51520385494223 0 0 0 0 -821.11405575933168 -313.95436895165767 0 -313.95436895165767 -378.75093946376001 0 0 0 0 -31.942404379189156 0.83487906559022917 0 0.83487906559022917 -22.996935628418555 0 0 0 0 -712.20267826382769 -346.87414151220582 0 -346.87414151220582 -503.99198175195488 0 0 0 0 -681.58382073394023 -415.59098613759852 0 -415.59098613759852 -383.93141462943458 0 0 0 0 16.879439183677334 -17.520124628619996 0 -17.520124628619996 -2.7797450131207597 0 0 0 0 -492.21810628242383 -1046.7062088134699 0 -1046.7062088134699 -1156.448558111384 0 0 0 0 -53.483888319653147 -61.389595165655763 0 -61.389595165655763 -18.98615423986837 0 0 0 0 -665.78805089924526 -494.98334705608363 0 -494.98334705608363 -351.78583059567609 0 0 0 0 -531.65285366824537 -373.51157379239885 0 -373.51157379239885 -281.27179465368681 0 0 0 0 -974.84219529383699 -481.60179169823823 0 -481.60179169823823 -262.76060937703005 0 0 0 0 -976.46635277351015 -473.43090227154607 0 -473.43090227154607 -301.49186088349597 0 0 0 0 -871.80906107585179 -479.00007980203372 0 -479.00007980203372 -378.19381332138437 0 0 0 0 -1080.5172328212066 -500.9440425564535 0 -500.9440425564535 -363.89778037805809 0 0 0 0 -917.94250973655289 -582.11570137610397 0 -582.11570137610397 -748.99992034024035 0 0 0 0 -420.42565220588585 -606.14618792985129 0 -606.14618792985129 -873.31709249026608 0 0 0 0 -767.46100064495113 -321.16588505606342 0 -321.16588505606342 -360.38965274226211 0 0 0 0 -904.59834532072 -910.74606109844035 0 -910.74606109844035 -1125.6186933065474 0 0 0 0 -939.37202980373195 -483.77742976012723 0 -483.77742976012723 -799.93284138990566 0 0 0 0 -68.264722076670864 -33.019975106745733 0 -33.019975106745733 34.488391490079266 0 0 0 0 -50.857180549172824 -54.209534951729061 0 -54.209534951729061 -42.289587882249577 0 0 0 0 -1323.4769389994763 -1209.596740383291 0 -1209.596740383291 -820.86347387795104 0 0 0 0 -983.45086831848312 -692.15870229490611 0 -692.15870229490611 -114.6176267824776 0 0 0 0 -929.52426709712017 -801.04627386927314 0 -801.04627386927314 -0.1530643031001091 0 0 0 0 -918.46732969505501 -737.37899828660557 0 -737.37899828660557 -116.99826813285472 0 0 0 0 -86.787117863423191 108.01537023988931 0 108.01537023988931 826.55790509635699 0 0 0 0 -75.183188870982917 -522.60669641613197 0 -522.60669641613197 1.1820959586184472 0 0 0 0 -12.28899381558827 -10.038664516757308 0 -10.038664516757308 -2.4263158099785187 0 0 0 0 -100.24754624269553 87.923152885356103 0 87.923152885356103 10.160367176693399 0 0 0 0 -1.2091011805258063 -0.12763321670617245 0 -0.12763321670617245 1.7712922018866379 0 0 0 0 -203.59543569798552 -30.999377061605628 0 -30.999377061605628 108.7731794052961 0 0 0 0 -93.020734253681439 -124.27133560949369 0 -124.27133560949369 -0.11164590701810084 0 0 0 0 -98.15067030028149 -91.542053420780576 0 -91.542053420780576 107.21465811497183 0 0 0 0 -38.917726128485924 -18.906911013304693 0 -18.906911013304693 2.6127985067594466 0 0 0 0 -64.038930866692681 -13.518232702859677 0 -13.518232702859677 86.946320155693684 0 0 0 0 -69.027335861711549 -22.742390026634098 0 -22.742390026634098 56.432616223731515 0 0 0 0 30.683050491985341 -42.281780716148205 0 -42.281780716148205 40.67846950807143 0 0 0 0 9.7139117144542979 -93.429914205815294 0 -93.429914205815294 40.580630553304218 0 0 0 0 -1.936689288195339 -44.600996448287333 0 -44.600996448287333 56.020621867879527 0 0 0 0 5.0374124437657883 -88.727751784848806 0 -88.727751784848806 78.839094026356179 0 0 0 0 34.415677528333617 -71.400695545686176 0 -71.400695545686176 0.032180825581408362 0 0 0 0 -173.97880628508369 -14.041013392891045 0 -14.041013392891045 17.29863729212957 0 0 0 0 -171.2281981765409 51.436966343782842 0 51.436966343782842 179.05601419866434 0 0 0 0 -20.485059200692319 -11.14576419123712 0 -11.14576419123712 -7.3303442065574416 0 0 0 0 -158.26114405393309 202.069313651431 0 202.069313651431 267.22820644933381 0 0 0 0 -379.94663674238836 81.631653495398496 0 81.631653495398496 203.06528614432318 0 0 0 0 -232.18350197587279 252.92771927869762 0 252.92771927869762 -131.4893359564885 0 0 0 0 -80.178631333391081 -42.470830657087859 0 -42.470830657087859 -9.6360980188730139 0 0 0 0 -164.34101035195636 -872.93417594894709 0 -872.93417594894709 1801.0268497218203 0 0 0 0 429.32033429318108 -1028.4818736912057 0 -1028.4818736912057 560.31376486620866 0 0 0 0 -334.27084634250787 -127.8140206005628 0 -127.8140206005628 449.75613138909102 0 0 0 0 -197.79667205605074 -112.03902989216658 0 -112.03902989216658 24.949217330882675 0 0 0 0 -47.416088447107029 -33.037479025736673 0 -33.037479025736673 26.504524064893531 0 0 0 0 -252.65843839202716 -82.51511652849149 0 -82.51511652849149 154.08799289792114 0 0 0 0 -156.88475533446763 -2379.4635267386911 0 -2379.4635267386911 -191.19576842347306 0 0 0 0 -1351.4302648940356 -980.4603717304999 0 -980.4603717304999 -509.69856404206075 0 0 0 0 -155.72515542316251 -2494.5763706299185 0 -2494.5763706299185 -512.99555706021056 0 0 0 0 207.56613098623347 -1816.3788916526246 0 -1816.3788916526246 -1212.2042730119574 0 0 0 0 -9.1228849976677111 -4.7614316600544413 0 -4.7614316600544413 7.1774036277627147 0 0 0 0 306.77206460411253 -1428.1595844937474 0 -1428.1595844937474 -146.80279398930725 0 0 0 0 -2555.1327441383619 -942.75114145301632 0 -942.75114145301632 5972.4774764795729 0 0 0 0 -7.9716727185628997 -21.869991984937883 0 -21.869991984937883 4.4907047805097591 0 0 0 0 -450.65085405731224 -2446.1245229164924 0 -2446.1245229164924 -1378.9704075352456 0 0 0 0 2072.0292236503446 561.75144699514203 0 561.75144699514203 -1699.2147539710277 0 0 0 0 175.65503755523241 -1115.3154107869414 0 -1115.3154107869414 744.32141286937986 0 0 0 0 -253.43453376024263 -741.41532752155035 0 -741.41532752155035 467.53505087504163 0 0 0 0 -15.266499085031683 256.31286151131644 0 256.31286151131644 2327.7387742021529 0 0 0 0 -543.69574915351404 -682.90717802115978 0 -682.90717802115978 -736.44677886966383 0 0 0 0 -459.05179840113851 -587.62652796678594 0 -587.62652796678594 -886.20605123449059 0 0 0 0 -588.31878495309502 -619.78100477978296 0 -619.78100477978296 -859.95983534876723 0 0 0 0 -549.18155809185009 -788.63638125121543 0 -788.63638125121543 -1061.4843451308552 0 0 0 0 -453.54281581402756 -642.4170359425334 0 -642.4170359425334 -529.73825639687129 0 0 0 0 -91.955958788297721 -835.83196838262666 0 -835.83196838262666 -1119.9755949268583 0 0 0 0 675.49700892491092 385.61590747018636 0 385.61590747018636 -275.68413066005451 0 0 0 0 308.23686205546255 -185.74046755798918 0 -185.74046755798918 -532.79141503135179 0 0 0 0 -625.33945473689528 -616.72801198602974 0 -616.72801198602974 249.21162367953366 0 0 0 0 -71.463983769695915 -581.76293791324861 0 -581.76293791324861 121.4303881105443 0 0 0 0 -58.245952282405483 -40.594327606335568 0 -40.594327606335568 -25.975975312032517 0 0 0 0 -316.58308807153662 -848.89881999353383 0 -848.89881999353383 1775.7706532667653 0 0 0 0 71.855444679007633 -1023.2500799409536 0 -1023.2500799409536 266.34644589298682 0 0 0 0 1139.9532178957597 -1232.2648778658622 0 -1232.2648778658622 259.63232891778171 0 0 0 0 -797.76881027498166 -1477.0350127384445 0 -1477.0350127384445 542.78934226401907 0 0 0 0 -595.6633133412397 -1536.3863945167395 0 -1536.3863945167395 518.43255897051131 0 0 0 0 -1107.1169562409777 -2004.3416173625228 0 -2004.3416173625228 655.51890400718548 0 0 0 0 -782.43574170162901 -1358.0777599093999 0 -1358.0777599093999 1239.3982198701124 0 0 0 0 -21.891883769944513 -20.152959041060463 0 -20.152959041060463 -11.92891669724753 0 0 0 0 -443.58158740811632 -1062.6198314826543 0 -1062.6198314826543 214.05968318498344 0 0 0 0 -960.84860338119324 -1613.1693135245732 0 -1613.1693135245732 1700.5931510382215 0 0 0 0 -69.986380845250096 -324.81987826625118 0 -324.81987826625118 1545.9281014595254 0 0 0 0 -52.333783104390022 -832.49246475558903 0 -832.49246475558903 291.98772943967197 0 0 0 0 451.40322299615946 -354.13513380034419 0 -354.13513380034419 -858.95840384319308 0 0 0 0 -628.93282979712239 -2083.0302320980845 0 -2083.0302320980845 -307.9638296011326 0 0 0 0 -77.809361367995734 -1142.5432100301896 0 -1142.5432100301896 -1493.0560611479596 0 0 0 0 15.966313848868595 -374.24505463791684 0 -374.24505463791684 -1312.4220332653786 0 0 0 0 190.29653012029303 -649.46325601335775 0 -649.46325601335775 -1045.8997608625068 0 0 0 0 140.79498391733796 -330.90575587793137 0 -330.90575587793137 -1260.6385845809928 0 0 0 0 473.55539640077041 -351.87656761766993 0 -351.87656761766993 -1549.7274898861942 0 0 0 0 274.04413578094682 -176.58536691107292 0 -176.58536691107292 -1115.3947456745518 0 0 0 0 -5.4246560537658297 -1259.3000685108191 0 -1259.3000685108191 -739.26640873696306 0 0 0 0 -120.90755499461375 -277.24000790272839 0 -277.24000790272839 -696.35348932921625 0 0 0 0 92.998897616522015 -41.028171827006076 0 -41.028171827006076 13.019149845505069 0 0 0 0 -530.31593963901105 -1402.1616468884167 0 -1402.1616468884167 -1512.3177270864035 0 0 0 0 174.34370675303762 -958.38053874800175 0 -958.38053874800175 -1343.1499726010807 0 0 0 0 154.05922346838634 -249.27088408485724 0 -249.27088408485724 -1456.5813446499742 0 0 0 0 -6.948140492902894 -1065.8940430520743 0 -1065.8940430520743 100.69605425164627 0 0 0 0 1534.1654975195124 -61.743000530696008 0 -61.743000530696008 -909.55923744405845 0 0 0 0 -1423.9042478019837 -647.17749769138754 0 -647.17749769138754 -957.19451672493597 0 0 0 0 114.433062011929 -1208.1901680015435 0 -1208.1901680015435 -1892.5344648810351 0 0 0 0 -191.925934785555 -397.4762135031051 0 -397.4762135031051 -2375.6792157975724 0 0 0 0 100.72880183500268 -53.766628499410729 0 -53.766628499410729 8.4105488740927683 0 0 0 0 -830.31856380318641 -1576.9414432326739 0 -1576.9414432326739 -4481.0954602923885 0 0 0 0 11.974109105042203 -24.972644267515065 0 -24.972644267515065 1.7253338294012792 0 0 0 0 -705.87867367439321 -2625.8531922178954 0 -2625.8531922178954 -1492.1710671321489 0 0 0 0 213.70295890187845 -1760.1902198170428 0 -1760.1902198170428 -2856.1734538023302 0 0 0 0 4097.4718625279493 1084.7562925039674 0 1084.7562925039674 -201.42394196672831 0 0 0 0 -2278.1402755980671 -1341.8746628867884 0 -1341.8746628867884 -656.36156726130866 0 0 0 0 -2038.6744404209021 1311.1279196559335 0 1311.1279196559335 -1603.6724426740548 0 0 0 0 -4202.8493515013834 -543.6671134911885 0 -543.6671134911885 -684.60590257676085 0 0 0 0 -446.87009693740401 557.58014292641019 0 557.58014292641019 -671.86194788941225 0 0 0 0 -1609.5150738144002 2054.8236171064782 0 2054.8236171064782 333.31938948090101 0 0 0 0 -1255.4246702085366 365.06559226501849 0 365.06559226501849 -519.5445982569654 0 0 0 0 -1481.307466924889 1678.7218556472508 0 1678.7218556472508 1104.2791495432029 0 0 0 0 -1149.0498989003099 -224.67977331765724 0 -224.67977331765724 2253.2549036756973 0 0 0 0 414.33900353577337 -2533.8357708222757 0 -2533.8357708222757 76.266505265666638 0 0 0 0 -1739.6589625749402 -2721.4456651623914 0 -2721.4456651623914 -2406.8096915769274 0 0 0 0 149.42707249446539 1842.3571140708227 0 1842.3571140708227 -83.690946952643571 0 0 0 0 -3500.8247783345851 -3089.0006263251198 0 -3089.0006263251198 -1787.206739915302 0 0 0 0 47.504350014477666 -21.816303372633314 0 -21.816303372633314 -41.615376363585369 0 0 0 0 -2231.5311269765225 -2367.0552306982936 0 -2367.0552306982936 -2048.6255245277571 0 0 0 0 -131.55059931775031 -961.738651547872 0 -961.738651547872 -1754.0403995276713 0 0 0 0 -1132.7392723496305 -1672.8100865510642 0 -1672.8100865510642 -1992.753178200277 0 0 0 0 -2010.3796046007919 -1764.5269546323398 0 -1764.5269546323398 -1769.3750133770227 0 0 0 0 -2617.032376202842 -1368.1771285550931 0 -1368.1771285550931 -1628.0992023556028 0 0 0 0 -2595.8245070611592 -1474.0930342835636 0 -1474.0930342835636 -2213.3816427134443 0 0 0 0 203.72752922454674 -749.43065551208565 0 -749.43065551208565 -1062.5226489713905 0 0 0 0 -560.38709833872417 -1069.3669096731683 0 -1069.3669096731683 -1765.8278738401132 0 0 0 0 -731.2998617762205 -1000.6240335901093 0 -1000.6240335901093 -1024.8534659151246 0 0 0 0 -435.44041542849573 -1061.470012038304 0 -1061.470012038304 -1460.732584633748 0 0 0 0 -815.01678207507939 -1161.7295857628924 0 -1161.7295857628924 -1296.039402573806 0 0 0 0 -1165.2286026371294 -1661.0198026766011 0 -1661.0198026766011 -1762.1861717491993 0 0 0 0 -754.64938795895432 -1356.228560792355 0 -1356.228560792355 -1602.4072093120485 0 0 0 0 -1304.8799780980262 -1505.0224484939245 0 -1505.0224484939245 -1329.2948792357929 0 0 0 0 -1274.0368286195662 -1559.176814095772 0 -1559.176814095772 -1401.4055838964414 0 0 0 0 -1504.4139916641579 -1632.8524961798685 0 -1632.8524961798685 -1302.0169437928853 0 0 0 0 -1379.4759169016324 -1466.2246596450277 0 -1466.2246596450277 -1136.4594648582861 0 0 0 0 -1065.4769871003809 -1467.1166221558524 0 -1467.1166221558524 -1366.5596480219392 0 0 0 0 -708.43618054009858 -1094.7698201581807 0 -1094.7698201581807 -1191.1730125438189 0 0 0 0 -819.76783541843179 -1273.0891444592853 0 -1273.0891444592853 -1390.6583516451501 0 0 0 0 -997.12949033267796 -1302.4018848064879 0 -1302.4018848064879 -1188.0112531447958 0 0 0 0 -2764.2978400485008 -1607.0739302544389 0 -1607.0739302544389 -1942.3240847084962 0 0 0 0 -2520.5109263929771 -2048.5791322062141 0 -2048.5791322062141 -1767.1340773084085 0 0 0 0 -4201.4480017084279 -1352.6016787136905 0 -1352.6016787136905 -260.22929027403006 0 0 0 0 -2315.1905392832123 -2192.82601410395 0 -2192.82601410395 -2196.911791385035 0 0 0 0 -3154.0613155168248 -2324.9232360817259 0 -2324.9232360817259 -1582.7771331827389 0 0 0 0 -2629.7993563500349 -2306.0611397990724 0 -2306.0611397990724 -3012.5381925640977 0 0 0 0 -4805.9121711198241 -3005.9141347027617 0 -3005.9141347027617 -2346.4016050216742 0 0 0 0 46.931551875730946 -45.475701791624118 0 -45.475701791624118 -49.026214073186225 0 0 0 0 -6048.5436755811388 -3168.4838767573237 0 -3168.4838767573237 -1694.8464820312802 0 0 0 0 -2110.5372350836114 -1854.1748343375511 0 -1854.1748343375511 -2194.2856360539445 0 0 0 0 -2152.8963993523212 -1395.633818972623 0 -1395.633818972623 -2219.253056655929 0 0 0 0 -2144.6770707274409 -1459.5381918779167 0 -1459.5381918779167 -1731.9337478138041 0 0 0 0 -2114.5581562822681 -1877.0116176179145 0 -1877.0116176179145 -1737.2778034196235 0 0 0 0 -1529.9702492012584 -1552.6805002866313 0 -1552.6805002866313 -1472.1698409169912 0 0 0 0 -1553.7510717569676 -1719.5381590965844 0 -1719.5381590965844 -1864.8409554581158 0 0 0 0 -2111.6459399177111 -1886.1880966380704 0 -1886.1880966380704 -1409.0903874848736 0 0 0 0 -1761.1074588577903 -1649.9944065482705 0 -1649.9944065482705 -1214.6234028568724 0 0 0 0 -1905.4773280866793 -1837.7694696393446 0 -1837.7694696393446 -1397.8842730635079 0 0 0 0 -2094.4423591150844 -1693.767774239619 0 -1693.767774239619 -1157.8175656836247 0 0 0 0 -1508.3092834328709 -1736.5174982826284 0 -1736.5174982826284 -1555.4405304104585 0 0 0 0 -1650.7398780526273 -1548.2961081120302 0 -1548.2961081120302 -1083.7856562721427 0 0 0 0 -1798.5175999551429 -1709.1979501712485 0 -1709.1979501712485 -1225.233937201454 0 0 0 0 -2128.4943154946086 -1757.9081040128949 0 -1757.9081040128949 -1116.0512345446041 0 0 0 0 -1992.2965529207577 -1650.2959291270236 0 -1650.2959291270236 -1006.5586326376069 0 0 0 0 -2011.0431406602729 -1698.3670271966257 0 -1698.3670271966257 -1085.9718222023803 0 0 0 0 -2126.1376494215801 -1643.3766495378804 0 -1643.3766495378804 -1033.812220300053 0 0 0 0 -2131.4455859289301 -1679.0811522418444 0 -1679.0811522418444 -970.37751734722406 0 0 0 0 -2354.7820632093935 -1690.4458199648652 0 -1690.4458199648652 -1073.6242622197606 0 0 0 0 -2235.0534853348508 -1622.2739831467625 0 -1622.2739831467625 -1037.9001423059381 0 0 0 0 -2350.2718036100123 -1683.4735938497324 0 -1683.4735938497324 -1091.0480023666751 0 0 0 0 -2240.147746356437 -1854.9606946183485 0 -1854.9606946183485 -1328.0560653937282 0 0 0 0 -2358.8449278860353 -1679.1281482123304 0 -1679.1281482123304 -1086.1714680846781 0 0 0 0 -2350.9336779204605 -1675.8602593705291 0 -1675.8602593705291 -1106.7151813660748 0 0 0 0 -2681.9128457036568 -1810.1824396668235 0 -1810.1824396668235 -1084.897340017953 0 0 0 0 -2175.6649667151942 -1768.3462398583652 0 -1768.3462398583652 -1363.9564504687442 0 0 0 0 -2250.0659826453775 -1933.2723389770836 0 -1933.2723389770836 -1722.1518300427124 0 0 0 0 -2530.965945146163 -1324.696518839628 0 -1324.696518839628 -1025.296315119369 0 0 0 0 58.737499990833527 -61.338354107414006 0 -61.338354107414006 -27.36851809158253 0 0 0 0 -2253.2434211775253 -1638.9477394520654 0 -1638.9477394520654 -675.8773745931685 0 0 0 0 -554.76717907274724 -1953.4464364103551 0 -1953.4464364103551 -2051.1538972591297 0 0 0 0 -1074.9121990101412 -1846.9432622907916 0 -1846.9432622907916 504.27152005303651 0 0 0 0 -2267.2710556419624 -1584.0201951175113 0 -1584.0201951175113 -865.0327939283452 0 0 0 0 -2136.4861382486124 -1679.0748076345481 0 -1679.0748076345481 -868.10653906059451 0 0 0 0 -2135.8685469902703 -1675.5671072219266 0 -1675.5671072219266 -960.7517900406383 0 0 0 0 -2049.9706040517194 -1618.3060498174746 0 -1618.3060498174746 -882.78022523550317 0 0 0 0 -2072.7609327438986 -1675.2102384497412 0 -1675.2102384497412 -971.50700993376086 0 0 0 0 -1959.7311208382016 -1668.4962528704782 0 -1668.4962528704782 -1006.2123676825549 0 0 0 0 -1937.6436456897645 -1591.5920614423812 0 -1591.5920614423812 -898.91715231299167 0 0 0 0 -1863.7579764562834 -1560.3398704007268 0 -1560.3398704007268 -910.0730904918164 0 0 0 0 -2119.1979934882838 -1654.8513447330333 0 -1654.8513447330333 -847.39986893557943 0 0 0 0 -1598.0103564838646 -1503.3765064596373 0 -1503.3765064596373 -984.96869392081862 0 0 0 0 -1781.0362519624468 -1611.2384083148645 0 -1611.2384083148645 -1048.2724558592308 0 0 0 0 -1838.7802024584525 -1465.1141052429448 0 -1465.1141052429448 -784.99748078081757 0 0 0 0 -1956.453888211312 -1402.810028901964 0 -1402.810028901964 -625.50656054227147 0 0 0 0 -1872.4770332158078 -1483.3981331160176 0 -1483.3981331160176 -781.69285562568257 0 0 0 0 -2192.8777679780032 -1632.4254489683663 0 -1632.4254489683663 -673.42521669552661 0 0 0 0 -2237.18872204941 -1561.0204096602392 0 -1561.0204096602392 -559.47328305395786 0 0 0 0 -2064.184540151793 -1618.4733884112793 0 -1618.4733884112793 -825.90648364252411 0 0 0 0 -2027.9325025422731 -1553.044696766563 0 -1553.044696766563 -760.72899158124346 0 0 0 0 -2056.139985708287 -1559.0033365116687 0 -1559.0033365116687 -760.21870105496055 0 0 0 0 -2364.8831780154724 -1512.4857990446617 0 -1512.4857990446617 -369.79352856148034 0 0 0 0 -2182.8466115257761 -1445.9059583159251 0 -1445.9059583159251 -486.79564823198598 0 0 0 0 -1635.1045053332928 -1305.4680758199829 0 -1305.4680758199829 -664.31623106682673 0 0 0 0 -2012.6934745573672 -1316.3436094002682 0 -1316.3436094002682 -392.25364475010429 0 0 0 0 -2012.9507850673249 -1296.2017096787317 0 -1296.2017096787317 -494.040795642999 0 0 0 0 -2220.9419621110719 -1145.9952169444005 0 -1145.9952169444005 -86.805636346514802 0 0 0 0 -1819.9214346036606 -838.92421790049411 0 -838.92421790049411 77.755860123870661 0 0 0 0 -1634.3442651894293 -1098.2475755684427 0 -1098.2475755684427 -392.06350509630283 0 0 0 0 3322.8035173655662 -1649.6942740196537 0 -1649.6942740196537 -4550.7560121010174 0 0 0 0 -2418.5825164635025 -1332.4631247867947 0 -1332.4631247867947 -180.35293332563015 0 0 0 0 -121.96113068808336 -1674.4065793460468 0 -1674.4065793460468 2734.7482259362878 0 0 0 0 14.885460399896147 -9.3272491778489552 0 -9.3272491778489552 4.734839721792298 0 0 0 0 -661.03422695226618 1191.7740843659267 0 1191.7740843659267 3205.9196119247354 0 0 0 0 -1016.3935774325946 -1251.5582543809141 0 -1251.5582543809141 -1050.183846438711 0 0 0 0 -974.1216452823428 -1250.1802110882127 0 -1250.1802110882127 -1050.3991970267671 0 0 0 0 -1037.1775357487422 -1364.0447558564119 0 -1364.0447558564119 -1210.6898707919754 0 0 0 0 -1287.9130518975726 -1395.2085761264898 0 -1395.2085761264898 -1007.6864270774822 0 0 0 0 -1201.7490893065115 -1346.2231208371813 0 -1346.2231208371813 -1027.2179243311111 0 0 0 0 -1275.294335194325 -1460.058450270677 0 -1460.058450270677 -1137.5279281085241 0 0 0 0 -1590.046952090488 -1460.8609131683188 0 -1460.8609131683188 -953.87772041826975 0 0 0 0 -1318.6106556971208 -1333.1982644961099 0 -1333.1982644961099 -895.54650614637649 0 0 0 0 -1377.4916392088635 -1224.95735594086 0 -1224.95735594086 -680.24809791476582 0 0 0 0 -1627.9287344361073 -1386.8726754349191 0 -1386.8726754349191 -773.68342060840223 0 0 0 0 -1331.551298264123 -1048.3532087550848 0 -1048.3532087550848 -452.09229985103593 0 0 0 0 -1683.2782680773889 -1261.5170139371039 0 -1261.5170139371039 -517.89174837013707 0 0 0 0 -1390.4008101208601 -1158.2477250057273 0 -1158.2477250057273 -614.4472134490934 0 0 0 0 -1348.1001214787611 -1171.8585340338686 0 -1171.8585340338686 -610.10616979200859 0 0 0 0 -1104.6291153936327 -1256.570002672699 0 -1256.570002672699 -904.9447872567689 0 0 0 0 -1111.1800797801843 -1285.1515079036035 0 -1285.1515079036035 -866.86636568006361 0 0 0 0 -418.13795230315736 -606.0968884423055 0 -606.0968884423055 -886.12062545330264 0 0 0 0 48.073866238305854 -73.637456873145283 0 -73.637456873145283 -0.3351484971251466 0 0 0 0 -1079.1726793819089 -1150.2720185653889 0 -1150.2720185653889 -782.41326020564884 0 0 0 0 -1050.0802428110037 -1175.2370195083495 0 -1175.2370195083495 -761.2892695646733 0 0 0 0 -1218.3862072535267 -548.22411722241668 0 -548.22411722241668 -170.75112779893971 0 0 0 0 -763.69748298596824 -793.1903740351263 0 -793.1903740351263 -685.09918373086839 0 0 0 0 -1066.5969265465169 -889.58004468286981 0 -889.58004468286981 -456.87115008273395 0 0 0 0 -1093.9810941655251 -1177.5783888371516 0 -1177.5783888371516 -900.54662556824042 0 0 0 0 -813.62863536790246 -1012.7985302852467 0 -1012.7985302852467 -804.47008857439505 0 0 0 0 -1221.0184626450646 -364.05171672976576 0 -364.05171672976576 -38.619425692624645 0 0 0 0 -301.23819600374554 -8.7459630217490485 0 -8.7459630217490485 1125.429399208515 0 0 0 0 -271.61180268142198 -478.02751560760225 0 -478.02751560760225 53.960904679435771 0 0 0 0 -949.21940645162249 593.43286793296284 0 593.43286793296284 111.5812810112111 0 0 0 0 -424.73510681538028 -124.8663617890852 0 -124.8663617890852 -332.72034046298359 0 0 0 0 -469.02539303457979 -737.99677488560519 0 -737.99677488560519 -20.790607212402392 0 0 0 0 -6.3463472455346732 4.0831532648505799 0 4.0831532648505799 -3.7156369981984199 0 0 0 0 -1421.1896980800229 -765.32279802640551 0 -765.32279802640551 -241.97756338787985 0 0 0 0 174.32488390183426 -377.82680813413754 0 -377.82680813413754 -205.98278552703414 0 0 0 0 -1111.8496373281814 -336.19745919541674 0 -336.19745919541674 99.401498880528379 0 0 0 0 -617.82527507751365 -892.55023736233125 0 -892.55023736233125 -67.077583528582181 0 0 0 0 -57.293106544947534 -58.753870392702595 0 -58.753870392702595 -20.277570281933492 0 0 0 0 -680.53260868143116 -901.64668622598401 0 -901.64668622598401 890.44496472901665 0 0 0 0 -732.21832383231958 -556.42178490271181 0 -556.42178490271181 846.46587080931931 0 0 0 0 -816.63668823793159 -362.35455594355699 0 -362.35455594355699 965.44588655812549 0 0 0 0 29.239622394482353 -44.460865473016497 0 -44.460865473016497 12.979930327384295 0 0 0 0 -561.09680043364642 -1607.682233119951 0 -1607.682233119951 -2871.9553047956142 0 0 0 0 -1951.3923057529028 -399.54344710300938 0 -399.54344710300938 1132.4053418052208 0 0 0 0 232.64092776676989 -77.35523720375204 0 -77.35523720375204 975.73415976997057 0 0 0 0 -0.76690685996072716 -3037.4706826826559 0 -3037.4706826826559 -2016.1444086294869 0 0 0 0 -1306.1970785284357 -4151.8042813878201 0 -4151.8042813878201 -2721.947984753293 0 0 0 0 -1675.6755376992878 -4020.308279245186 0 -4020.308279245186 -397.84430803450232 0 0 0 0 -1700.3865787483519 -3677.4869403859775 0 -3677.4869403859775 5.7157023444960942 0 0 0 0 -1760.2857548376778 -3273.4291535832599 0 -3273.4291535832599 -1426.7989854963816 0 0 0 0 -1805.6071827102096 -3169.5316953229922 0 -3169.5316953229922 -979.50400573739898 0 0 0 0 -2055.3214712587069 -3695.5441086724531 0 -3695.5441086724531 -537.89015818421467 0 0 0 0 -934.81013751261708 -3017.107116125324 0 -3017.107116125324 -133.43460923896055 0 0 0 0 -1082.1552325305238 -4014.7185572041271 0 -4014.7185572041271 -647.72091319422907 0 0 0 0 -2253.2184647030954 -4219.6435539059312 0 -4219.6435539059312 -547.69436453349772 0 0 0 0 -1953.7824748367711 -2584.7815203339414 0 -2584.7815203339414 -2571.5038585437287 0 0 0 0 -5.0208896960762388 -13.715325983907462 0 -13.715325983907462 -4.9504183540855138 0 0 0 0 1950.778951170505 -1386.8836023992553 0 -1386.8836023992553 479.26933016328621 0 0 0 0 -526.29649222009175 -3005.7596062648954 0 -3005.7596062648954 -301.25594157783053 0 0 0 0 -3829.2963307754326 -2267.4224769169305 0 -2267.4224769169305 -3.2814201315850369 0 0 0 0 -1148.2907591249532 -1217.0713678995453 0 -1217.0713678995453 1226.1216491740852 0 0 0 0 231.35659342480358 -1248.4332167543762 0 -1248.4332167543762 1198.4779017898763 0 0 0 0 -1062.1699182337616 -1405.6245714748129 0 -1405.6245714748129 892.1377156010567 0 0 0 0 -2035.4892888807954 -3812.6691867572044 0 -3812.6691867572044 -1147.0793466475589 0 0 0 0 -4157.6015312726813 -2054.1165993795803 0 -2054.1165993795803 1089.8480458209087 0 0 0 0 -26.093464165144383 -12.864175473358983 0 -12.864175473358983 -5.7248336139702189 0 0 0 0 -2631.0474706124514 294.4920692758642 0 294.4920692758642 995.07608938179328 0 0 0 0 20.801625050320581 -1568.4644970147856 0 -1568.4644970147856 -1510.3629488429506 0 0 0 0 -879.29025719102356 824.13327408002806 0 824.13327408002806 -696.37296977122605 0 0 0 0 30.363933019782053 -38.541813454057774 0 -38.541813454057774 0.078768383493297733 0 0 0 0 -6.4390993213605157 -3.5636829560922507 0 -3.5636829560922507 -3.6290417628042064 0 0 0 0 -1618.6951000102199 -24.569486322528974 0 -24.569486322528974 646.55071685652365 0 0 0 0 -625.83605689795513 -789.42877341658459 0 -789.42877341658459 987.4846870735928 0 0 0 0 -15.983442631099024 -632.18920472023456 0 -632.18920472023456 1081.9737790354702 0 0 0 0 -61.708767341178714 -31.668098812034614 0 -31.668098812034614 -14.408665523308883 0 0 0 0 -83.046957584036136 -686.53466995608869 0 -686.53466995608869 1302.8861168666626 0 0 0 0 265.06627234104963 -395.56954889554254 0 -395.56954889554254 515.44567035014916 0 0 0 0 -661.90398072466633 -136.39857006865896 0 -136.39857006865896 1131.0411223473202 0 0 0 0 -306.32990294539195 -184.9847704636486 0 -184.9847704636486 1733.7705285988923 0 0 0 0 70.310773476972827 -286.54740216624486 0 -286.54740216624486 1160.2677707643015 0 0 0 0 -533.61088125844253 -671.60403257916914 0 -671.60403257916914 1027.5486357163027 0 0 0 0 -221.24821103461545 -380.20109446041579 0 -380.20109446041579 1284.784774568805 0 0 0 0 -1061.9096230047144 -1500.294752069407 0 -1500.294752069407 1765.1923868046147 0 0 0 0 -1030.3659819560853 -1964.3848779443142 0 -1964.3848779443142 524.20660164890432 0 0 0 0 -581.23472054614194 -927.77526479447147 0 -927.77526479447147 1492.7255913256377 0 0 0 0 -16.339943170834943 -12.091268138214517 0 -12.091268138214517 -4.5487515664651283 0 0 0 0 -604.01490794644633 -519.54098324062215 0 -519.54098324062215 3577.2635504708596 0 0 0 0 -908.07666805767803 -895.58093906577415 0 -895.58093906577415 -1513.2220591710502 0 0 0 0 -1155.6542950977582 -2056.7456686513269 0 -2056.7456686513269 -2096.0977872148796 0 0 0 0 118.92813037502492 -1329.1606099229502 0 -1329.1606099229502 -2122.6031120652187 0 0 0 0 1031.7713511271577 -76.255438872118248 0 -76.255438872118248 -1550.1717702170663 0 0 0 0 -362.00144339143299 -756.52421776194387 0 -756.52421776194387 -1488.213710996919 0 0 0 0 -334.37022998632165 -1434.4638228559925 0 -1434.4638228559925 -1880.3604747525096 0 0 0 0 -464.31901701951574 -2025.115163527109 0 -2025.115163527109 -3192.0280842905777 0 0 0 0 -361.55216269181983 -1546.8335053290066 0 -1546.8335053290066 -4237.3717378231086 0 0 0 0 -33.496876916498877 -570.62300111502555 0 -570.62300111502555 -1368.8280300800761 0 0 0 0 -1245.4270052783977 -1900.9049899681413 0 -1900.9049899681413 -2181.0052546507395 0 0 0 0 -616.74576003360562 -755.49969460393186 0 -755.49969460393186 -1033.6602772206679 0 0 0 0 -322.04336361620517 -753.81806586715538 0 -753.81806586715538 -1176.4547133632805 0 0 0 0 43.242970164908911 -2.4326086938090157 0 -2.4326086938090157 -575.64384808918112 0 0 0 0 -35.619512100700149 -32.23478722631863 0 -32.23478722631863 -12.459072188192266 0 0 0 0 -424.28261784918141 -586.19914764734858 0 -586.19914764734858 -901.10094614390255 0 0 0 0 587.26188513329544 -1168.0905787043375 0 -1168.0905787043375 1852.2621121881675 0 0 0 0 -589.57283806905616 -564.03377409949462 0 -564.03377409949462 1832.7943386519473 0 0 0 0 -221.93266298194067 -1487.8034518874993 0 -1487.8034518874993 3213.2420858198166 0 0 0 0 230.83714618111844 -578.26107957538625 0 -578.26107957538625 2105.1541785360314 0 0 0 0 -1137.8355460325547 -1241.0881462266043 0 -1241.0881462266043 -2491.3160811112029 0 0 0 0 203.21295273080955 -1522.7653931453801 0 -1522.7653931453801 1121.0963494167518 0 0 0 0 -33.664846891828347 -42.572968045180303 0 -42.572968045180303 -12.096120279885241 0 0 0 0 -15.734218030745524 -11.901755646832754 0 -11.901755646832754 3.1923155192281598 0 0 0 0 -1174.5720708130102 -2413.423870317718 0 -2413.423870317718 -5122.5878858875367 0 0 0 0 -1099.9815393506287 323.1786131524841 0 323.1786131524841 -94.859562833094969 0 0 0 0 -22.961704590947193 -130.87523058989609 0 -130.87523058989609 -332.06940412358381 0 0 0 0 -1.3268767743425371 -26.190838017800104 0 -26.190838017800104 35.425345456144271 0 0 0 0 -229.27676244528266 -162.41526304467698 0 -162.41526304467698 22.401884044829785 0 0 0 0 -106.8026385111807 -243.11971220150008 0 -243.11971220150008 -264.74835026240908 0 0 0 0 -697.14316501612484 -1005.9605264479178 0 -1005.9605264479178 -430.83763213882048 0 0 0 0 -428.85260083575849 -836.52423564681885 0 -836.52423564681885 -864.81899180010078 0 0 0 0 -469.54275201875134 -745.40735308479634 0 -745.40735308479634 -180.13046981533989 0 0 0 0 6.2056067591808244 -14.238964434677314 0 -14.238964434677314 21.179259059455546 0 0 0 0 -471.94353316313936 -880.18847398480284 0 -880.18847398480284 -294.22699284916598 0 0 0 0 973.15981588119757 -660.75228874705135 0 -660.75228874705135 -349.65780436337081 0 0 0 0 -2113.2677422717534 -1103.3666578499833 0 -1103.3666578499833 160.35689954894769 0 0 0 0 48.83207344710172 -1311.2146501531724 0 -1311.2146501531724 -988.60605708812727 0 0 0 0 -0.45735329493618337 -1377.6490293148499 0 -1377.6490293148499 276.07798353019098 0 0 0 0 2.9522566133569228 -8.0096903624731226 0 -8.0096903624731226 6.1635055298164048 0 0 0 0 -1495.2118360678287 -643.82126611565764 0 -643.82126611565764 -116.39249199492042 0 0 0 0 -960.95327507919865 -1658.3955233213201 0 -1658.3955233213201 653.49773881555302 0 0 0 0 -1020.8267373069539 -1256.3741997952748 0 -1256.3741997952748 567.8515767912977 0 0 0 0 -469.36683771521348 -1462.4913607298658 0 -1462.4913607298658 -67.621060874444083 0 0 0 0 -1052.9454151232931 -1533.5058730961828 0 -1533.5058730961828 498.209596358618 0 0 0 0 -1090.2538045315596 -1684.1249310271905 0 -1684.1249310271905 -85.256205009529367 0 0 0 0 -831.45593422919046 -1741.6249010881838 0 -1741.6249010881838 517.14341491290179 0 0 0 0 -841.07005080231465 -1673.9789017906551 0 -1673.9789017906551 434.84757131774859 0 0 0 0 -997.36259122494084 -1380.6157875852405 0 -1380.6157875852405 -71.297113322332734 0 0 0 0 -703.94683009179425 -799.12779961416527 0 -799.12779961416527 293.8342148539632 0 0 0 0 -381.71204822657455 -1374.1919732520619 0 -1374.1919732520619 55.748454376953305 0 0 0 0 20.944030602724524 -989.36535059365269 0 -989.36535059365269 1236.0080401914965 0 0 0 0 76.157747262172052 -1453.9601779260556 0 -1453.9601779260556 868.66021417581942 0 0 0 0 -646.47799996811955 -1047.8317282273092 0 -1047.8317282273092 1303.4564931169443 0 0 0 0 -764.24972359562526 -1370.8770317575982 0 -1370.8770317575982 493.20720416784388 0 0 0 0 -1090.2977388208674 -1197.1709124027511 0 -1197.1709124027511 922.197740920863 0 0 0 0 -1230.0538424959232 -1927.7649885913997 0 -1927.7649885913997 867.30724806812259 0 0 0 0 -1027.9604323763197 -1519.7286951251444 0 -1519.7286951251444 1594.0343678535428 0 0 0 0 -305.78964205216471 -1675.8949489213519 0 -1675.8949489213519 -2375.2940422069078 0 0 0 0 -733.15034307473979 -2914.9693041008868 0 -2914.9693041008868 357.44508233226952 0 0 0 0 -747.78939626221108 -2850.8710521180374 0 -2850.8710521180374 2074.6166929194878 0 0 0 0 -874.12510327744531 -1731.8149444857008 0 -1731.8149444857008 1718.975698712311 0 0 0 0 -122.78631240307004 -1324.9442528298241 0 -1324.9442528298241 1836.5427993018238 0 0 0 0 1514.344078463706 -1380.0551356561118 0 -1380.0551356561118 1657.3095309048222 0 0 0 0 -128.64305482583586 -1502.4538813276595 0 -1502.4538813276595 2473.6376983883674 0 0 0 0 2089.1700631647254 -959.90202215911268 0 -959.90202215911268 1787.0475487661897 0 0 0 0 962.34234251838643 -811.7082462702092 0 -811.7082462702092 2849.5308367682737 0 0 0 0 -443.49670528923161 -2313.7817259519943 0 -2313.7817259519943 3006.0866721520579 0 0 0 0 5.4209481849975418 -106.97277722584113 0 -106.97277722584113 -3272.918065853577 0 0 0 0 -7.5159893077324682 -15.621452913051826 0 -15.621452913051826 -16.695780065423293 0 0 0 0 -76.766841300719534 66.686742360252538 0 66.686742360252538 -921.61952647048747 0 0 0 0 779.37186535494402 -820.82099836812995 0 -820.82099836812995 -2925.0913957427256 0 0 0 0 1059.9398077370715 1447.3541825388311 0 1447.3541825388311 534.33304987610609 0 0 0 0 19.772629430073664 -10.475861532994884 0 -10.475861532994884 5.1075576181369797 0 0 0 0 621.02550048797275 15.48335305906221 0 15.48335305906221 -652.51254549546866 0 0 0 0 2502.028018104611 907.17031979300373 0 907.17031979300373 -1638.0768740957064 0 0 0 0 231.36250155128073 -1284.8505753739737 0 -1284.8505753739737 -743.87904895958127 0 0 0 0 1649.1099230323453 100.07900884453557 0 100.07900884453557 608.08437119154041 0 0 0 0 2107.6144248396618 -2863.8330140142034 0 -2863.8330140142034 2346.4369124298755 0 0 0 0 -106.73522227161448 -1487.6002359711274 0 -1487.6002359711274 -788.98884329924476 0 0 0 0 -17.887485299998502 -45.881044125766721 0 -45.881044125766721 -52.665652807942735 0 0 0 0 2413.2355887139856 -2868.5064332907932 0 -2868.5064332907932 -619.08728694176534 0 0 0 0 803.59702662088966 -1909.750257933043 0 -1909.750257933043 2649.4251216479461 0 0 0 0 1217.7330260803719 -1035.7235780258416 0 -1035.7235780258416 1604.0586357813008 0 0 0 0 191.84782563921908 -1450.5013797065694 0 -1450.5013797065694 1712.6319753360876 0 0 0 0 701.65520249766996 -997.31798162241466 0 -997.31798162241466 1168.5424757795699 0 0 0 0 1380.7778447429155 -1719.9092658880181 0 -1719.9092658880181 1057.5727794286649 0 0 0 0 48.451449301821413 -903.70053719287534 0 -903.70053719287534 543.10362746630562 0 0 0 0 638.97063965626876 -1165.7895898971328 0 -1165.7895898971328 1061.9455393228395 0 0 0 0 578.24752287505544 -1474.9100340785299 0 -1474.9100340785299 144.40908464702079 0 0 0 0 641.16673982210341 -1016.9893705966606 0 -1016.9893705966606 -200.01993953683996 0 0 0 0 626.94223037696793 -1570.5897956850022 0 -1570.5897956850022 -26.479418751883713 0 0 0 0 1364.854624734231 -1401.4326043898327 0 -1401.4326043898327 5.7467605836282019 0 0 0 0 1053.859450138485 -1924.5002494027376 0 -1924.5002494027376 -558.74942914638086 0 0 0 0 1043.4048150046319 -1308.6971419981178 0 -1308.6971419981178 -887.79844283715647 0 0 0 0 524.65025897242595 -1690.0492579987695 0 -1690.0492579987695 -1117.955587804674 0 0 0 0 516.59512216275698 -1322.1171590849826 0 -1322.1171590849826 -1572.3987482131779 0 0 0 0 224.93246892769821 -1503.4690859626135 0 -1503.4690859626135 -736.08385835023364 0 0 0 0 -140.60467692208476 -1435.1281505950465 0 -1435.1281505950465 -740.95147815154633 0 0 0 0 -135.32686028044554 -1601.5748471121915 0 -1601.5748471121915 -1682.2933893859299 0 0 0 0 433.80704888977925 -1267.8918807732989 0 -1267.8918807732989 -2384.6659497110377 0 0 0 0 487.2785017361166 -1543.2926447286518 0 -1543.2926447286518 -1957.3277051655241 0 0 0 0 809.56154303753283 -1370.6818523677284 0 -1370.6818523677284 -1876.9098969988554 0 0 0 0 785.3711183738078 -1743.4066245363294 0 -1743.4066245363294 -1393.784172395448 0 0 0 0 684.19795430944941 -794.94782098860742 0 -794.94782098860742 -2291.12450112652 0 0 0 0 772.86404103040695 -1273.8424194052786 0 -1273.8424194052786 -2526.8290308650903 0 0 0 0 571.2316372065834 -788.81696255513089 0 -788.81696255513089 -2233.8449499151393 0 0 0 0 237.61830957548227 -1217.9361005321189 0 -1217.9361005321189 -3572.3059177546384 0 0 0 0 558.9071461603744 539.54266756007564 0 539.54266756007564 -3588.2769677310021 0 0 0 0 125.42501778955921 -854.1864882652153 0 -854.1864882652153 -3062.9179199565697 0 0 0 0 654.11259990499821 -1002.4568372121503 0 -1002.4568372121503 -3513.5290368213173 0 0 0 0 32.985696209419984 -1683.4553942775237 0 -1683.4553942775237 -2806.8886646572064 0 0 0 0 -498.68950481238426 -1235.5249015817099 0 -1235.5249015817099 -2335.5303468466009 0 0 0 0 -1039.699905424146 -2063.6685656657355 0 -2063.6685656657355 -3552.6425850341948 0 0 0 0 -488.2391024753706 -677.7082564851753 0 -677.7082564851753 -3891.426369894587 0 0 0 0 -381.28408727535862 -1161.0389432098018 0 -1161.0389432098018 -3191.8898663621512 0 0 0 0 -1297.8462160622585 -2309.2430253222119 0 -2309.2430253222119 -6505.2721466225448 0 0 0 0 -12.702578398835612 364.96143259010569 0 364.96143259010569 -6141.9078012677455 0 0 0 0 4.7336241112220137 -8.6939471767556711 0 -8.6939471767556711 -21.990736711617188 0 0 0 0 -472.60985399861238 954.60936549854159 0 954.60936549854159 -250.60337663067912 0 0 0 0 -1353.4279702684144 -2956.1430396297437 0 -2956.1430396297437 -4584.178524519215 0 0 0 0 -1239.5379904733272 63.40678374718118 0 63.40678374718118 -5257.2492365555518 0 0 0 0 -3099.2644181317883 -1449.3810517236379 0 -1449.3810517236379 81.094195258730906 0 0 0 0 -2.2237864700462637 -20.830822330002505 0 -20.830822330002505 -17.277731589498671 0 0 0 0 -3558.9574373992946 -750.81664708130847 0 -750.81664708130847 -3165.864631466 0 0 0 0 -2054.0108076525066 -1040.176772852712 0 -1040.176772852712 -2050.2920592821756 0 0 0 0 -1316.1477591980074 -908.35496848286857 0 -908.35496848286857 -3157.0358763331315 0 0 0 0 -1432.8325348020735 -1211.909475327142 0 -1211.909475327142 -1086.3899528852198 0 0 0 0 -909.19663711404428 -1023.8552597160597 0 -1023.8552597160597 -2050.1673836091918 0 0 0 0 -80.296214750062063 -1453.791430972019 0 -1453.791430972019 -2343.3529523887701 0 0 0 0 -1028.6803091614856 -1543.4522041888486 0 -1543.4522041888486 -1412.5534660503617 0 0 0 0 -685.28908623932512 -1426.7840671474769 0 -1426.7840671474769 -624.16575103225478 0 0 0 0 -116.71539502436644 -1183.0756958177662 0 -1183.0756958177662 -1332.756382888776 0 0 0 0 -56.89068702597433 -948.81823377779801 0 -948.81823377779801 -371.76323175370635 0 0 0 0 -985.16531678102911 -1265.1120200970436 0 -1265.1120200970436 -281.54478504465806 0 0 0 0 -782.59968662073334 -811.77466204630537 0 -811.77466204630537 -974.57384068425745 0 0 0 0 -682.94911452106317 -1137.3293317899079 0 -1137.3293317899079 -1069.9754408104272 0 0 0 0 -1113.1695702943543 -758.10897953459062 0 -758.10897953459062 -260.78140544621601 0 0 0 0 -965.60091986077532 -427.36664769375875 0 -427.36664769375875 -2117.9796352673002 0 0 0 0 -1857.3555987484287 -428.89819510778034 0 -428.89819510778034 -2116.8125465490011 0 0 0 0 -554.29604427420418 -994.44966728997315 0 -994.44966728997315 -3651.1553378304598 0 0 0 0 -454.26407978030329 -732.47342676175867 0 -732.47342676175867 -3096.0920490814024 0 0 0 0 -148.09379703499872 -1372.2340512019655 0 -1372.2340512019655 -2539.2403358195006 0 0 0 0 -353.28662568733853 -1083.1732417843241 0 -1083.1732417843241 -1973.073987410331 0 0 0 0 -396.61632059851763 -549.13471622036514 0 -549.13471622036514 -1974.1405382525954 0 0 0 0 130.84041053202236 -383.54814123970573 0 -383.54814123970573 -1020.3743566129997 0 0 0 0 -549.21990948678285 -479.57463523135812 0 -479.57463523135812 -877.50312607841624 0 0 0 0 -383.66567693074467 -1027.6734365276061 0 -1027.6734365276061 -1060.4156253767997 0 0 0 0 -2582.2345640483545 -1654.511881494429 0 -1654.511881494429 -990.90298590598832 0 0 0 0 -1582.379284299554 -1276.2643786765718 0 -1276.2643786765718 -480.71667156119656 0 0 0 0 -195.67206849175273 -1124.8533936702297 0 -1124.8533936702297 -506.54772298701755 0 0 0 0 -1213.1452352717461 -1854.2106910107177 0 -1854.2106910107177 -145.85649190354161 0 0 0 0 101.64520001721394 -733.71048423901084 0 -733.71048423901084 -481.15926625555585 0 0 0 0 -811.75603826063889 -430.23605978656269 0 -430.23605978656269 -562.63031852224958 0 0 0 0 -86.633331989127328 -294.8241324268165 0 -294.8241324268165 -47.755723746871809 0 0 0 0 228.8509617758682 -165.85090872746514 0 -165.85090872746514 -697.97063230298227 0 0 0 0 -408.77238807783579 -475.86981649322843 0 -475.86981649322843 -71.611917990376242 0 0 0 0 -93.990180042233987 -358.71327072632266 0 -358.71327072632266 -491.66797033904004 0 0 0 0 -169.26333321690618 -468.15196468421345 0 -468.15196468421345 -569.13215761481842 0 0 0 0 92.000970656299614 -518.02201757532748 0 -518.02201757532748 -917.93678605351306 0 0 0 0 -175.71041336309281 -503.6032620727492 0 -503.6032620727492 -625.88702566856955 0 0 0 0 127.35519041628868 -441.28958179171605 0 -441.28958179171605 -752.68515625721739 0 0 0 0 342.19376930097496 -560.18278483224276 0 -560.18278483224276 -924.40252822381171 0 0 0 0 428.95911381609403 -148.74452650454896 0 -148.74452650454896 -807.79481859883526 0 0 0 0 -107.55147446423871 -620.0394994689068 0 -620.0394994689068 -562.27888378269563 0 0 0 0 -37.179042344259074 -16.47770290793764 0 -16.47770290793764 -0.93731973237521515 0 0 0 0 -911.15625968486711 65.263322839862667 0 65.263322839862667 1258.606477118421 0 0 0 0 -587.64342070803104 -1106.9577958695372 0 -1106.9577958695372 -178.45569523511222 0 0 0 0 973.66822515837703 -599.65727988916478 0 -599.65727988916478 -2351.2797737333749 0 0 0 0 -20.067672353014927 -12.083426703744067 0 -12.083426703744067 -2.7557184886094799 0 0 0 0 -3835.5821870859363 -3805.70512802538 0 -3805.70512802538 -2870.4180304519541 0 0 0 0 -1383.3780807206276 -2842.4830723173291 0 -2842.4830723173291 -4454.8692610739381 0 0 0 0 -1689.3255719216977 -199.41932640012965 0 -199.41932640012965 1096.0893038332724 0 0 0 0 -574.00056025074446 -410.57024183657268 0 -410.57024183657268 -803.49793924874393 0 0 0 0 -2720.9858931457711 -1593.3605490079353 0 -1593.3605490079353 -935.91531679185573 0 0 0 0 -3536.3982241184567 -1760.8196874245696 0 -1760.8196874245696 -195.85162638867769 0 0 0 0 -3676.5161294559748 -3422.8348995556985 0 -3422.8348995556985 -2609.4889794794726 0 0 0 0 23.405503349200103 -9.7357861176117524 0 -9.7357861176117524 -26.23176572359057 0 0 0 0 590.38385506140185 540.50830988636881 0 540.50830988636881 66.08012176248792 0 0 0 0 -4767.9885031171289 -2513.6455381627093 0 -2513.6455381627093 -3350.8951943482389 0 0 0 0 157.02169758983655 -553.48117684325553 0 -553.48117684325553 -341.87085075823416 0 0 0 0 269.94662312441505 -400.01277042974107 0 -400.01277042974107 -1224.2164565610728 0 0 0 0 104.36928733342211 -71.371373945650703 0 -71.371373945650703 -567.31811722838029 0 0 0 0 343.22064154798863 -855.33663462650293 0 -855.33663462650293 -65.474690350296441 0 0 0 0 2.7770102607531157 -3.8520202690765188 0 -3.8520202690765188 -5.0636811716325951 0 0 0 0 1204.7560878254735 537.33490790696669 0 537.33490790696669 70.760732017175542 0 0 0 0 -137.23491442351951 -488.76764662774804 0 -488.76764662774804 -91.786186935263686 0 0 0 0 382.67145146103576 -139.43919367538183 0 -139.43919367538183 -1112.9159828463571 0 0 0 0 227.65478196498589 -203.55730960883375 0 -203.55730960883375 -54.497719644132303 0 0 0 0 -580.79334874943379 -1222.3448518396926 0 -1222.3448518396926 -1193.0511393220222 0 0 0 0 61.875578434384067 -27.749059658062322 0 -27.749059658062322 7.9027516089317658 0 0 0 0 -378.10868503033998 -260.50986122085305 0 -260.50986122085305 -538.9048953199017 0 0 0 0 -905.69473347309395 -655.96473026344029 0 -655.96473026344029 -209.69396585752838 0 0 0 0 464.7630528138252 -15.254106985055842 0 -15.254106985055842 88.39610060693667 0 0 0 0 -21.858056648675472 -58.824353936373591 0 -58.824353936373591 -72.496787757412221 0 0 0 0 -700.23100052127847 -660.76039449387463 0 -660.76039449387463 809.77723945544494 0 0 0 0 -962.31046428886111 -1367.0652860182527 0 -1367.0652860182527 -261.64337614626857 0 0 0 0 90.485471307998523 -2198.5462238350156 0 -2198.5462238350156 541.84642321497449 0 0 0 0 1413.6459391429962 -2704.4303404892999 0 -2704.4303404892999 613.36294407505193 0 0 0 0 2080.6859352138126 -1575.8404884326337 0 -1575.8404884326337 114.80789312216803 0 0 0 0 782.34011503515649 -1651.2847986538836 0 -1651.2847986538836 128.86297380330871 0 0 0 0 -3116.3579855067419 -3678.7942939281183 0 -3678.7942939281183 -1789.2261258693907 0 0 0 0 -900.03452611430839 -2108.0155076784431 0 -2108.0155076784431 -2026.8939565487763 0 0 0 0 -1296.3850774246093 -1527.1058639254261 0 -1527.1058639254261 -589.88779391696335 0 0 0 0 -510.16992995906912 -1295.8085829734628 0 -1295.8085829734628 -576.5928424806043 0 0 0 0 -1568.127615742806 -2325.3222731804144 0 -2325.3222731804144 -696.55577712497325 0 0 0 0 -1013.5744164451025 -1845.1582260274008 0 -1845.1582260274008 -666.40453590866491 0 0 0 0 -1225.5557284925453 -1844.5874508022753 0 -1844.5874508022753 -309.51461775173084 0 0 0 0 -1020.4639097175677 -1825.0829379162169 0 -1825.0829379162169 -448.78731078069541 0 0 0 0 -17.223887341483021 -59.894689420140459 0 -59.894689420140459 -80.25318002770814 0 0 0 0 -722.43118347402196 -2140.7253570729808 0 -2140.7253570729808 4.2266433890035842 0 0 0 0 -1521.4776133488049 -1357.8910085498937 0 -1357.8910085498937 -29.33789262069331 0 0 0 0 -1001.3133545325836 -766.18153811247612 0 -766.18153811247612 -800.40023108047899 0 0 0 0 -3174.4973454100691 -2534.0750695011848 0 -2534.0750695011848 -722.63968074644799 0 0 0 0 -0.05340341803863069 -2.6245617835245412 0 -2.6245617835245412 -17.871393196259817 0 0 0 0 -653.37330722801562 -2100.7791847596236 0 -2100.7791847596236 -2395.763740628121 0 0 0 0 -893.96025354303129 -2278.2164410394835 0 -2278.2164410394835 -1133.0172375999828 0 0 0 0 -560.67128729744763 -1688.5468589821239 0 -1688.5468589821239 -836.06869597303739 0 0 0 0 -303.40900122589665 -924.0538707132946 0 -924.0538707132946 -352.82461674939259 0 0 0 0 2657.0667878429304 17.848126460263302 0 17.848126460263302 -554.23870951430581 0 0 0 0 -13.757595965631936 -60.258585430653966 0 -60.258585430653966 -84.81866572592827 0 0 0 0 1973.5850008212219 -542.6150210912383 0 -542.6150210912383 -318.28642567743373 0 0 0 0 986.24107701407047 -1490.3079405721292 0 -1490.3079405721292 -1268.1852495342901 0 0 0 0 1235.1782151404332 -1867.0733609584386 0 -1867.0733609584386 -623.28727024626278 0 0 0 0 678.4222731837508 -2009.2200294600243 0 -2009.2200294600243 -648.02908116350591 0 0 0 0 466.19325207370275 -1619.0759870940674 0 -1619.0759870940674 -1241.1291938912182 0 0 0 0 -239.21061459252815 -1649.2200636735943 0 -1649.2200636735943 -349.90894113612012 0 0 0 0 129.39424015968689 -2091.9851952901372 0 -2091.9851952901372 -702.92041679867543 0 0 0 0 281.21837973914808 -1634.7482641283568 0 -1634.7482641283568 -1625.1159327056448 0 0 0 0 -879.67040382235041 -1550.8581676822928 0 -1550.8581676822928 -992.95944131183205 0 0 0 0 766.77617703733267 -1491.7453182664394 0 -1491.7453182664394 -1848.9112577259075 0 0 0 0 431.58714807682554 -1859.4162053027248 0 -1859.4162053027248 -1293.3892753814707 0 0 0 0 687.89940198914337 -1417.2494560349969 0 -1417.2494560349969 -1833.2459371506411 0 0 0 0 397.53836742449494 -1281.8896268126482 0 -1281.8896268126482 -1824.6368557058304 0 0 0 0 59.043293609647662 -1726.8126826570297 0 -1726.8126826570297 -1590.8688758980206 0 0 0 0 37.161066687782295 -484.76551953804301 0 -484.76551953804301 -757.7755401480199 0 0 0 0 534.99934830662096 -835.96162800207821 0 -835.96162800207821 -1708.705487050689 0 0 0 0 -53.218811957485741 -783.16621572623262 0 -783.16621572623262 -1244.8785550101311 0 0 0 0 1892.4066526363022 330.4171956211685 0 330.4171956211685 41.801193828898249 0 0 0 0 763.38148253444524 -693.63383660185355 0 -693.63383660185355 -125.44077136268606 0 0 0 0 -1584.6647190453004 -1037.0717668275101 0 -1037.0717668275101 -789.93774913450034 0 0 0 0 -591.72434318879732 -200.57795883670769 0 -200.57795883670769 -773.5631664932589 0 0 0 0 2.8412010847060856 -13.625721166498892 0 -13.625721166498892 -45.405038650437007 0 0 0 0 1880.0017661930469 -121.13815747659828 0 -121.13815747659828 -207.39729648236244 0 0 0 0 905.32302773559059 -98.42321296872251 0 -98.42321296872251 350.14215311279986 0 0 0 0 122.88355725159636 -175.96730637973815 0 -175.96730637973815 241.41742955836162 0 0 0 0 117.80997101464891 -215.43987052263401 0 -215.43987052263401 73.686525596531283 0 0 0 0 153.33805890625808 -195.80983883487352 0 -195.80983883487352 62.193780912144575 0 0 0 0 -52.872523218364222 -86.05263605323853 0 -86.05263605323853 132.99864546554454 0 0 0 0 233.30549436734873 -2.3269095776922768 0 -2.3269095776922768 190.97216842378839 0 0 0 0 909.53652760896989 -288.49393207667197 0 -288.49393207667197 77.871715708402917 0 0 0 0 -95.618374243091239 -196.81962092995309 0 -196.81962092995309 37.406283267700928 0 0 0 0 -162.06335934234085 -189.21556849392073 0 -189.21556849392073 87.221294234203015 0 0 0 0 -18.148444284510333 -102.4951358752005 0 -102.4951358752005 11.942200916062575 0 0 0 0 -53.863271240756148 -95.504296697734389 0 -95.504296697734389 75.643403921645586 0 0 0 0 -93.813507362967357 -179.95318902526924 0 -179.95318902526924 -73.26139286995749 0 0 0 0 -4.1912666410347867 -1.3773170671964081 0 -1.3773170671964081 36.94728494252189 0 0 0 0 -67.965357876295457 237.89211563319986 0 237.89211563319986 -177.66985829914483 0 0 0 0 1150.8818450620092 -883.66102812004829 0 -883.66102812004829 369.06067001388874 0 0 0 0 -14.818956641627324 -58.744489470004694 0 -58.744489470004694 -83.973643203952236 0 0 0 0 -93.989465809383546 -276.74712190745049 0 -276.74712190745049 239.90094224060886 0 0 0 0 12.561498981680558 -2.4018432812848545 0 -2.4018432812848545 -12.032264929841688 0 0 0 0 -197.27638916508295 205.05693996122864 0 205.05693996122864 149.91403066398925 0 0 0 0 -249.11677570866595 -133.73743530548381 0 -133.73743530548381 324.19892900618288 0 0 0 0 -464.14122537826188 176.42089658015902 0 176.42089658015902 262.16983462476583 0 0 0 0 -16.461784688617627 -329.20323040109361 0 -329.20323040109361 568.88409191329265 0 0 0 0 2032.3222692210911 -1231.1426236806583 0 -1231.1426236806583 465.8687619123084 0 0 0 0 5.4048926725526769 6.0411230277187187 0 6.0411230277187187 5.8871560385481985 0 0 0 0 660.71939357981319 -640.66807910498756 0 -640.66807910498756 679.31011265999405 0 0 0 0 419.06012115578051 -108.37536194356653 0 -108.37536194356653 -3.5217067241392215 0 0 0 0 320.91080686422356 -966.67720291590376 0 -966.67720291590376 1043.2967506499263 0 0 0 0 496.32938607856704 -1561.713744659392 0 -1561.713744659392 -298.29685956446338 0 0 0 0 -385.37666314718081 -1357.8670384146681 0 -1357.8670384146681 -191.63555043193082 0 0 0 0 -502.49662860191893 -1433.9756428414985 0 -1433.9756428414985 593.57152237641276 0 0 0 0 -508.74280475771229 -394.12858661715291 0 -394.12858661715291 408.34592348468868 0 0 0 0 -118.55908831509441 -293.31362753780013 0 -293.31362753780013 43.193687032209709 0 0 0 0 -68.062767387324129 -493.22484748275019 0 -493.22484748275019 -36.820374574245761 0 0 0 0 174.12388013135933 -164.99335407502076 0 -164.99335407502076 369.88408905122196 0 0 0 0 -21.013040247373283 -716.67554337655019 0 -716.67554337655019 732.13312971531559 0 0 0 0 148.68710158910835 -641.42271445940423 0 -641.42271445940423 584.51350420588278 0 0 0 0 659.18268343195086 -670.65208572451957 0 -670.65208572451957 428.15798448114947 0 0 0 0 -317.32842753732984 -673.65284550793876 0 -673.65284550793876 595.72517717617666 0 0 0 0 -343.40348106900638 -508.14825996696891 0 -508.14825996696891 323.50994514707418 0 0 0 0 -251.83090498537058 -362.92680811458558 0 -362.92680811458558 539.93912238243502 0 0 0 0 -356.45230043042102 -550.39002046959649 0 -550.39002046959649 402.40335741064337 0 0 0 0 -642.7202050962369 -581.55466122225334 0 -581.55466122225334 520.04251173637749 0 0 0 0 -668.86397762191336 -602.0971188791591 0 -602.0971188791591 552.7100706694473 0 0 0 0 -403.99880417408713 -493.99650371637836 0 -493.99650371637836 476.68489390157629 0 0 0 0 -474.96924894991389 -735.85425854488858 0 -735.85425854488858 340.79025514422392 0 0 0 0 703.49018528932356 -714.73745640236302 0 -714.73745640236302 438.25290368878632 0 0 0 0 916.74003495745274 -454.66025586277101 0 -454.66025586277101 296.76609907695092 0 0 0 0 83.33332406412228 -466.9173610775033 0 -466.9173610775033 485.08619699507835 0 0 0 0 -11.883811209903797 -710.24815620671143 0 -710.24815620671143 444.50972229827676 0 0 0 0 464.4894527705037 -511.90382429107558 0 -511.90382429107558 361.62358612916432 0 0 0 0 138.64156273035042 -450.57655513184727 0 -450.57655513184727 513.18626846320694 0 0 0 0 694.56952797017584 -339.62914332973014 0 -339.62914332973014 205.24044966540532 0 0 0 0 870.39624842620105 -693.77143487887224 0 -693.77143487887224 580.97098788508447 0 0 0 0 13.927104293514276 -536.74856064446794 0 -536.74856064446794 111.53091589268297 0 0 0 0 -8.8420257563788738 -27.055255008453791 0 -27.055255008453791 -53.917857448912287 0 0 0 0 221.20178059919272 -90.703051348915324 0 -90.703051348915324 -29.465353339066496 0 0 0 0 272.02040877810214 -295.28329188023054 0 -295.28329188023054 285.79065879304835 0 0 0 0 -110.76503101397975 -618.72772657745463 0 -618.72772657745463 268.06680791033432 0 0 0 0 -119.56769570230972 -559.63602847768925 0 -559.63602847768925 381.65648298503947 0 0 0 0 -16.243543003613013 -465.92126163436478 0 -465.92126163436478 -45.290282653004397 0 0 0 0 -826.55513392180728 -630.96393042148338 0 -630.96393042148338 396.98966413512244 0 0 0 0 -608.46523513823922 -551.55464845529059 0 -551.55464845529059 273.30694502800179 0 0 0 0 -570.18081423456897 -681.27063019791967 0 -681.27063019791967 144.23435228283051 0 0 0 0 -674.81303253741498 -359.78773774538422 0 -359.78773774538422 31.918687928817235 0 0 0 0 -2458.2626747820104 -986.29636667186423 0 -986.29636667186423 -167.1070254721235 0 0 0 0 -1329.2737221911666 -786.14901793347963 0 -786.14901793347963 232.85694876670459 0 0 0 0 -2.367978490617844 -5.2747114055291675 0 -5.2747114055291675 -24.090166407672314 0 0 0 0 36.524111699050991 422.70758377125821 0 422.70758377125821 -1095.1307969894988 0 0 0 0 64.884772370933206 -704.646942071995 0 -704.646942071995 -2331.7789916725815 0 0 0 0 -769.58306473076664 -1247.3663605450856 0 -1247.3663605450856 -2567.9514100990928 0 0 0 0 -1110.6347160318765 38.117558642879885 0 38.117558642879885 -1690.789082214731 0 0 0 0 -1827.1084544327096 -819.83577769231124 0 -819.83577769231124 -1146.8228171803785 0 0 0 0 -525.77487736404873 -1401.3973600057943 0 -1401.3973600057943 -1988.0245876188274 0 0 0 0 -643.65069778390171 -412.0400373305165 0 -412.0400373305165 -1058.8810490439864 0 0 0 0 -209.64049531208002 -198.67135328044242 0 -198.67135328044242 -1947.3577937498958 0 0 0 0 -483.07102648479486 -654.46270423998067 0 -654.46270423998067 -1527.1219762267001 0 0 0 0 -312.6283706426766 -709.30639295310539 0 -709.30639295310539 -1532.2706725955823 0 0 0 0 233.85945433350571 -874.40734204190085 0 -874.40734204190085 -1711.6036597204366 0 0 0 0 189.17429062898191 -436.60881763633506 0 -436.60881763633506 -1219.0006927399372 0 0 0 0 622.64884061808698 -350.12157543408102 0 -350.12157543408102 -1276.9114958410355 0 0 0 0 212.08803951156733 -412.82988799394661 0 -412.82988799394661 -496.66305637297046 0 0 0 0 338.12640265650407 -105.64295838119142 0 -105.64295838119142 -1449.2381858432418 0 0 0 0 -242.19985703874056 -87.96983592984185 0 -87.96983592984185 11.05101633182494 0 0 0 0 -140.13861724021262 -227.7712821320456 0 -227.7712821320456 18.567225124599645 0 0 0 0 -244.03438915678998 -264.49594628010527 0 -264.49594628010527 6.6086916578497039 0 0 0 0 578.2515941018828 -358.97366696820609 0 -358.97366696820609 -113.18912767208531 0 0 0 0 243.62438715463213 -8.501261896075448 0 -8.501261896075448 -461.11552185340406 0 0 0 0 835.90194698430787 264.099559972512 0 264.099559972512 90.032787302057841 0 0 0 0 2.232090334992229 -22.587819414340146 0 -22.587819414340146 -59.698787541652564 0 0 0 0 -2062.0576290054451 1459.7214883664892 0 1459.7214883664892 1266.9480332214735 0 0 0 0 1326.1768692975893 -332.82090170663287 0 -332.82090170663287 -1276.331184572744 0 0 0 0 588.18189485774201 -490.73061004432384 0 -490.73061004432384 -143.84830262722244 0 0 0 0 392.15942985734182 -710.90998425329326 0 -710.90998425329326 -398.44347249617567 0 0 0 0 221.73821705476439 -318.04869900461927 0 -318.04869900461927 -1034.963903766602 0 0 0 0 327.26984321189229 70.420200735017715 0 70.420200735017715 -705.88198121111054 0 0 0 0 1379.1597271863138 -167.65849799755233 0 -167.65849799755233 -664.16140612098388 0 0 0 0 536.04141805025574 -966.59268915429129 0 -966.59268915429129 75.783927103882888 0 0 0 0 -136.01733922939457 -374.07754121511243 0 -374.07754121511243 31.161054696363863 0 0 0 0 114.5740029567387 -445.22035688422329 0 -445.22035688422329 -445.52724106515052 0 0 0 0 -130.08870549555286 -454.18880278844881 0 -454.18880278844881 -432.54533274544519 0 0 0 0 -250.96029615035513 -201.43569350610778 0 -201.43569350610778 -153.35165419346595 0 0 0 0 3608.1840863651014 1542.4308821320592 0 1542.4308821320592 -231.93667018583801 0 0 0 0 16.084418070353024 -12.02816509675921 0 -12.02816509675921 9.9251276455560173 0 0 0 0 -256.32354707680201 -538.54185386416486 0 -538.54185386416486 236.79092216154095 0 0 0 0 1318.993864174161 -1019.8553519146371 0 -1019.8553519146371 -1053.5258937976323 0 0 0 0 1013.2370161167928 -1785.5322176257032 0 -1785.5322176257032 -1206.9590486663838 0 0 0 0 85.364396565739298 -927.9443455850851 0 -927.9443455850851 -578.56158796518139 0 0 0 0 965.19809751774301 -623.15123870519164 0 -623.15123870519164 -897.07761281317653 0 0 0 0 813.40088805861888 -572.86151345912367 0 -572.86151345912367 -441.02702858630801 0 0 0 0 479.64744587463792 -312.38846244248271 0 -312.38846244248271 -292.84111515315999 0 0 0 0 820.11680196105942 -97.168306177320062 0 -97.168306177320062 -277.31046175409574 0 0 0 0 55.38179959559659 -50.346846412649143 0 -50.346846412649143 -16.181578795266148 0 0 0 0 428.05691467734869 -578.40827908278879 0 -578.40827908278879 -1775.6988610187109 0 0 0 0 271.06839741980366 14.33818132262968 0 14.33818132262968 -1388.7670018433273 0 0 0 0 2912.2300812587127 -1332.2730546058538 0 -1332.2730546058538 -3206.9852815826016 0 0 0 0 210.25276785026654 -2467.6054527554443 0 -2467.6054527554443 -1454.2966021126704 0 0 0 0 -804.3702989796584 -1267.5659788427183 0 -1267.5659788427183 -800.18069588183425 0 0 0 0 7.2943895516318733 -33.697048112361358 0 -33.697048112361358 -104.70916742296549 0 0 0 0 258.36495087618823 -339.56378330785083 0 -339.56378330785083 -2132.6043959490198 0 0 0 0 -58.937811413807708 -96.952695024168378 0 -96.952695024168378 -31.889005629811713 0 0 0 0 -2.0637599405108631 -686.03857666719841 0 -686.03857666719841 4860.5889259017786 0 0 0 0 332.55045241404878 40.738637324604497 0 40.738637324604497 -2815.5863992887462 0 0 0 0 219.97173697859034 -3146.3052585584837 0 -3146.3052585584837 4274.2324749943436 0 0 0 0 3386.1646255854284 1021.243212340225 0 1021.243212340225 -8303.8128965556389 0 0 0 0 814.62695832198369 -1578.1334130940013 0 -1578.1334130940013 -740.47742050289526 0 0 0 0 9804.0338777839206 -8349.9939836462145 0 -8349.9939836462145 6808.6971768320072 0 0 0 0 -3.7299879579822992 -25.083014196635361 0 -25.083014196635361 1.6267268436128006 0 0 0 0 6.75551884410919 -13.754056904104274 0 -13.754056904104274 -16.632904491442176 0 0 0 0 2203.6250845703762 -3377.6903859712183 0 -3377.6903859712183 -474.86594738901476 0 0 0 0 1301.7298324486474 -1624.2807311906072 0 -1624.2807311906072 -1095.4168348902022 0 0 0 0 2503.2849380449043 -760.23043662824784 0 -760.23043662824784 924.89492687571328 0 0 0 0 2587.6417449987202 436.9052060255417 0 436.9052060255417 4000.3773325903967 0 0 0 0 452.80657771765254 -555.16907803683716 0 -555.16907803683716 5260.4966434881208 0 0 0 0 5368.2793725363445 -9348.6687666548532 0 -9348.6687666548532 10723.283296126174 0 0 0 0 811.75274340201577 -2400.032833640289 0 -2400.032833640289 -711.14399899367709 0 0 0 0 -1241.5430591256736 -623.35630324071099 0 -623.35630324071099 1839.476119441897 0 0 0 0 -9.6584846363548422 -724.30633001739989 0 -724.30633001739989 2545.8269640762737 0 0 0 0 -316.84240639093332 -383.33996130825835 0 -383.33996130825835 -84.364611609897111 0 0 0 0 407.84542043015244 1016.4990048669515 0 1016.4990048669515 351.37757120373135 0 0 0 0 7.6628228637408142 -51.38214292316119 0 -51.38214292316119 -90.504040360508185 0 0 0 0 3246.787677816028 451.06937865814689 0 451.06937865814689 273.28661147884122 0 0 0 0 9.2218498666074993 -26.419328435621814 0 -26.419328435621814 -18.582289661740251 0 0 0 0 1214.0422845040157 -1143.9338870918436 0 -1143.9338870918436 886.40553151912172 0 0 0 0 1029.5677252484311 -968.45786661183229 0 -968.45786661183229 778.65214150797692 0 0 0 0 -25.442500048495873 -16.44216783956233 0 -16.44216783956233 12.925356930316696 0 0 0 0 -927.64263109516469 -861.29591578182954 0 -861.29591578182954 1540.8205808821949 0 0 0 0 1412.3928745745507 -1937.9366737708697 0 -1937.9366737708697 -887.91465290463293 0 0 0 0 3296.3331085474783 950.89419791483306 0 950.89419791483306 -477.28591609089926 0 0 0 0 -550.98378248871086 -1204.181807280871 0 -1204.181807280871 300.17058292700676 0 0 0 0 587.35455660929438 -1406.763606120745 0 -1406.763606120745 -126.08640679111704 0 0 0 0 494.58022087902646 -1665.1052889653365 0 -1665.1052889653365 -578.52996813686332 0 0 0 0 1182.9651102130847 -2533.3354237442272 0 -2533.3354237442272 314.1343349548406 0 0 0 0 465.52462829919386 -734.46173638361097 0 -734.46173638361097 1115.8884763910901 0 0 0 0 307.14644501771545 -1292.5505890206696 0 -1292.5505890206696 -277.46673619283683 0 0 0 0 -188.08184457605239 1264.480270898217 0 1264.480270898217 551.34197674714778 0 0 0 0 -789.22315726193483 -1068.893617279371 0 -1068.893617279371 -33.427391501885722 0 0 0 0 4.9166788597114532 -24.252242046970466 0 -24.252242046970466 -80.403590429341762 0 0 0 0 -423.7396641810883 451.97414075194592 0 451.97414075194592 -635.19515274244623 0 0 0 0 -470.13556067576428 -220.26408417202765 0 -220.26408417202765 -28.473724793449946 0 0 0 0 -34.776567775754401 -73.257701609387226 0 -73.257701609387226 -67.535785369069828 0 0 0 0 1983.8290951024828 -739.1790881934503 0 -739.1790881934503 -846.74210660698009 0 0 0 0 1424.5350223169808 175.77055509038473 0 175.77055509038473 -222.79211644711904 0 0 0 0 1292.5326252309751 -956.84190085945738 0 -956.84190085945738 -197.54396768562583 0 0 0 0 -31.964857314093877 -70.778986910654424 0 -70.778986910654424 -40.161920181321278 0 0 0 0 183.62128944555297 -1018.7074548766177 0 -1018.7074548766177 -133.36125028281322 0 0 0 0 325.74035946113872 -838.89602461383765 0 -838.89602461383765 437.47595985251246 0 0 0 0 234.47216114508046 -468.62234864937 0 -468.62234864937 -94.955536304085399 0 0 0 0 -8.0773383600899251 -945.13660070112564 0 -945.13660070112564 -1029.3327091640604 0 0 0 0 -366.37894644270273 -700.74025485419043 0 -700.74025485419043 229.07501834795403 0 0 0 0 -375.65491672974895 -722.02995384080532 0 -722.02995384080532 302.69412836447009 0 0 0 0 -105.08394126765779 -755.97769694785165 0 -755.97769694785165 258.0850769050594 0 0 0 0 -471.72349983123422 -706.32034707432467 0 -706.32034707432467 387.48584782323451 0 0 0 0 -482.08102818469342 -686.95181604076242 0 -686.95181604076242 423.19184618038707 0 0 0 0 -447.8271192733082 -616.79272984209092 0 -616.79272984209092 459.87042711940012 0 0 0 0 -741.12167924456298 -609.21998261159024 0 -609.21998261159024 528.81354201160866 0 0 0 0 -517.81276461720699 -627.98094457364277 0 -627.98094457364277 485.53567517775809 0 0 0 0 -345.81339534616563 -561.84780724145094 0 -561.84780724145094 412.21197320338251 0 0 0 0 -352.14948204244138 -546.30327273853618 0 -546.30327273853618 398.84348200366367 0 0 0 0 -178.5019075635355 -516.15216108228196 0 -516.15216108228196 295.54469183507899 0 0 0 0 -275.46452087914804 -330.3573373526815 0 -330.3573373526815 435.11302927158977 0 0 0 0 -31.526489784475416 -404.98331301445432 0 -404.98331301445432 338.25920150487218 0 0 0 0 -231.01460205524927 -452.41355268225743 0 -452.41355268225743 421.43783175121644 0 0 0 0 -416.70015711983433 -475.01363809171016 0 -475.01363809171016 422.61334484362669 0 0 0 0 -152.18335792113794 -254.54265010757445 0 -254.54265010757445 455.45007314543182 0 0 0 0 11.064180832894635 -220.61687039094068 0 -220.61687039094068 416.46248598513193 0 0 0 0 815.48635231363005 -334.49936013206752 0 -334.49936013206752 -24.585994809611293 0 0 0 0 148.17196560523007 -427.04832537892071 0 -427.04832537892071 310.22225265622001 0 0 0 0 48.285743731932598 -201.35796421680789 0 -201.35796421680789 -194.57093369958602 0 0 0 0 -63.406950943695847 -12.20272174681304 0 -12.20272174681304 27.565789354104709 0 0 0 0 -296.39970416495635 -102.34962246242867 0 -102.34962246242867 -812.96755727544701 0 0 0 0 231.72692977576662 -1345.1625827961489 0 -1345.1625827961489 -380.75366342988855 0 0 0 0 -808.07435805312707 -452.96287115994892 0 -452.96287115994892 30.564491863930016 0 0 0 0 -849.08798961882712 -1004.2288394662901 0 -1004.2288394662901 93.743819747614907 0 0 0 0 -956.27608858520398 -665.56794786332284 0 -665.56794786332284 291.91007141421142 0 0 0 0 9.4739199985808682 -55.256569849885608 0 -55.256569849885608 -85.222081670148356 0 0 0 0 -637.147961290495 -725.18108528893208 0 -725.18108528893208 198.80116221627395 0 0 0 0 -662.75953821811709 -696.70013026482047 0 -696.70013026482047 357.08190450575785 0 0 0 0 -642.49705930543132 -793.85027612553677 0 -793.85027612553677 377.23483608297101 0 0 0 0 -716.78426262107678 -787.03616352235258 0 -787.03616352235258 464.8300216550997 0 0 0 0 -649.59164531721035 -751.17780925694387 0 -751.17780925694387 448.82419293361454 0 0 0 0 -732.80077768384945 -810.08575206832029 0 -810.08575206832029 444.03534978951939 0 0 0 0 -731.72985327854985 -818.08720664759312 0 -818.08720664759312 470.30412460240768 0 0 0 0 -793.35408534300223 -852.98489290456746 0 -852.98489290456746 469.45472280919785 0 0 0 0 -780.97934364510002 -802.87688307252392 0 -802.87688307252392 559.58340554047027 0 0 0 0 -686.83317817453644 -727.06491388632276 0 -727.06491388632276 542.32800734209013 0 0 0 0 -787.95575473853387 -764.16440131471609 0 -764.16440131471609 591.12038851480611 0 0 0 0 -803.98312485049246 -735.56966191919491 0 -735.56966191919491 542.30660920790808 0 0 0 0 -599.69424970060936 -781.9174779829591 0 -781.9174779829591 131.28583846696711 0 0 0 0 -687.1598148518824 -854.9747843276491 0 -854.9747843276491 320.7961447921989 0 0 0 0 -685.28338487664587 -870.91813927732437 0 -870.91813927732437 397.13553334912285 0 0 0 0 -720.81140786115429 -941.13099372483339 0 -941.13099372483339 358.69461106852395 0 0 0 0 -756.75768719153712 -929.55524927964871 0 -929.55524927964871 602.97143645465258 0 0 0 0 -604.54619659858872 -1136.4437281620776 0 -1136.4437281620776 634.26779341933434 0 0 0 0 -399.1367680755211 -1078.6627871462515 0 -1078.6627871462515 334.49467528342939 0 0 0 0 -412.16361206711736 -961.58534710391177 0 -961.58534710391177 123.21008446290944 0 0 0 0 -412.98153765063034 -834.72879462820129 0 -834.72879462820129 -59.29505839094054 0 0 0 0 69.055960470752154 -71.004989413681457 0 -71.004989413681457 -123.45923444623337 0 0 0 0 523.99649303345359 -746.69863545086628 0 -746.69863545086628 -467.03259528540366 0 0 0 0 610.42224708317372 -798.68605060639675 0 -798.68605060639675 -1007.8111864209677 0 0 0 0 172.11073062992364 -1200.3147910734006 0 -1200.3147910734006 344.97440949031443 0 0 0 0 249.31607098986569 -815.59558861040205 0 -815.59558861040205 199.85157939143392 0 0 0 0 510.00096486457915 -661.14372192565133 0 -661.14372192565133 204.13405271274678 0 0 0 0 77.312231793432147 -345.57395526300388 0 -345.57395526300388 208.55522053952154 0 0 0 0 -347.74680475702189 -441.74413209682098 0 -441.74413209682098 363.63359994924394 0 0 0 0 -587.94611546889064 -520.18598588884561 0 -520.18598588884561 373.55067310638697 0 0 0 0 -633.68620980621836 -98.357302390792711 0 -98.357302390792711 172.80309953495453 0 0 0 0 -57.773934435179456 -119.37507847352657 0 -119.37507847352657 -42.048163053404679 0 0 0 0 -172.25465345044358 -710.40610097054741 0 -710.40610097054741 380.08886594042997 0 0 0 0 -978.27735077847501 -477.8462420232745 0 -477.8462420232745 -763.76552117420943 0 0 0 0 -1008.7709044235021 -135.58952925179256 0 -135.58952925179256 -532.61184476461494 0 0 0 0 -838.45777251607797 -311.66424342080427 0 -311.66424342080427 -568.89020611712476 0 0 0 0 -541.95054266646912 -290.74209646013333 0 -290.74209646013333 -917.43793888538494 0 0 0 0 -59.702237324670989 -114.39652027143502 0 -114.39652027143502 -39.588192714996502 0 0 0 0 -120.42166038227515 -392.34234778862083 0 -392.34234778862083 -1588.3793841194711 0 0 0 0 516.15946186568181 -1234.3227812653167 0 -1234.3227812653167 298.22492774607963 0 0 0 0 -166.08971756357641 -743.26011534956706 0 -743.26011534956706 190.81187398315342 0 0 0 0 74.647837473617983 -1331.9449327011607 0 -1331.9449327011607 1543.7826777262817 0 0 0 0 -0.77060479903593659 -1030.6515503106166 0 -1030.6515503106166 -1747.2968595556158 0 0 0 0 -874.42030090768822 -579.62240234358251 0 -579.62240234358251 -1309.6702969648759 0 0 0 0 394.12729638718884 -717.17404452586925 0 -717.17404452586925 -1690.8012870924904 0 0 0 0 260.70024149306118 -793.06978081156194 0 -793.06978081156194 -990.83574252238031 0 0 0 0 -313.61683802168409 -1257.2963923715615 0 -1257.2963923715615 -1023.9305636502031 0 0 0 0 -371.45262068076772 -1099.41629439813 0 -1099.41629439813 -1594.44230417574 0 0 0 0 -648.07444584078621 -1411.1912762735956 0 -1411.1912762735956 -1324.7664374431915 0 0 0 0 -850.23711214624882 -1334.5989546087594 0 -1334.5989546087594 -1652.7747158554994 0 0 0 0 -863.26948450526106 -1864.3843809555183 0 -1864.3843809555183 -2758.6774460430952 0 0 0 0 0.94690404627685609 -5.8759117131243954 0 -5.8759117131243954 -8.0623714249011584 0 0 0 0 46.666677410488774 1.9393013066473941 0 1.9393013066473941 -17.320660175260855 0 0 0 0 43.614691752782164 0.59796353016599824 0 0.59796353016599824 -14.108591106531094 0 0 0 0 47.227636074603652 3.3656603109120624 0 3.3656603109120624 -14.854196673535625 0 0 0 0 -1372.3616173082628 -1259.0898606544379 0 -1259.0898606544379 -690.46993516394286 0 0 0 0 43.527783895633547 3.0177474898323453 0 3.0177474898323453 -7.7727375602989923 0 0 0 0 -163.98713262657111 -859.20348233990444 0 -859.20348233990444 -666.21033394102415 0 0 0 0 -193.88382853774237 -1123.1832635411774 0 -1123.1832635411774 -1207.5177940201174 0 0 0 0 -869.55685732822167 -703.26574387207802 0 -703.26574387207802 -94.562487502611475 0 0 0 0 184.31985863213777 1.1483324551663827 0 1.1483324551663827 42.462613077972492 0 0 0 0 855.38470671890536 -82.860323997123487 0 -82.860323997123487 -610.91060617318726 0 0 0 0 -121.26506328812684 -841.63864296280371 0 -841.63864296280371 -787.48710847756593 0 0 0 0 495.22544739555451 -270.98609755879443 0 -270.98609755879443 -525.00408521175268 0 0 0 0 604.20201443872065 -409.19131346992071 0 -409.19131346992071 -349.75972180608369 0 0 0 0 7.2871663160424305 -2.5148643962899655 0 -2.5148643962899655 -13.778566650562027 0 0 0 0 14.358717022317251 -8.8081701014042153 0 -8.8081701014042153 -28.838348426698104 0 0 0 0 -100.69089254722348 521.17824469995503 0 521.17824469995503 -380.94861376064364 0 0 0 0 51.424681670745485 10.374010115989222 0 10.374010115989222 -3.7934156453393371 0 0 0 0 -27.683244645188097 -158.64645023862249 0 -158.64645023862249 -670.10110105432977 0 0 0 0 -73.630761371081462 -479.90492857858771 0 -479.90492857858771 33.91055859538028 0 0 0 0 217.90784759245435 -354.40277553443593 0 -354.40277553443593 -522.97553551578312 0 0 0 0 -140.99437788629439 -182.48232993848069 0 -182.48232993848069 -216.23004760138429 0 0 0 0 -59.605859960516682 -260.37241148121393 0 -260.37241148121393 -494.04012975517253 0 0 0 0 -107.5579173560036 -535.56188454262519 0 -535.56188454262519 -794.89981069040368 0 0 0 0 -113.56607591766806 -451.5690014305801 0 -451.5690014305801 -661.57576629940013 0 0 0 0 -41.570960135926725 -177.46835231498335 0 -177.46835231498335 -237.74213047250669 0 0 0 0 -141.23450138731278 -133.97900820367067 0 -133.97900820367067 -508.24413794537168 0 0 0 0 -69.560714910621755 -305.73683306478779 0 -305.73683306478779 -494.36142545532948 0 0 0 0 -46.725175478377423 -223.95998591106763 0 -223.95998591106763 -202.89437162932882 0 0 0 0 -70.801969621745229 -84.420869152580963 0 -84.420869152580963 -35.132657328620553 0 0 0 0 19.074258486448969 -13.072224010080674 0 -13.072224010080674 -3.985596445899688 0 0 0 0 -71.044850408274215 -88.001786083412298 0 -88.001786083412298 -29.761371973312635 0 0 0 0 -43.716806812299183 30.961739942664281 0 30.961739942664281 76.262393224784319 0 0 0 0 -105.97924226347823 -218.22059768620238 0 -218.22059768620238 -201.96792407023531 0 0 0 0 -253.39899987619719 -150.5828961977968 0 -150.5828961977968 277.83880198023689 0 0 0 0 -1049.5974515260896 -1551.7874098636676 0 -1551.7874098636676 -919.42513594126285 0 0 0 0 -343.6161588895302 222.27486683247753 0 222.27486683247753 -589.67502044099092 0 0 0 0 27.040488898815283 -39.679427970173691 0 -39.679427970173691 9.2955170701878842 0 0 0 0 31.902174409336112 -164.28195208201646 0 -164.28195208201646 54.657275750680128 0 0 0 0 292.47573670817656 -505.45619959769829 0 -505.45619959769829 -545.43083593183837 0 0 0 0 24.486946925320296 -30.29231330995421 0 -30.29231330995421 -93.918434455953928 0 0 0 0 35.587047128021368 -111.22167037001418 0 -111.22167037001418 18.337109239277197 0 0 0 0 92.854764465329936 -83.790514871849155 0 -83.790514871849155 -70.168016488962166 0 0 0 0 -20.893191543960711 -58.142308876267634 0 -58.142308876267634 -12.092439311214548 0 0 0 0 -16.87987414483996 -123.68378923234968 0 -123.68378923234968 57.408103369205492 0 0 0 0 12.180821713708724 -35.755978274626919 0 -35.755978274626919 -104.79844996613735 0 0 0 0 27.619626944127958 -415.32833777069754 0 -415.32833777069754 132.35073963624745 0 0 0 0 295.49416949984152 -92.763940330223704 0 -92.763940330223704 -1161.7397478003841 0 0 0 0 190.26647110954036 368.3380335458578 0 368.3380335458578 -641.06486413152015 0 0 0 0 178.58569947668002 -425.61425661183966 0 -425.61425661183966 -587.42083335325879 0 0 0 0 384.05802455489174 -32.639392744080396 0 -32.639392744080396 -1721.1189013009425 0 0 0 0 2.6605033499363344 -192.40788444127247 0 -192.40788444127247 -333.40704774384358 0 0 0 0 -138.79856613991433 -431.95002903131808 0 -431.95002903131808 -80.218952782830456 0 0 0 0 -155.93596249753136 -259.54553106002186 0 -259.54553106002186 -61.974663637243793 0 0 0 0 23.685829207205188 -54.228718165173291 0 -54.228718165173291 -97.259442906426727 0 0 0 0 131.54693013629003 -296.71693234486156 0 -296.71693234486156 -178.00488516204496 0 0 0 0 -32.264807221275987 -222.3660992885998 0 -222.3660992885998 -202.57316856124453 0 0 0 0 13.099526674188382 -283.25140033716889 0 -283.25140033716889 -380.59260812822322 0 0 0 0 -83.902206033322727 -169.31413968959168 0 -169.31413968959168 -435.56385786596729 0 0 0 0 21.510701197956223 -286.74468253110172 0 -286.74468253110172 -378.07172407473263 0 0 0 0 -62.985408344466123 -301.87249140951099 0 -301.87249140951099 -379.69965834058667 0 0 0 0 -451.68117779234308 -184.7804861155455 0 -184.7804861155455 -146.15738605668776 0 0 0 0 -830.30569928896512 -279.08798971741908 0 -279.08798971741908 -437.02006911739591 0 0 0 0 -92.494022200038387 -57.788789475545606 0 -57.788789475545606 11.473121516157871 0 0 0 0 -800.1441917582215 -1286.3736466370669 0 -1286.3736466370669 313.1301310275885 0 0 0 0 26.610874067756299 -61.738378415088647 0 -61.738378415088647 18.753841896419857 0 0 0 0 -373.10494059475968 -244.40298605414273 0 -244.40298605414273 -88.959626278163341 0 0 0 0 -416.53997437730141 -103.97876803211784 0 -103.97876803211784 13.884250354924006 0 0 0 0 3.7912203259500075 -63.777518581281072 0 -63.777518581281072 70.934898689221683 0 0 0 0 -112.47470987729321 -99.753302071205326 0 -99.753302071205326 -64.578220444094768 0 0 0 0 -546.35531194065697 -203.33760983221146 0 -203.33760983221146 26.644919811597902 0 0 0 0 -384.45794685286819 9.6151468977695913 0 9.6151468977695913 287.92858306271955 0 0 0 0 -32.747001013049157 -129.96511788102544 0 -129.96511788102544 -176.83150295401538 0 0 0 0 -507.18046238378156 -280.29305177987771 0 -280.29305177987771 -84.123232947113138 0 0 0 0 -505.85940286688856 -264.35308520157605 0 -264.35308520157605 106.63268333190354 0 0 0 0 -607.81415278045461 -393.87951787623751 0 -393.87951787623751 -35.354011126673868 0 0 0 0 -871.55083569767885 -306.75382799860563 0 -306.75382799860563 -56.661746156947629 0 0 0 0 -426.86419512155408 -553.54422450711718 0 -553.54422450711718 -486.9190999410348 0 0 0 0 191.51735209141043 -51.858849031643331 0 -51.858849031643331 -327.43502666673339 0 0 0 0 -1193.3296091825323 -398.71513163660893 0 -398.71513163660893 -78.906260262039723 0 0 0 0 -0.89235036606926599 -2.1419319089210944 0 -2.1419319089210944 -3.0855854364636457 0 0 0 0 -245.5428024205612 -433.85155154891254 0 -433.85155154891254 -368.76560191222597 0 0 0 0 -618.6657857420505 -407.63752408527944 0 -407.63752408527944 -285.43632909702137 0 0 0 0 -494.67305879466585 -455.55427699938082 0 -455.55427699938082 -276.01436227028034 0 0 0 0 -836.2866918072541 -664.98525876667009 0 -664.98525876667009 -582.00302654984262 0 0 0 0 -107.0739895835577 -358.12288812133556 0 -358.12288812133556 -656.04864614132384 0 0 0 0 -485.62900161188736 -577.38964838062566 0 -577.38964838062566 -454.50692002962023 0 0 0 0 -357.65333407849539 184.8596188484571 0 184.8596188484571 804.17135545847486 0 0 0 0 -529.70225694710098 -579.9123348130579 0 -579.9123348130579 -770.98315427612397 0 0 0 0 -0.95681755397674806 -0.51590679576614207 0 -0.51590679576614207 0.2422186959460717 0 0 0 0 -826.98113144972012 -365.18477539603555 0 -365.18477539603555 -696.34884114860506 0 0 0 0 -657.9039680399801 -258.160835981741 0 -258.160835981741 419.5133537290094 0 0 0 0 -2.5557891186196002 -5.4295622119537796 0 -5.4295622119537796 6.3119752054312883 0 0 0 0 162.86724465209409 -9.8589341378065001 0 -9.8589341378065001 220.26409010366569 0 0 0 0 7.4167869422641388 -43.732742584478984 0 -43.732742584478984 73.083340539616358 0 0 0 0 -188.18490043078782 4.5675786404353858 0 4.5675786404353858 222.53998015688921 0 0 0 0 -9.1905416424269788 -52.964533210652007 0 -52.964533210652007 373.37180510152029 0 0 0 0 -28.892633840936469 -312.12650684807522 0 -312.12650684807522 50.686187489776785 0 0 0 0 -84.511445443436969 -136.19657442292009 0 -136.19657442292009 349.99769595215912 0 0 0 0 -129.77432130534453 -130.32465129738523 0 -130.32465129738523 -182.75359865684732 0 0 0 0 -237.54395047287107 -310.60695560768545 0 -310.60695560768545 -263.00931631596541 0 0 0 0 -231.01232766422618 -319.06031486472239 0 -319.06031486472239 -294.3846509096802 0 0 0 0 -223.30164197942941 -343.7548732494397 0 -343.7548732494397 -248.38678545554285 0 0 0 0 -168.80809740498808 -18.4246474824904 0 -18.4246474824904 202.169004861953 0 0 0 0 10.738023978419989 -20.343830870152175 0 -20.343830870152175 24.361408117024055 0 0 0 0 -21.181412083462192 13.337174908833759 0 13.337174908833759 10.243070744433595 0 0 0 0 163.95212268279283 405.4389497957909 0 405.4389497957909 293.71952066780068 0 0 0 0 396.76217070152052 -45.10655220663466 0 -45.10655220663466 -97.485545400715637 0 0 0 0 -5.5464157659804414 0.97588118452097206 0 0.97588118452097206 3.1996700685288175 0 0 0 0 -11.069438191858353 -34.41265607187961 0 -34.41265607187961 169.69937259855215 0 0 0 0 69.348567964829272 -125.60846051794942 0 -125.60846051794942 -49.657379520955146 0 0 0 0 -19.253259291726863 -132.74533819246426 0 -132.74533819246426 -27.942570333427284 0 0 0 0 74.113934975895972 -140.80041436448118 0 -140.80041436448118 -51.496885164116975 0 0 0 0 -21.936728165499517 -137.49052268881132 0 -137.49052268881132 8.739854727871716 0 0 0 0 -83.328909058749559 -196.76459148417052 0 -196.76459148417052 -18.723745660332497 0 0 0 0 -62.949340245191706 -118.9830351112978 0 -118.9830351112978 84.747966167400591 0 0 0 0 78.653543091844767 52.378950939149945 0 52.378950939149945 215.36713509679248 0 0 0 0 85.919864039227832 -82.35266371977923 0 -82.35266371977923 -3.9561813298641937 0 0 0 0 113.29709146886307 -139.25017682801899 0 -139.25017682801899 -55.301953091606265 0 0 0 0 170.85108559852233 -39.2487928614064 0 -39.2487928614064 -15.18050967549425 0 0 0 0 -45.109253537510597 -15.13263953471629 0 -15.13263953471629 20.104144616927144 0 0 0 0 -69.187863553146599 -181.72003603263147 0 -181.72003603263147 246.62298418397404 0 0 0 0 -22.809720029385062 -182.49472237370719 0 -182.49472237370719 -534.48170222852059 0 0 0 0 -399.35587656869029 -135.12330466751519 0 -135.12330466751519 671.59943469818245 0 0 0 0 60.797057727977517 -94.308106468961341 0 -94.308106468961341 -1325.0635426880908 0 0 0 0 -137.44670626643347 30.42003805150307 0 30.42003805150307 -748.23403880806836 0 0 0 0 101.32686925132293 -425.99075029991218 0 -425.99075029991218 -1696.7732365014526 0 0 0 0 -15.833972145130588 -1.7499088240299017 0 -1.7499088240299017 -3.8602774271857321 0 0 0 0 -0.5171436642849585 -82.853891129180738 0 -82.853891129180738 -3.1781339730441687 0 0 0 0 -287.25965449717478 -1166.4328372792515 0 -1166.4328372792515 -477.86333607808047 0 0 0 0 -859.4623328425514 -947.99216950198752 0 -947.99216950198752 -57.180454655957874 0 0 0 0 -713.78557431785157 -504.31537487677997 0 -504.31537487677997 264.09402448724722 0 0 0 0 -832.43265267138486 -749.97265377033909 0 -749.97265377033909 -949.51549446905847 0 0 0 0 -1712.5967084793083 581.62423617353852 0 581.62423617353852 405.64919101539999 0 0 0 0 -20.12887869127735 -726.01988784364585 0 -726.01988784364585 -350.23614749942499 0 0 0 0 595.83355150418902 -130.77503163764027 0 -130.77503163764027 -599.19850009222864 0 0 0 0 624.69137315562693 390.29434270277125 0 390.29434270277125 394.76637168313027 0 0 0 0 1064.2820550766701 86.825090625276061 0 86.825090625276061 105.15173672017409 0 0 0 0 1365.1413283316942 838.92079389670835 0 838.92079389670835 -44.970247406265116 0 0 0 0 9.3377498685113949 -12.525837587077007 0 -12.525837587077007 -1.8091848212117725 0 0 0 0 139.22196664882358 2.8564982463612978 0 2.8564982463612978 -161.70820439061208 0 0 0 0 6.1588282912662748 1.6568887820569387 0 1.6568887820569387 -42.126139247172034 0 0 0 0 -297.37241873593302 -471.95661127546919 0 -471.95661127546919 -115.24838692304911 0 0 0 0 1.4322000824553811 -0.72636136294138964 0 -0.72636136294138964 2.458802543521756 0 0 0 0 -140.58250674464216 -280.32053407772219 0 -280.32053407772219 123.81760681566084 0 0 0 0 -340.28298855596222 -378.22601657280757 0 -378.22601657280757 -288.13885565534292 0 0 0 0 -338.29501958342735 -255.16472403002263 0 -255.16472403002263 -401.2398130806796 0 0 0 0 -383.85010530077852 -414.6809603734655 0 -414.6809603734655 -170.15877552883467 0 0 0 0 -449.07511548843468 -289.35859653824446 0 -289.35859653824446 -191.26124124150374 0 0 0 0 -336.25251584523357 -496.39687944721663 0 -496.39687944721663 -55.959844944125507 0 0 0 0 -448.71898367277754 -512.54660838570635 0 -512.54660838570635 49.414662456343649 0 0 0 0 -309.68512190383626 -639.26398266670003 0 -639.26398266670003 112.0926694671798 0 0 0 0 -289.38252978894161 -187.72933066220139 0 -187.72933066220139 286.4691124600231 0 0 0 0 -493.91963517545082 -431.54327284964165 0 -431.54327284964165 10.649617312272312 0 0 0 0 -129.3406383052934 -281.61801484390162 0 -281.61801484390162 -115.94951276518987 0 0 0 0 -207.56409701565281 -214.83461355087638 0 -214.83461355087638 42.057925959146814 0 0 0 0 117.42342449974967 -64.687694265783648 0 -64.687694265783648 -208.49897797114681 0 0 0 0 313.29734810916125 296.86622967631411 0 296.86622967631411 29.025796307169003 0 0 0 0 -157.46551574295154 -185.97860066955036 0 -185.97860066955036 -40.161522162277834 0 0 0 0 -447.86118865097524 -386.08494777841406 0 -386.08494777841406 -189.81412013866066 0 0 0 0 -149.29580442275619 -190.66685394552769 0 -190.66685394552769 -156.63022327044837 0 0 0 0 -595.4638659562188 -757.65956758660104 0 -757.65956758660104 -47.928776759363245 0 0 0 0 -203.14740913797868 -157.2156678744941 0 -157.2156678744941 -216.91125289502997 0 0 0 0 -130.31752257619519 -247.58425557083683 0 -247.58425557083683 -124.30075348063838 0 0 0 0 -68.120876950211823 -35.952208356611663 0 -35.952208356611663 60.191058218311809 0 0 0 0 -12.441590546292105 -38.891776887407872 0 -38.891776887407872 60.012088461746856 0 0 0 0 692.49690354679478 -82.207124392691185 0 -82.207124392691185 -375.30587382799422 0 0 0 0 107.64693486079341 -961.59658218658842 0 -961.59658218658842 -152.81986870987748 0 0 0 0 -0.53153880785436058 -5.0628229037789652 0 -5.0628229037789652 -10.44807667752454 0 0 0 0 -11.872408429713687 99.324131077977654 0 99.324131077977654 125.91150048645795 0 0 0 0 0.85099158948287368 -16.012596988766745 0 -16.012596988766745 14.975878484739951 0 0 0 0 -57.296261911746114 -46.196915763444849 0 -46.196915763444849 62.459125812340062 0 0 0 0 -23.082927754520995 -31.737466533839424 0 -31.737466533839424 23.34352871534945 0 0 0 0 -948.57389464997686 971.8509442442446 0 971.8509442442446 -742.35011286386543 0 0 0 0 -995.59154835747904 63.472004271505284 0 63.472004271505284 259.95608249008546 0 0 0 0 -790.12523017654894 -1163.9790158059768 0 -1163.9790158059768 -292.8208740574064 0 0 0 0 -868.98899074271321 -564.77204169406468 0 -564.77204169406468 27.811096353456378 0 0 0 0 513.80650335017708 28.448140144988429 0 28.448140144988429 -139.04961943461967 0 0 0 0 -1765.667582965063 -860.78851690449665 0 -860.78851690449665 259.4901222140179 0 0 0 0 -0.72254971532527179 -1.1373671302746402 0 -1.1373671302746402 -13.771361871324501 0 0 0 0 -709.47167357447324 7.5373236547748093 0 7.5373236547748093 -321.6482509077905 0 0 0 0 -1409.802069341531 -146.8911745873047 0 -146.8911745873047 80.08583587881003 0 0 0 0 658.45302708051167 -59.371317813864152 0 -59.371317813864152 -197.37769185390789 0 0 0 0 48.730137482547434 -152.03384897978094 0 -152.03384897978094 88.308695063442428 0 0 0 0 787.0942756391305 152.0147058121147 0 152.0147058121147 -290.49160441901768 0 0 0 0 1197.4796768381057 -105.68588395283223 0 -105.68588395283223 -574.68755821493687 0 0 0 0 1061.2518978969747 272.22514006185156 0 272.22514006185156 -1165.8127002968977 0 0 0 0 -1.0893735378273135 -18.508625525092356 0 -18.508625525092356 -57.005637807769105 0 0 0 0 -3.0275383951084223 -118.3421560937868 0 -118.3421560937868 -114.12252833214734 0 0 0 0 -1.54072892823703 -6.6747809080115701 0 -6.6747809080115701 -32.725000954324543 0 0 0 0 73.980368656164501 112.41022007315769 0 112.41022007315769 582.57145322357246 0 0 0 0 1114.4720974750371 698.89954026413488 0 698.89954026413488 -42.213391985409544 0 0 0 0 1134.409157970018 1091.1246094524467 0 1091.1246094524467 342.73777023467119 0 0 0 0 658.4528798396932 602.4611386921315 0 602.4611386921315 733.81768676923093 0 0 0 0 797.34774534503231 148.36637964838883 0 148.36637964838883 -417.22699333707715 0 0 0 0 -731.39215711146244 397.46490964171426 0 397.46490964171426 -526.1897355424735 0 0 0 0 36.702558405115269 -327.81764373832266 0 -327.81764373832266 -43.8856574878846 0 0 0 0 411.07088183591259 545.50980967881333 0 545.50980967881333 -102.36061354535923 0 0 0 0 320.45726501964964 17.415858751628548 0 17.415858751628548 -654.33431995951105 0 0 0 0 315.28231583267916 -120.01210441739386 0 -120.01210441739386 -1639.9505852105549 0 0 0 0 -829.24970215874782 -948.01006160018824 0 -948.01006160018824 -927.08215771493269 0 0 0 0 -2.1720310072710305 -4.1611266499105568 0 -4.1611266499105568 -9.0165302986619054 0 0 0 0 0.060083849879447371 -263.97886116099562 0 -263.97886116099562 -34.914795885613785 0 0 0 0 102.636705211964 -202.42122686179232 0 -202.42122686179232 -539.0142762901869 0 0 0 0 473.79091141307435 -542.67570561077719 0 -542.67570561077719 -488.30731384972023 0 0 0 0 23.209638508953503 -316.36626729365798 0 -316.36626729365798 -68.96213781604456 0 0 0 0 369.04017554296297 -260.97920966336642 0 -260.97920966336642 -61.464344689000427 0 0 0 0 78.485959053592524 -136.09903499323173 0 -136.09903499323173 173.16980422543202 0 0 0 0 267.59170010211528 -277.87828251719839 0 -277.87828251719839 160.07002081004975 0 0 0 0 -6.7105331979042262 -9.1039616106675965 0 -9.1039616106675965 8.16930640231692 0 0 0 0 317.47327982773277 -342.77204896473449 0 -342.77204896473449 147.79186593235136 0 0 0 0 115.36783638433189 -283.12148460223716 0 -283.12148460223716 338.80299821648805 0 0 0 0 -135.31763122067787 -141.41053220362483 0 -141.41053220362483 284.09155477615332 0 0 0 0 -15.026440448942594 30.096601724418178 0 30.096601724418178 164.47332377537532 0 0 0 0 6.5991701435268624 26.612846115990578 0 26.612846115990578 66.155073137328145 0 0 0 0 -20.150428553693928 -23.212061336958868 0 -23.212061336958868 67.784906876579043 0 0 0 0 10.216847401665291 21.473200087511941 0 21.473200087511941 31.988539861420577 0 0 0 0 21.722250390477711 25.653510761068901 0 25.653510761068901 32.71658733930235 0 0 0 0 17.473740072047804 15.327783770764654 0 15.327783770764654 28.979803026639274 0 0 0 0 -33.045985602453584 49.125537996671483 0 49.125537996671483 -14.79350869233167 0 0 0 0 -11.380268776207231 -18.173232272292807 0 -18.173232272292807 73.085932994192262 0 0 0 0 -20.336436055571539 -68.68527633818303 0 -68.68527633818303 -70.027961702444372 0 0 0 0 -540.48698233638424 -426.91624809417772 0 -426.91624809417772 -207.39666672427484 0 0 0 0 10.706986471221143 -15.558375375906706 0 -15.558375375906706 14.21284271104048 0 0 0 0 -146.64617966060177 -190.44974345101764 0 -190.44974345101764 96.426865532754164 0 0 0 0 -957.19722204952268 -557.26681451448349 0 -557.26681451448349 -261.84133258824841 0 0 0 0 -533.22202187911898 -368.59078536350353 0 -368.59078536350353 -238.03786501933064 0 0 0 0 367.62907894325781 -224.84781167326116 0 -224.84781167326116 -79.561041827375448 0 0 0 0 4.7202583559999596 -6.8910468721655036 0 -6.8910468721655036 3.899126853890337 0 0 0 0 732.6512661754241 -147.32748771247498 0 -147.32748771247498 -231.49518879860261 0 0 0 0 -960.53095918649251 -613.38427614444481 0 -613.38427614444481 -375.37918167309181 0 0 0 0 -925.74872533752932 -545.92776350585154 0 -545.92776350585154 -497.59790732965484 0 0 0 0 -732.17429614531284 -690.06170127440419 0 -690.06170127440419 -635.04352063771876 0 0 0 0 -366.56940246219165 -515.46892766652127 0 -515.46892766652127 -560.95238027797677 0 0 0 0 14.999707897106418 -34.170606766990659 0 -34.170606766990659 647.80121274361522 0 0 0 0 -273.34869402996264 -207.82741292804712 0 -207.82741292804712 -156.36222156342046 0 0 0 0 1.9636909208242628 -23.139426219003994 0 -23.139426219003994 26.164731383111164 0 0 0 0 -178.74717029494059 -263.10697151821296 0 -263.10697151821296 -406.09098497028754 0 0 0 0 -155.46936103932967 590.33503577282045 0 590.33503577282045 1383.1082779917388 0 0 0 0 2.5908972097655578 -5.3488915473893144 0 -5.3488915473893144 -6.5583428978160505 0 0 0 0 -213.20580083537789 -370.34528311555869 0 -370.34528311555869 -242.54663076428551 0 0 0 0 -83.204813852978987 -25.561801150613974 0 -25.561801150613974 44.551707666123548 0 0 0 0 8.1911695075254443 -20.569627611870686 0 -20.569627611870686 9.3470174309796263 0 0 0 0 -219.12485251759063 -366.32893296838301 0 -366.32893296838301 -316.57767729775514 0 0 0 0 -0.39671516800154905 -3.3723194489424841 0 -3.3723194489424841 6.0855834508116171 0 0 0 0 -312.02464269893244 -326.19889300216164 0 -326.19889300216164 -252.0789497268961 0 0 0 0 -414.35277745962958 -472.19672985555917 0 -472.19672985555917 -320.01774405356991 0 0 0 0 -354.79394834398408 -368.58409913212017 0 -368.58409913212017 -263.5874071057674 0 0 0 0 -488.95973356722243 -319.06006390044604 0 -319.06006390044604 -140.36653367870167 0 0 0 0 -221.85857868472522 -239.29279343079725 0 -239.29279343079725 -193.19401386312529 0 0 0 0 -159.53758074558573 -15.492318349157358 0 -15.492318349157358 89.322545732087747 0 0 0 0 -349.19772306963569 -275.28842857634481 0 -275.28842857634481 -136.79594679094043 0 0 0 0 -324.26283645333024 -402.41665919516163 0 -402.41665919516163 -272.77759583693114 0 0 0 0 -289.84369707130827 -340.07925602740033 0 -340.07925602740033 -165.16169461191748 0 0 0 0 -349.240959205396 -354.82251815490008 0 -354.82251815490008 -168.77531034962885 0 0 0 0 -310.53735330141353 -306.13690398616939 0 -306.13690398616939 -116.52017993697518 0 0 0 0 -315.29506520106224 -357.01752070928524 0 -357.01752070928524 -194.1675389048869 0 0 0 0 -316.10582170280395 -304.9705836703306 0 -304.9705836703306 -164.18752779340866 0 0 0 0 7.5634019167191582 -31.138800773840558 0 -31.138800773840558 -4.6621927868072817 0 0 0 0 -89.682007200346561 -238.80160645105207 0 -238.80160645105207 -225.22611230638358 0 0 0 0 -145.02983656307333 -50.323760949264397 0 -50.323760949264397 -64.040272212055243 0 0 0 0 13.75038558109577 -15.405279082326786 0 -15.405279082326786 6.1088173080025072 0 0 0 0 -312.85676897864323 -317.09516185660686 0 -317.09516185660686 -133.96182200632757 0 0 0 0 -351.23535178009661 -154.62685526469909 0 -154.62685526469909 -18.08841193203989 0 0 0 0 -792.53343794358079 -142.7768948413559 0 -142.7768948413559 82.7661940220205 0 0 0 0 -513.79803342648665 -467.84839729841769 0 -467.84839729841769 -189.59819791734117 0 0 0 0 -369.74519107413653 -361.91686179289991 0 -361.91686179289991 -115.37426713430614 0 0 0 0 -140.69094213849166 -131.45601374960279 0 -131.45601374960279 -57.994343999642297 0 0 0 0 44.116607833682792 -29.733200027254497 0 -29.733200027254497 30.029768394131679 0 0 0 0 6.6507018409365202 -7.8007805937772048 0 -7.8007805937772048 -7.2472104384046787 0 0 0 0 7.646994734146574 -31.745917624517006 0 -31.745917624517006 -2.4259346527505841 0 0 0 0 7.2374334079191414 -26.698497266195517 0 -26.698497266195517 -10.723327914544768 0 0 0 0 -0.97462242594190229 -24.545035564393121 0 -24.545035564393121 4.6384403865368977 0 0 0 0 -2.2114257955056758 -29.621918274148157 0 -29.621918274148157 0.58133427739048926 0 0 0 0 -39.776264623098541 16.427564267244861 0 16.427564267244861 -24.945648073224675 0 0 0 0 -2.6777368758339435 -26.347831041066456 0 -26.347831041066456 1.1269170500254404 0 0 0 0 60.059021949709859 520.13185385053055 0 520.13185385053055 1045.3447342809766 0 0 0 0 9.4021129340380298 -22.302105863908679 0 -22.302105863908679 -0.94929096199001961 0 0 0 0 -0.7864801965188235 -29.40212568856623 0 -29.40212568856623 -13.572765386234096 0 0 0 0 -63.162794335570652 -344.62767724214086 0 -344.62767724214086 755.31118362142684 0 0 0 0 -4.4524441617631965 -21.367358636932813 0 -21.367358636932813 24.201995142428238 0 0 0 0 3.4168737128077282 -21.799695297397051 0 -21.799695297397051 16.26699788632472 0 0 0 0 2.6489427560092622 -5.8110763715707492 0 -5.8110763715707492 8.1720960479547848 0 0 0 0 162.91938550223495 -249.41125447040656 0 -249.41125447040656 -369.36817476696524 0 0 0 0 -182.05425994470716 89.745845652252228 0 89.745845652252228 692.00561033170186 0 0 0 0 -106.04515440047544 -71.602120994145594 0 -71.602120994145594 -186.80840973416502 0 0 0 0 149.18386453132553 -152.57043948470266 0 -152.57043948470266 81.570293444618073 0 0 0 0 200.4588629741047 -495.67861959336005 0 -495.67861959336005 -393.17276505438338 0 0 0 0 -179.74995186697925 -569.37914519651986 0 -569.37914519651986 -391.42659397972812 0 0 0 0 36.712114866164484 -587.73909768031194 0 -587.73909768031194 -695.2270769608142 0 0 0 0 -64.494575773482211 -488.29265729762017 0 -488.29265729762017 521.83280407150733 0 0 0 0 -367.9566324435873 -812.27345767377528 0 -812.27345767377528 -784.26710766494909 0 0 0 0 -586.02591987134656 -1167.293748299719 0 -1167.293748299719 -934.21139544802691 0 0 0 0 -347.54618746365304 -1033.6706534928746 0 -1033.6706534928746 -892.92222495930173 0 0 0 0 -90.66164333812776 -521.58976943521361 0 -521.58976943521361 -613.12056045039981 0 0 0 0 -190.68202238417325 -246.83662929311109 0 -246.83662929311109 -302.27382934853904 0 0 0 0 -275.23032987629995 -437.76502349242185 0 -437.76502349242185 -501.12675409481358 0 0 0 0 -382.37356190509308 -280.52717821731335 0 -280.52717821731335 -67.198234646354422 0 0 0 0 -435.74146835479769 -377.55697245297688 0 -377.55697245297688 -516.09463609642307 0 0 0 0 -383.20517149509396 -660.99898048336172 0 -660.99898048336172 -791.37469475760156 0 0 0 0 -619.34447642369196 -482.36527252529595 0 -482.36527252529595 -925.15206832037984 0 0 0 0 -623.21023313089972 -830.15276139701984 0 -830.15276139701984 -1131.9604362742753 0 0 0 0 -1017.7462550665077 -693.25520556513675 0 -693.25520556513675 -1121.7946252175566 0 0 0 0 -728.67534702581543 -930.68069264319104 0 -930.68069264319104 -927.60826547971192 0 0 0 0 -721.08160695957486 -734.0739140602418 0 -734.0739140602418 -746.20566675107148 0 0 0 0 -795.16362431913149 -1130.3187647779464 0 -1130.3187647779464 -925.56389434608354 0 0 0 0 -769.7242127598729 -1190.2492026170135 0 -1190.2492026170135 -1293.9964026459711 0 0 0 0 -1093.0025230499541 -1297.2818342572086 0 -1297.2818342572086 -1019.1231722391212 0 0 0 0 -1560.5493768736724 -1432.3490161303746 0 -1432.3490161303746 -1367.7601847939304 0 0 0 0 -1511.2342364634387 -381.30844034534994 0 -381.30844034534994 -1937.0862386740318 0 0 0 0 -968.91414278320735 -993.44430618147726 0 -993.44430618147726 -1293.3274166484946 0 0 0 0 -1467.3619243570429 -2047.2746195959739 0 -2047.2746195959739 -1214.330981871341 0 0 0 0 -870.33092006256629 -1433.1308036795476 0 -1433.1308036795476 -2494.8702897367748 0 0 0 0 -12.067308005638552 -88.406776392220792 0 -88.406776392220792 122.29348447859178 0 0 0 0 3.0956292592636885 -4.5525042784257437 0 -4.5525042784257437 -2.5476073690712706 0 0 0 0 -1531.0408323202573 -1335.4929243699651 0 -1335.4929243699651 -780.83046754977477 0 0 0 0 -14.026475016478798 -107.3556094894808 0 -107.3556094894808 -3.6535035200066659 0 0 0 0 -1348.2863718312583 -1370.7745452941406 0 -1370.7745452941406 -784.77490466464258 0 0 0 0 -803.25010952365119 -994.51501125529103 0 -994.51501125529103 -973.95414632548773 0 0 0 0 -1104.9109977983753 -1077.8229042709975 0 -1077.8229042709975 -990.14643649024981 0 0 0 0 -1147.8871847496193 -1348.8714995868659 0 -1348.8714995868659 -1225.6880339452259 0 0 0 0 -627.35367153861444 -889.01924670184735 0 -889.01924670184735 -1201.3445169728484 0 0 0 0 -835.66032325135893 -1153.0533460755466 0 -1153.0533460755466 -1476.9872771217408 0 0 0 0 -840.83995119694737 -1241.2458247005704 0 -1241.2458247005704 -1246.3972873051762 0 0 0 0 -811.97640067635075 -604.17643358345413 0 -604.17643358345413 -1384.5521489523858 0 0 0 0 -466.51748465208948 -514.61311980273013 0 -514.61311980273013 -1010.5613825360863 0 0 0 0 -650.16423589460464 -898.24198200173021 0 -898.24198200173021 -1029.4419636694661 0 0 0 0 -419.0870625537209 -776.1212239707969 0 -776.1212239707969 -1056.8527975676946 0 0 0 0 -833.3088827556021 -890.72851606638915 0 -890.72851606638915 -827.33219219857904 0 0 0 0 -433.7910357198125 -780.50978832184865 0 -780.50978832184865 -864.87462819534505 0 0 0 0 -477.80321920741699 -655.51719152217652 0 -655.51719152217652 -722.24925810437264 0 0 0 0 -267.04389876226196 -625.85360710426164 0 -625.85360710426164 -821.63494199310844 0 0 0 0 -384.27354198446847 -410.88902792799649 0 -410.88902792799649 -428.29613831849804 0 0 0 0 -392.95382351137232 -627.87982620582716 0 -627.87982620582716 -870.4455453231717 0 0 0 0 -397.1041576279913 -297.34023683435203 0 -297.34023683435203 -639.27343843393874 0 0 0 0 -106.42108673037728 -451.00263037980005 0 -451.00263037980005 -562.37464063428376 0 0 0 0 -239.60016852690023 -159.59036765027679 0 -159.59036765027679 -479.9919325184988 0 0 0 0 12.688545430105933 -14.966553507243418 0 -14.966553507243418 14.742743207194145 0 0 0 0 254.97163999245095 -332.49713563921068 0 -332.49713563921068 -370.2891405046721 0 0 0 0 -213.9179536740121 -47.114081490721219 0 -47.114081490721219 650.42017720590775 0 0 0 0 -238.02857174800101 496.16234215141839 0 496.16234215141839 721.51260091654149 0 0 0 0 0.015119028081244323 -44.134004130584344 0 -44.134004130584344 235.25794169173605 0 0 0 0 -893.66795955749694 -743.28967701286092 0 -743.28967701286092 -622.48691886631832 0 0 0 0 -0.88289761081472307 -17.319070586575236 0 -17.319070586575236 16.943827024401575 0 0 0 0 -361.97173521405784 421.19621757507912 0 421.19621757507912 1282.0836665759789 0 0 0 0 92.530382896919036 -92.204675172734824 0 -92.204675172734824 782.8404535377058 0 0 0 0 820.3350392288412 -802.12775510444771 0 -802.12775510444771 -1699.0056280059844 0 0 0 0 -948.40590020584932 -578.64402349173906 0 -578.64402349173906 -476.15487671284791 0 0 0 0 1.3871297933961273 -9.2456354707811386 0 -9.2456354707811386 8.684549833116888 0 0 0 0 -36.986833836024744 698.56873732571307 0 698.56873732571307 1367.7762860882667 0 0 0 0 -605.52373263041954 -280.99370563131788 0 -280.99370563131788 546.09827417874885 0 0 0 0 475.68707476973941 304.21015190121079 0 304.21015190121079 119.81765176107001 0 0 0 0 -184.76962700026343 -792.44878134288228 0 -792.44878134288228 -602.22343457119985 0 0 0 0 79.889069439697778 311.50598141215642 0 311.50598141215642 -256.12567597340058 0 0 0 0 -299.35271623521294 -442.72182119536956 0 -442.72182119536956 -573.38447247616182 0 0 0 0 18.764971170111039 -19.074513351725727 0 -19.074513351725727 15.405522841053532 0 0 0 0 -413.02852336480282 -669.08309720422778 0 -669.08309720422778 -616.00448558602966 0 0 0 0 -422.0474940911954 -631.28334929845369 0 -631.28334929845369 -683.68363375119452 0 0 0 0 17.366682828250134 -15.805366930407985 0 -15.805366930407985 10.848067387534766 0 0 0 0 -414.35382447088068 -569.42811367035176 0 -569.42811367035176 -456.44862812621886 0 0 0 0 -260.09267856103543 290.9310836435086 0 290.9310836435086 194.72992548000457 0 0 0 0 -232.57276835870289 -245.85081082121167 0 -245.85081082121167 558.06675497998185 0 0 0 0 33.259479996158916 -256.19954246489669 0 -256.19954246489669 -371.97275591368862 0 0 0 0 -9.3747986698290333 -701.84488011908854 0 -701.84488011908854 -740.05466681657219 0 0 0 0 2.883645006184679 -1.152430448228543 0 -1.152430448228543 0.74041485177189159 0 0 0 0 -100.3508587275719 -418.35638446172834 0 -418.35638446172834 -965.47822019497653 0 0 0 0 245.90919721117825 780.14176607545323 0 780.14176607545323 1118.0557569052839 0 0 0 0 11.179571980945184 -82.183485012392339 0 -82.183485012392339 647.05627912181899 0 0 0 0 -403.14743347477634 -561.17583021416976 0 -561.17583021416976 -488.58811131280163 0 0 0 0 -138.40683644417004 4.8779247337233755 0 4.8779247337233755 -657.67094628244377 0 0 0 0 973.28249739500461 -126.98439331769396 0 -126.98439331769396 -411.86480984253058 0 0 0 0 455.82908215193311 -1188.3721376597978 0 -1188.3721376597978 577.85254851934042 0 0 0 0 704.53898081057559 -488.42289257167909 0 -488.42289257167909 -878.53672435086719 0 0 0 0 1402.0419467656575 -892.26749674877794 0 -892.26749674877794 -414.76004103334344 0 0 0 0 -59.928035370293401 -569.52877996034647 0 -569.52877996034647 -382.08367551748233 0 0 0 0 -591.89783422577602 -717.50412685829997 0 -717.50412685829997 -289.17935961346302 0 0 0 0 -484.11598387511913 -558.79727549604468 0 -558.79727549604468 -25.326392346186026 0 0 0 0 -81.947239267114753 -56.398779249660251 0 -56.398779249660251 -17.09639081279381 0 0 0 0 -48.060437849155278 -485.23756536185556 0 -485.23756536185556 -24.430341728242638 0 0 0 0 305.64709143681102 -256.61824235664972 0 -256.61824235664972 21.076355254392638 0 0 0 0 -174.34682341940061 -1253.6748738510905 0 -1253.6748738510905 910.74028713597363 0 0 0 0 58.350932326371549 -553.84795898687298 0 -553.84795898687298 -26.372269827281229 0 0 0 0 28.993319866071772 -89.45811889317811 0 -89.45811889317811 -127.30255006514216 0 0 0 0 593.6888959968328 -279.04261587863402 0 -279.04261587863402 181.81316614830575 0 0 0 0 349.3031539947915 -915.11002782211381 0 -915.11002782211381 524.95658683319925 0 0 0 0 275.27905044425279 -375.272280558489 0 -375.272280558489 243.73018734646212 0 0 0 0 43.295711555194998 -84.015068043730864 0 -84.015068043730864 -119.45656890855091 0 0 0 0 -82.697373551790122 -52.881053377251845 0 -52.881053377251845 -6.656000213132387 0 0 0 0 144.64254702964172 -258.06252996260855 0 -258.06252996260855 320.17541193646503 0 0 0 0 2086.9252515934495 -1852.4932308400239 0 -1852.4932308400239 154.51851961685043 0 0 0 0 199.24096744811686 -421.49591629790393 0 -421.49591629790393 1191.9038901782387 0 0 0 0 -77.471160552380724 -48.401849276176321 0 -48.401849276176321 38.526693587487998 0 0 0 0 176.04069008867373 -356.92211849475098 0 -356.92211849475098 375.98153260460458 0 0 0 0 -831.32004395817057 -1419.1858480472456 0 -1419.1858480472456 1570.3372858716757 0 0 0 0 354.43244221506757 -1937.160947557828 0 -1937.160947557828 921.58996630098773 0 0 0 0 -809.59835855575511 -1035.5632442782007 0 -1035.5632442782007 802.39093272166792 0 0 0 0 -976.00100819260115 -879.33994837623322 0 -879.33994837623322 796.89972186532373 0 0 0 0 -924.10465846641455 -886.70024297529017 0 -886.70024297529017 612.10641782048515 0 0 0 0 -849.94050760162645 -581.44733585547147 0 -581.44733585547147 657.20040984680963 0 0 0 0 -868.38156181381783 -780.31617286667461 0 -780.31617286667461 653.05293754526065 0 0 0 0 -1030.7950052125379 -712.36222940448715 0 -712.36222940448715 668.72221774710033 0 0 0 0 -557.9936024825729 -942.72992720449292 0 -942.72992720449292 712.60814475917141 0 0 0 0 -1268.495690438227 -487.41854158217939 0 -487.41854158217939 644.44313004195646 0 0 0 0 -1286.0829326570638 -891.85139633738959 0 -891.85139633738959 942.88943191607177 0 0 0 0 -1212.6350429213089 -199.9873970320848 0 -199.9873970320848 197.11184289895755 0 0 0 0 -1416.9543636614981 -10.065908876602407 0 -10.065908876602407 445.48750710943386 0 0 0 0 -1788.8076452144451 -107.02169419445727 0 -107.02169419445727 370.26699319198815 0 0 0 0 -2021.1105260743352 204.14000297844541 0 204.14000297844541 391.08683167404888 0 0 0 0 -2418.2009281459323 -815.70674109844913 0 -815.70674109844913 570.47290848421289 0 0 0 0 -786.0296468504821 -1375.0430026729809 0 -1375.0430026729809 271.50205159993129 0 0 0 0 -1090.1844752067991 -882.93248494705222 0 -882.93248494705222 405.09280482896452 0 0 0 0 -3.3539781685394701 -49.794636358962634 0 -49.794636358962634 -8.2372657569776493 0 0 0 0 22.298508751196891 -30.398587218250526 0 -30.398587218250526 1.6846238361070576 0 0 0 0 -101.82531164983811 -373.55188713282769 0 -373.55188713282769 241.98543216473263 0 0 0 0 -9.5512536928311391 -43.596213519988623 0 -43.596213519988623 -7.627889713628818 0 0 0 0 -206.51755776378559 -130.82432649091243 0 -130.82432649091243 235.36633369727861 0 0 0 0 -948.66878006386105 -452.62229781174028 0 -452.62229781174028 507.78761693749584 0 0 0 0 -559.76001974623068 -544.5710391720786 0 -544.5710391720786 526.5577124839765 0 0 0 0 -391.03134720114758 -559.64700977036409 0 -559.64700977036409 422.06866420944789 0 0 0 0 -1097.0992740497022 482.74746730581091 0 482.74746730581091 119.3925091616693 0 0 0 0 -903.48873285838636 -632.87817567163074 0 -632.87817567163074 655.3171470413215 0 0 0 0 -18.126742678800312 -30.814588449663717 0 -30.814588449663717 2.1856976061950704 0 0 0 0 -488.70821805621381 -72.10315974054447 0 -72.10315974054447 -208.37974838003083 0 0 0 0 -1415.3185324560072 -12.356046965054247 0 -12.356046965054247 303.51503660573508 0 0 0 0 -12.114422767541782 -9.4064847332123378 0 -9.4064847332123378 2.5743449088732575 0 0 0 0 -2.2245287128257587 -25.180054993818928 0 -25.180054993818928 10.592401333289448 0 0 0 0 -5.3860168384380813 -42.090546721897681 0 -42.090546721897681 -5.5984555624527275 0 0 0 0 -17.246485817915527 -42.7366404817476 0 -42.7366404817476 -4.5232827580621233 0 0 0 0 -541.94478896941291 -124.6623434581868 0 -124.6623434581868 242.46219256995087 0 0 0 0 -20.36958048681845 -39.01640890228191 0 -39.01640890228191 4.7003326849317091 0 0 0 0 -10.549716187945307 -26.601592458838581 0 -26.601592458838581 -7.0431211045860795 0 0 0 0 -8.1743036386324093 -34.475911204533304 0 -34.475911204533304 -2.2041853315022308 0 0 0 0 -20.609303733101115 -40.890175689573425 0 -40.890175689573425 2.0976156805663777 0 0 0 0 -739.59699267774704 493.54399122122049 0 493.54399122122049 -478.74122148575407 0 0 0 0 -2503.2596292713788 -2247.2747025966783 0 -2247.2747025966783 -2004.4544189753233 0 0 0 0 -890.39584825609927 -1804.2677955175252 0 -1804.2677955175252 -2156.7365607430743 0 0 0 0 -7.3398443711840571 -8.2970386198361723 0 -8.2970386198361723 -4.9787287007785972 0 0 0 0 649.36120060856774 113.97879172124385 0 113.97879172124385 -1469.1758394630087 0 0 0 0 -1.0772764327261655 -4.3577601868308022 0 -4.3577601868308022 -0.50411130039662755 0 0 0 0 -526.7223329069966 -805.48891482806107 0 -805.48891482806107 -921.98659876849183 0 0 0 0 785.22771715225826 -730.59654813354518 0 -730.59654813354518 -1130.3319238628901 0 0 0 0 -588.16463631863007 -452.68220790072019 0 -452.68220790072019 -2779.3636888910428 0 0 0 0 -591.52189326385269 -649.77529623292639 0 -649.77529623292639 -806.26248137793345 0 0 0 0 -1089.4863615525683 -1022.3528517921363 0 -1022.3528517921363 -523.23098605164705 0 0 0 0 -2781.79184495972 -2016.5830382859176 0 -2016.5830382859176 -1089.1272979746582 0 0 0 0 -4036.6156987673603 -526.87280619650483 0 -526.87280619650483 301.99865170147677 0 0 0 0 -2301.6559853453364 1362.5315768355276 0 1362.5315768355276 -409.32595588920321 0 0 0 0 -18.739573146480041 -5.3029497769876413 0 -5.3029497769876413 1.4924906990798816 0 0 0 0 -2603.3512184536121 109.26236669035188 0 109.26236669035188 -1419.1307930836911 0 0 0 0 -3273.9546082255983 -1812.1319140032397 0 -1812.1319140032397 -2020.9313771976067 0 0 0 0 -1366.8967457879917 -675.53669456340685 0 -675.53669456340685 -1732.0160698404541 0 0 0 0 -698.22944625382661 20.5265328851101 0 20.5265328851101 -848.98389904422766 0 0 0 0 -668.51420237135608 -78.497933918113631 0 -78.497933918113631 -1683.9279999671589 0 0 0 0 505.37826343874622 -14.753514675243423 0 -14.753514675243423 -1608.087611861085 0 0 0 0 -334.37315667672556 358.87546426863287 0 358.87546426863287 -465.46459993356439 0 0 0 0 242.66128204480628 -226.52917877343179 0 -226.52917877343179 -876.80607106975594 0 0 0 0 -1234.551497346325 -1008.3451861330869 0 -1008.3451861330869 -783.55015765819826 0 0 0 0 -1949.8621244631649 -390.73353499114182 0 -390.73353499114182 -762.94282680506058 0 0 0 0 -851.36540114079253 -4.4631434323400754 0 -4.4631434323400754 -754.88335614511266 0 0 0 0 -461.15924755790911 63.52715118609558 0 63.52715118609558 -108.67481868281266 0 0 0 0 -665.26860010888777 -491.66080107771404 0 -491.66080107771404 -247.59554925569228 0 0 0 0 -514.07458905986277 -324.2980196934277 0 -324.2980196934277 -459.00149504594265 0 0 0 0 -574.05484539851022 -1120.4073002551893 0 -1120.4073002551893 -1103.5287447709575 0 0 0 0 -428.64379782561446 -889.69133531941725 0 -889.69133531941725 -861.64951444027497 0 0 0 0 -584.12746593973134 -1025.8551732076908 0 -1025.8551732076908 -775.8325004838855 0 0 0 0 -1751.2742367345345 -769.07357997180952 0 -769.07357997180952 -894.27999651491609 0 0 0 0 -493.88599459505349 -509.35774760516074 0 -509.35774760516074 -474.5038857385764 0 0 0 0 -660.33884309823043 -1124.1559106366037 0 -1124.1559106366037 -1135.7462757299709 0 0 0 0 -549.19417922571301 -1251.699737714865 0 -1251.699737714865 -1031.8262621809965 0 0 0 0 -791.77623507083626 -1206.6976341875629 0 -1206.6976341875629 -1003.2993530600243 0 0 0 0 -621.02360437191965 -1325.0448315623557 0 -1325.0448315623557 -1052.9879977968212 0 0 0 0 -1024.2037682682967 -594.66166106115202 0 -594.66166106115202 204.16902448657561 0 0 0 0 -352.92359021875018 -1210.0797881203321 0 -1210.0797881203321 -1962.8212691512267 0 0 0 0 -12.511954803651349 -7.1014528798568932 0 -7.1014528798568932 -3.7730566228058873 0 0 0 0 -79.978689765775925 -936.15891456218151 0 -936.15891456218151 -1690.7783638295009 0 0 0 0 -313.31119100515934 -259.04510356550827 0 -259.04510356550827 371.07951306316409 0 0 0 0 115.90155550281634 -226.50242885503712 0 -226.50242885503712 -447.21052187955002 0 0 0 0 -33.401477650506251 -15.168312414630194 0 -15.168312414630194 -6.8003647808139469 0 0 0 0 75.136880249669048 -142.5713023768682 0 -142.5713023768682 122.14470001561898 0 0 0 0 -5.4539283993944991 -29.613797727084432 0 -29.613797727084432 236.63461058722316 0 0 0 0 120.67277664170979 -4.6516190662263703 0 -4.6516190662263703 60.201386799748548 0 0 0 0 -148.64554938396032 -48.716708716041921 0 -48.716708716041921 -161.78906553258412 0 0 0 0 -155.68097294790937 219.14741414029652 0 219.14741414029652 116.98031067745887 0 0 0 0 -42.954395243243198 -168.71221876521395 0 -168.71221876521395 -178.15668226732623 0 0 0 0 -187.45897729957505 133.32902027999467 0 133.32902027999467 222.23531153266322 0 0 0 0 -10.406777621523361 69.874827773519655 0 69.874827773519655 75.259939502047928 0 0 0 0 -97.477424629993038 5.1703052628527075 0 5.1703052628527075 333.6110445167642 0 0 0 0 -43.442543887877832 -22.630685236817691 0 -22.630685236817691 -2.9992170136107443 0 0 0 0 -1.4285710266960656 -14.822131290087412 0 -14.822131290087412 3.5252017520896684 0 0 0 0 -12.993528422186273 -13.906173088311746 0 -13.906173088311746 9.064898813634489 0 0 0 0 115.54616624886694 -30.871850973528382 0 -30.871850973528382 -56.991567690972488 0 0 0 0 -251.47630357858725 71.657345824178606 0 71.657345824178606 28.493851761215183 0 0 0 0 4.9127532218561782 -5.2750457202224936 0 -5.2750457202224936 4.4199173795784201 0 0 0 0 22.578325183363631 -269.70519747010837 0 -269.70519747010837 -124.52267220208765 0 0 0 0 -206.44459780082434 -274.91860215736426 0 -274.91860215736426 -46.694108055334539 0 0 0 0 3.6564880618744269 -1.4022881950362773 0 -1.4022881950362773 -0.32581184972752286 0 0 0 0 16.832521857384563 -110.51257370365926 0 -110.51257370365926 350.23565849291572 0 0 0 0 211.78290699553327 -337.85549000713218 0 -337.85549000713218 267.76023960855264 0 0 0 0 166.58767902385443 112.38830945623113 0 112.38830945623113 56.513087848802115 0 0 0 0 5.8893565882608527 -7.9770164682611266 0 -7.9770164682611266 4.9221793710630664 0 0 0 0 -0.55714711054128685 -1.6838811532145712 0 -1.6838811532145712 8.6591410684530068 0 0 0 0 -4.4280073533536779 36.362800768423597 0 36.362800768423597 116.71558181588262 0 0 0 0 0.4913892578990513 0.22184359880540683 0 0.22184359880540683 2.1363326980519055 0 0 0 0 462.56321538667544 -69.693341828991151 0 -69.693341828991151 -369.0915606849012 0 0 0 0 168.09385417800513 9.8450127779988179 0 9.8450127779988179 -244.11690747315606 0 0 0 0 417.63614328257972 -369.44858339595248 0 -369.44858339595248 -345.96064073045272 0 0 0 0 168.68724287993973 -192.65562912220003 0 -192.65562912220003 74.637850578048756 0 0 0 0 693.39321680557941 -23.291317164477505 0 -23.291317164477505 -642.79602514455382 0 0 0 0 679.89271581270259 -352.71462164928766 0 -352.71462164928766 -546.06199406064752 0 0 0 0 548.79044479387812 137.56197507827392 0 137.56197507827392 -814.08371271189105 0 0 0 0 138.18886407992431 -526.26774965205993 0 -526.26774965205993 -533.14169218105144 0 0 0 0 -76.000042861033933 -61.025863307246681 0 -61.025863307246681 -13.528147732285593 0 0 0 0 173.57190253633598 -359.13810584904002 0 -359.13810584904002 -426.05952825042732 0 0 0 0 350.97826949096634 -472.79344262617087 0 -472.79344262617087 -530.05256089735371 0 0 0 0 247.81220347899944 -488.78557994831544 0 -488.78557994831544 -516.39941433839363 0 0 0 0 310.04994971043197 -350.12399608613759 0 -350.12399608613759 -335.16018896316154 0 0 0 0 -453.33666397893103 -890.58965356686849 0 -890.58965356686849 -569.26487196632297 0 0 0 0 -41.115699262489215 -417.57327927187384 0 -417.57327927187384 -214.85459664764403 0 0 0 0 -43.503613999057279 -10.630277322361252 0 -10.630277322361252 6.383051516147809 0 0 0 0 -455.41346289185458 -562.09111199191977 0 -562.09111199191977 50.261587298547965 0 0 0 0 -191.53881685857777 -670.50997940245861 0 -670.50997940245861 -278.86830945781207 0 0 0 0 -126.97426884922606 -729.82072688034191 0 -729.82072688034191 21.254945726466268 0 0 0 0 -23.073466943329549 -361.8938290224678 0 -361.8938290224678 231.61926542385527 0 0 0 0 -183.7608850972174 -614.07134940263325 0 -614.07134940263325 -163.97921127782999 0 0 0 0 -179.38624332629843 -548.95585398304081 0 -548.95585398304081 50.658202923359113 0 0 0 0 -256.36928997377981 -479.19098171338123 0 -479.19098171338123 51.900754024324101 0 0 0 0 -28.106204774157959 -349.23437034303288 0 -349.23437034303288 -19.291986116393957 0 0 0 0 86.779667532682652 -199.19695354017134 0 -199.19695354017134 92.858431425336221 0 0 0 0 -64.514689484800329 -196.48277850816567 0 -196.48277850816567 11.839900640772612 0 0 0 0 -136.10831241398409 -423.21354285439156 0 -423.21354285439156 190.19890192639423 0 0 0 0 -139.60662747639498 -63.199554279405845 0 -63.199554279405845 36.217216646869986 0 0 0 0 -124.7349503512105 -469.36467760443202 0 -469.36467760443202 -8.8812979575591271 0 0 0 0 -261.41346596594667 -406.1698900416684 0 -406.1698900416684 -30.750268861911195 0 0 0 0 -527.99079461826523 -212.55051202215054 0 -212.55051202215054 156.23085062344762 0 0 0 0 -61.911225800769103 -50.383148912180154 0 -50.383148912180154 59.117496683396581 0 0 0 0 -260.88870691122429 -80.481574558203647 0 -80.481574558203647 101.96481579276133 0 0 0 0 -76.405591219310736 -98.546541707830784 0 -98.546541707830784 61.984212060266145 0 0 0 0 -110.0097875736013 -80.36303268864738 0 -80.36303268864738 50.79638646849012 0 0 0 0 20.511609456295915 -26.784858951686843 0 -26.784858951686843 3.596229914605896 0 0 0 0 106.79450970722974 -201.55397868417344 0 -201.55397868417344 160.60536582024906 0 0 0 0 61.378983353351458 -125.21878074811579 0 -125.21878074811579 110.54687648084527 0 0 0 0 169.83716150681721 -75.393327516108002 0 -75.393327516108002 68.652274142161332 0 0 0 0 -8.8692704574641539 -174.36590599833971 0 -174.36590599833971 17.867082924268288 0 0 0 0 468.70887594437954 -307.7177620201312 0 -307.7177620201312 -207.03362040009051 0 0 0 0 161.98816036432981 -482.82509863554424 0 -482.82509863554424 -306.7930306008584 0 0 0 0 -5.1873954655339531 -2.0079094565875835 0 -2.0079094565875835 -3.2310779343537455 0 0 0 0 -84.226206953841029 -457.37791332196866 0 -457.37791332196866 -178.69670226156609 0 0 0 0 -313.41797036319622 -582.39977347010836 0 -582.39977347010836 -230.16915885572348 0 0 0 0 -101.63902940607568 -331.41833665311896 0 -331.41833665311896 -65.365817064092425 0 0 0 0 -89.964383711820119 -281.01431864461108 0 -281.01431864461108 -109.28145872837513 0 0 0 0 -491.69599281193223 -503.80848727616285 0 -503.80848727616285 -61.63296707931363 0 0 0 0 -127.20033734357412 -71.400720524920729 0 -71.400720524920729 41.191424353723882 0 0 0 0 -119.37274490692653 -544.42163841145384 0 -544.42163841145384 -278.94892473237178 0 0 0 0 -857.33067262445547 -205.15711461671663 0 -205.15711461671663 24.382200020062555 0 0 0 0 -119.60227489062527 -460.44533687155354 0 -460.44533687155354 -431.20747665482122 0 0 0 0 -267.00825222830463 -214.20153691969699 0 -214.20153691969699 -455.4097561619256 0 0 0 0 -505.32685879653582 -338.53246762403796 0 -338.53246762403796 -114.96405459756988 0 0 0 0 -228.31237163855985 -320.90686142740105 0 -320.90686142740105 -166.13110847380085 0 0 0 0 -613.10226180866448 -864.82538660897535 0 -864.82538660897535 -640.99064873020143 0 0 0 0 -256.05847010939033 -380.76765590700916 0 -380.76765590700916 -273.02131212770104 0 0 0 0 -0.73163966705826056 -66.122140732167807 0 -66.122140732167807 60.459858917433053 0 0 0 0 -1041.9057105468819 -945.15694839739263 0 -945.15694839739263 -394.05890545688817 0 0 0 0 -1119.5881591144134 -970.03947590624011 0 -970.03947590624011 826.58777865633601 0 0 0 0 26.875997564241288 -101.45282097411899 0 -101.45282097411899 -96.223493490648835 0 0 0 0 -502.29028861591541 -690.9296376940506 0 -690.9296376940506 -442.30157361213787 0 0 0 0 -876.45911101162346 -721.4643226506887 0 -721.4643226506887 324.23016366749653 0 0 0 0 46.026661881361008 -131.98079108794195 0 -131.98079108794195 220.34648734220548 0 0 0 0 -258.8202034731803 -371.60298980883567 0 -371.60298980883567 3.3496753402544073 0 0 0 0 -225.55318912804069 -250.09712780172003 0 -250.09712780172003 -187.49435747189256 0 0 0 0 59.940186774540791 -64.773687280100361 0 -64.773687280100361 20.193531063884372 0 0 0 0 -218.07740565686254 -385.54021078576261 0 -385.54021078576261 -112.30599991908548 0 0 0 0 -251.42220677212936 -404.81368885768279 0 -404.81368885768279 -49.758687321584148 0 0 0 0 -113.80636542997672 -399.65623818851714 0 -399.65623818851714 -65.526974058799226 0 0 0 0 -228.01793862074555 -358.92326134386121 0 -358.92326134386121 -59.966776345034305 0 0 0 0 -233.77046948592374 -488.03191269029588 0 -488.03191269029588 -119.56108487555639 0 0 0 0 -231.84041038087162 -348.1294414095965 0 -348.1294414095965 -18.218647853134144 0 0 0 0 -123.10014245844832 -451.06414881685782 0 -451.06414881685782 -112.68979933083392 0 0 0 0 -182.346482997149 -409.99400187394508 0 -409.99400187394508 -7.3337920853218037 0 0 0 0 -3.7458965661935508 -260.82833764177826 0 -260.82833764177826 52.42522859556567 0 0 0 0 -143.791749882148 -322.76603255777746 0 -322.76603255777746 -6.3418867687025537 0 0 0 0 -758.47152956220816 258.26371895126977 0 258.26371895126977 -3.8930516795662697 0 0 0 0 46.497647384206886 -139.56120304949599 0 -139.56120304949599 197.27275191695981 0 0 0 0 23.115816874461586 -134.31960425254124 0 -134.31960425254124 -68.083723018064063 0 0 0 0 -28.652673775271978 -121.43091045328765 0 -121.43091045328765 -71.542130500536587 0 0 0 0 -91.828729478384048 -435.33582648112707 0 -435.33582648112707 32.746889248302068 0 0 0 0 6.8638252957259738 -15.554104059235243 0 -15.554104059235243 -10.491456973057581 0 0 0 0 576.28980496580334 -128.28129877368337 0 -128.28129877368337 -112.02843639266212 0 0 0 0 -17.337883304644492 -108.65927191213268 0 -108.65927191213268 7.3616790561063681 0 0 0 0 -44.073998514666528 -297.62634493625819 0 -297.62634493625819 -848.3843635898229 0 0 0 0 -8.6719819807408385 -22.079516029524605 0 -22.079516029524605 20.087915564949981 0 0 0 0 -643.374086974276 -995.90650121615909 0 -995.90650121615909 -378.39839213187224 0 0 0 0 -992.99573992934165 358.65816288766655 0 358.65816288766655 -493.1572039429866 0 0 0 0 -1125.4973991914303 -1224.0402623119153 0 -1224.0402623119153 32.858987475998219 0 0 0 0 -124.23557572050959 -599.20675495675164 0 -599.20675495675164 322.44400197977666 0 0 0 0 -1638.657208886616 -412.13839727898448 0 -412.13839727898448 618.60012719316001 0 0 0 0 1220.72294132147 -381.61291340723983 0 -381.61291340723983 -483.6439696782254 0 0 0 0 -1807.7681063518471 -420.15229614808015 0 -420.15229614808015 720.85840683100105 0 0 0 0 -0.48907105425264463 -2.7428462101744557 0 -2.7428462101744557 -6.9087030735011297 0 0 0 0 8.8323830476963963 -255.70475960922906 0 -255.70475960922906 109.72601003853197 0 0 0 0 10.478247722938249 -387.71255951256899 0 -387.71255951256899 143.67798881619092 0 0 0 0 231.20404920818328 -724.00095347171737 0 -724.00095347171737 -554.25058512806572 0 0 0 0 160.05545445686948 -990.78343007274088 0 -990.78343007274088 -1522.6169744287909 0 0 0 0 -731.61333498710883 -462.06568989855077 0 -462.06568989855077 224.96705397797632 0 0 0 0 64.128948320603044 -84.743406382453372 0 -84.743406382453372 34.709840403344771 0 0 0 0 923.68191377504991 20.767222000511538 0 20.767222000511538 -1342.2534081628546 0 0 0 0 76.945297003980158 -850.49120545004916 0 -850.49120545004916 -87.520338476417237 0 0 0 0 -827.12224779972166 -469.44707963053952 0 -469.44707963053952 77.596816456105444 0 0 0 0 -454.40133384274463 -426.81552902308761 0 -426.81552902308761 -164.99843043809233 0 0 0 0 124.63868243915203 -753.67761247403541 0 -753.67761247403541 208.90092820644713 0 0 0 0 -452.28900213574525 -495.48702744954062 0 -495.48702744954062 144.0166341060758 0 0 0 0 -463.32901056935953 -518.92343829325546 0 -518.92343829325546 8.7029144090702175 0 0 0 0 -25.3131289389421 -546.62254295762978 0 -546.62254295762978 -50.568376924973563 0 0 0 0 84.07765138405216 -160.31221671157667 0 -160.31221671157667 42.010028125314591 0 0 0 0 -66.506151454589599 -326.70856313539844 0 -326.70856313539844 -235.23973233114157 0 0 0 0 -572.72634878678946 -643.54600761789334 0 -643.54600761789334 20.909150301878981 0 0 0 0 -84.89292780546748 -277.6878181754555 0 -277.6878181754555 -10.327530068476335 0 0 0 0 15.149543027177494 -142.75974635954611 0 -142.75974635954611 -73.985796414028542 0 0 0 0 35.776222671723531 -164.68221842148435 0 -164.68221842148435 -86.735658680083233 0 0 0 0 -232.36495120686595 -414.45934598667486 0 -414.45934598667486 -222.65605953041705 0 0 0 0 76.495495227278042 -140.28972069563457 0 -140.28972069563457 67.472343441587981 0 0 0 0 -303.47442692359618 -390.52404043732372 0 -390.52404043732372 -80.538318133207667 0 0 0 0 -408.38670288683352 -519.54506807096288 0 -519.54506807096288 -93.681841514409143 0 0 0 0 56.227278551532436 -507.44057848393641 0 -507.44057848393641 -100.68736113833802 0 0 0 0 -293.27085798647931 -521.82139145971723 0 -521.82139145971723 32.32784456875379 0 0 0 0 361.13802205995671 -340.51436637939696 0 -340.51436637939696 -158.41222217680843 0 0 0 0 -2.926193930720951 -41.534275406480177 0 -41.534275406480177 12.156912771074616 0 0 0 0 348.08708642152078 -373.36472055843251 0 -373.36472055843251 51.773340693442151 0 0 0 0 -483.68629284439885 -431.37619595165961 0 -431.37619595165961 -30.099045576276694 0 0 0 0 11.037699105160314 -66.277659608380588 0 -66.277659608380588 -19.805361705827892 0 0 0 0 119.32500133102803 -244.24192889755432 0 -244.24192889755432 -13.017980052019993 0 0 0 0 20.143295752203912 -118.82733857979929 0 -118.82733857979929 -109.87056736471702 0 0 0 0 -173.74632239820411 -294.85477260732557 0 -294.85477260732557 57.603671380580636 0 0 0 0 112.54177581830663 -250.16099195117204 0 -250.16099195117204 -91.700510348257922 0 0 0 0 182.33613533007156 -219.22724268613456 0 -219.22724268613456 -86.489420696456364 0 0 0 0 0.50661980329768974 2.199285458977446 0 2.199285458977446 3.7210683238526769 0 0 0 0 1102.627182600685 -595.9171865074477 0 -595.9171865074477 75.105098679930961 0 0 0 0 -833.68667686679328 -291.8159856113034 0 -291.8159856113034 547.59901573363459 0 0 0 0 79.663722080032116 -115.87716051954655 0 -115.87716051954655 105.54443442372821 0 0 0 0 19.586743539879535 -112.42875426090905 0 -112.42875426090905 41.823237365961177 0 0 0 0 -675.20780123523991 -614.80633406398647 0 -614.80633406398647 317.36244041513783 0 0 0 0 -431.39846480117285 -7.2360383032209938 0 -7.2360383032209938 345.89023753775109 0 0 0 0 -143.46032505436051 -167.27967727675787 0 -167.27967727675787 28.176550261166994 0 0 0 0 -134.45015889754154 -297.15016207774988 0 -297.15016207774988 688.70492103739525 0 0 0 0 -155.44685020109227 16.721542844935811 0 16.721542844935811 489.69468268903438 0 0 0 0 -158.11271794793697 -19.672843514825672 0 -19.672843514825672 117.86560396651475 0 0 0 0 -87.479546657945775 -487.45153595106422 0 -487.45153595106422 594.62772049302293 0 0 0 0 69.838550834014313 -266.82275549889528 0 -266.82275549889528 849.14009372154032 0 0 0 0 26.347948626404104 -62.040596774029837 0 -62.040596774029837 354.11274242004583 0 0 0 0 95.911048284875505 193.06928113518916 0 193.06928113518916 529.32777701159648 0 0 0 0 -0.19853997697123305 -0.32392441574510933 0 -0.32392441574510933 -0.95285700600109635 0 0 0 0 -374.14342518309059 -270.69181127443699 0 -270.69181127443699 341.69423324151921 0 0 0 0 -112.97612858175125 216.0009125382021 0 216.0009125382021 1238.2988369383456 0 0 0 0 -75.506098282950461 -551.76303039126833 0 -551.76303039126833 937.39265201676608 0 0 0 0 234.56324988120468 -487.99291612358502 0 -487.99291612358502 800.86971259499842 0 0 0 0 763.35022009234308 -1224.3421336448737 0 -1224.3421336448737 670.2243628898359 0 0 0 0 293.88231638920479 -781.66402499759988 0 -781.66402499759988 1850.7636722811294 0 0 0 0 -61.969364963448697 -6.2615558179177242 0 -6.2615558179177242 1872.8816890577873 0 0 0 0 -1015.9278791011857 612.21198583170917 0 612.21198583170917 4541.7889814907758 0 0 0 0 -802.18000512740036 1055.7398075685887 0 1055.7398075685887 1994.0056296313269 0 0 0 0 558.72492328171302 -1274.641173752525 0 -1274.641173752525 2091.7021232447587 0 0 0 0 973.5817709716157 -2143.6341097231125 0 -2143.6341097231125 -369.92224061491288 0 0 0 0 -1436.0351701627819 -293.73015022955042 0 -293.73015022955042 1984.5209792753813 0 0 0 0 7.3464621901351954 -17.424378042352533 0 -17.424378042352533 30.361268595976213 0 0 0 0 -156.32187923260608 -196.92696086266278 0 -196.92696086266278 -85.999680485278077 0 0 0 0 46.285755068435257 -30.220125502524624 0 -30.220125502524624 19.345107020252705 0 0 0 0 1045.1661798707974 -2480.6500616276244 0 -2480.6500616276244 1879.2485800606678 0 0 0 0 265.52669745450112 -199.50926362056271 0 -199.50926362056271 -519.85184719029348 0 0 0 0 477.8968046782411 -224.54175150086758 0 -224.54175150086758 -418.30067898520792 0 0 0 0 -99.255375762088079 -24.33007528573944 0 -24.33007528573944 -3.5123638673430833 0 0 0 0 15.004244167520852 -10.76835597173551 0 -10.76835597173551 8.6158962837705246 0 0 0 0 111.82707236102578 -0.40450937076820992 0 -0.40450937076820992 -69.740943131269887 0 0 0 0 -18.29726558641778 -71.877855926552002 0 -71.877855926552002 -91.557030983942241 0 0 0 0 5.7287546204111948 -70.751358701169124 0 -70.751358701169124 -58.306852837090901 0 0 0 0 80.126746900539729 -84.850638668494867 0 -84.850638668494867 -132.30100616089476 0 0 0 0 14.248753501342435 -121.00405085524471 0 -121.00405085524471 -66.876992155001062 0 0 0 0 14.50050517978525 -122.68790085602996 0 -122.68790085602996 8.1387312702136114 0 0 0 0 3.222529523238336 -102.63498349232214 0 -102.63498349232214 -23.122441386294668 0 0 0 0 -19.613382132979496 -95.880289521756339 0 -95.880289521756339 -50.705181262651287 0 0 0 0 10.786327586258267 -159.85161447165592 0 -159.85161447165592 -22.334358128800886 0 0 0 0 -5.2341504284049734 -122.76454377041955 0 -122.76454377041955 -69.788232805942243 0 0 0 0 243.86703747760475 -200.86994402720666 0 -200.86994402720666 -102.21823634059183 0 0 0 0 19.033003195702321 -39.632669721771443 0 -39.632669721771443 -30.098153164548279 0 0 0 0 -36.404830061341272 -248.68478065019917 0 -248.68478065019917 -172.88153960974159 0 0 0 0 151.51406284333643 -134.75250782533112 0 -134.75250782533112 -132.76734665675758 0 0 0 0 129.92714741265081 -175.86850853771375 0 -175.86850853771375 -5.8452446978844819 0 0 0 0 1136.0580013608196 -479.20971029836801 0 -479.20971029836801 79.909649653469387 0 0 0 0 -420.18830778867778 -345.10184738858879 0 -345.10184738858879 315.03877277119318 0 0 0 0 -2.0191157081829587 1.5646774577009328 0 1.5646774577009328 6.0845254414296335 0 0 0 0 193.15667934006706 -120.1946562410285 0 -120.1946562410285 -214.85545685219404 0 0 0 0 24.150743255419499 -80.58665510224057 0 -80.58665510224057 26.826986070190266 0 0 0 0 -77.61756941126805 -244.72799030697024 0 -244.72799030697024 -263.06383954598505 0 0 0 0 -175.23205911481909 -257.22601551184789 0 -257.22601551184789 -37.155115897090582 0 0 0 0 -94.069619556328689 -198.98903592859915 0 -198.98903592859915 -249.03480673666445 0 0 0 0 -44.164413344996774 -85.019970487109518 0 -85.019970487109518 -26.726570695024648 0 0 0 0 80.606542451403584 -77.766350638514268 0 -77.766350638514268 -381.25892309594929 0 0 0 0 -150.24501506860179 -210.68532091433008 0 -210.68532091433008 -275.95734591723885 0 0 0 0 -237.67170328786551 -286.50232737154874 0 -286.50232737154874 -191.29680455653579 0 0 0 0 30.377114532997116 -73.626485364512234 0 -73.626485364512234 -51.236339896009014 0 0 0 0 -137.02794989806159 -274.41430322770429 0 -274.41430322770429 -213.51648266246775 0 0 0 0 -56.915506448545784 -114.27948457424645 0 -114.27948457424645 -82.46910075849155 0 0 0 0 -38.918483637886624 -94.568738570932453 0 -94.568738570932453 32.198064338230054 0 0 0 0 70.620938657676874 -52.864595305117746 0 -52.864595305117746 -163.90621654188169 0 0 0 0 -17.148042415220004 -120.52427246856797 0 -120.52427246856797 -19.729073376139233 0 0 0 0 -109.07569409829011 -223.79588553201756 0 -223.79588553201756 -237.92775370415984 0 0 0 0 -103.13840322064061 -226.98971458342021 0 -226.98971458342021 -236.37558319452 0 0 0 0 37.977444787607965 -2.0866838464244211 0 -2.0866838464244211 -168.4482854186499 0 0 0 0 148.25896536641812 -24.363287891737855 0 -24.363287891737855 -494.02762058499502 0 0 0 0 11.423384207385709 -16.995701821550469 0 -16.995701821550469 -25.245624840011985 0 0 0 0 -361.26965626388846 116.28157777691376 0 116.28157777691376 -108.67627314913261 0 0 0 0 29.577906273156259 -259.92133953425946 0 -259.92133953425946 -69.543867999698705 0 0 0 0 138.40032368712127 -274.66190948265285 0 -274.66190948265285 -378.38006157755808 0 0 0 0 -806.22698149539792 -169.61004109722853 0 -169.61004109722853 455.23912238083722 0 0 0 0 14.514326330953278 -55.248354783686722 0 -55.248354783686722 70.888311767472857 0 0 0 0 -261.98197069125672 -246.97233453210356 0 -246.97233453210356 -96.576774014494731 0 0 0 0 -99.700538350098213 -119.88697427698935 0 -119.88697427698935 0.063247230384149589 0 0 0 0 593.64679023034478 -94.107543206024275 0 -94.107543206024275 72.739284677722026 0 0 0 0 -26.607343628978338 -20.782868814420382 0 -20.782868814420382 20.691496342584955 0 0 0 0 180.09076577667656 -611.01446818852855 0 -611.01446818852855 -78.560965643206146 0 0 0 0 702.22668004600973 -761.6878579830809 0 -761.6878579830809 -39.487353395816172 0 0 0 0 336.97567147600057 -799.67109434260055 0 -799.67109434260055 147.02732374960033 0 0 0 0 -85.065343051719537 -725.72951992443996 0 -725.72951992443996 562.80650483304635 0 0 0 0 -260.06786618727909 -531.2674741669415 0 -531.2674741669415 346.72218492571847 0 0 0 0 -92.769256083120126 -1212.8068285151239 0 -1212.8068285151239 403.45401306226267 0 0 0 0 1310.8875533525788 -1595.2183496242214 0 -1595.2183496242214 -1321.0777716960092 0 0 0 0 272.21621551317162 -1235.5649903521262 0 -1235.5649903521262 270.65326006483519 0 0 0 0 1363.7962751771374 -1309.733001794586 0 -1309.733001794586 -38.028257780169952 0 0 0 0 -210.77555414308881 295.78161721654033 0 295.78161721654033 -1069.6147166511473 0 0 0 0 301.58814110948515 -2378.5964068248177 0 -2378.5964068248177 3158.5461567760794 0 0 0 0 -631.23708540189546 1854.8062399684932 0 1854.8062399684932 3246.6084749665602 0 0 0 0 -487.58507425838434 -784.42268225051521 0 -784.42268225051521 1592.480751421157 0 0 0 0 -10.867689646715007 1268.3271515243978 0 1268.3271515243978 -639.57048123043205 0 0 0 0 61.354010824803993 -44.732738095628996 0 -44.732738095628996 -14.803910894286709 0 0 0 0 -26.593562339869095 -207.25004542970601 0 -207.25004542970601 -175.42568706757447 0 0 0 0 12.917022418818377 -12.016537967296758 0 -12.016537967296758 -46.132959216361286 0 0 0 0 -173.72001078372341 -32.028968790338695 0 -32.028968790338695 122.26122001335898 0 0 0 0 -32.167621637097227 -93.751294349194893 0 -93.751294349194893 -31.944667035367019 0 0 0 0 46.347476200421397 -104.06012075927603 0 -104.06012075927603 10.561460954728318 0 0 0 0 45.853438130790892 -111.18783462956708 0 -111.18783462956708 -6.4368970461446224 0 0 0 0 7.400847817043541 -139.43800383854614 0 -139.43800383854614 -124.7165077606187 0 0 0 0 78.476905638526659 -109.67934881159636 0 -109.67934881159636 4.5175843218239606 0 0 0 0 67.408957211660464 -68.116735777952826 0 -68.116735777952826 -9.9637052723707917 0 0 0 0 -9.1698339279379653 -66.597003845777635 0 -66.597003845777635 8.7016439702718529 0 0 0 0 -29.301747845365753 -140.87463915866738 0 -140.87463915866738 -45.124477914067029 0 0 0 0 -7.6972659163875505 -83.671520336471076 0 -83.671520336471076 45.149470297972584 0 0 0 0 -9.8870930116870568 -66.024481019193658 0 -66.024481019193658 46.621242541110391 0 0 0 0 -59.784523570631791 -204.42904186956866 0 -204.42904186956866 -93.136293197803752 0 0 0 0 1.8253492221346619 -14.22397416846032 0 -14.22397416846032 6.1801101773679257 0 0 0 0 -17.494589297846687 -139.52387827344347 0 -139.52387827344347 -113.13051621430355 0 0 0 0 -19.710621151353962 -127.60595647050644 0 -127.60595647050644 -55.009256477980671 0 0 0 0 -12.750860649760703 -78.892883830736238 0 -78.892883830736238 -44.781340123606505 0 0 0 0 9.9091884161425696 -124.57688505374495 0 -124.57688505374495 -218.34073553087083 0 0 0 0 -19.785093765007332 -126.81700165273014 0 -126.81700165273014 -56.994780120879113 0 0 0 0 -15.928370670371805 -86.971883173997412 0 -86.971883173997412 -83.341561578163237 0 0 0 0 5.5607029815499232 -57.936154606917469 0 -57.936154606917469 -3.9599135221135242 0 0 0 0 29.44970852675219 -59.722989364558707 0 -59.722989364558707 -73.325202622849503 0 0 0 0 -77.518999657066161 -66.877714265587429 0 -66.877714265587429 103.09750072062889 0 0 0 0 -50.140167033790853 -71.819091149904779 0 -71.819091149904779 -11.664864415348264 0 0 0 0 -30.259431312835659 -138.46895988278902 0 -138.46895988278902 -33.156473709952365 0 0 0 0 12.772406367479562 -75.497863107555531 0 -75.497863107555531 -24.864139573391185 0 0 0 0 4.9575309071878451 -4.3054523416810806 0 -4.3054523416810806 -8.4755292658643722 0 0 0 0 83.447449871520803 -246.96035686243385 0 -246.96035686243385 275.05749574864603 0 0 0 0 47.597193714012974 -139.91995140796803 0 -139.91995140796803 403.16739166269235 0 0 0 0 -11.492325556520672 -12.914111865827614 0 -12.914111865827614 -8.4898303691887715 0 0 0 0 -20.944781424122105 -44.605331815474045 0 -44.605331815474045 -5.0871468521253256 0 0 0 0 -19.561751644720061 -29.791328077765684 0 -29.791328077765684 -7.9750829549120681 0 0 0 0 11.571519612465799 -34.574699795224731 0 -34.574699795224731 -21.250653045879236 0 0 0 0 -35.038227978278883 129.52068830825965 0 129.52068830825965 -154.72401483822705 0 0 0 0 92.765458073954505 -255.42346817845373 0 -255.42346817845373 122.29097402180923 0 0 0 0 135.77576265889002 -386.87015998211155 0 -386.87015998211155 421.43156553647174 0 0 0 0 -3.9297611603042242 -216.12617294385308 0 -216.12617294385308 -338.85689551201813 0 0 0 0 -53.438941495682229 -79.327396538352787 0 -79.327396538352787 -70.788635056577277 0 0 0 0 25.669073073582695 27.638286720719407 0 27.638286720719407 -55.755990073184876 0 0 0 0 8.3165951974399519 -3.4432924285807047 0 -3.4432924285807047 -2.2469823736544727 0 0 0 0 10.308206513674406 -46.139112451814569 0 -46.139112451814569 -28.335177449140357 0 0 0 0 73.801218074644595 -112.12031257732852 0 -112.12031257732852 104.44027268591405 0 0 0 0 65.621841274502913 -173.01029995672434 0 -173.01029995672434 20.830102263666049 0 0 0 0 -22.382155183900522 -271.51129133321405 0 -271.51129133321405 22.441359698446831 0 0 0 0 7.7874061642319248 -70.548548694709325 0 -70.548548694709325 11.919970326514886 0 0 0 0 62.453045924737168 -86.776552478764131 0 -86.776552478764131 31.511136909133675 0 0 0 0 28.711934198408017 -146.26818852705401 0 -146.26818852705401 31.8230287469014 0 0 0 0 57.944078922850167 -194.42094667044876 0 -194.42094667044876 105.76823394196254 0 0 0 0 3.391405760539957 -83.812184315282721 0 -83.812184315282721 -26.662021814359548 0 0 0 0 52.050723122436466 -180.84526435786393 0 -180.84526435786393 77.004466592223253 0 0 0 0 5.9893252709831177 -71.61566852339169 0 -71.61566852339169 -57.658428256758228 0 0 0 0 -45.998842585404638 -70.621532636953646 0 -70.621532636953646 61.269566332305004 0 0 0 0 -16.413952963687098 -57.81643867214396 0 -57.81643867214396 -19.381246692051548 0 0 0 0 33.060323914824266 -121.34360696390331 0 -121.34360696390331 63.665095427779306 0 0 0 0 51.656843847074924 -100.41726748714063 0 -100.41726748714063 24.199566326766217 0 0 0 0 -42.015494053128378 -64.71914891213666 0 -64.71914891213666 23.37592134416694 0 0 0 0 29.051545558591897 -128.70230386339881 0 -128.70230386339881 13.2565457926612 0 0 0 0 13.533378121850546 -143.41027896718515 0 -143.41027896718515 9.3010333488073229 0 0 0 0 36.971784532113816 -108.00646812339073 0 -108.00646812339073 28.155764494593313 0 0 0 0 37.251796755954729 -117.97791290982178 0 -117.97791290982178 -5.4419510856678244 0 0 0 0 26.773460182204872 -141.70528489456774 0 -141.70528489456774 18.854940506200364 0 0 0 0 -33.255764536935217 -56.958571379242564 0 -56.958571379242564 -10.661135838427157 0 0 0 0 62.276928039027553 -128.06384338699354 0 -128.06384338699354 63.071235555966268 0 0 0 0 24.953464428010193 -130.78293862483406 0 -130.78293862483406 22.488596001396218 0 0 0 0 -5.2535611478358799 -85.588952613349804 0 -85.588952613349804 37.7055237451886 0 0 0 0 37.216078670087882 -143.82441661576013 0 -143.82441661576013 47.733184298238484 0 0 0 0 31.56911220897851 -56.811396975441937 0 -56.811396975441937 -44.387223089438436 0 0 0 0 60.11074902976361 -138.38220566332166 0 -138.38220566332166 -5.6841024072637083 0 0 0 0 -328.90879372054042 -304.52312990001519 0 -304.52312990001519 143.06215422172681 0 0 0 0 34.678430570384933 -108.38453829496433 0 -108.38453829496433 -28.295953900546223 0 0 0 0 108.44150426967099 -403.35128684235679 0 -403.35128684235679 -326.64341382181738 0 0 0 0 12.480422433167185 -44.174990254930307 0 -44.174990254930307 17.888353817448944 0 0 0 0 1125.8086500515274 406.65910730148607 0 406.65910730148607 -2595.2584875572938 0 0 0 0 69.506188776011925 -118.55186548161751 0 -118.55186548161751 -23.891248781158055 0 0 0 0 -1108.1455705012049 -1188.0027654924925 0 -1188.0027654924925 104.84831687004771 0 0 0 0 64.167943926451699 -148.64003103919458 0 -148.64003103919458 69.24616759829587 0 0 0 0 53.451401479994047 -164.15391597464986 0 -164.15391597464986 97.225396585607086 0 0 0 0 63.847967679924295 -146.10436466227929 0 -146.10436466227929 49.152270699210931 0 0 0 0 452.09240682440395 -149.21962307197828 0 -149.21962307197828 -1381.3320635467535 0 0 0 0 379.60770718505228 14.263324496816495 0 14.263324496816495 141.82355803341488 0 0 0 0 88.264773299004446 -141.52406670285563 0 -141.52406670285563 589.19691365811377 0 0 0 0 104.89455028637076 -202.43737912485449 0 -202.43737912485449 319.47312375114416 0 0 0 0 42.141784929451113 -111.81906834475444 0 -111.81906834475444 -25.744124017156551 0 0 0 0 66.724410806157721 -154.83928034813289 0 -154.83928034813289 23.457702190942655 0 0 0 0 21.3306263304396 -137.66275551693252 0 -137.66275551693252 35.606622409512056 0 0 0 0 24.927796437255893 -175.52135751955757 0 -175.52135751955757 94.880913428853091 0 0 0 0 3.3234656772910967 -125.54633636140352 0 -125.54633636140352 24.405550111677258 0 0 0 0 34.461467111606908 -182.50420540199411 0 -182.50420540199411 70.461587991656415 0 0 0 0 52.370365023871273 -265.8749835316703 0 -265.8749835316703 111.32477648085478 0 0 0 0 28.371769153598507 -218.44121339472713 0 -218.44121339472713 126.26091884072957 0 0 0 0 53.605941066538676 -115.56697967040378 0 -115.56697967040378 -96.149786008429885 0 0 0 0 52.492809800223768 -204.21196896856236 0 -204.21196896856236 38.811796439367754 0 0 0 0 -41.237127670348855 -160.31523234273664 0 -160.31523234273664 -29.657628133834805 0 0 0 0 59.593790455365152 -99.249241242198337 0 -99.249241242198337 44.465288342622827 0 0 0 0 -36.11346623789359 -145.08274913238711 0 -145.08274913238711 9.7955722321639769 0 0 0 0 7.1571602198187065 -123.40267803658753 0 -123.40267803658753 18.96093764174293 0 0 0 0 3.7843637036385189 -135.56600628353772 0 -135.56600628353772 22.986593424183411 0 0 0 0 -83.59312409476297 -153.3714795883543 0 -153.3714795883543 70.075432457888382 0 0 0 0 -76.560373366539352 -131.11110480375737 0 -131.11110480375737 92.758988141402369 0 0 0 0 46.385724232138884 -78.334348211614468 0 -78.334348211614468 52.545852685317783 0 0 0 0 15.24702706863718 -119.11706007512748 0 -119.11706007512748 41.367210118456569 0 0 0 0 34.214933031660621 -92.663656756980345 0 -92.663656756980345 36.998883427208057 0 0 0 0 -19.394634419841694 -55.538497065963881 0 -55.538497065963881 4.4930817766076814 0 0 0 0 12.725294372057704 -41.35777647115394 0 -41.35777647115394 -29.590609500024101 0 0 0 0 35.170094450528268 -128.624689118471 0 -128.624689118471 69.580532583408058 0 0 0 0 40.25511693294041 -55.000687202317408 0 -55.000687202317408 -138.48472947624109 0 0 0 0 -5.638799638935339 -55.468491464651031 0 -55.468491464651031 -8.4331300763816444 0 0 0 0 21.329957222769735 -39.707743233884685 0 -39.707743233884685 -33.249915653548669 0 0 0 0 37.02929552130847 -133.53462529872434 0 -133.53462529872434 -59.498217664340871 0 0 0 0 -16.77252096500623 -84.558422932431782 0 -84.558422932431782 -32.861963376948779 0 0 0 0 -2.4042217127062031 -60.326122893508 0 -60.326122893508 -55.339423944824375 0 0 0 0 -339.57446726079797 -404.92127441350021 0 -404.92127441350021 -125.64656856359579 0 0 0 0 33.315582770660185 -52.172382812492572 0 -52.172382812492572 -50.544104151465035 0 0 0 0 964.68865442964307 -292.36963444625144 0 -292.36963444625144 -258.53810536095989 0 0 0 0 -4.2601079743099035 -51.483858435075945 0 -51.483858435075945 -30.725007804401685 0 0 0 0 -54.04404102393066 -38.527897866190557 0 -38.527897866190557 0.70164886864854736 0 0 0 0 -39.400749145701411 -122.69167652980104 0 -122.69167652980104 36.199010711450683 0 0 0 0 458.4451004567818 -432.05627416777133 0 -432.05627416777133 -858.34005192533823 0 0 0 0 -20.476886580788175 -9.1257873807678038 0 -9.1257873807678038 -36.251392360029996 0 0 0 0 -15.395123826856349 1.5188793495293851 0 1.5188793495293851 2.3719765586067183 0 0 0 0 9.319687640236225 -165.7539522281586 0 -165.7539522281586 205.7994882958883 0 0 0 0 -603.60248709657753 -91.84477541569504 0 -91.84477541569504 2.1747976297083369 0 0 0 0 -34.586253469646323 -6.036555198749511 0 -6.036555198749511 -5.3944142948717726 0 0 0 0 -20.294939003342733 -114.22756274977291 0 -114.22756274977291 151.79621451666753 0 0 0 0 -23.941204627732077 -94.507458961725206 0 -94.507458961725206 69.134709371312056 0 0 0 0 2.8489776306487329 -131.56505328752246 0 -131.56505328752246 80.502918557853263 0 0 0 0 -87.896615368314087 -96.036505565651169 0 -96.036505565651169 133.99564357839699 0 0 0 0 -118.13077792479453 -273.59752480660973 0 -273.59752480660973 165.35237547442375 0 0 0 0 -318.56830165307838 -52.975329060958757 0 -52.975329060958757 467.29961155359342 0 0 0 0 -13.678652656813497 2.1934059206170673 0 2.1934059206170673 -0.67364685627606491 0 0 0 0 712.16232758920523 -785.08787484880304 0 -785.08787484880304 -3231.2361204033878 0 0 0 0 36.849417709388945 -84.580543327276246 0 -84.580543327276246 134.99676444319448 0 0 0 0 -27.103437959813164 -714.51296182596707 0 -714.51296182596707 -2387.8539964153606 0 0 0 0 732.24685595107985 -401.89400877799017 0 -401.89400877799017 -2279.8456930745451 0 0 0 0 439.25536105424453 870.6514429404815 0 870.6514429404815 -183.38263866482885 0 0 0 0 31.507984476520505 -165.13047209302749 0 -165.13047209302749 25.140115052709007 0 0 0 0 -23.637736064287154 -25.343235873245703 0 -25.343235873245703 -9.2610104233316406 0 0 0 0 36.624537669020356 -119.23631942688371 0 -119.23631942688371 -1.3393979835236678 0 0 0 0 -77.621530876382167 -77.639701293901453 0 -77.639701293901453 73.782782649985165 0 0 0 0 190.4393065423028 439.07314487990516 0 439.07314487990516 -1608.7007507969975 0 0 0 0 -920.85373217526285 -1053.2230771734139 0 -1053.2230771734139 455.89919138534606 0 0 0 0 24.99194447845899 -78.107035255301042 0 -78.107035255301042 -58.055338507693278 0 0 0 0 54.869920824695697 -55.728244956881973 0 -55.728244956881973 -123.44965029540322 0 0 0 0 -198.79975835503501 -188.73294097295366 0 -188.73294097295366 -877.38852628919994 0 0 0 0 121.21217151669043 -256.09593702015991 0 -256.09593702015991 206.74130070105457 0 0 0 0 352.57576919176063 -588.60947562474757 0 -588.60947562474757 -1424.1546905426803 0 0 0 0 -56.526036497286569 -28.357515560943284 0 -28.357515560943284 -27.154030890023947 0 0 0 0 -1171.4534780808463 -231.63039978966117 0 -231.63039978966117 52.316951490036445 0 0 0 0 169.04234498712322 -205.80466154878377 0 -205.80466154878377 255.97656753167394 0 0 0 0 154.02734524846892 -345.05293651531974 0 -345.05293651531974 271.05571875858004 0 0 0 0 195.31612694253272 -351.85088806074054 0 -351.85088806074054 124.57259219075786 0 0 0 0 145.30271105848806 -295.88031729028444 0 -295.88031729028444 98.91918464837363 0 0 0 0 80.53366723369254 -271.4809068175382 0 -271.4809068175382 223.11391712198383 0 0 0 0 47.993334065573436 -216.56704726858152 0 -216.56704726858152 138.27653730043676 0 0 0 0 212.4867191481967 -317.36417731464462 0 -317.36417731464462 -4.1464446566242259 0 0 0 0 176.59179370635684 -300.22108579137421 0 -300.22108579137421 -12.068160594571964 0 0 0 0 250.41872282582335 -362.39827532070922 0 -362.39827532070922 -77.074880461805151 0 0 0 0 191.93907912264967 -218.20784125507453 0 -218.20784125507453 -143.08448963923729 0 0 0 0 248.38746388419838 -394.27347955605637 0 -394.27347955605637 3.2087560378422495 0 0 0 0 212.92630082841424 -394.87757202102512 0 -394.87757202102512 8.7534340931742918 0 0 0 0 278.5013647712658 -431.40350031499111 0 -431.40350031499111 -24.574925323417119 0 0 0 0 276.88021662171741 -418.0205964755296 0 -418.0205964755296 -72.029541761003202 0 0 0 0 312.29523011872698 -302.24407675457678 0 -302.24407675457678 -130.17167479472118 0 0 0 0 315.68266683935508 -396.06966066232417 0 -396.06966066232417 -62.005677545719664 0 0 0 0 389.20097456900839 -261.24001116419095 0 -261.24001116419095 -119.33911174757668 0 0 0 0 260.57079387167323 -292.04251594071684 0 -292.04251594071684 -97.55037029099185 0 0 0 0 269.59143673091603 -322.96603961852088 0 -322.96603961852088 -147.79435824514076 0 0 0 0 294.06434265425196 -202.56727869923634 0 -202.56727869923634 -346.17950442864094 0 0 0 0 390.31033136551559 -549.6003413752187 0 -549.6003413752187 -245.41590615856694 0 0 0 0 435.45327127213932 -142.00877045265952 0 -142.00877045265952 -729.86182364818524 0 0 0 0 -409.56302668855642 220.59197904429311 0 220.59197904429311 94.788440489428467 0 0 0 0 72.773572331921969 231.93902321254518 0 231.93902321254518 -538.10964406494168 0 0 0 0 -3.6508732501836789 -5.3596827265523075 0 -5.3596827265523075 -11.199678106257409 0 0 0 0 19.558934630094882 -55.80456115225752 0 -55.80456115225752 -135.47402527640224 0 0 0 0 127.07459009997547 -178.72797777567757 0 -178.72797777567757 5.06518770756702 0 0 0 0 76.324913075224686 -564.01680586983275 0 -564.01680586983275 63.821328994032228 0 0 0 0 21.29113589390181 -558.09692518030351 0 -558.09692518030351 135.06366299083311 0 0 0 0 28.609124189966678 -573.88436089723837 0 -573.88436089723837 125.58210400692769 0 0 0 0 248.70247975475468 -371.56231347396533 0 -371.56231347396533 137.29977732888074 0 0 0 0 93.010030376359964 -383.86990083487763 0 -383.86990083487763 265.02791419025743 0 0 0 0 168.4321472026204 -575.71140819789434 0 -575.71140819789434 -369.31680452707224 0 0 0 0 -254.24346353736473 -981.36742932467314 0 -981.36742932467314 -1.2340743130771443 0 0 0 0 -26.811648566821532 -724.53390194830718 0 -724.53390194830718 92.359144418529468 0 0 0 0 -21.142973890516259 -687.97985843948845 0 -687.97985843948845 327.9393241686339 0 0 0 0 6.5095668097637827 -536.01141358141467 0 -536.01141358141467 256.45852420077426 0 0 0 0 21.048786315099278 -586.57368044822942 0 -586.57368044822942 196.82658569044725 0 0 0 0 8.1536013730983541 -560.05983591616678 0 -560.05983591616678 156.44697033998091 0 0 0 0 -8.1269167349655618 -503.26921880622103 0 -503.26921880622103 184.61195504275383 0 0 0 0 62.330646743699617 -402.03414491582953 0 -402.03414491582953 326.99556037143338 0 0 0 0 16.944858974093222 -477.1237003790884 0 -477.1237003790884 294.07857736115693 0 0 0 0 -193.09487291744335 -710.79193138715345 0 -710.79193138715345 637.9460047390894 0 0 0 0 -196.65572665811487 -643.36977269143972 0 -643.36977269143972 808.87349641742185 0 0 0 0 57.983292897202773 -326.63925233102054 0 -326.63925233102054 661.05666273499082 0 0 0 0 618.29737824358745 849.03179834736511 0 849.03179834736511 -2490.7991020550835 0 0 0 0 -13.198978558751236 -13.763654005461547 0 -13.763654005461547 -3.0252453446025953 0 0 0 0 -201.94353063950985 -424.62799182087474 0 -424.62799182087474 1061.7728108475567 0 0 0 0 -778.20786690987006 963.71752293659665 0 963.71752293659665 -2169.7502753180743 0 0 0 0 134.53245890181279 -152.42586143565131 0 -152.42586143565131 676.66992425956414 0 0 0 0 158.28640673861082 -354.68243538672687 0 -354.68243538672687 332.59073261675803 0 0 0 0 113.11776164875482 -339.26133713657327 0 -339.26133713657327 328.71444676531246 0 0 0 0 120.06418351303728 -446.40343349674367 0 -446.40343349674367 162.20389750241884 0 0 0 0 196.81213211292561 -358.12092577588919 0 -358.12092577588919 133.74692093287013 0 0 0 0 193.75834506688716 -398.62021040972104 0 -398.62021040972104 135.89496436825721 0 0 0 0 190.39366329962286 -411.39355519157834 0 -411.39355519157834 136.05605352776911 0 0 0 0 197.75501523527782 -447.90440647634023 0 -447.90440647634023 40.740227241971297 0 0 0 0 239.19254912097676 -469.64410479631624 0 -469.64410479631624 -44.134189831791446 0 0 0 0 147.17112300321241 -505.5148555591295 0 -505.5148555591295 -24.843154289279482 0 0 0 0 143.33741503925012 -488.37706315310606 0 -488.37706315310606 6.2615549180482049 0 0 0 0 148.2648094908327 -467.7539894850197 0 -467.7539894850197 43.097755269520349 0 0 0 0 97.023274337290786 -449.28145491221949 0 -449.28145491221949 193.95184312286437 0 0 0 0 62.161621662276957 -513.16903287590685 0 -513.16903287590685 82.540585395152448 0 0 0 0 27.809232298764982 -532.91133932460798 0 -532.91133932460798 163.75026371670538 0 0 0 0 52.046612708378234 -511.99577768873132 0 -511.99577768873132 10.319650121870836 0 0 0 0 68.108242410653475 -544.44126780875376 0 -544.44126780875376 -23.544184361853695 0 0 0 0 59.239357790953363 -521.85620599535469 0 -521.85620599535469 78.445578820981609 0 0 0 0 58.342482600408403 -530.90237734366565 0 -530.90237734366565 8.529820731288055 0 0 0 0 12.865474986381741 -506.03390110719192 0 -506.03390110719192 40.214010118826991 0 0 0 0 6.5769240168447141 -546.61099839018425 0 -546.61099839018425 85.041620094503742 0 0 0 0 30.992636512898571 -535.85105275259411 0 -535.85105275259411 88.723107604135294 0 0 0 0 54.370679179515719 -552.77541287998611 0 -552.77541287998611 -170.61991544047123 0 0 0 0 -23.893738401208338 -588.39535547038031 0 -588.39535547038031 -62.142654780240264 0 0 0 0 160.14010390708063 -510.21066204948875 0 -510.21066204948875 -99.619252223244985 0 0 0 0 136.29458976691603 -506.58767479396192 0 -506.58767479396192 -96.422375113790622 0 0 0 0 108.91564902725077 -552.37257047862659 0 -552.37257047862659 -172.20790819067042 0 0 0 0 289.59563973331024 -434.59349091237527 0 -434.59349091237527 -181.39031556791701 0 0 0 0 210.15516544588536 -506.95731192656967 0 -506.95731192656967 -182.15833862379077 0 0 0 0 167.44784274143603 -481.58732599628274 0 -481.58732599628274 -24.260624170573919 0 0 0 0 256.10830067638744 -444.31719536129094 0 -444.31719536129094 -99.952821652084822 0 0 0 0 227.9891352692066 -494.39306778130413 0 -494.39306778130413 -91.703353848570259 0 0 0 0 251.26746385316073 -456.76515114133872 0 -456.76515114133872 -39.365536904981127 0 0 0 0 310.96136395142094 -370.47719270523521 0 -370.47719270523521 -119.93987396278317 0 0 0 0 263.60407065327126 -457.61230486977729 0 -457.61230486977729 -76.389577929890947 0 0 0 0 332.58600247295726 -351.32641409283315 0 -351.32641409283315 -210.78655062481994 0 0 0 0 287.34286195585992 -425.30269318658975 0 -425.30269318658975 -202.39604510647769 0 0 0 0 305.98641089294142 -404.05909532003716 0 -404.05909532003716 -305.45472575919121 0 0 0 0 398.90187377521943 -497.0909119169919 0 -497.0909119169919 -317.80388447939185 0 0 0 0 366.15639737037418 -440.45318136047717 0 -440.45318136047717 -301.34827407794364 0 0 0 0 212.52218385520428 -536.7385620844143 0 -536.7385620844143 -314.23004918009974 0 0 0 0 -568.70373750349154 -836.26708267558934 0 -836.26708267558934 -472.40117266868765 0 0 0 0 -122.06256759010921 -732.80040414670293 0 -732.80040414670293 -266.31428218068322 0 0 0 0 159.84272616244562 -632.8262011501065 0 -632.8262011501065 -415.63400557245768 0 0 0 0 491.50601103794725 -172.06112706656495 0 -172.06112706656495 -34.286328857386252 0 0 0 0 553.84028590290472 -225.34082173377101 0 -225.34082173377101 -3.2019689327371452 0 0 0 0 5.7981272822090588 -8.9986285565627782 0 -8.9986285565627782 4.1710197760699543 0 0 0 0 185.2308860585872 -223.90958828450675 0 -223.90958828450675 395.05870256476919 0 0 0 0 709.87250768827653 79.565319385001203 0 79.565319385001203 169.1046445617103 0 0 0 0 329.20955844932905 -381.01140052398841 0 -381.01140052398841 -62.111730098680709 0 0 0 0 382.41517282934819 -429.93101670808392 0 -429.93101670808392 -70.823098149063298 0 0 0 0 344.32986209283627 -318.74159759376198 0 -318.74159759376198 18.900952099764254 0 0 0 0 306.69007701391092 -430.88591018838633 0 -430.88591018838633 -31.253165601316141 0 0 0 0 306.27322524358897 -448.59273691098497 0 -448.59273691098497 -81.853310220612912 0 0 0 0 335.63980359953712 -421.04984622475604 0 -421.04984622475604 -44.237494117522147 0 0 0 0 476.51429435626051 -397.7180273854392 0 -397.7180273854392 -73.53653479876084 0 0 0 0 391.17180719310636 -241.10456141586474 0 -241.10456141586474 -108.82447219607275 0 0 0 0 382.22602522263696 -338.63610434092334 0 -338.63610434092334 -358.7443166756857 0 0 0 0 429.77619111363674 -325.8836262303812 0 -325.8836262303812 -357.88509988668375 0 0 0 0 650.58573027212515 -461.94783014048517 0 -461.94783014048517 -266.17765842159861 0 0 0 0 230.09475596822449 -300.94138685811777 0 -300.94138685811777 -304.34225613357557 0 0 0 0 1401.4489772353772 59.176657305928529 0 59.176657305928529 -110.23045767264375 0 0 0 0 0.44669010396088282 -1.3930639937692035 0 -1.3930639937692035 2.8509324978662107 0 0 0 0 -1071.9997296393467 -733.83625320975625 0 -733.83625320975625 -453.01237455483351 0 0 0 0 -290.90685060432588 -806.86289441501503 0 -806.86289441501503 -454.06020143405476 0 0 0 0 -564.47029367242612 -566.87635628825956 0 -566.87635628825956 -599.64190193913237 0 0 0 0 -561.48213885644509 -543.99015068564768 0 -543.99015068564768 -471.45938409307564 0 0 0 0 -554.55201522482912 -692.62973656554846 0 -692.62973656554846 -736.81677551349276 0 0 0 0 -559.20156066026539 -545.72254748126579 0 -545.72254748126579 -580.11322243733593 0 0 0 0 -615.11374119610991 -386.96502787815552 0 -386.96502787815552 -308.9498800495785 0 0 0 0 -556.31132083278499 -452.84225573401636 0 -452.84225573401636 -665.15978687464667 0 0 0 0 -821.60616344276059 -417.92872508092114 0 -417.92872508092114 -293.17272857853095 0 0 0 0 -339.11906251514301 -188.40100386379345 0 -188.40100386379345 -371.85293567880581 0 0 0 0 -655.3318953425478 -329.42472753740731 0 -329.42472753740731 -139.5543876158772 0 0 0 0 -374.33336440277344 -189.1753994660794 0 -189.1753994660794 -113.92540602409281 0 0 0 0 -471.64597511694956 -318.56221299555909 0 -318.56221299555909 -162.13966464312398 0 0 0 0 -662.47353513374401 -285.74297200006549 0 -285.74297200006549 -51.541240631253459 0 0 0 0 -669.09319922789291 -339.21693557153048 0 -339.21693557153048 -199.55633830639999 0 0 0 0 -681.5589020117186 -250.80262816047616 0 -250.80262816047616 -140.69866210126202 0 0 0 0 -427.24573051206971 -396.14600601421262 0 -396.14600601421262 -394.94054249152759 0 0 0 0 -275.97558221658255 -362.16219423573784 0 -362.16219423573784 13.664576244496857 0 0 0 0 441.54272268620116 97.320750842874986 0 97.320750842874986 -328.13129482497243 0 0 0 0 -236.89293039287986 -548.23974577942408 0 -548.23974577942408 -926.25055148063984 0 0 0 0 -1539.2168862166482 -1155.1590719508849 0 -1155.1590719508849 -732.68216439595562 0 0 0 0 -0.85300007671194322 -0.56987704459139366 0 -0.56987704459139366 -6.7614502726934234 0 0 0 0 -1011.1355590414169 -584.32334529858053 0 -584.32334529858053 -700.85588106406794 0 0 0 0 -641.52409308979259 -687.30869943488506 0 -687.30869943488506 -1177.6195110104745 0 0 0 0 -801.00758838605543 -803.8265364223771 0 -803.8265364223771 -770.47955568426551 0 0 0 0 -833.7871292257696 -678.55241564113385 0 -678.55241564113385 -576.62160705223505 0 0 0 0 -810.00029781053308 -684.79004360160616 0 -684.79004360160616 -678.44313309931385 0 0 0 0 -831.30820153316745 -702.27274816046702 0 -702.27274816046702 -598.9614444229519 0 0 0 0 -836.15400747217791 -738.6083824494599 0 -738.6083824494599 -740.25225211778888 0 0 0 0 -0.49036277328735878 -2.6999422880748511 0 -2.6999422880748511 3.4012828493331995 0 0 0 0 -335.3402131044495 -966.465987893891 0 -966.465987893891 -615.34633090984426 0 0 0 0 148.80595299463312 -481.67382453342725 0 -481.67382453342725 -373.96804573552436 0 0 0 0 -263.52852984731726 -599.61897469677206 0 -599.61897469677206 -402.71542728444911 0 0 0 0 -488.2253005991588 -959.38328118946811 0 -959.38328118946811 -730.81338616282255 0 0 0 0 39.473147334276291 -672.86604756304587 0 -672.86604756304587 -967.16328553795756 0 0 0 0 -625.54499121959088 -957.69324674160453 0 -957.69324674160453 -845.65535505139997 0 0 0 0 -1092.4285867669951 -1362.2524007259999 0 -1362.2524007259999 -412.93715477068326 0 0 0 0 -396.29121768628829 -817.93415120166901 0 -817.93415120166901 -407.17590904428653 0 0 0 0 -636.86104600233375 -1028.1043183531292 0 -1028.1043183531292 -577.95421895771869 0 0 0 0 -278.02985837979213 -732.97976118222141 0 -732.97976118222141 -1011.9585270294046 0 0 0 0 -715.7113336884504 -916.46746199663176 0 -916.46746199663176 -775.58365939012583 0 0 0 0 -882.88308159042208 -373.28073307161321 0 -373.28073307161321 -950.57580303891154 0 0 0 0 -407.23287915025867 -676.3100674277448 0 -676.3100674277448 -1789.1197063931468 0 0 0 0 -408.55662115412088 -624.34218333690842 0 -624.34218333690842 -857.84932387410663 0 0 0 0 -641.23174070414098 -257.74228237744683 0 -257.74228237744683 -1017.4688702888016 0 0 0 0 -348.036595217578 -791.14712182131916 0 -791.14712182131916 -998.38905947054809 0 0 0 0 -207.64137675615348 -654.70613326673265 0 -654.70613326673265 -985.35167614953389 0 0 0 0 -422.44805181999254 -314.13225823642279 0 -314.13225823642279 -776.96391144676454 0 0 0 0 -647.34238573943003 -537.76710359537537 0 -537.76710359537537 -330.97604659805074 0 0 0 0 -325.36735674106785 -178.68944934848332 0 -178.68944934848332 -127.07687464475748 0 0 0 0 -459.39389902636321 -496.93270323260367 0 -496.93270323260367 -436.60245675238548 0 0 0 0 -203.50671503190824 -146.91709488590277 0 -146.91709488590277 -262.31551245466108 0 0 0 0 -552.57086823091231 -398.67056876971037 0 -398.67056876971037 -140.13789103820454 0 0 0 0 -56.533365313908462 -122.70891413402748 0 -122.70891413402748 -42.216384187270229 0 0 0 0 -313.01350168829231 -182.59089339691491 0 -182.59089339691491 107.25832463115512 0 0 0 0 -590.7297934126982 -411.73051075329568 0 -411.73051075329568 -575.53984054240573 0 0 0 0 -680.32869023080275 -172.08911990298657 0 -172.08911990298657 -502.51754685516062 0 0 0 0 -57.087805688857316 -121.15936207586799 0 -121.15936207586799 -42.784594787188666 0 0 0 0 -824.16391068316443 -312.58383711164788 0 -312.58383711164788 -366.46993756135635 0 0 0 0 -890.24893950377009 -156.20709256035479 0 -156.20709256035479 433.25348583051527 0 0 0 0 -772.13268847856307 -444.65786090066376 0 -444.65786090066376 396.46821959463705 0 0 0 0 -1528.8913441496734 -598.26163828767676 0 -598.26163828767676 369.03757512006268 0 0 0 0 -323.8698760776424 -420.40411088076871 0 -420.40411088076871 214.74785169681854 0 0 0 0 72.955294100374886 -316.45846694727697 0 -316.45846694727697 31.931699456516071 0 0 0 0 -51.176268457583149 -122.94359755100213 0 -122.94359755100213 -49.545820159521213 0 0 0 0 -655.81238783089066 -307.64419310179437 0 -307.64419310179437 537.51380694153522 0 0 0 0 -214.77685610907065 -606.97359977179804 0 -606.97359977179804 48.038885120899067 0 0 0 0 -185.96713913674466 -505.35315338832152 0 -505.35315338832152 19.055093034068705 0 0 0 0 203.72230344280251 -882.27142111599096 0 -882.27142111599096 207.56712814477032 0 0 0 0 702.36809329684911 -322.49420950839703 0 -322.49420950839703 -344.53168978665781 0 0 0 0 -578.59093814186053 -213.87162715180602 0 -213.87162715180602 506.49865076710194 0 0 0 0 -762.20976112922108 -379.49255562259168 0 -379.49255562259168 -123.01177733457007 0 0 0 0 -497.18589221804723 -328.22926583221124 0 -328.22926583221124 -126.85106985467428 0 0 0 0 -14.10703439608217 -43.835104034616847 0 -43.835104034616847 -12.331480148213018 0 0 0 0 190.94821481015242 -201.64646516387438 0 -201.64646516387438 -195.54301570201278 0 0 0 0 -609.78213959448476 -321.50374481909967 0 -321.50374481909967 -181.41868186536885 0 0 0 0 -460.70328388467897 -187.6554697521351 0 -187.6554697521351 -176.43446211435366 0 0 0 0 -55.211781927809568 -126.18759981876238 0 -126.18759981876238 -43.184630848322982 0 0 0 0 -648.90406382104266 -265.47378643839329 0 -265.47378643839329 -21.603638759472233 0 0 0 0 -581.17056065207726 -256.98636849699324 0 -256.98636849699324 -88.081847101333551 0 0 0 0 60.922423646449431 -103.31030560701727 0 -103.31030560701727 -35.924391605714277 0 0 0 0 703.03218326289425 549.65922646808758 0 549.65922646808758 202.95870057295451 0 0 0 0 -733.81154879673704 -335.10315478777193 0 -335.10315478777193 -127.80153462375165 0 0 0 0 380.90771521422721 -125.87309263422867 0 -125.87309263422867 41.705551455888781 0 0 0 0 -687.98747168812042 73.89462106537394 0 73.89462106537394 1357.3755712495986 0 0 0 0 -462.63093484733326 546.45784310284944 0 546.45784310284944 -493.98156590487633 0 0 0 0 -1283.7283737892067 -1126.6237646552108 0 -1126.6237646552108 -1485.525743239341 0 0 0 0 75.64894317483413 -145.45300604577642 0 -145.45300604577642 -57.298852123007237 0 0 0 0 32.309537344152503 -91.276752796812588 0 -91.276752796812588 -25.563603594204281 0 0 0 0 -48.060713803408305 -145.36319396936139 0 -145.36319396936139 -44.610351041421211 0 0 0 0 -593.19587835027778 -339.58307247768971 0 -339.58307247768971 -57.478338012530003 0 0 0 0 -612.66866998019395 -389.83924409688188 0 -389.83924409688188 -85.124354776722612 0 0 0 0 -503.4181954247324 -349.98751261537836 0 -349.98751261537836 -109.65926802653121 0 0 0 0 -591.25154520651267 -329.42639328478253 0 -329.42639328478253 -174.21969468069437 0 0 0 0 -584.704184875598 -361.12314955309557 0 -361.12314955309557 -58.288064799067797 0 0 0 0 -453.44484638274298 -315.65116218366893 0 -315.65116218366893 1217.6436680854822 0 0 0 0 303.59302730286436 -222.47835627253517 0 -222.47835627253517 -59.275526964047458 0 0 0 0 16.804830278826373 -49.461130331048224 0 -49.461130331048224 9.8035225964083565 0 0 0 0 92.052501980950183 775.45553219180147 0 775.45553219180147 -1440.9653831311734 0 0 0 0 -808.26346801604086 -395.36324566836265 0 -395.36324566836265 -76.817568168509752 0 0 0 0 8.3754654350213613 -11.604421514864327 0 -11.604421514864327 15.095337621797626 0 0 0 0 -748.71292264774092 -272.11537291212153 0 -272.11537291212153 -58.245118639199063 0 0 0 0 -464.41711940439563 -370.89555284687958 0 -370.89555284687958 -92.17507775015838 0 0 0 0 -570.93639052282742 -275.53534759031027 0 -275.53534759031027 13.828362750122324 0 0 0 0 -602.29094617196824 -355.33228789926216 0 -355.33228789926216 -116.16800207490451 0 0 0 0 -318.5854565874215 -186.0694845314647 0 -186.0694845314647 -3.8065769779786933 0 0 0 0 121.38095497944596 -154.60022955832392 0 -154.60022955832392 -161.47966704603459 0 0 0 0 0.18423655914628156 4.6220035229641212 0 4.6220035229641212 -14.487714276610006 0 0 0 0 -366.01839357027529 -245.28369307182038 0 -245.28369307182038 -149.12156531162327 0 0 0 0 -11.550012119940817 -30.323944214866572 0 -30.323944214866572 -23.862068345897001 0 0 0 0 -79.136180986271938 -147.62057358721358 0 -147.62057358721358 -145.28312005494081 0 0 0 0 -556.64065625874719 -256.16938122907595 0 -256.16938122907595 -79.640322206047131 0 0 0 0 -461.26081198449538 -300.83696396114829 0 -300.83696396114829 -61.356610714356066 0 0 0 0 
</DataArray>
<DataArray type="Float64" Name="cross_section_updated" format="ascii">
1 1 1 1 1 1 1 1 1 0.012237525469117373 1 1 1 1 1 0.016641324519096414 0.0096766248866817298 1 1 1 0.0091066989540686261 1 1 1 1 0.008099996245334487 1 1 1 0.0072169292693824508 0.0086931641797181464 1 1 1 1 1 1 1 1 0.020726637850104413 1 0.010012558814408042 1 0.015317161391553168 1 1 0.0069188442841457559 1 1 0.013282795880470329 1 1 0.0088870766346391197 1 1 1 1 0.010033797722647189 1 0.011583676508185186 1 0.010668689517344281 0.0089034175231783655 1 1 1 0.0077251864932017592 0.012874516210842339 1 1 1 1 1 0.010123191089781637 0.0076532345629731213 1 1 1 0.017900082811834452 0.010000682187097959 1 1 0.0085486675725289299 0.013922266281703954 1 1 0.011910054670493669 1 1 0.012882249952061199 0.010077371775231511 1 1 1 1 1 1 1 1 1 1 1 1 1 1 0.011230353059996021 1 1 1 1 1 1 1 1 1 1 1 1 1 1 1 1 1 1 1 1 1 1 1 1 0.0096460928571201702 1 1 1 1 1 1 1 1 1 1 1 1 1 0.009277834511513398 0.016046952142525023 1 0.010002259124189394 1 0.0099085748199941384 1 0.0080917722690828295 1 0.0061903308561103501 1 1 0.010732285536930024 1 1 1 1 -2.2703723345784965e-09 1 1 1 0.011653866934444397 1 1 0.008568243402699259 1 1 1 1 1 1 1 0.0060748595617887424 1 1 1 1 1 1 0.0023737530548637725 1 1 1 1 1 1 1 1 1 0.010903115171985656 1 1 1 1 0.010202892688620901 0.0092870295893280191 1 1 1 1 1 1 1 1 1 1 1 1 1 1 1 0.0050027808260491441 1 1 1 1 0.0098090645591770165 1 1 0.0094332807099594129 1 1 1 0.0082125761635761657 1 1 0.0099332721058706039 1 1 0.0043905191713544608 1 1 1 0.015464984429901038 1 1 1 1 1 1 1 1 1 1 1 0.0038960774816503979 1 1 1 1 1 1 1 1 1 1 1 1 1 1 1 1 0.0044331686346422011 1 1 1 1 1 1 1 1 1 1 1 1 1 1 1 0.0082528406228222634 1 1 1 1 1 1 0.010225761817080174 1 1 1 1 1 1 1 1 0.0099088308377583874 1 1 1 0.012257306785952091 1 1 1 1 0.006924495467876466 1 1 1 1 1 1 0.011432840380141446 1 1 0.010544899338955339 1 1 1 1 1 1 1 1 1 0.013340997810998623 1 1 0.011087493415412925 1 1 0.011956819523192934 0.010857936044456474 1 0.01241414575978133 1 1 1 1 1 1 1 1 1 1 1 1 1 1 1 1 0.0098531929743667576 1 0.0069062626284619524 1 1 0.0097867475245032431 1 0.0018805910339572129 1 1 1 0.0049444650208363972 1 1 1 1 1 1 1 1 1 1 1 1 0.010029154797657199 1 1 1 1 1 1 1 1 1 1 1 1 1 1 1 1 1 1 1 1 1 1 1 1 1 1 1 0.010423497526978657 1 1 1 0.0012441045374234974 1 5.6869968456663145e-10 1 0.016176323855894882 1 0.020896155839567034 1 1 1 0.029984240017903216 1 0.0098149011689399185 1 1 1 1 1 1 1 1 1 0.018570062034274866 1 0.016896882680681777 1 1 1 1 1 1 1 1 1 0.021351640470263583 0.013264779892770997 1 1 1 1 1 1 1 0.01297351686668133 1 1 1 1 1 1 0.016812457901517645 1 1 0.011128861647769236 0.018543448142910944 1 1 1 1 1 1 0.0090869413057337554 1 1 1 1 1 1 1 0.0072346704918935315 1 1 0.01419472982532723 0.0091250842253802547 1 1 0.00751222041308525 1 1 0.0096030118429249363 1 1 0.0099889088890173713 1 1 0.016980674952876029 0.012941803798045971 1 1 1 0.010739049556348749 1 1 1 1 0.0092424561513933801 1 1 1 1 1 1 0.0089141947495950252 1 1 1 1 1 1 1 1 0.0090019102500490111 1 1 1 1 1 1 0.013991380291559517 1 1 1 1 1 1 1 1 1 1 1 0.0030994502617145703 1 1 1 0.0068329490489242792 1 1 1 1 0.0089178929000328158 1 1 1 1 1 0.0039525394663279256 1 1 1 1 1 1 1 1 0.0073147417878728013 1 0.0058701071320830661 1 0.0086768380407726484 1 1 1 1 1 1 1 1 1 1 0.015339353459272698 1 1 1 1 1 0.0043142537949677415 1 1 1 1 1 1 1 1 0.0096889617373593102 1 1 1 1 0.026124773040155907 1 1 1 1 1 1 1 0.0094623170632087555 1 1 1 1 1 1 1 1 1 1 1 1 1 1 0.010120144628365873 1 1 0.0084379416963575038 1 1 1 1 1 1 1 1 1 1 1 1 1 1 1 1 1 1 1 1 0.010146615645826459 1 1 1 0.0098522290351023036 1 1 1 1 1 1 1 1 1 1 1 1 1 1 1 1 1 1 1 1 1 1 1 1 1 1 1 1 1 1 1 1 1 1 1 1 1 1 1 1 1 1 1 1 1 1 1 1 1 1 1 1 1 1 1 1 1 1 1 1 1 1 1 1 1 1 1 1 1 1 1 1 1 1 1 1 1 1 1 1 1 1 1 1 1 1 1 1 1 1 1 0.010839583900276957 1 1 0.0058075579458984686 1 1 1 1 1 0.012566346683787526 0.0099221451727424873 1 1 1 1 1 0.012354606291597311 1 1 0.013446703770641645 0.010000705820452475 1 1 1 1 1 1 1 1 1 1 0.0022374440718459249 1 1 1 1 0.0036330746432460259 1 1 1 1 1 1 1 1 1 1 1 1 1 1 1 1 1 1 1 1 1 1 1 1 1 1 1 1 1 1 1 1 1 1 1 1 1 1 1 1 1 1 1 1 1 1 1 0.0050722708158200975 1 1 1 1 1 1 1 1 1 1 1 1 1 1 1 1 1 1 1 1 1 1 1 1 1 1 1 1 1 1 1 1 1 1 1 1 1 1 1 1 1 1 1 1 1 1 1 1 1 1 1 1 1 1 1 1 1 1 1 1 1 1 1 1 1 1 1 1 1 1 1 1 1 1 1 1 1 1 1 1 1 1 1 1 1 0.0063150395754509661 1 1 1 1 1 1 1 1 1 1 1 0.0075316296313744993 1 0.0090966590879852528 1 1 1 1 1 1 1 1 1 1 1 1 1 1 1 1 1 1 1 1 1 1 1 1 1 1 1 0.010475443287835789 1 1 1 1 1 1 1 1 1 1 0.01024819623649788 1 1 1 1 1 1 1 1 0.0091562287748046534 1 1 1 1 1 1 0.010776329137220642 1 0.010230489805555753 1 0.012005094325980089 1 1 0.010597670530874945 1 1 1 1 1 1 1 0.0076359709552687519 1 1 0.0076393909299398155 0.01007769519924449 1 1 1 1 1 1 0.010042492320047239 1 1 1 1 1 1 1 1 1 0.012192331639117825 1 1 1 1 1 1 1 1 1 1 1 1 1 1 1 1 1 1 1 1 0.010807798259158686 1 1 0.0074069670243188807 1 1 1 1 1 1 1 1 1 1 1 1 1 1 1 1 1 1 1 1 0.010511626022677216 1 0.010048183234460294 1 1 1 1 1 1 1 1 1 1 0.020301823887772786 1 1 0.019977042958110008 1 1 1 1 1 0.018050514907477437 1 1 1 1 1 0.011184155447740214 1 1 1 1 0.020867766099200831 1 1 1 1 1 1 0.022095891087554824 1 1 1 0.011227267584900476 1 1 1 0.010374903218109119 1 1 1 1 0.010554738159837453 1 1 1 1 1 0.0019934528343086635 1 1 0.023701815108777703 1 1 0.010200465906609869 1 1 1 1 1 1 1 1 1 1 1 1 1 1 1 0.0099377475525079459 1 1 1 1 0.010152282672149598 1 1 1 1 1 1 1 1 1 1 1 1 1 1 0.0096058593147528917 1 1 1 1 1 1 1 1 1 1 1 1 0.0071681790983780594 1 1 1 1 1 1 1 0.0087678895684525637 1 1 1 1 1 1 1 1 1 0.0028060582538667542 1 1 1 1 1 1 1 1 1 1 0.0038334172460874408 1 0.0094691616100288367 1 1 0.0099350966201418797 1 1 1 1 1 0.0063716564579828772 1 0.0095563526694133691 1 1 1 1 0.014139744565379623 1 1 1 0.014886626644898237 0.011032926013467113 1 1 0.0099963577441339116 1 1 1 1 1 1 1 1 1 1 1 1 1 1 0.011279571138384854 1 1 1 1 1 1 1 0.0063037128466011567 0.0063739875257382492 1 0.014075108277100012 0.018867588209863992 1 0.010536709469357768 1 1 1 1 1 1 1 1 1 0.021515564819429411 1 1 1 1 1 1 1 1 1 1 1 1 1 1 1 1 0.0098973766486140039 1 1 0.0093385316929029336 1 0.0094465979929428609 1 1 1 1 1 1 1 1 1 1 1 1 0.015112621333635161 1 1 1 1 1 1 1 0.0085552857057069678 1 0.014431573330780462 1 1 1 0.014386491287326934 1 1 1 1 1 1 1 1 1 1 1 1 1 1 1 1 1 0.010564341381396862 1 1 1 1 1 1 1 0.010076550150316547 1 1 1 1 1 1 0.0032770240356696234 1 1 1 0.0099865365042042867 1 0.015909406907504257 1 1 1 -3.8980843969360635e-09 1 1 0.0067428893141106144 1 1 1 0.010711191761390217 1 1 1 0.010818105898713619 1 0.010251936277023577 1 1 1 0.005822480964914549 1 1 1 1 0.010680168007151774 1 1 1 1 1 1 1 1 1 1 1 1 1 1 1 1 1 1 1 1 1 1 1 1 1 1 1 0.011163401911873698 1 1 1 1 1 1 1 0.010669544208592573 1 1 1 1 1 1 1 1 1 1 1 1 1 0.009061992961080248 1 1 1 1 1 1 0.010282010263030113 1 1 1 1 1 1 1 1 0.010979999117196474 1 1 1 1 1 0.011579236254523324 1 1 1 1 1 0.011385135333766569 1 1 1 1 0.010946185090664251 1 1 1 1 1 1 1 1 1 1 1 1 1 1 1 1 1 1 1 1 1 1 1 1 1 1 1 1 1 1 1 1 1 1 1 0.010409843662360488 0.00027566013506162557 1 1 1 1 1 1 1 1 0.016022973803135259 1 1 1 1 1 1 1 1 1 1 1 0.0099468608097570809 1 1 1 0.011020434245707655 1 1 1 0.012312421448235245 1 1 1 1 1 0.0075256543153074101 1 1 1 1 1 1 1 1 1 0.015934861271287334 1 1 1 1 1 1 1 1 1 1 1 1 1 1 0.0041592134303212111 1 1 0.0078030419399773496 1 1 1 1 1 1 1 1 1 1 1 1 1 1 1 1 1 1 1 1 1 1 1 1 1 1 1 1 1 1 1 1 1 1 1 1 1 0.0045630457807391903 1 1 0.00961416104174629 1 1 1 1 1 1 1 1 1 0.0082457339006149107 1 1 0.0073232356892985948 1 1 1 0.011295687744263816 0.0086074780990356078 0.0033053037389541929 1 1 1 1 1 1 1 1 1 1 0.010761350853160758 1 1 1 1 1 1 1 1 1 1 1 1 1 1 1 1 1 1 0.013606109817529513 1 1 1 1 1 1 1 1 0.01835304989093562 1 1 1 1 0.017713437023301679 1 1 1 1 1 1 0.0159659569870216 1 1 1 1 1 1 1 1 1 0.0095555285082806717 1 1 1 1 1 1 1 1 1 1 1 1 1 0.0083742965587605099 1 1 0.010115786168808255 1 0.010072872512443898 0.0010731896233486388 1 1 1 1 1 1 1 0.0097633700319681559 1 1 1 1 1 1 1 0.026425579376927723 1 1 1 1 1 1 0.004797374646455653 0.0089994293255604534 1 1 0.0096370973224816636 1 0.015793763634718232 1 1 1 1 0.018590584850448066 1 1 0.022101459131861227 1 0.010300421619282451 1 1 1 0.020504319270244237 1 1 0.012165229724172763 0.008767382703098802 1 1 1 0.010020071257715008 1 1 1 1 1 1 1 1 0.019755511983763518 1 1 1 1 1 1 1 1 1 1 1 1 0.022124276256031524 1 0.020960294276207683 1 1 1 1 0.008525036499806354 1 1 0.0094849225595919628 1 1 1 1 1 1 1 0.0026569670798988823 1 1 1 1 0.0047341992565836863 1 1 0.01731786045386613 1 1 0.015705137769428466 1 1 1 0.01009979629499563 1 1 1 0.010132721418151296 1 1 1 1 1 1 1 0.023215192463316915 1 1 1 1 1 0.023784479329574622 1 1 1 1 1 0.024448653121534259 1 1 0.0099835891837457991 1 0.010085094107334993 1 1 1 1 1 1 1 1 1 1 0.0084544026350094649 1 1 0.009505752230503775 1 1 1 1 1 1 1 1 1 1 1 0.0095812269061818674 0.0097983163656318352 1 1 1 1 1 1 0.0095953796925140767 1 1 1 0.0098983102155613054 1 1 0.025137644345741887 1 1 0.010521592212290418 1 1 1 1 1 1 1 1 1 1 1 0.0096670552720714998 1 1 1 1 1 1 1 1 0.016495958368553727 1 1 1 1 1 0.017685708395422571 1 0.0038879820362099499 1 1 1 0.009716713674801751 1 0.010716933485524679 1 1 0.022463526630653784 1 1 1 1 1 1 0.010118231452392254 1 1 1 1 1 1 1 0.011995265115704087 0.023291287515456199 1 1 1 1 1 1 1 1 1 1 1 1 1 1 1 0.0093067447343950643 1 1 1 0.0092160358160434542 1 1 1 1 1 1 1 1 1 1 1 1 1 1 1 0.0096770117213319656 1 1 0.0095763463537198827 1 1 1 1 1 1 1 1 1 1 0.0097766516733989207 1 1 1 0.0093626812076530851 1 1 1 1 1 1 1 1 1 1 1 1 1 1 0.010429684385177192 1 1 1 0.010584257027669764 1 1 1 1 1 1 1 1 0.009685669486321111 1 1 1 1 1 1 1 1 1 1 1 1 1 1 1 1 1 1 0.01027280409488484 1 1 1 1 1 1 0.010047627310816291 1 1 1 1 1 1 1 1 1 1 0.0056171295913134793 0.010959184199507064 1 1 1 0.010563971149596276 1 0.0020466452079761534 1 1 1 1 1 1 1 1 1 1 1 1 1 1 1 1 1 1 0.0051127939325912655 1 1 1 1 1 1 0.0097151469845457705 1 1 1 1 1 1 0.0099384953111468447 1 1 1 1 1 1 1 1 1 1 1 1 1 1 1 1 1 1 1 1 0.0088693921406061138 1 1 1 1 1 1 1 1 1 1 1 1 1 1 1 1 1 1 1 1 1 1 1 1 1 1 1 1 1 1 1 1 1 1 1 1 1 1 1 1 1 1 1 1 1 1 1 1 1 0.011145225026439765 1 0.010133424838571357 1 1 1 1 1 1 1 1 1 0.01240352184916136 1 1 1 1 0.01274291558646957 0.016242190803540814 1 1 1 1 1 1 -1.980550307090212e-10 1 1 1 1 1 1 0.012041144426983176 1 1 1 1 1 1 0.0082054465130469937 1 1 1 1 1 1 0.0047721638234824067 1 1 1 1 1 0.017721659511257343 0.0088789212249556389 1 0.0084239967386808556 1 0.0050848399636759592 0.015736898144808775 1 1 1 1 1 1 0.010211246596264243 1 1 1 1 0.003813903950150542 1 1 0.013474646029088811 1 1 0.0065594571407488547 1 1 1 1 1 1 1 1 1 1 1 1 1 1 0.0043266553959898004 0.011978896509287081 1 0.01057946225153214 1 1 1 1 1 1 1 0.010391927934347584 1 1 1 1 1 1 1 1 1 1 1 1 1 1 1 1 1 1 1 1 1 1 1 1 1 1 1 1 1 1 1 0.0040508816191731217 1 1 1 0.013075510604892758 1 1 1 0.011174805425543298 1 1 1 1 1 1 1 1 1 1 1 1 1 1 1 1 1 1 1 1 1 1 1 1 1 1 1 1 1 1 1 0.0097190674390158233 1 1 1 1 1 1 1 1 1 0.0091018188457355972 1 1 1 0.017002262937345032 1 1 1 1 1 1 1 1 1 0.0096730953042280243 0.0099815157773913595 1 1 1 1 1 1 1 1 1 1 1 1 1 1 1 0.016764337297603338 1 1 1 1 1 1 1 1 1 1 1 1 1 1 1 1 1 1 1 1 1 1 1 1 1 1 1 1 1 1 1 1 1 1 1 1 1 1 0.0095736611836385252 1 1 0.012223140135499983 1 1 0.002281872196958145 1 1 1 1 0.0093586130485260252 1 1 1 1 1 1 1 1 1 1 1 1 0.012594690527407632 1 1 1 1 1 1 1 1 1 1 1 1 1 1 1 1 0.01467169194061667 1 1 1 1 1 1 1 1 1 1 1 1 0.0095182197933737396 1 1 1 1 1 0.010829917320880121 1 1 0.010326407064915792 1 1 1 1 1 0.0091411487314058126 1 1.0958703285102178e-09 0.023296342753071388 1 1 1 1 1 0.0083475452324135273 1 1 1 1 1 1 1 1 0.018748286070464262 1 1 1 1 1 1 1 1 1 1 1 1 1 1 1 1 1 1 1 1 1 0.009263434832922128 0.011140328685827094 1 1 1 1 1 1 1 1 1 0.0032883977738003009 1 1 1 1 1 1 1 1 1 0.0076902840507390505 1 1 1 1 1 1 1 1 1 1 1 0.009437087318641197 1 1 1 1 1 1 1 1 1 0.0085102960164825554 0.013487201950600797 1 1 1 1 1 1 0.011462286062763616 1 1 1 1 0.01064991257560706 1 1 1 1 0.0076783735275699552 1 0.019535279722864909 1 1 1 1 1 0.015960911307913529 0.011916982527966337 1 0.0069537975143572905 1 1 1 1 0.0089187502078771838 1 1 1 1 1 1 1 1 1 1 1 1 1 1 1 0.0084035707929705564 1 1 1 1 1 1 0.0070820321240655515 1 1 1 0.0036089995514181974 1 1 1 1 1 1 1 1 1 1 1 1 0.0098604682767690424 1 1 1 1 1 1 0.009833947653594563 1 1 1 0.0099349857725663602 1 0.02833461641174348 1 0.0099921056238801362 1 1 1 1 1 1 1 0.029140381742455718 1 1 1 1 1 0.010437040051543386 1 1 1 1 1 1 1 1 0.014527409612047638 1 1 0.016886021177493625 1 1 1 0.0048003064439609625 0.014707625919380102 0.0084785637153901548 1 1 0.00011471424895644067 1 1 1 1 1 0.0021172027501356258 1 1 0.012178698482238652 1 0.015639771932231525 1 1 1 0.01431966728122913 0.011334634372626906 1 1 1 1 1 1 1 1 1 1 1 1 1 1 1 0.01154724123145022 1 1 0.0032761970156554993 1 1 1 1 1 1 1 1 1 1 1 1 0.0092180673765525009 1 1 1 1 1 0.0075233500704015785 1 1 1 1 1 1 1 1 0.011028967571547969 1 1 1 1 1 1 1 1 1 1 1 1 0.011769704264497471 1 1 0.010740736692949511 1 1 1 1 1 1 1 1 1 1 1 1 1 1 1 1 1 1 1 1 1 0.01055125107707984 1 0.0099471989107041414 1 1 0.0075709901297007767 0.013567528759253634 1 1 1 1 1 0.0091164775575308041 1 0.010298940450275459 1 1 0.010283486575814899 0.01100230941890485 0.0080115935309788 0.009686148207755936 1 1 1 1 1 1 1 1 0.011654290959754125 1 1 1 0.013106407691531916 0.0099831676358532739 1 1 1 1 0.013360642152028288 1 1 1 1 1 1 1 1 1 1 1 1 1 1 0.010048027482332947 1 1 1 0.0084549012516967319 1 1 1 0.0094590680892857291 1 0.010254972259581824 1 1 1 0.010000110254160151 1 1 0.010226737985940267 1 1 1 1 1 1 1 1 1 1 1 1 1 1 0.0095953138084292448 1 0.010008865341860379 1 1 1 1 1 1 1 1 1 0.0055926356522587942 0.011202008906325951 1 0.0094686379859973066 1 1 0.011324684817083548 1 1 1 0.010315821698785609 1 1 0.0099878666960055082 0.010747031614470045 1 1 0.010001989735169324 1 1 1 1 1 0.0097966182769049989 1 1 1 1 1 1 1 1 1 1 1 1 1 1 1 1 1 1 1 1 1 1 1 1 1 1 1 1 1 1 1 1 1 0.010349392933598003 1 1 0.013288279772113575 1 1 1 1 1 1 1 1 1 1 1 0.0085875396462127274 1 1 1 1 1 0.0094078770486309225 1 1 0.0063882738386784425 1 1 1 0.005313289402866208 1 1 1 1 0.011792842563068624 1 1 1 1 1 1 1 0.010058859148165143 1 1 1 1 1 1 1 1 1 1 0.014481794198707494 1 0.0099483341485917878 1 1 0.0091518725407485346 1 1 0.0044821506008183992 1 1 1 1 0.0097246569646676651 1 0.0048127046060015138 1 1 1 1 1 1 0.019272771600265533 1 1 1 1 1 0.0078355190896843858 1 1 0.0044095585166466795 1 0.0083019297360455331 1 1 1 0.0030544236700543216 0.0092828019166644894 0.013857243481421311 1 1 1 0.011870600648302448 1 1 1 0.011572319586396679 1 1 1 1 0.010078405908201825 1 1 1 1 1 1 1 1 0.010557253627503579 1 1 1 1 1 0.0099096888960234775 1 1 1 1 1 1 1 1 0.010226075751103021 1 1 0.01127623151923781 0.0099568107246015211 1 1 1 1 1 1 0.010006231129876969 1 0.01095975982046048 0.010925999373875714 1 1 1 1 1 1 0.0099848833780099219 1 1 1 1 1 1 1 1 1 1 0.0093852657063717704 1 1 1 1 1 1 0.0093856614046804385 1 1 0.0070217786314171818 1 1 1 1 1 1 1 1 1 1 1 1 1 1 1 1 0.008655179502800597 1 1 1 1 1 1 1 1 1 1 1 1 0.0069606707169214618 1 1 1 1 1 1 1 1 1 1 1 1 1 1 1 1 1 1 1 1 1 1 1 1 1 1 1 1 1 1 1 1 0.011325393117113745 0.0014992481961490084 1 1 1 1 1 1 0.0083054912141208911 1 1 1 1 1 1 0.009661340162762988 1 1 1 1 1 1 1 1 1 0.010739432336444789 1 1 1 0.0094849067172158158 1 0.0016597595325826137 1 1 1 0.010014372015497399 1 1 1 1 1 1 0.020112510981567869 1 1 1 1 1 1 1 1 1 1 1 1 0.0088485925413805469 1 1 1 1 1 1 0.0094162228746055218 1 1 1 0.0064277416483259769 1 0.019987778149780304 1 1 1 1 1 1 1 1 1 1 1 1 1 1 1 0.011508337440751817 1 1 1 1 1 0.005992641805961367 1 1 1 1 1 1 1 1 1 1 1 0.010424520821354271 0.016345254354187766 1 0.0050859189472312553 1 1 1 0.014320180393526123 1 1 1 1 1 1 1 1 1 0.0052229076212106391 0.0049855064496658087 0.0098280521759755851 1 1 1 1 1 1 1 0.003331804226519644 1 1 0.012339049810218064 1 1 4.5607287356419501e-09 1 1 1 0.010066131965597538 1 1 1 0.013278072856896736 1 1 1 1 1 1 1 1 1 1 1 1 1 1 1 1 1 1 1 1 1 1 1 0.0099334348939820946 1 1 1 1 1 1 0.0098512761421344214 1 1 1 1 1 1 1 0.010351502702363888 1 1 1 1 1 1 1 1 1 1 1 1 1 0.0035797108152788859 1 1 1 1 1 1 1 0.0031723469520693465 1 1 1 1 1 1 1 1 1 0.029277305090802001 1 1 1 1 0.0099590170777276998 1 1 1 1 1 1 1 1 1 1 1 0.0098792097855703864 0.0095731362758545227 1 1 1 1 1 0.030963328573705894 1 0.011442999345737552 1 1 1 0.013543121963691673 1 1 1 0.0033182531116117478 1 1 1 1 0.016075220863449299 1 1 -5.9075778990891337e-10 1 0.017667258680666015 1 -2.82932982598183e-10 1 1 1 0.019648071367638072 1 1 0.0032019545792348909 1 1 1 1 1 0.016143074339980891 1 1 0.018320453530343218 0.010321561049454874 1 1 1 5.7727737590163031e-09 1 1 0.0099980388924879454 1 0.01148967054330729 1 1 1 0.0099478089348571542 1 1 1 0.014113131001015505 1 1 0.0049171146207208291 0.010620259056130725 1 1 1 1 1 1 1 1 1 1 0.019902160716247223 1 1 1 1 1 1 1 0.0099178412481523356 1 1 1 1 1 1 1 0.010251979797740972 1 1 1 1 1 1 1 1 1 1 1 1 1 1 1 1 0.0074169343800985915 1 1 1 1 1 1 0.0034813833944403513 1 1 0.0024513212229555492 1 1 1 1 1 1 1 1 1 1 1 1 1 1 1 1 0.010662926590141175 1 1 0.010994510373302645 1 1 1 1 1 1 0.0063868722086137461 1 1 0.01065219747934168 1 1 1 1 1 1 1 1 1 1 1 0.0082247366716911574 1 1 1 1 0.0137538298663753 1 1 0.0010988150084052309 1 0.0097726129272664025 1 1 1 1 1 1 1 1 0.010342312893960953 1 1 1 1 1 1 1 1 0.011271425531692983 1 1 1 1 1 0.010609365905655629 1 1 1 1 1 1 1 1 1 1 1 1 1 1 1 1 1 1 0.0088353830871587546 1 1 1 1 1 1 1 1 1 0.0076149219545583388 1 1 1 1 1 1 1 1 1 1 1 1 1 1 1 1 1 1 1 1 1 0.0083454817786549687 1 1 1 1 1 1 1 1 1 1 1 0.010073431923215657 1 1 1 1 0.00019650415366771062 0.0012764490269643047 1 1 1 1 0.0069685556218631126 0.004812596412037894 1 0.015996477059855616 0.014683533079255025 1 0.015062432093544229 1 1 1 0.0097766396842414623 0.0061117464806301203 0.014474016854431317 1 0.010051459764929216 1 1 1 1 1 0.0038945964942289288 1 1 0.01018138982653229 1 0.019930424679095136 1 1 0.0095425699472895253 1 1 1 1 1 1 1 1 1 1 1 1 1 1 0.01096074107611511 1 1 1 1 1 1 1 1 1 1 1 1 1 1 1 1 1 1 1 1 1 0.00010651199602836232 1 1 1 1 1 0.0080995450827952356 1 1 -1.4117794081350277e-08 1 1 1 1 1 1 1 1 1 1 0.018782156444661649 1 1 0.0098798017475763313 1 0.0071317166265637069 1 1 1 0.0052831074340756214 1 0.010383755065111681 1 1 1 0.0044432409745339685 1 1 0.0080842779266296488 1 1 1 1 1 1 1 1 1 1 1 1 1 1 0.0040689283803187586 1 0.0044962653308107114 1 1 0.0024187927351946737 1 1 1 1 1 1 1 1 1 1 1 1 1 1 1 1 1 9.3598044592635432e-10 0.0093556342170204865 1 1 1 1 1 1 1 1 1 1 1 1 1 1 1 1 0.0073176540976943524 1 1 1 1 1 1 1 1 1 1 1 1 1 1 1 1 0.009454186946434788 0.008276174868938585 1 1 1 1 1 1 1 1 1 1 1 1 1 0.010485937695178617 1 1 1 1 1 1 1 1 1 1 1 1 1 1 1 0.0093178647335923626 0.0070219899469360289 1 1 1 1 1 1 1 1 1 1 1 1 1 1 1 1 1 1 1 1 1 1 1 1 1 1 1 1 0.0024100216187667792 0.0010771885406078222 1 1 1 1 1 0.01002042218125538 1 1 1 1 1 1 1 0.0029171476027415738 1 1 1 1 1 0.0082412206660592777 0.0054427419883493686 1 1 1 1 1 0.01084515171590663 1 1 1 1 1 1 1 0.011219147628375802 1 1 0.010733209933197208 1 1 1 1 1 1 1 1 1 1 1 1 1 1 1 0.0090388063264032967 1 1 1 1 1 1 1 1 1 1 1 1 1 1 1 1 1 1 1 0.0071586306276387266 1 1 1 1 0.012493416152712676 1 0.011803639209601723 1 1 1 1 1 1 1 1 1 1 1 1 1 1 1 1 1 1 1 1 1 0.010681004083535048 1 1 1 1 1 1 1 1 0.015072043349261662 1 0.0099781178809113177 0.010104102802582143 1 1 1 1 1 1 1 0.0095233337988687959 1 1 1 0.01150212765943158 1 1 0.0064146584820603814 1 1 1 1 1 -6.8527405971963162e-11 1 1 1 0.0041434700162725109 1 1 0.010045465099848879 1 1 1 0.010007179707957902 1 1 1 1 1 1 1 0.0097669618836357941 1 1 1 1 1 1 1 1 1 1 1 1 1 0.0075498766452083838 1 0.0058568366607607628 1 1 1 1 1 0.0098237833000051015 1 1 0.0098857554322322252 1 1 1 1 0.0095260934544063244 1 1 1 1 1 1 1 1 1 1 1 1 1 1 1 1 1 1 1 1 1 1 1 1 1 1 1 0.0096402749992370029 1 1 1 0.0092799750176362078 1 1 1 1 1 1 1 1 1 1 1 1 1 1 1 1 1 1 1 1 1 1 1 1 1 1 1 1 1 1 1 1 0.010050382634687299 1 1 1 1 1 1 1 1 1 1 1 1 1 1 1 1 1 1 1 1 0.0093521452420638196 1 1 1 0.0099614770765518237 1 1 1 0.0091409316279704653 0.014610639645497379 1 1 1 0.011212551739804698 1 1 1 1 0.010073113491136883 1 1 1 1 1 1 1 1 1 1 1 1 1 1 1 1 1 1 1 1 1 1 1 1 1 1 1 1 1 1 1 1 1 1 1 1 1 1 1 1 1 1 1 1 1 1 1 1 1 1 1 1 1 1 1 1 1 1 0.010029210906472151 1 1 1 1 0.0096804274421226563 1 1 1 1 1 1 1 1 1 1 1 1 1 1 1 1 1 1 1 1 0.0093556098006912017 1 0.0098938340664451452 1 1 1 0.0097773552005808936 1 1 0.009384906415411523 1 1 1 0.0092993069916319296 0.0094521444859000103 1 1 1 1 1 1 1 1 1 1 1 1 1 0.010051989825099125 1 0.0097094358810204465 1 1 1 1 1 1 1 0.0098400089212626416 1 1 1 1 0.0011551791179808726 0.010830371557066072 1 1 1 0.012314883960948132 1 1 0.0088084094164827594 0.017031761812791132 1 1 0.0053638538875212128 1 0.0027987882712471775 1 1 1 1 1 1 0.013717826805578759 1 1 0.013371819336452477 1 1 0.010226383593216072 1 1 1 0.005009940092102691 1 1 1 1 1 1 1 1 1 1 1 0.010640765513729278 1 1 1 1 0.016150138185431831 1 1 1 1 0.010556126511363749 1 1 1 1 0.016207433693106538 1 1 1 1 1 1 0.016207174830417295 1 1 1 1 1 1 0.010311022595581622 0.0072175939662512609 1 1 1 1 1 0.0099965451014250931 1 1 1 1 0.0099634963914799965 1 1 1 0.010118727365161742 1 0.0092879510189585977 0.014023484666696506 0.0098444696746507084 1 1 1 0.010028506263762497 1 1 1 1 1 1 1 1 0.01584267921564296 1 1 1 1 1 1 1 1 1 1 1 0.0095783815490951135 1 1 1 0.0097685653937150813 1 1 1 1 1 0.0098975891676952431 0.022195311394855706 0.0020889696138616616 1 0.01011138712331134 1 0.0092700666310946422 1 1 1 1 1 0.0077368625899972218 1 1 1 1 1 1 1 1 1 1 1 1 1 1 1 1 1 1 1 1 0.0075400844239930818 1 1 1 1 1 1 1 0.0090969666800548438 1 0.010101325809056684 1 1 1 0.0096607833783997482 1 1 1 1 1 1 1 1 1 0.0083884310777860537 0.0067160928922035002 1 1 1 1 1 0.012205330991156345 1 1 1 1 0.0095495087629791503 1 1 1 1 1 1 1 0.0073475830225365746 1 1 1 1 0.0099386468885916679 1 1 1 1 1 1 1 1 1 1 1 1 1 1 1 1 1 1 1 1 0.010020065463730146 1 1 0.0086348483705317308 1 1 1 1 1 1 0.010389031816430132 1 1 1 1 1 1 1 0.010368966352699967 1 1 1 1 1 0.009667365256583238 1 1 1 1 0.010104693619680936 1 1 1 1 1 0.016489118164305309 1 1 1 1 1 1 0.012871853969623849 1 0.0088688986269881299 0.0098170897909974006 1 1 0.0095509466220257914 1 0.0083492615313240752 0.0060551368716898757 1 0.0078688175504277695 1 1 0.0097840384961469032 1 1 1 1 1 1 0.0094683370714149784 0.0092731499187614346 1 0.0047413634694473466 1 1 0.010601646518610515 1 1 1 1 0.010243776649378498 1 1 1 1 1 1 1 0.0094567878414496959 1 0.010019606419109948 1 0.0064991225265504625 1 1 1 1 0.004067764257038621 1 1 0.010084689208634506 1 1 1 1 1 1 1 1 1 0.0082751716084691652 1 1 1 1 1 1 1 0.010278543453004135 1 0.010630162408151636 1 1 1 1 1 1 1 1 1 1 0.01029444389381712 1 1 0.0083868345074295178 1 1 1 1 0.0091109010809349855 0.01163617343733956 1 0.0081688718070649438 0.011770026141805986 1 1 0.002868238282725236 0.0091470532838151038 1 1 1 0.010202546946546411 1 1 1 1 1 1 1 1 0.010240702129544248 1 1 1 1 1 1 1 0.010509769504097537 1 1 0.0098180380141929813 1 1 1 0.0099882259853178931 1 0.010150516957984662 1 1 1 1 0.009997197404459611 0.01028837928720271 0.0099834300380082092 1 1 1 1 1 1 1 1 1 1 1 1 1 1 1 1 1 1 1 1 1 1 1 1 1 1 1 1 1 0.0066319643074078428 1 1 0.0099986444621641257 1 0.0088479285371294916 0.0052043171846485881 1 1 0.010116515675777871 1 0.0026470934045970604 1 1 0.0099921071888256635 1 1 1 1 1 1 1 1 0.010048387540694599 1 1 1 1 0.011825094350167408 1 1 1 1 1 1 1 1 0.010538758113285827 1 1 1 1 1 1 1 1 1 1 1 0.0099637956028676873 0.0064496262852526721 1 1 1 1 1 0.014505169378818118 1 1 1 1 0.0082761103113732169 0.020488569467245879 1 1 1 1 1 1 1 1 1 1 1 0.011802043987362273 1 1 1 1 1 1 1 1 0.0090571516149476547 1 0.0089052599585379092 -1.1014523321195568e-10 1 1 0.014773517862407354 1 1 0.0081563733293413803 1 1 0.006533402839751682 1 1 1 1 1 1 1 1 1 1 1 0.0094073116963561288 1 1 0.0078267736947699625 1 1 1 1 1 1 1 1 1 1 1 1 1 1 1 1 1 1 0.010557334709792934 1 1 0.0093825236001147325 1 1 1 0.0093481893861417954 1 1 0.0048509241906438787 1 1 1 1 1 0.0047747582283645049 0.0029370712612049668 1 1 0.020718077307859885 1 0.0099366517628129911 1 1 1 1 1 1 1 1 1 1 1 1 1 1 1 1 1 1 1 1 1 1 1 1 1 1 1 1 1 1 0.01229945733669538 1 1 1 1 0.010796007559867184 1 1 1 1 1 1 1 1 1 1 1 1 1 1 1 4.7526565512961971e-09 1 0.00057847931046616473 1 1 1 1 1 1 1 1 0.0014067185129067912 1 1 1 1 0.0010684078914856565 1 0.0084797243249839331 1 1 1 1 1 1 1 1 1 1 1 1 1 1 1 1 1 1 1 1 1 1 1 0.0095490010095428367 1 1 1 1 1 1 1 1 0.0096911700780993523 1 1 1 0.010513127598504077 1 1 0.0030595737176121653 0.0061319325833318148 1 1 1 1 1 1 0.016680079243753233 1 1 1 0.0014899109703686089 0.012632613122518246 1 0.00048619605078983885 0.0075685628856022192 1 0.0051837404151078882 1 1 1 2.5084088625670908e-10 1 1 1 1 1 1 0.009189589421301398 1 0.010306923909373517 1 1 1 0.0020398333253133696 1 6.7354439473726879e-10 0.00058191553692980152 1 0.010106061469712784 1 1 1 1 1 1 1 1 1 1 1 1 1 1 0.01097482793225605 1 1 1 1 1 1 0.000388291993143575 1 1 1 1 1 1 1 0.0089779045862085349 1 1 1 0.00051612463921936989 1 1 1 1 1 1 1 1 1 1 1 1 1 1 1 1 1 1 1 1 1 1 1 1 1 1 1 1 0.0099966591848650588 1 1 1 1 1 1 1 1 0.0097193018078164939 1 1 1 1 0.01814455771516444 1 1 0.0099021302162456588 1 1 0.01712870283431725 1 1 1 0.013145104313968575 0.015611068505076292 1 0.010012597615412046 1 1 1 0.021776610084137872 1 1 1 1 1 1 1 1 0.009514840762128763 1 0.013513137124765181 1 1 1 1 1 1 1 1 1 1 1 0.013612584587393372 1 1 1 0.0093702563509591372 1 1 0.0083099910799606467 1 1 1 1 1 0.0081076471257295682 1 1 1 1 1 1 1 1 1 1 1 1 1 1 1 1 1 1 1 1 0.0078986563689275383 1 1 0.025964844200935797 1 0.0011862123253724138 1 0.018359049824114758 1 1 1 1 0.0063387799631546959 0.0012178239611180201 1 1 0.015767362409966616 0.00017835247166533841 1 1 0.0018289980932242982 1 1 1 0.013049659629094927 1 0.017567592284538247 1 1 1 0.005620055561755339 1 1 1 1 1 1 1 1 4.7282085957847664e-05 1 1 1 1 0.010073365669913296 1 1 1 1 1 1 1 1 0.024008893383582856 1 1 1 1 1 1 1 1.0374659447504042e-09 1 1.0847850048789631e-10 1 1 1 0.0076064793523312468 1 1 1 1 1 0.0056173197198628004 1 0.0074997435131020362 1 1.142164992792849e-09 1 1 0.0081706730356694238 1 1 1 1 1 1 1 1 0.0064806641156300738 1 1 1 1 1 1 1 1 1 1 1 -6.8041187354511701e-10 1 0.010165161780195324 1 1 1 1 1 1 1 1 1 1 1 1 0.010612702294133488 1 1 1 1 1 1 1 1 1 1 1 1 0.010239365729599902 1 1 1 1 1 0.012451428109973758 0.009958829504506498 1 0.0074477681475514472 0.012296613174762123 0.009998559714642993 1 1 1 1 1 1 1 0.0051214343473097185 1 1 1 1 0.01082447284391534 1 1 1 1 1 1 1 1 1 1 1 1 1 1 1 1 1 1 1 1 1 1 1 1 1 1 0.0082976015775296785 1 1 1 1 1 1 1 1 1 1 1 1 1 1 1 1 1 1 1 1 1 1 0.0095617494774363713 1 1 1 1 1 0.009177975222256168 1 0.0095243738897843044 1 1 1 1 1 1 0.006988714834609222 1 1 1 1 1 1 1 1 1 1 1 1 1 1 1 1 1 1 1 1 1 1 0.0047995761449038232 1 1 1 0.012628070812536122 1 1 1 1 1 1 1 1 1 1 1 1 1 1 1 1 1 1 0.0084211198220325457 0.010171550680298382 1 1 1 1 0.0072123027542664361 1 1 1 1 0.010508904844163811 1 1 0.01029069175998432 1 1 1 1 1 1 1 0.0039235654873901581 1 1 1 1 0.010634654474738775 1 1 1 1 1 0.022240341637639716 1 1 1 1 1 1 1 1 1 1 1 1 1 1 1 1 1 1 1 1 1 1 0.011965631896938098 1 1 0.025079447082364811 1 1 1 1 1 1 0.033701422776787962 0.010012022928313567 0.0066315703679153291 1 1 1 1 1 1 1 1 1 1 1 0.0087133488245890751 1 1 1 0.006400632712865317 1 1 1 1 1 1 0.0074859605470147736 1 1 1 1 0.009720736080582687 0.0025253153060576915 1 1 0.009000129989952959 1 1 0.034596124663871616 1 1 1 1 1 1 1 1 1 0.01423824495125698 1 1 1 1 1 1 1 1 1 1 0.010271271517847923 1 1 0.027496442601731511 1 0.010181114437088711 0.014398949061040313 1 0.010879625165535041 1 1 1 1 1 1 0.012457511638283091 1 1 1 1 1 1 1 1 0.013970547857138339 1 1 1 1 1 1 1 1 1 1 0.011125134025382242 1 1 0.012898576581959956 1 1 1 0.0099305266321184256 1 1 1 1 1 1 1 1 1 1 1 1 1 0.0099481793942065889 1 0.0051336560598595898 1 0.012214946357210058 1 1 1 1 1 1 1 1 1 0.0055294735797686775 1 1 1 0.0035138596793075072 1 1 0.0088847189478668837 1 1 1 1 1 1 1 1 1 1 1 1 1 1 1 1 1 1 1 1 1 1 1 1 1 0.0024302544445461479 1 1 1 0.010420451080870152 0.004020327258698466 1 0.01096442770508895 1 1 1 1 1 1 1 1 1 1 -1.965506576939724e-11 1 1 0.0022495954569499849 0.013153169110146003 1 8.4370359310081966e-10 1 1 0.009992817459446959 1 0.0085881999833018353 1 1 1 1 1 1 0.011277862999518069 1 1 1 0.012792645427056876 1 1 0.011286414351495255 1 1 0.012720693953576756 1 1 1 0.0023805068211622746 1 1 1 1 1 1 0.0076774807533584316 1 1 1 0.0016947948716068729 1 1 0.0097597292866093577 1 1 1 1 1 1 1 0.0096422662109831164 1 1 1 1 0.009144088354298259 0.015692187544406946 1 1 1 1 0.0052709490010449493 0.021654921330200631 0.0019639187329756336 0.0096949863946016804 1 1 1 1 1 1 1 1 1 1 1 0.0093127219410308396 1 1 1 0.0074817473904605497 1 0.014745486346249545 0.0095885744728291186 0.016847582504365202 1 1 1 1 1 0.022147143832855085 1 1 1 0.014618342845302827 1 1 1 1 1 1 0.013063784717991132 1 1 0.016390263933060444 1 1 1 0.0093068723913054107 1 1 0.015636122381469584 1 1 0.0058490142629960881 1 0.015094922226388623 1 0.01110020332179854 1 1 1.4818780924574781e-10 1 1 0.0099549043540975816 1 1 0.016568076229764524 1 1 1 0.0092829283618806949 1 1 1 1 1 1 1 1 0.014999909345397138 0.0084650620460185177 1 0.0077421786975588845 1 1 1 1 0.0058924454656328479 1 1 0.0087412642660545936 1 1 1 0.0095881041205024484 1 1 1 1 0.010230742987746311 0.013773472959126724 1 1 1 1 1 1 1 1 1 1 1 1 1 0.013488585378539189 1 1 1 1 1 1 1 0.011661764758097524 1 1 1 0.010645718452286049 0.0076201158406609057 1 1 1 1 1 0.015051813341371359 1 1 1 1 1 1 1 1 1 0.01894905245412893 1 1 1 0.021938276261720728 1 1 0.014238855625596535 1 1 1 1 0.010990356577449002 1 1 0.017831439095065106 1 1 1 1 1 1 1 1 1 1 1 1 1 1 1 1 1 1 1 1 0.010349649228388625 1 1 1 1 1 1 1 0.0091893477938649257 1 1 1 0.011587752192711305 0.0061794508953697813 0.010034487168999547 1 1 0.009395007264510348 1 1 1 1 0.0084667524905142483 1 1 1 0.010021805667312539 1 0.012364921821210142 1 1 1 0.0094303017693406696 1 1 1 1 1 0.016156008831895809 1 1 1 1 0.016919964572079248 1 0.013404797800296256 1 1 1 1 0.01478758179531282 1 1 1 1 1 1 1 1 1 1 1 0.009486774724403426 1 1 1 1 1 1 1 1 1 1 1 0.013709215029219478 1 1 1 0.01215032206104745 1 1 1 1 1 1 1 1 1 1 1 1 1 1 1 1 1 1 1 1 1 1 1 0.015590079645740051 0.018106421646561704 1 1 1 1 0.017120709564435885 1 0.017839703366637226 1 1 1 1 1 0.0093107703465461836 1 1 1 1 1 0.012600498912156184 1 0.0039711978919272223 1 0.013807900867406207 1 0.01672314686671621 1 0.0055538736520124449 1 1 1 1 1 1 0.015807116929821514 1 1 1 1 1 1 0.0097683752857746428 1 1 1 1 1 1 1 1 1 0.015473634304847932 1 1 1 1 0.013500288982968634 1 1 1 1 1 1 1 0.012069049817946129 1 1 1 1 0.011009785641207043 1 1 1 0.015508870207083306 1 1 1 0.012617840358936551 1 1 1 1 1 1 1 1 1 1 0.011321090576622993 0.027573698385821611 1 1 0.0060322689263514612 1 1 1 0.010030594471887776 0.0029203903842916629 1 1 1 1 0.0043411958238842654 1 1 0.011244071764349661 1 1 1 1 1 1 1 1 1 1 1 1 1 1 1 1 1 1 1 1 1 1 1 1 1 1 1 1 1 1 1 1 1 1 1 1 1 1 1 1 0.020621339705655724 1 1 0.0097176949449169076 1 1 1 1 1 1 1 1 1 1 1 1 1 1 1 1 1 0.010158361505377918 1 1 1 0.0089932901904087245 1 1 1 1 1 1 1 1 1 1 1 1 0.015413321038606757 1 1 1 1 1 1 1 1 0.015199255671416924 1 1 1 1 1 1 1 1 1 1 1 1 1 1 1 1 1 1 1 0.010497683449523544 0.014671691844881783 1 1 1 1 1 1 1 1 1 1 1 1 1 1 1 1 1 1 1 1 1 0.010106845837543746 1 1 1 1 1 1 1 1 1 1 1 1 1 1 1 1 1 1 1 1 1 1 1 1 1 1 1 1 1 1 1 1 1 1 1 1 1 1 1 1 1 1 1 1 1 1 1 1 1 1 1 1 1 1 1 1 1 1 1 0.01052159981901736 1 1 1 1 1 1 0.0099757727364785144 0.0093610295430900953 1 1 1 1 1 1 1 1 1 1 1 1 1 1 1 1 1 1 1 1 1 1 1 1 1 1 1 1 1 1 1 1 1 1 1 1 1 1 1 1 1 1 1 1 1 1 1 1 1 1 1 1 1 1 1 0.010145143571980798 1 1 1 1 1 1 1 0.010397827429899933 1 1 1 1 1 1 0.011237091453771594 1 1 1 1 1 1 1 1 0.0088353480866248876 1 1 1 0.0097633034850159745 1 1 1 1 0.0096868907552148369 1 1 1 0.010072809736879542 1 1 1 0.0099562005595435488 1 1 1 1 0.0098212997325373905 0.0099722326851666154 1 1 1 1 1 1 1 1 1 1 1 1 1 1 1 1 1 1 0.0052250391447949338 1 1 1 1 1 1 1 1 1 1 0.0026603790940099622 0.010538609932004311 1 1 0.007239220974669126 0.012620580403646893 1 1 1 1 0.0062486655650312549 1 1 1 1 0.010064078291413533 1 1 0.010693355214083641 1 1 1 1 1 1 1 1 1 1 1 1 1 1 1 1 1 1 1 1 1 1 1 1 1 1 0.013767875368435455 1 1 0.013595288563402814 1 0.0064660622368934439 0.013567263589795049 1 1 1 1 1 1 1 1 1 0.010386020838647904 0.010126729394024869 1 1 1 1 1 1 1 1 1 0.011137864744528707 1 1 1 1 1 1 0.010566167696899123 0.011999051819675408 1 1 1 1 1 1 1 0.012341221824421451 1 1 1 1 1 1 1 1 1 0.011924164616496393 1 1 1 1 1 1 0.013150884131872324 0.015074046862716354 1 1 1 1 1 1 1 1 1 1 0.0096463506290573944 1 1 1 0.0088501748313356277 1 1 1 0.0097453581962583316 1 1 1 1 1 1 1 1 1 1 1 1 0.0097500193907962412 1 1 1 1 1 1 0.007405199854946698 1 1 1 1 0.0098790333478413622 1 1 0.0066474230252788064 1 0.010472769796438651 1 1 1 1 1 1 1 1 1 1 1 1 0.012170631087953257 1 1 1 1 1 1 1 1 1 1 1 1 0.012713554768084234 1 0.011754156786706903 1 1 0.0089683801954615235 1 1 1 1 1 1 1 1 1 1 1 0.0095323129723670769 0.0091184312727539824 1 1 1 1 0.01093333876955253 1 1 1 1 1 1 1 1 1 1 1 1 1 1 1 1 0.0090732884650904979 1 1 1 1 1 0.0095962754454009674 1 1 1 1 1 1 1 1 1 0.0098555600728721035 1 1 1 1 1 1 1 1 1 1 1 1 1 1 1 1 1 0.013976687150177788 1 0.01533301439993074 1 1 1 0.012919103494819707 1 1 1 1 1 1 1 1 1 1 1 0.013999637308419396 1 0.010148152631180522 1 1 1 1 1 1 0.012038794995826066 1 0.013142943493801025 1 1 1 1 1 1 1 1 0.0099692208344152669 1 1 1 1 1 1 1 1 1 1 1 1 1 0.0056123288263741147 1 1 1 0.01372231296115373 1 0.010063343937974749 1 1 1 1 0.0065782949797692711 1 0.010188062697225289 1 0.0064501450965848139 1 1 1 1 1 1 1 1 1 1 1 1 1 1 1 1 1 1 1 1 1 1 1 0.020171276896758385 1 1 1 1 1 1 0.0087966583083489772 1 1 0.01000051440735289 1 1 1 1 0.01802603015995894 1 1 1 1 1 1 1 1 1 1 1 1 1 1 1 0.009575812356645251 1 1 1 1 1 1 1 0.029103161768812315 1 1 1 1 0.035446275736452343 1 1 1 1 0.0061055821372998711 0.023410088616524126 0.020239750874307717 1 0.0109262980009458 1 1 1 0.0096980113380029861 1 1 1 1 1 0.0089745623727974441 1 1 0.00097913089094856659 1 1 1 1 1 1 0.0078575988973157637 1 1 1 1 1 1 1 1 1 0.013344292750712434 1 1 1 1 1 1 1 1 1 1 1 1 0.010910233378098847 1 1 1 1 1 1 1 1 1 1 1 0.012455047400205574 1 1 1 1 1 1 1 1 1 1 0.010968931435729426 1 1 1 1 1 1 1 1 1 1 1 1 1 1 1 1 1 1 1 1 1 1 1 0.010681945349904411 1 1 0.011729043657700266 1 1 0.010116018813274272 1 1 1 1 1 0.010825096532574578 1 1 1 1 1 1 1 1 1 1 1 1 1 1 1 1 1 1 1 1 1 1 1 1 1 1 1 1 1 1 1 1 1 1 1 1 0.012561602655092256 1 0.0094876516370746913 1 1 1 0.0085106818357948075 1 1 1 1 1 1 1 0.008375537370336035 1 0.015199317104690371 1 1 1 1 0.0049189010537393496 1 1 1 1 0.0068080799450433438 1 1 1 1 1 0.0087017156681450311 0.012641219338635025 0.010900062223864283 1 1 1 1 1 1 1 0.010747553715839133 1 1 1 1 1 1 1 1 1 1 0.01146842286034094 1 1 0.010721643161732811 1 1 1 1 1 1 1 1 1 1 1 0.0088801320514992829 1 1 1 1 1 1 1 1 1 1 1 1 1 1 1 1 1 1 1 0.011681498167205658 1 1 1 1 0.014510735828540539 1 1 1 1 1 1 1 0.010190807676793631 1 1 1 1 0.0101908866412165 1 1 1 1 1 1 0.0091494966083595572 1 1 1 1 1 1 0.008018779523802054 1 1 1 1 1 0.008110020377208732 1 1 1 1 1 0.0092407374617662283 1 1 1 1 1 1 0.0089016857132374269 1 1 1 1 1 1 1 1 1 1 0.0097186481370249017 1 1 0.0072633068805082676 1 1 0.0087243005477463872 0.012290469229703616 1 1 1 1 0.010069468370458419 1 1 1 1 1 1 1 1 1 0.015750678612344735 1 1 1 1 1 1 1 1 1 1 1 1 1 1 1 1 1 0.012921440951009881 1 1 1 0.0090840070415059392 1 1 1 1 1 1 1 1 1 1 1 0.011571731259847735 1 1 1 1 0.012000866770187087 1 1 1 1 1 1 1 1 0.011011504966976256 1 1 1 1 0.0048747475247983285 1 1 1 1 1 1 1 1 1 1 1 0.014351061160487684 1 1 1 1 0.015841251127243279 1 -4.017764732022755e-10 0.024125144651610052 1 1 1 1 0.010270288433599862 0.017702369065985706 1 1 0.0085910018630400292 0.0098371650044824302 1 1 0.0099956412944836592 1 1 1 1 1 1 1 1 1 1 1 1 1 1 1 1 1 1 1 0.011003361094623847 1 1 1 1 1 1 1 1 1 1 1 1 1 1 1 1 1 1 0.0089881165438468955 1 1 1 0.0096345291517105636 1 1 1 1 1 1 1 0.013666217234194587 1 1 1 1 1 1 1 1 0.015442889893908626 1 1 1 1 1 1 0.027123967961392201 1 1 1 1 1 1 1 1 1 0.029794290727376195 0.032158651092743774 1 1 1 1 1 1 1 1 1 0.0086535515596938631 1 1 1 1 1 1 0.0094823567266357905 1 1 1 1 1 1 1 1 1 1 1 1 1 1 1 1 1 1 1 1 1 1 1 1 1 1 1 1 1 1 1 0.010012351090952283 1 1 1 1 1 0.0034702308293518072 1 0.0016884968378087367 1 0.013537038106973003 1 1 0.0079360178160462619 1 1 0.011472528628567485 0.0073942913279251982 1 0.0061821334537896233 0.014997273070338034 0.0075258072963734421 0.0040629503022450164 1 1 1 1 1 1 1 0.0085191419033124605 1 1 0.0078188647191338532 1 1 1 1 1 1 1 1 1 1 1 1 1 1 1 1 1 1 0.00347255865480528 1 1 1 0.0062837213831764063 1 1 1 1 0.0067646804457342988 1 1 0.0098522019397283903 1 0.017503091768627431 1 1 0.020890633995328957 1 1 0.017890724670137255 1 1 1 1 1 1 1 0.010061405252278 1 1 1 1 1 1 1 1 1 1 1 1 1 1 1 1 1 1 1 1 1 0.0097080144611152649 1 1 1 1 1 1 0.009245192605145558 1 1 0.013445261955318316 1 1 1 0.0085705206587364038 1 0.010016253163186821 1 1 0.0099376735019009871 1 1 1 1 1 1 1 0.014831639910167636 1 0.0094282184042492265 1 1 1 0.010037297690855339 1 0.021510054724454823 1 1 1 1 1 1 1 1 1 1 0.012070755180924488 1 1 1 1 0.010328817096529526 1 1 1 1 0.010665480362312643 1 1 1 0.012479336694607896 1 1 0.010334669328875367 1 1 1 1 1 1 1 1 1 1 1 1 0.017305882649247515 1 1 1 1 1 1 1 1 1 1 1 1 1 1 1 1 1 1 1 1 0.0041775899369079772 1 1 1 0.0086049255238858091 1 0.016210158965355593 0.01443265015599518 1 0.019888116448796685 1 1 1 0.0066610858376005555 1 1 1 1 1 1 1 0.0089079508923715911 1 1 1 1 1 1 1 1 1 1 1 0.010946967338511623 1 1 1 0.010202089236103657 1 1 0.013782769432130196 1 1 1 1 1 1 1 1 1 1 1 1 1 1 1 1 1 1 1 1 1 1 1 1 1 1 1 1 1 1 1 1 1 1 1 1 1 1 1 1 0.010154948925344569 1 1 1 1 1 1 1 1 1 1 1 0.01064754838006414 0.010855204339366837 1 1 1 1 0.010178184558571744 1 1 0.018463953528505009 1 1 1 1 1 1 1 1 1 1 1 1 1 1 1 1 1 1 1 1 1 1 1 1 1 1 1 1 1 1 1 1 1 1 1 1 1 1 1 1 1 1 1 1 1 1 1 1 1 1 1 1 1 1 1 1 1 1 1 1 1 1 1 1 1 1 1 1 1 0.018967979595935658 1 1 0.0033064230701955882 1 0.019709360587560697 1 1 1 1 1 1 0.0094016286744340941 1 1 1 1 1 0.012061609770232592 1 0.016020668289313894 1 1 1 1 1 1 1 1 1 0.010057182676238889 0.01001576234195669 1 1 1 1 1 1 1 0.010068487330274628 1 1 1 0.005816266693450492 0.010097757148395732 1 1 1 0.010114169343675806 1 1 0.0099818810148937162 0.012154141137170159 1 1 1 0.01112540925938231 0.006691920491471097 1 0.010821102248537377 1 1 1 1 1 1 1 1 1 1 1 1 1 1 1 1 1 1 1 1 0.0085836579064027113 1 1 1 1 1 1 1 1 1 1 1 0.0069977408034361532 1 1 1 1 1 0.0025116578346986163 1 1 -1.0815282489029521e-09 1 1 1 1 1 1 1 1 1 1 1 1 0.011304951752397763 1 1 1 1 1 1 1 1 1 1 1 0.0096127772798863878 1 1 1 1 1 1 1 1 1 1 1 1 1 1 1 0.010254809090924126 1 1 1 1 1 1 0.010732223397225148 1 1 1 0.010897576995823742 1 1 1 1 1 1 1 0.0099445616926064281 1 1 1 1 1 0.0099500821128932319 0.0066149345531834811 1 1 1 0.0087292047593749422 1 1 1 0.0098377158550626911 1 1 1 1 1 1 1 1 1 1 1 1 1 1 0.0097621458331169156 1 1 1 1 1 1 0.020282079874881093 1 1 1 1 0.018618999610789611 1 1 1 0.0097124710616651941 1 1 1 1 0.0099764746131251886 0.018054435097018293 0.0080761417985321937 1 1 1 1 0.01004241437909752 1 1 1 1 0.0065842219783520742 1 1 1 1 1 1 1 0.0099135917432489756 1 1 1 1 1 1 1 1 1 1 1 1 1 1 1 1 1 1 1 1 1 1 1 1 1 1 1 1 0.010311737041538059 1 1 1 0.016438344805017907 1 1 0.016468249855033028 1 0.024966846519808898 1 1 1 1 1 1 1 1 1 0.010716949712543306 1 1 1 1 0.020554776639430016 0.016184654707212028 1 1 1 1 1 1 1 1 1 1 1 1 1 1 1 1 1 1 1 0.011228325043804895 0.015954088120290359 1 1 1 0.015450652273934141 1 1 1 1 0.017374612268367284 0.0099784942840261733 1 1 1 1 1 1 1 1 1 1 1 1 0.013110822818411041 0.018991269565761311 1 1 1 1 0.015143192824787568 1 1 1 1 1 1 1 1 1 1 1 0.012031503978142483 1 1 1 1 1 1 1 1 0.011232523678840823 1 1 1 1 1 1 1 1 1 1 1 1 1 1 1 1 1 1 1 1 1 1 1 1 1 1 1 1 1 1 1 1 1 0.00091556824232486012 1 0.0026927859994346423 1 1 1 1 1 1 1 1 1 0.0095933135082739568 1 1 1 1 1 1 1 1 0.00084497587950433523 1 1 1 1 1 0.023910386697935791 1 1 1 1 1 1 1 1 1 3.6353251381404661e-09 1 1 1 0.0099908116402896222 1 1 1 1 1 1 1 1 1 1 1 1 1 1 1 1 1 1 1 1 1 1 1 1 1 1 1 1 1 1 1 1 0.0099666800769924735 1 1 1 1 1 1 1 0.010022321978836393 1 1 1 1 1 1 0.0069853499759200133 1 1 1 1 1 1 0.0099890020558288609 1 1 1 1 1 1 1 1 1 1 1 1 1 1 1 0.0082092683411349315 1 1 1 0.0093556414020812759 1 1 1 1 1 1 1 1 1 1 0.0092172782720391089 0.0088530057451341113 1 1 1 1 1 1 1 1 1 1 1 1 0.0093728742898969014 1 1 1 1 1 1 1 1 1 1 1 1 1 1 1 1 1 1 0.0099839388582860719 1 1 1 0.0088536756826245282 0.0099965588662232104 1 0.0099080117748720983 1 1 1 1 1 1 1 0.012312502807920525 0.012588121777501543 1 0.011634782675894448 1 1 1 1 1 1 0.010021925561693672 1 0.010365498672911536 1 1 1 1 1 1 1 1 0.0018999704991784772 1 1 1 1 1 1 0.0021467086257385484 1 1 1 1 1 1 1 1 1 1 1 1 1 1 1 0.0079634571912610072 1 1 1 0.0029609780951770758 1 1 1 1 1 0.0057559848088462717 1 1 1 1 1 1 0.0024380423712602392 1 1 1 0.01037648029792735 1 1 0.010905850744816828 1 1 1 0.0098444039821422163 1 1 1 1 1 1 1 1 1 1 1 1 1 1 1 1 1 1 1 1 1 1 1 0.010187704000375844 1 1 0.0099271135599097379 1 0.0098488120278759656 0.0087736852165180429 1 1 0.010459154025754681 0.0031565821872721542 1 1 0.0052115179692876039 1 1 1 1 1 1 0.0033366457099498689 1 1 1 1 0.0081292146780024607 1 1 0.014663050651095917 1 1 0.0088949695590330186 1 0.0014677844664942709 0.010013929944092774 1 1 1 0.0096120126873057033 0.010020375414687682 1 1 1 1 0.0014493544318776187 0.010108603835208542 1 1 1 1 1 0.0068849362091502175 1 1 1 1 1 1 1 1 1 1 1 1 1 1 1 1 1 1 1 1 1 1 1 1 1 1 1 1 1 1 1 1 1 1 1 1 1 1 1 1 1 1 1 1 1 1 1 1 1 1 1 1 1 0.009665461493166029 1 1 1 1 1 0.0055853591319232586 1 1 1 1 1 1 1 1 1 1 1 1 1 1 1 0.008790752455183036 1 1 0.013150010936970567 0.0087007110906892268 1 1 1 0.011186994941992157 1 1 0.010027186283758774 1 1 1 1 1 1 1 1 0.009152558001343538 1 1 1 1 1 1 1 1 1 1 1 1 1 0.011037393239876283 1 1 1 1 1 1 1 1 1 0.012646335159766332 1 1 1 0.013596269913302712 1 1 1 1 1 1 1 1 0.0096553983610063975 1 1 1 1 1 1 1 1 1 1 1 1 1 1 1 1 1 1 1 1 1 1 1 1 1 1 1 1 1 1 1 1 1 1 0.010420162689522748 1 1 1 1 1 0.0094971596403371564 1 1 1 1 1 1 1 1 1 1 1 1 1 1 1 1 1 1 1 1 1 1 1 1 1 1 1 1 1 1 1 1 1 1 1 1 1 1 1 1 1 0.011299592842312078 1 1 1 0.012035106558730996 1 1 1 1 1 1 1 1 1 1 1 1 1 1 1 1 1 1 1 1 1 1 1 1 1 1 1 1 1 1 1 1 0.012603580451015582 1 1 1 1 1 1 1 0.0093981935700751043 1 1 1 1 1 1 1 1 1 1 1 1 0.010047880077085118 1 0.01240008780827568 1 1 1 1 1 1 1 1 1 1 1 1 1 1 1 1 1 1 1 1 0.0083031398136346191 1 1 1 0.014082454926733025 1 1 1 0.011235904110144836 0.010167521879718346 1 1 0.0096497709155230552 1 1 1 1 0.0084022641542807822 1 1 1 1 1 1 1 1 1 1 1 1 1 1 1 1 1 1 1 1 1 1 1 1 1 1 1 1 1 1 1 1 1 1 1 0.008263601394302782 1 1 1 1 1 1 1 1 1 1 1 1 1 1 0.0099526889055683923 1 1 1 1 1 1 1 1 1 1 1 1 1 1 1 1 1 1 1 1 1 1 1 1 1 1 1 1 1 1 1 1 1 1 1 0.0094544752665242787 1 1 1 1 1 1 1 1 1 1 1 1 1 1 0.010310779883668839 1 1 1 1 1 1 1 0.011558994421761636 1 1 1 0.01035809097810049 1 1 1 1 1 1 1 0.014133244191113559 1 1 1 1 1 0.013607808895091271 1 1 1 1 1 1 1 1 1 1 1 1 1 1 1 1 1 1 1 1 1 1 0.011337651549850634 1 1 1 1 1 1 1 1 1 1 1 1 1 1 1 1 1 1 0.012551506973275624 1 1 0.011215285222016695 1 1 1 1 1 1 0.010260340006268125 1 1 1 0.011143658226147608 1 1 1 1 1 1 1 1 1 1 1 1 1 0.01406011060201643 1 1 1 0.01104819499275865 1 1 8.2205034203364225e-09 1 1 0.0072513152533612429 1 1 0.0092733348540074197 1 4.2990496041533932e-09 1 1 1 1 1 1 1 1 1 1 1 0.008613351751732376 3.8268777799443932e-09 1 1 1 1 1 1 0.0098887737961420585 1 0.0099765868187061263 1 1 1 0.0055147655629668672 1 0.0082866895226437129 1 1 1 1 1 1 1 0.0073152193790313996 1 1 1 5.636258666383287e-09 1 1 1 1 0.0099484050245018385 1 1 1 1 1 0.0090383554508022025 1 1 0.011411433617864661 1 1 1 1 1 1 1 1 1 1 1 1 1 1 1 0.001423845468249179 1 1 1 1 1 1 1 0.0062646253475846549 1 1 1 1 1 1 1 1 1 1 1 1 1 1 0.020894817672126441 1 1 1 1 1 1 1 1 0.022458646272728283 1 0.0086093592827863139 1 1 1 1 1 1 1 1 1 1 1 1 1 1 1 0.011220989555336597 1 1 1 1 1 1 1 1 1 1 1 1 1 1 1 1 1 1 1 1 1 1 1 1 1 1 1 1 0.0096865379456463271 1 1 1 1 1 1 1 1 1 1 1 1 1 1 1 1 1 1 1 1 1 1 1 1 1 1 1 1 1 0.013364653922555716 1 1 1 1 1 1 1 1 1 1 1 1 1 1 1 1 1 1 1 1 1 1 1 1 1 1 1 1 1 1 1 1 1 0.012041193456548062 1 1 1 1 1 1 1 1 1 1 1 1 1 1 1 1 1 1 0.0162858203855442 1 1 1 1 1 1 1 1 1 1 1 1 1 0.0091188852428037426 1 1 1 1 2.1799546907202982e-09 1 1 1 0.016318519606087621 1 1 1 1 1 1 1 1 1 1 1 1 1 1 0.010261112273251195 1 1 1 1 1 1 1 1 0.0067697129922969987 1 1 1 1 0.0091173544630270727 1 1 1 0.0022419954608354602 1 1 1 1 1 1 1 1 1 1 0.0078409257860021092 1 1 1 1 1 1 1 1 1 1 1 1 1 1 0.0049829179223316589 1 1 1 1 1 1 1 0.0046514310894360325 0.007958642969872802 1 1 1 0.014682583919728105 1 1 1 1 1 0.012779283811117356 1 1 1 1 1 0.01103163129429019 1 1 1 1 1 1 1 1 1 1 1 1 1 1 1 1 1 1 1 1 1 1 1 1 1 1 1 1 1 0.0073707143457921852 1 1 1 0.012520718456998203 1 1 1 1 1 1 0.0023935478083220961 1 1 1 1 1 1 1 1 1 1 1 1 1 1 1 1 1 1 1 1 1 1 1 1 1 1 1 1 1 1 1 1 1 1 1 1 1 0.009245829809409821 1 1 1 1 0.0068481866283331624 1 1 1 1 1 1 1 1 1 1 1 1 1 1 1 1 1 1 1 1 1 1 1 1 1 1 1 1 1 1 1 1 1 1 1 1 1 1 1 1 1 0.0061840734171290258 1 1 1 0.0079204720228262075 1 1 1 1 1 1 1 0.010265147084936255 1 1 1 1 1 1 0.010175669775026701 1 1 1 1 1 0.017269132601136973 1 1 1 0.00012091110107798064 1 1 1 1 1 1 1 1 1 1 1 1 1 1 -9.0996610767335451e-10 1 1 1 1 0.00825318694428466 1 1 1 1 1 4.1130580885617718e-10 1 1 1 1 1 1 1 1 1 1 1 1 1 1 1 1 1 1 1 1 1 0.0056511011500982103 1 1 1 1 1 1 1 1 1 1 1 1 1 0.013071819129063363 1 1 0.00011524486877865711 1 0.010069304143434134 1 1 1 1 1 0.010987458176419013 1 1 1 1 1 1 1 1 1 1 1 1 1 1 1 1 1 1 1 1 1 1 1 1 1 1 1 1 1 1 0.0033759464963264985 1 1 1 1 1 1 1 1 1 1 1 0.0075175572440263592 1 1 1 1 1 1 1 1 1 1 1 1 1 1 1 1 1 1 1 1 1 0.0043405114175534484 1 1 1 1 1 1 1 1 1 1 1 1 1 0.012536300531046068 1 1 1 1 1 1 1 1 0.017484027183341674 1 1 1 1 1 -1.5259318322802251e-09 1 0.00072408550480345876 1 1 1 1 1 1 0.010477614660349903 0.010105477455086852 1 1 1 1 1 1 1 1 1 1 1 -3.7840998962784811e-09 1 0.010542698840362671 1 1 0.010296517758319221 1 1 1 1 1 1 1 1 1 1 1 0.0031485522029662382 1 1 -7.5046568065798014e-09 1 1 1 0.0027100626949041248 1 1 1 1 1 1 1 1 1 1 1 1 1 1 1 1 1 1 1 1 1 1 1 1 1 1 1 1 1 1 -1.1955434576355062e-09 1 1 1 1 1 1 1 1 1 1 1 1 1 1 1 1 1 1 1 1 1 0.0049849170190773735 1 1 1 1 1 1 1 1 1 -3.4406234389328105e-09 1 1 1 1 1 -4.1307209250329713e-09 1 1 1 1 1 1 1 1 1 1 1 1 1 0.0094489811382095501 1 1 1 1 1 1 1 1 1 1 1 1 1 0.0087950766911871585 0.0089936119570439357 1 1 1 1 1 1 1 1 1 1 1 1 1 1 0.011334751915848373 1 1 1 1 1 1 0.014850476852847495 1 1 0.0025901917584177404 1 1 1 1 0.00090298905727623398 1 1 1 1 1 1 1 1 8.3870702050070634e-10 1 1 1 1 1 1 1 1 1.5516281037797341e-09 1 0.018429258549348196 1 1 0.019523533172920313 1 1 1 1 1 1 1 1 1 1 1 0.009600165363242194 1 1 1 1 1 1 1 1 0.0099379541065260021 1 1 0.010073526708108384 1 0.017842814320619661 1 1 1 1 1 1 1 1 1 0.013765807553435427 0.0074264588747467858 1 1 0.010081411160746671 1 1 1 1 1 1 1 1 1 1 1 0.0053108453352453608 1 1 1 1 1 1 0.0083981306139767828 1 1 1 1 1 1 1 1 1 1 1 0.011199073348384013 1 0.0059035468391564136 1 0.010282987895083966 1 1 1 1 1 1 1 1 1 1 1 1 1 1 1 1 1 1 1 1 1 0.015665905865318727 1 1 0.010027373573776116 1 1 1 0.0095795481786163997 1 1 1 1 1 1 0.0087141095264723113 1 1 1 1 1 1 1 0.0037920624251407721 1 0.0065906889227059402 1 1 1 1 1 1 1 1 1 1 1 0.0089602874706602026 1 1 1 1 1 1 1 0.010389802635847493 1 1 1 1 1 1 1 1 1 1 1 1 1 0.012566711265411354 1 1 1 1 0.010941380126588376 1 1 1 1 1 1 1 0.012500922337478647 1 1 0.01032406361828872 1 1 0.012934682121598214 1 0.0099017957072417978 1 1 1 1 1 1 1 1 1 1 1 1 1 1 1 1 0.012522693988695231 1 1 1 1 1 1 1 0.0089811902185395164 1 0.0077291210102192823 0.0094381202832651695 0.0085809904858979748 1 1 1 0.012505204573521694 1 1 0.0091724161586781566 0.01231894764925346 0.01107729758330251 1 1 1 1 1 1 1 1 1 1 1 1 1 1 1 1 1 1 1 1 1 1 1 1 1 1 1 1 1 1 1 0.010272721156889004 1 1 1 1 1 1 1 1 1 1 1 1 1 1 1 1 1 1 1 1 1 1 0.01283868136398391 1 1 1 1 1 0.011630999074025372 1 1 1 1 0.011013300367899458 1 1 1 1 1 1 0.013620569673293122 1 1 0.013021473366863434 1 1 1 1 1 0.010337896038303387 1 1 1 1 1 1 1 1 1 1 1 1 6.9358741024844184e-09 1 1 1 1 0.00034658818262074675 1 1 1 0.002084118055586396 0.00092135731445502564 1 1 1 0.0042038827365753415 1 1 1 1 1 1 1 1 1 1 1 1 1 1 1 1 1 1 1 1 0.014210298172789147 1 0.0071799771238055688 1 1 1 1 1 1 0.0086536398946742473 1 1 0.0098199023112737691 0.012021939170808987 1 1 1 1 0.0084393187166500946 1 1 1 1 1 0.0090989359928608307 1 0.0097312296504699271 1 1 1 1 1 1 1 1 0.0080432724167078945 1 1 1 1 1 1 1 1 1 1 1 1 1 1 1 1 1 1 1 1 1 1 1 1 1 0.0083902782638697812 1 1 1 0.0059911818936653968 1 1 1 1 1 1 1 1 1 0.004667352182910145 0.010433491497454254 0.010936583167187951 1 1 0.010987864757336326 1 1 0.010344842519986054 1 1 1 1 0.010874460851969735 1 0.010212291828614925 1 1 1 1 1 1 1 1 -6.4061707640006293e-09 1 1 1 1 1 1 0.0098936515055006898 1 1 1 1 1 1 1 1 1 1 1 4.0585392130365605e-09 1 1 1 0.017721166208829915 1 1 0.00039435869745296087 0.0086509665499083649 1 0.028950875168105968 1 1 1 1 0.0094956677787334711 1 1 1 1 1 -1.3285376587041098e-08 1 1 1 1 1 1 1 1 0.020206056990147464 1 1 3.6370281647490899e-09 1 1 0.038496594495167201 1 1 0.019612966941701365 1 1 1 1 1 1 1 1 1 1 1 0.037744695559332679 0.0013677386623287338 1 1 0.01104998035585391 1 1 1 0.0079880849303158499 1 1 1 1 1 1 1 0.009300572514328408 1 1 1 1 1 0.019661749344234342 1 1 1 1 1 1 1 1 0.025728776668049937 1 1 1 1.4674903219685786e-09 -6.0337989049585872e-09 1 0.026459811893635134 1 1 1 1 1 0.011083274163564305 1 1 0.0078095489941750664 1 0.0015950312464353168 1 1 1 0.010379017048767902 1 1 0.02812658676755022 1 1 1 1 1 1 1 1 1 1 1 0.0099408155664907939 1 1 1 1 1 1 1 1 1 1 1 1 0.013972506254501785 1 0.016362543401325112 1 1 1 1 0.012164527197108701 1 1 0.0045691121329237833 1 1 1 1 0.00073525219862481325 1 1 1 0.010788816105059641 1 1 1 1 1 0.010354425640181677 1 0.018832277152603112 1 1 1 -5.1357517197314628e-11 1 1 1 0.011888069599992793 1 1 0.014953248602701025 0.0017127186181413595 5.2963466078137511e-11 1 1 1 1 0.0094820461641467058 1 1 1 1 0.020298649430346438 1 1 1 0.0098955231023636313 1 1 1 1 1 1 1 1 1 1 1 1 1 1 0.018179733277353696 1 0.010171494177251408 1 9.9941016218926468e-05 1 1 1 1 0.020377258156174985 0.0079746655383745521 1 1 0.017638792639198798 1 0.0099970681079893133 1 1 0.0026107686775875905 1 1 1 0.014486873673521007 0.0089930838095533643 1 6.7478003219767491e-11 1 1 0.010604648258908316 1 1 0.01007878756906503 0.012600089366610639 1 0.0058913123980221483 1 1 1 1 1 1 0.0099001152375309265 0.013714018628915085 0.029496328942827037 1 1 1 0.023501938447725843 1 1 0.0031027773469606314 1 0.003673089827607624 0.012643544056084133 0.0024505158319136446 1 1 0.0092991976094512173 1 1 1 1 1 0.0022781363936444088 1 1 0.0099558527369956948 1 0.0071647377680477712 1 1 0.011220179746717428 1 0.0098983404351943929 1 0.014466983538256518 1 1 1 1 1 1 1 1 0.011892302110784179 1 1 1 1 1 1 1 0.0048786239437150682 1 1 0.022137501576830341 1 1 1 1 1 0.021019261055737128 1 1 0.0038774615087437299 0.0071641540064459139 1 0.012734492711732669 0.0037708886474749088 1 0.015683912775019043 0.013320388865267804 1 1 0.010269954111957594 1 1 0.0026099258565200744 1 1 0.0077523302128132427 0.0089284449080487306 1 1 0.006449699450591909 1 1 1 1 1 1 0.0086896427177259507 1 1 1 1 1 1 0.0059214239654433176 1 1 1 1 0.0094268646818586738 -2.0626506058718519e-10 1 1 1 0.0034293197057360678 1 1 1 1 1 1 1 1 1 1 1 1 1 1 1 1 1 1 1 1 1 1 1 1 1 0.0086812800059945586 1 1 1 1 1 1 1 1 1 1 1 1 1 1 1 1 1 1 1 1 1 0.0082209669937182671 1 1 1 1 1 1 1 1 1 1 1 1 1 1 1 1 1 1 1 1 1 1 1 1 1 1 1 1 1 1 1 1 1 1 1 1 1 1 1 1 1 1 1 1 1 1 1 1 0.011054259262459815 1 1 1 1 1 1 1 1 1 1 1 1 1 1 1 0.01034784954026171 1 1 1 1 1 1 1 1 1 1 1 1 1 1 1 1 1 1 1 1 1 0.009342255959018525 1 1 1 1 1 1 1 0.010445513271697453 1 1 1 1 1 1 1 1 1 1 1 1 1 1 1 1 1 1 1 1 1 1 1 -4.1468724287785363e-10 1 1 1 -1.5495340809079661e-09 1 1 1 1 1 1 0.00048524031556100578 1 1 1 1 1 1 1 1 0.009679821600305831 1 1 1 -4.2450184409292824e-09 1 1 0.014778487794987596 1 1 1 1 1 1 1 0.0097704945976945963 -2.6311354397318132e-09 1 1 1 1 1 1 1 0.014456263579820744 1 1 0.012212074624182605 1 1 1 1 1 1 0.0084709153748229946 1 0.0082602719051448406 1 1 1 
</DataArray>
</CellData>
</Piece>
</UnstructuredGrid>
</VTKFile>
